*SPEF "ieee 1481-1999"
*DESIGN "addsub32"
*DATE "09:16:00 Tuesday September 29, 2026"
*VENDOR "The OpenROAD Project"
*PROGRAM "OpenROAD"
*VERSION "dcf36133a369abc8f3c5e5738cd4d82e4903c0e0"
*DESIGN_FLOW "NAME_SCOPE LOCAL" "PIN_CAP NONE"
*DIVIDER /
*DELIMITER :
*BUS_DELIMITER []
*T_UNIT 1 NS
*C_UNIT 1 PF
*R_UNIT 1 OHM
*L_UNIT 1 HENRY

*NAME_MAP
*1 A[0]
*2 A[10]
*3 A[11]
*4 A[12]
*5 A[13]
*6 A[14]
*7 A[15]
*8 A[16]
*9 A[17]
*10 A[18]
*11 A[19]
*12 A[1]
*13 A[20]
*14 A[21]
*15 A[22]
*16 A[23]
*17 A[24]
*18 A[25]
*19 A[26]
*20 A[27]
*21 A[28]
*22 A[29]
*23 A[2]
*24 A[30]
*25 A[31]
*26 A[3]
*27 A[4]
*28 A[5]
*29 A[6]
*30 A[7]
*31 A[8]
*32 A[9]
*33 B[0]
*34 B[10]
*35 B[11]
*36 B[12]
*37 B[13]
*38 B[14]
*39 B[15]
*40 B[16]
*41 B[17]
*42 B[18]
*43 B[19]
*44 B[1]
*45 B[20]
*46 B[21]
*47 B[22]
*48 B[23]
*49 B[24]
*50 B[25]
*51 B[26]
*52 B[27]
*53 B[28]
*54 B[29]
*55 B[2]
*56 B[30]
*57 B[31]
*58 B[3]
*59 B[4]
*60 B[5]
*61 B[6]
*62 B[7]
*63 B[8]
*64 B[9]
*65 S[0]
*66 S[10]
*67 S[11]
*68 S[12]
*69 S[13]
*70 S[14]
*71 S[15]
*72 S[16]
*73 S[17]
*74 S[18]
*75 S[19]
*76 S[1]
*77 S[20]
*78 S[21]
*79 S[22]
*80 S[23]
*81 S[24]
*82 S[25]
*83 S[26]
*84 S[27]
*85 S[28]
*86 S[29]
*87 S[2]
*88 S[30]
*89 S[31]
*90 S[3]
*91 S[4]
*92 S[5]
*93 S[6]
*94 S[7]
*95 S[8]
*96 S[9]
*99 carryOut
*100 sub
*101 _000_
*102 _001_
*103 _002_
*104 _003_
*105 _004_
*106 _005_
*107 _006_
*108 _007_
*109 _008_
*110 _009_
*111 _010_
*112 _011_
*113 _012_
*114 _013_
*115 _014_
*116 _015_
*117 _016_
*118 _017_
*119 _018_
*120 _019_
*121 _020_
*122 _021_
*123 _022_
*124 _023_
*125 _024_
*126 _025_
*127 _026_
*128 _027_
*129 _028_
*130 _029_
*131 _030_
*132 _031_
*133 _032_
*134 _033_
*135 _034_
*136 _035_
*137 _036_
*138 _037_
*139 _038_
*140 _039_
*141 _040_
*142 _041_
*143 _042_
*144 _043_
*145 _044_
*146 _045_
*147 _046_
*148 _047_
*149 _048_
*150 _049_
*151 _050_
*152 _051_
*153 _052_
*154 _053_
*155 _054_
*156 _055_
*157 _056_
*158 _057_
*159 _058_
*160 _059_
*161 _060_
*162 _061_
*163 _062_
*164 _063_
*165 _064_
*166 _065_
*167 _066_
*168 _067_
*169 _068_
*170 _069_
*171 _070_
*172 _071_
*173 _072_
*174 _073_
*175 _074_
*176 _075_
*177 _076_
*178 _077_
*179 _078_
*180 _079_
*181 _080_
*182 _081_
*183 _082_
*184 _083_
*185 _084_
*186 _085_
*187 _086_
*188 _087_
*189 _088_
*190 _089_
*191 _090_
*192 _091_
*193 _092_
*194 _093_
*195 _094_
*196 _095_
*197 _096_
*198 _097_
*199 _098_
*200 _099_
*201 _100_
*202 _101_
*203 _102_
*204 _103_
*205 _104_
*206 _105_
*207 _106_
*208 _107_
*209 _108_
*210 _109_
*211 _110_
*212 _111_
*213 _112_
*214 _113_
*215 _114_
*216 _115_
*217 _116_
*218 _117_
*219 _118_
*220 _119_
*221 _120_
*222 _121_
*223 _122_
*224 _123_
*225 _124_
*226 _125_
*227 _126_
*228 _127_
*229 _128_
*230 _129_
*231 _130_
*232 _131_
*233 _132_
*234 _133_
*235 _134_
*236 _135_
*237 _136_
*238 _137_
*239 _138_
*240 _139_
*241 _140_
*242 _141_
*243 _142_
*244 _143_
*245 _144_
*246 _145_
*247 _146_
*248 _147_
*249 _148_
*250 _149_
*251 _150_
*252 _151_
*253 _152_
*254 _153_
*255 _154_
*256 _155_
*257 _156_
*258 _157_
*259 _158_
*260 _159_
*261 _160_
*262 _161_
*263 _162_
*264 _163_
*265 _164_
*266 _165_
*267 _166_
*268 _167_
*269 _168_
*270 _169_
*271 _170_
*272 _171_
*273 _172_
*274 _173_
*275 _174_
*276 _175_
*277 _176_
*278 _177_
*279 _178_
*280 _179_
*281 _180_
*282 _181_
*283 _182_
*284 _183_
*285 _184_
*286 _185_
*287 _186_
*288 _187_
*289 _188_
*290 _189_
*291 _190_
*292 _191_
*293 _192_
*294 _193_
*295 _194_
*296 _195_
*297 _196_
*298 _197_
*299 _198_
*300 _199_
*301 _200_
*302 _201_
*303 _202_
*304 _203_
*305 _204_
*306 _205_
*307 _206_
*308 _207_
*309 _208_
*310 _209_
*311 _210_
*312 _211_
*313 _212_
*314 _213_
*315 _214_
*316 _215_
*317 _216_
*318 _217_
*319 _218_
*320 _219_
*321 _220_
*322 _221_
*323 _222_
*324 _223_
*325 _224_
*326 _225_
*327 _226_
*328 _227_
*329 _228_
*330 _229_
*331 _230_
*332 _231_
*333 _232_
*334 _233_
*335 _234_
*336 _235_
*337 _236_
*338 _237_
*339 _238_
*340 _239_
*341 _240_
*342 _241_
*343 _242_
*344 _243_
*345 _244_
*346 _245_
*347 _246_
*348 _247_
*349 _248_
*350 _249_
*351 _250_
*352 _251_
*353 _252_
*354 _253_
*355 _254_
*356 _255_
*357 _256_
*358 _257_
*359 _258_
*360 _259_
*361 _260_
*362 _261_
*363 _262_
*364 _263_
*365 _264_
*366 _265_
*367 _266_
*368 _267_
*369 _268_
*370 _269_
*371 _270_
*372 _271_
*373 _272_
*374 _273_
*375 _274_
*376 _275_
*377 _276_
*378 _277_
*379 _278_
*380 _279_
*381 _280_
*382 _281_
*383 _282_
*384 _283_
*385 _284_
*386 _285_
*387 _286_
*388 _287_
*389 _288_
*390 _289_
*391 _290_
*392 _291_
*393 _292_
*394 _293_
*395 _294_
*396 _295_
*397 _296_
*398 _297_
*399 _298_
*400 _299_
*401 _300_
*402 _301_
*403 _302_
*404 _303_
*405 _304_
*406 _305_
*407 _306_
*408 _307_
*409 _308_
*410 _309_
*411 _310_
*412 _311_
*413 _312_
*414 _313_
*415 _314_
*416 _315_
*417 _316_
*418 _317_
*419 _318_
*420 _319_
*421 _320_
*422 _321_
*423 _322_
*424 _323_
*425 _324_
*426 _325_
*427 _326_
*428 _327_
*429 _328_
*430 _329_
*431 _330_
*432 _331_
*433 _332_
*434 _333_
*435 _334_
*436 _335_
*437 _336_
*438 _337_
*439 _338_
*440 _339_
*441 _340_
*442 _341_
*443 _342_
*444 _343_
*445 _344_
*446 _345_
*447 _346_
*448 _347_
*449 _348_
*450 net1
*451 net10
*452 net100
*453 net101
*454 net102
*455 net103
*456 net104
*457 net105
*458 net106
*459 net107
*460 net108
*461 net109
*462 net11
*463 net110
*464 net111
*465 net112
*466 net113
*467 net114
*468 net115
*469 net116
*470 net117
*471 net118
*472 net119
*473 net12
*474 net120
*475 net121
*476 net122
*477 net123
*478 net124
*479 net125
*480 net126
*481 net127
*482 net128
*483 net129
*484 net13
*485 net130
*486 net131
*487 net132
*488 net133
*489 net134
*490 net135
*491 net136
*492 net137
*493 net138
*494 net139
*495 net14
*496 net140
*497 net141
*498 net142
*499 net143
*500 net144
*501 net145
*502 net146
*503 net147
*504 net148
*505 net149
*506 net15
*507 net16
*508 net167
*509 net17
*510 net177
*511 net178
*512 net179
*513 net18
*514 net180
*515 net181
*516 net182
*517 net19
*518 net2
*519 net20
*520 net21
*521 net22
*522 net224
*523 net225
*524 net226
*525 net227
*526 net23
*527 net24
*528 net25
*529 net26
*530 net27
*531 net28
*532 net29
*533 net3
*534 net30
*535 net31
*536 net32
*537 net33
*538 net34
*539 net35
*540 net36
*541 net37
*542 net38
*543 net39
*544 net4
*545 net40
*546 net41
*547 net42
*548 net43
*549 net44
*550 net45
*551 net46
*552 net47
*553 net48
*554 net49
*555 net5
*556 net50
*557 net51
*558 net52
*559 net53
*560 net54
*561 net55
*562 net56
*563 net57
*564 net58
*565 net59
*566 net6
*567 net60
*568 net61
*569 net62
*570 net63
*571 net64
*572 net65
*573 net66
*574 net67
*575 net68
*576 net69
*577 net7
*578 net70
*579 net71
*580 net72
*581 net73
*582 net74
*583 net75
*584 net76
*585 net77
*586 net78
*587 net79
*588 net8
*589 net80
*590 net81
*591 net82
*592 net83
*593 net84
*594 net85
*595 net86
*596 net87
*597 net88
*598 net89
*599 net9
*600 net90
*601 net91
*602 net92
*603 net93
*604 net94
*605 net95
*606 net96
*607 net97
*608 net98
*609 net99
*610 FILLER_0_12
*611 FILLER_0_141
*612 FILLER_0_15
*613 FILLER_0_167
*614 FILLER_0_169
*615 FILLER_0_172
*616 FILLER_0_18
*617 FILLER_0_21
*618 FILLER_0_222
*619 FILLER_0_233
*620 FILLER_0_236
*621 FILLER_0_239
*622 FILLER_0_24
*623 FILLER_0_242
*624 FILLER_0_27
*625 FILLER_0_29
*626 FILLER_0_3
*627 FILLER_0_57
*628 FILLER_0_6
*629 FILLER_0_9
*630 FILLER_0_94
*631 FILLER_10_101
*632 FILLER_10_104
*633 FILLER_10_107
*634 FILLER_10_12
*635 FILLER_10_135
*636 FILLER_10_138
*637 FILLER_10_141
*638 FILLER_10_15
*639 FILLER_10_152
*640 FILLER_10_155
*641 FILLER_10_158
*642 FILLER_10_161
*643 FILLER_10_164
*644 FILLER_10_167
*645 FILLER_10_170
*646 FILLER_10_173
*647 FILLER_10_176
*648 FILLER_10_179
*649 FILLER_10_18
*650 FILLER_10_197
*651 FILLER_10_21
*652 FILLER_10_211
*653 FILLER_10_220
*654 FILLER_10_24
*655 FILLER_10_240
*656 FILLER_10_243
*657 FILLER_10_27
*658 FILLER_10_29
*659 FILLER_10_3
*660 FILLER_10_32
*661 FILLER_10_35
*662 FILLER_10_38
*663 FILLER_10_41
*664 FILLER_10_44
*665 FILLER_10_47
*666 FILLER_10_6
*667 FILLER_10_69
*668 FILLER_10_81
*669 FILLER_10_9
*670 FILLER_11_100
*671 FILLER_11_103
*672 FILLER_11_106
*673 FILLER_11_109
*674 FILLER_11_11
*675 FILLER_11_113
*676 FILLER_11_116
*677 FILLER_11_119
*678 FILLER_11_122
*679 FILLER_11_129
*680 FILLER_11_132
*681 FILLER_11_14
*682 FILLER_11_165
*683 FILLER_11_169
*684 FILLER_11_17
*685 FILLER_11_172
*686 FILLER_11_175
*687 FILLER_11_178
*688 FILLER_11_181
*689 FILLER_11_184
*690 FILLER_11_187
*691 FILLER_11_190
*692 FILLER_11_193
*693 FILLER_11_196
*694 FILLER_11_199
*695 FILLER_11_20
*696 FILLER_11_202
*697 FILLER_11_205
*698 FILLER_11_23
*699 FILLER_11_242
*700 FILLER_11_26
*701 FILLER_11_29
*702 FILLER_11_32
*703 FILLER_11_35
*704 FILLER_11_38
*705 FILLER_11_41
*706 FILLER_11_44
*707 FILLER_11_47
*708 FILLER_11_50
*709 FILLER_11_68
*710 FILLER_11_71
*711 FILLER_11_74
*712 FILLER_11_88
*713 FILLER_11_91
*714 FILLER_11_94
*715 FILLER_11_97
*716 FILLER_12_100
*717 FILLER_12_103
*718 FILLER_12_106
*719 FILLER_12_109
*720 FILLER_12_11
*721 FILLER_12_112
*722 FILLER_12_115
*723 FILLER_12_118
*724 FILLER_12_121
*725 FILLER_12_124
*726 FILLER_12_127
*727 FILLER_12_130
*728 FILLER_12_133
*729 FILLER_12_136
*730 FILLER_12_139
*731 FILLER_12_14
*732 FILLER_12_141
*733 FILLER_12_161
*734 FILLER_12_164
*735 FILLER_12_167
*736 FILLER_12_17
*737 FILLER_12_170
*738 FILLER_12_173
*739 FILLER_12_176
*740 FILLER_12_179
*741 FILLER_12_182
*742 FILLER_12_185
*743 FILLER_12_188
*744 FILLER_12_191
*745 FILLER_12_194
*746 FILLER_12_197
*747 FILLER_12_20
*748 FILLER_12_200
*749 FILLER_12_203
*750 FILLER_12_23
*751 FILLER_12_26
*752 FILLER_12_29
*753 FILLER_12_32
*754 FILLER_12_35
*755 FILLER_12_38
*756 FILLER_12_41
*757 FILLER_12_44
*758 FILLER_12_47
*759 FILLER_12_50
*760 FILLER_12_53
*761 FILLER_12_56
*762 FILLER_12_59
*763 FILLER_12_62
*764 FILLER_12_65
*765 FILLER_12_68
*766 FILLER_12_71
*767 FILLER_12_74
*768 FILLER_12_81
*769 FILLER_12_85
*770 FILLER_12_88
*771 FILLER_12_91
*772 FILLER_12_94
*773 FILLER_12_97
*774 FILLER_13_102
*775 FILLER_13_105
*776 FILLER_13_108
*777 FILLER_13_111
*778 FILLER_13_113
*779 FILLER_13_116
*780 FILLER_13_119
*781 FILLER_13_122
*782 FILLER_13_125
*783 FILLER_13_128
*784 FILLER_13_131
*785 FILLER_13_134
*786 FILLER_13_137
*787 FILLER_13_140
*788 FILLER_13_143
*789 FILLER_13_146
*790 FILLER_13_15
*791 FILLER_13_157
*792 FILLER_13_160
*793 FILLER_13_163
*794 FILLER_13_166
*795 FILLER_13_169
*796 FILLER_13_172
*797 FILLER_13_175
*798 FILLER_13_178
*799 FILLER_13_18
*800 FILLER_13_181
*801 FILLER_13_184
*802 FILLER_13_187
*803 FILLER_13_190
*804 FILLER_13_193
*805 FILLER_13_196
*806 FILLER_13_199
*807 FILLER_13_202
*808 FILLER_13_205
*809 FILLER_13_208
*810 FILLER_13_21
*811 FILLER_13_211
*812 FILLER_13_225
*813 FILLER_13_228
*814 FILLER_13_24
*815 FILLER_13_27
*816 FILLER_13_30
*817 FILLER_13_33
*818 FILLER_13_36
*819 FILLER_13_39
*820 FILLER_13_42
*821 FILLER_13_45
*822 FILLER_13_48
*823 FILLER_13_51
*824 FILLER_13_54
*825 FILLER_13_57
*826 FILLER_13_60
*827 FILLER_13_63
*828 FILLER_13_66
*829 FILLER_13_69
*830 FILLER_13_72
*831 FILLER_13_75
*832 FILLER_13_78
*833 FILLER_13_81
*834 FILLER_13_84
*835 FILLER_13_87
*836 FILLER_13_90
*837 FILLER_13_93
*838 FILLER_13_96
*839 FILLER_13_99
*840 FILLER_14_100
*841 FILLER_14_103
*842 FILLER_14_106
*843 FILLER_14_109
*844 FILLER_14_11
*845 FILLER_14_112
*846 FILLER_14_115
*847 FILLER_14_118
*848 FILLER_14_121
*849 FILLER_14_124
*850 FILLER_14_127
*851 FILLER_14_130
*852 FILLER_14_133
*853 FILLER_14_136
*854 FILLER_14_139
*855 FILLER_14_14
*856 FILLER_14_141
*857 FILLER_14_144
*858 FILLER_14_147
*859 FILLER_14_166
*860 FILLER_14_169
*861 FILLER_14_17
*862 FILLER_14_172
*863 FILLER_14_175
*864 FILLER_14_178
*865 FILLER_14_181
*866 FILLER_14_184
*867 FILLER_14_187
*868 FILLER_14_190
*869 FILLER_14_193
*870 FILLER_14_197
*871 FILLER_14_20
*872 FILLER_14_200
*873 FILLER_14_203
*874 FILLER_14_206
*875 FILLER_14_209
*876 FILLER_14_212
*877 FILLER_14_215
*878 FILLER_14_218
*879 FILLER_14_23
*880 FILLER_14_26
*881 FILLER_14_29
*882 FILLER_14_32
*883 FILLER_14_35
*884 FILLER_14_38
*885 FILLER_14_41
*886 FILLER_14_44
*887 FILLER_14_47
*888 FILLER_14_50
*889 FILLER_14_53
*890 FILLER_14_56
*891 FILLER_14_59
*892 FILLER_14_62
*893 FILLER_14_65
*894 FILLER_14_68
*895 FILLER_14_71
*896 FILLER_14_74
*897 FILLER_14_77
*898 FILLER_14_80
*899 FILLER_14_83
*900 FILLER_14_85
*901 FILLER_14_88
*902 FILLER_14_91
*903 FILLER_14_94
*904 FILLER_14_97
*905 FILLER_15_102
*906 FILLER_15_105
*907 FILLER_15_108
*908 FILLER_15_111
*909 FILLER_15_113
*910 FILLER_15_119
*911 FILLER_15_122
*912 FILLER_15_125
*913 FILLER_15_128
*914 FILLER_15_131
*915 FILLER_15_134
*916 FILLER_15_137
*917 FILLER_15_140
*918 FILLER_15_143
*919 FILLER_15_162
*920 FILLER_15_165
*921 FILLER_15_169
*922 FILLER_15_172
*923 FILLER_15_175
*924 FILLER_15_178
*925 FILLER_15_181
*926 FILLER_15_184
*927 FILLER_15_187
*928 FILLER_15_190
*929 FILLER_15_193
*930 FILLER_15_196
*931 FILLER_15_199
*932 FILLER_15_20
*933 FILLER_15_202
*934 FILLER_15_205
*935 FILLER_15_208
*936 FILLER_15_211
*937 FILLER_15_225
*938 FILLER_15_23
*939 FILLER_15_26
*940 FILLER_15_29
*941 FILLER_15_32
*942 FILLER_15_35
*943 FILLER_15_38
*944 FILLER_15_41
*945 FILLER_15_44
*946 FILLER_15_47
*947 FILLER_15_50
*948 FILLER_15_53
*949 FILLER_15_57
*950 FILLER_15_60
*951 FILLER_15_63
*952 FILLER_15_66
*953 FILLER_15_69
*954 FILLER_15_72
*955 FILLER_15_75
*956 FILLER_15_78
*957 FILLER_15_81
*958 FILLER_15_84
*959 FILLER_15_87
*960 FILLER_15_90
*961 FILLER_15_93
*962 FILLER_15_96
*963 FILLER_15_99
*964 FILLER_16_100
*965 FILLER_16_103
*966 FILLER_16_106
*967 FILLER_16_109
*968 FILLER_16_124
*969 FILLER_16_127
*970 FILLER_16_130
*971 FILLER_16_133
*972 FILLER_16_136
*973 FILLER_16_139
*974 FILLER_16_141
*975 FILLER_16_164
*976 FILLER_16_167
*977 FILLER_16_170
*978 FILLER_16_173
*979 FILLER_16_176
*980 FILLER_16_179
*981 FILLER_16_18
*982 FILLER_16_182
*983 FILLER_16_185
*984 FILLER_16_188
*985 FILLER_16_191
*986 FILLER_16_194
*987 FILLER_16_197
*988 FILLER_16_200
*989 FILLER_16_203
*990 FILLER_16_206
*991 FILLER_16_209
*992 FILLER_16_21
*993 FILLER_16_212
*994 FILLER_16_227
*995 FILLER_16_238
*996 FILLER_16_241
*997 FILLER_16_244
*998 FILLER_16_27
*999 FILLER_16_29
*1000 FILLER_16_3
*1001 FILLER_16_37
*1002 FILLER_16_40
*1003 FILLER_16_43
*1004 FILLER_16_46
*1005 FILLER_16_49
*1006 FILLER_16_52
*1007 FILLER_16_55
*1008 FILLER_16_58
*1009 FILLER_16_61
*1010 FILLER_16_64
*1011 FILLER_16_67
*1012 FILLER_16_70
*1013 FILLER_16_73
*1014 FILLER_16_76
*1015 FILLER_16_79
*1016 FILLER_16_82
*1017 FILLER_16_85
*1018 FILLER_16_88
*1019 FILLER_16_91
*1020 FILLER_16_94
*1021 FILLER_16_97
*1022 FILLER_17_101
*1023 FILLER_17_122
*1024 FILLER_17_125
*1025 FILLER_17_128
*1026 FILLER_17_131
*1027 FILLER_17_134
*1028 FILLER_17_137
*1029 FILLER_17_140
*1030 FILLER_17_143
*1031 FILLER_17_160
*1032 FILLER_17_163
*1033 FILLER_17_166
*1034 FILLER_17_169
*1035 FILLER_17_172
*1036 FILLER_17_175
*1037 FILLER_17_178
*1038 FILLER_17_181
*1039 FILLER_17_184
*1040 FILLER_17_187
*1041 FILLER_17_190
*1042 FILLER_17_193
*1043 FILLER_17_196
*1044 FILLER_17_207
*1045 FILLER_17_210
*1046 FILLER_17_225
*1047 FILLER_17_25
*1048 FILLER_17_35
*1049 FILLER_17_44
*1050 FILLER_17_47
*1051 FILLER_17_50
*1052 FILLER_17_66
*1053 FILLER_17_69
*1054 FILLER_17_75
*1055 FILLER_17_78
*1056 FILLER_17_81
*1057 FILLER_17_84
*1058 FILLER_17_87
*1059 FILLER_17_90
*1060 FILLER_17_93
*1061 FILLER_18_101
*1062 FILLER_18_104
*1063 FILLER_18_107
*1064 FILLER_18_110
*1065 FILLER_18_113
*1066 FILLER_18_128
*1067 FILLER_18_136
*1068 FILLER_18_139
*1069 FILLER_18_141
*1070 FILLER_18_147
*1071 FILLER_18_160
*1072 FILLER_18_163
*1073 FILLER_18_166
*1074 FILLER_18_169
*1075 FILLER_18_172
*1076 FILLER_18_175
*1077 FILLER_18_178
*1078 FILLER_18_18
*1079 FILLER_18_181
*1080 FILLER_18_184
*1081 FILLER_18_187
*1082 FILLER_18_190
*1083 FILLER_18_193
*1084 FILLER_18_210
*1085 FILLER_18_235
*1086 FILLER_18_3
*1087 FILLER_18_77
*1088 FILLER_18_80
*1089 FILLER_18_83
*1090 FILLER_18_85
*1091 FILLER_18_88
*1092 FILLER_18_91
*1093 FILLER_19_100
*1094 FILLER_19_103
*1095 FILLER_19_106
*1096 FILLER_19_109
*1097 FILLER_19_113
*1098 FILLER_19_116
*1099 FILLER_19_119
*1100 FILLER_19_122
*1101 FILLER_19_125
*1102 FILLER_19_128
*1103 FILLER_19_131
*1104 FILLER_19_134
*1105 FILLER_19_137
*1106 FILLER_19_160
*1107 FILLER_19_163
*1108 FILLER_19_166
*1109 FILLER_19_169
*1110 FILLER_19_172
*1111 FILLER_19_175
*1112 FILLER_19_178
*1113 FILLER_19_181
*1114 FILLER_19_184
*1115 FILLER_19_187
*1116 FILLER_19_190
*1117 FILLER_19_193
*1118 FILLER_19_196
*1119 FILLER_19_203
*1120 FILLER_19_209
*1121 FILLER_19_218
*1122 FILLER_19_225
*1123 FILLER_19_33
*1124 FILLER_19_36
*1125 FILLER_19_39
*1126 FILLER_19_42
*1127 FILLER_19_45
*1128 FILLER_19_48
*1129 FILLER_19_51
*1130 FILLER_19_54
*1131 FILLER_19_57
*1132 FILLER_19_73
*1133 FILLER_19_76
*1134 FILLER_19_79
*1135 FILLER_19_82
*1136 FILLER_19_85
*1137 FILLER_19_88
*1138 FILLER_19_91
*1139 FILLER_19_94
*1140 FILLER_19_97
*1141 FILLER_1_113
*1142 FILLER_1_116
*1143 FILLER_1_12
*1144 FILLER_1_149
*1145 FILLER_1_15
*1146 FILLER_1_18
*1147 FILLER_1_194
*1148 FILLER_1_21
*1149 FILLER_1_213
*1150 FILLER_1_223
*1151 FILLER_1_233
*1152 FILLER_1_236
*1153 FILLER_1_239
*1154 FILLER_1_24
*1155 FILLER_1_242
*1156 FILLER_1_27
*1157 FILLER_1_3
*1158 FILLER_1_30
*1159 FILLER_1_6
*1160 FILLER_1_70
*1161 FILLER_1_9
*1162 FILLER_20_100
*1163 FILLER_20_103
*1164 FILLER_20_106
*1165 FILLER_20_109
*1166 FILLER_20_112
*1167 FILLER_20_115
*1168 FILLER_20_135
*1169 FILLER_20_138
*1170 FILLER_20_141
*1171 FILLER_20_144
*1172 FILLER_20_154
*1173 FILLER_20_157
*1174 FILLER_20_160
*1175 FILLER_20_163
*1176 FILLER_20_166
*1177 FILLER_20_169
*1178 FILLER_20_172
*1179 FILLER_20_175
*1180 FILLER_20_178
*1181 FILLER_20_181
*1182 FILLER_20_184
*1183 FILLER_20_187
*1184 FILLER_20_19
*1185 FILLER_20_210
*1186 FILLER_20_213
*1187 FILLER_20_242
*1188 FILLER_20_29
*1189 FILLER_20_3
*1190 FILLER_20_32
*1191 FILLER_20_35
*1192 FILLER_20_38
*1193 FILLER_20_41
*1194 FILLER_20_44
*1195 FILLER_20_47
*1196 FILLER_20_50
*1197 FILLER_20_53
*1198 FILLER_20_56
*1199 FILLER_20_6
*1200 FILLER_20_71
*1201 FILLER_20_74
*1202 FILLER_20_77
*1203 FILLER_20_80
*1204 FILLER_20_83
*1205 FILLER_20_85
*1206 FILLER_20_88
*1207 FILLER_20_9
*1208 FILLER_20_91
*1209 FILLER_20_94
*1210 FILLER_20_97
*1211 FILLER_21_102
*1212 FILLER_21_105
*1213 FILLER_21_108
*1214 FILLER_21_11
*1215 FILLER_21_111
*1216 FILLER_21_113
*1217 FILLER_21_116
*1218 FILLER_21_119
*1219 FILLER_21_122
*1220 FILLER_21_125
*1221 FILLER_21_128
*1222 FILLER_21_131
*1223 FILLER_21_134
*1224 FILLER_21_137
*1225 FILLER_21_14
*1226 FILLER_21_140
*1227 FILLER_21_148
*1228 FILLER_21_151
*1229 FILLER_21_160
*1230 FILLER_21_163
*1231 FILLER_21_166
*1232 FILLER_21_169
*1233 FILLER_21_17
*1234 FILLER_21_172
*1235 FILLER_21_175
*1236 FILLER_21_178
*1237 FILLER_21_181
*1238 FILLER_21_184
*1239 FILLER_21_187
*1240 FILLER_21_195
*1241 FILLER_21_20
*1242 FILLER_21_207
*1243 FILLER_21_223
*1244 FILLER_21_225
*1245 FILLER_21_23
*1246 FILLER_21_26
*1247 FILLER_21_29
*1248 FILLER_21_32
*1249 FILLER_21_35
*1250 FILLER_21_38
*1251 FILLER_21_41
*1252 FILLER_21_44
*1253 FILLER_21_47
*1254 FILLER_21_50
*1255 FILLER_21_53
*1256 FILLER_21_57
*1257 FILLER_21_60
*1258 FILLER_21_63
*1259 FILLER_21_66
*1260 FILLER_21_69
*1261 FILLER_21_72
*1262 FILLER_21_75
*1263 FILLER_21_78
*1264 FILLER_21_81
*1265 FILLER_21_84
*1266 FILLER_21_87
*1267 FILLER_21_90
*1268 FILLER_21_93
*1269 FILLER_21_96
*1270 FILLER_21_99
*1271 FILLER_22_100
*1272 FILLER_22_103
*1273 FILLER_22_106
*1274 FILLER_22_109
*1275 FILLER_22_112
*1276 FILLER_22_115
*1277 FILLER_22_118
*1278 FILLER_22_121
*1279 FILLER_22_124
*1280 FILLER_22_127
*1281 FILLER_22_130
*1282 FILLER_22_133
*1283 FILLER_22_136
*1284 FILLER_22_139
*1285 FILLER_22_141
*1286 FILLER_22_144
*1287 FILLER_22_173
*1288 FILLER_22_194
*1289 FILLER_22_214
*1290 FILLER_22_236
*1291 FILLER_22_26
*1292 FILLER_22_34
*1293 FILLER_22_37
*1294 FILLER_22_40
*1295 FILLER_22_43
*1296 FILLER_22_46
*1297 FILLER_22_49
*1298 FILLER_22_52
*1299 FILLER_22_60
*1300 FILLER_22_63
*1301 FILLER_22_66
*1302 FILLER_22_69
*1303 FILLER_22_72
*1304 FILLER_22_75
*1305 FILLER_22_78
*1306 FILLER_22_81
*1307 FILLER_22_85
*1308 FILLER_22_88
*1309 FILLER_22_91
*1310 FILLER_22_94
*1311 FILLER_22_97
*1312 FILLER_23_100
*1313 FILLER_23_103
*1314 FILLER_23_106
*1315 FILLER_23_109
*1316 FILLER_23_113
*1317 FILLER_23_116
*1318 FILLER_23_119
*1319 FILLER_23_122
*1320 FILLER_23_125
*1321 FILLER_23_128
*1322 FILLER_23_131
*1323 FILLER_23_134
*1324 FILLER_23_137
*1325 FILLER_23_140
*1326 FILLER_23_143
*1327 FILLER_23_167
*1328 FILLER_23_169
*1329 FILLER_23_172
*1330 FILLER_23_175
*1331 FILLER_23_185
*1332 FILLER_23_188
*1333 FILLER_23_191
*1334 FILLER_23_194
*1335 FILLER_23_214
*1336 FILLER_23_3
*1337 FILLER_23_35
*1338 FILLER_23_38
*1339 FILLER_23_41
*1340 FILLER_23_44
*1341 FILLER_23_6
*1342 FILLER_23_64
*1343 FILLER_23_67
*1344 FILLER_23_70
*1345 FILLER_23_73
*1346 FILLER_23_76
*1347 FILLER_23_79
*1348 FILLER_23_82
*1349 FILLER_23_85
*1350 FILLER_23_88
*1351 FILLER_23_9
*1352 FILLER_23_91
*1353 FILLER_23_94
*1354 FILLER_23_97
*1355 FILLER_24_100
*1356 FILLER_24_103
*1357 FILLER_24_106
*1358 FILLER_24_109
*1359 FILLER_24_11
*1360 FILLER_24_112
*1361 FILLER_24_115
*1362 FILLER_24_118
*1363 FILLER_24_121
*1364 FILLER_24_124
*1365 FILLER_24_127
*1366 FILLER_24_130
*1367 FILLER_24_133
*1368 FILLER_24_136
*1369 FILLER_24_139
*1370 FILLER_24_141
*1371 FILLER_24_144
*1372 FILLER_24_161
*1373 FILLER_24_164
*1374 FILLER_24_167
*1375 FILLER_24_170
*1376 FILLER_24_173
*1377 FILLER_24_176
*1378 FILLER_24_190
*1379 FILLER_24_193
*1380 FILLER_24_225
*1381 FILLER_24_242
*1382 FILLER_24_29
*1383 FILLER_24_32
*1384 FILLER_24_35
*1385 FILLER_24_38
*1386 FILLER_24_41
*1387 FILLER_24_44
*1388 FILLER_24_69
*1389 FILLER_24_72
*1390 FILLER_24_75
*1391 FILLER_24_78
*1392 FILLER_24_81
*1393 FILLER_24_85
*1394 FILLER_24_88
*1395 FILLER_24_91
*1396 FILLER_24_94
*1397 FILLER_24_97
*1398 FILLER_25_109
*1399 FILLER_25_113
*1400 FILLER_25_116
*1401 FILLER_25_119
*1402 FILLER_25_12
*1403 FILLER_25_122
*1404 FILLER_25_125
*1405 FILLER_25_128
*1406 FILLER_25_131
*1407 FILLER_25_134
*1408 FILLER_25_137
*1409 FILLER_25_140
*1410 FILLER_25_143
*1411 FILLER_25_146
*1412 FILLER_25_149
*1413 FILLER_25_15
*1414 FILLER_25_152
*1415 FILLER_25_155
*1416 FILLER_25_158
*1417 FILLER_25_161
*1418 FILLER_25_164
*1419 FILLER_25_167
*1420 FILLER_25_169
*1421 FILLER_25_172
*1422 FILLER_25_175
*1423 FILLER_25_223
*1424 FILLER_25_225
*1425 FILLER_25_23
*1426 FILLER_25_26
*1427 FILLER_25_29
*1428 FILLER_25_32
*1429 FILLER_25_35
*1430 FILLER_25_38
*1431 FILLER_25_41
*1432 FILLER_25_44
*1433 FILLER_25_47
*1434 FILLER_25_54
*1435 FILLER_25_72
*1436 FILLER_25_75
*1437 FILLER_25_78
*1438 FILLER_25_81
*1439 FILLER_25_84
*1440 FILLER_25_87
*1441 FILLER_25_90
*1442 FILLER_25_93
*1443 FILLER_25_96
*1444 FILLER_26_108
*1445 FILLER_26_111
*1446 FILLER_26_114
*1447 FILLER_26_117
*1448 FILLER_26_120
*1449 FILLER_26_123
*1450 FILLER_26_126
*1451 FILLER_26_129
*1452 FILLER_26_132
*1453 FILLER_26_135
*1454 FILLER_26_138
*1455 FILLER_26_141
*1456 FILLER_26_144
*1457 FILLER_26_155
*1458 FILLER_26_158
*1459 FILLER_26_161
*1460 FILLER_26_164
*1461 FILLER_26_167
*1462 FILLER_26_170
*1463 FILLER_26_173
*1464 FILLER_26_176
*1465 FILLER_26_179
*1466 FILLER_26_18
*1467 FILLER_26_182
*1468 FILLER_26_185
*1469 FILLER_26_188
*1470 FILLER_26_191
*1471 FILLER_26_194
*1472 FILLER_26_197
*1473 FILLER_26_200
*1474 FILLER_26_21
*1475 FILLER_26_220
*1476 FILLER_26_24
*1477 FILLER_26_27
*1478 FILLER_26_38
*1479 FILLER_26_41
*1480 FILLER_26_44
*1481 FILLER_26_62
*1482 FILLER_26_79
*1483 FILLER_26_82
*1484 FILLER_26_85
*1485 FILLER_26_88
*1486 FILLER_26_91
*1487 FILLER_26_94
*1488 FILLER_27_113
*1489 FILLER_27_116
*1490 FILLER_27_119
*1491 FILLER_27_122
*1492 FILLER_27_125
*1493 FILLER_27_128
*1494 FILLER_27_131
*1495 FILLER_27_134
*1496 FILLER_27_137
*1497 FILLER_27_140
*1498 FILLER_27_143
*1499 FILLER_27_146
*1500 FILLER_27_149
*1501 FILLER_27_152
*1502 FILLER_27_155
*1503 FILLER_27_158
*1504 FILLER_27_161
*1505 FILLER_27_164
*1506 FILLER_27_167
*1507 FILLER_27_169
*1508 FILLER_27_172
*1509 FILLER_27_175
*1510 FILLER_27_178
*1511 FILLER_27_181
*1512 FILLER_27_184
*1513 FILLER_27_187
*1514 FILLER_27_190
*1515 FILLER_27_193
*1516 FILLER_27_196
*1517 FILLER_27_199
*1518 FILLER_27_20
*1519 FILLER_27_202
*1520 FILLER_27_205
*1521 FILLER_27_208
*1522 FILLER_27_214
*1523 FILLER_27_217
*1524 FILLER_27_220
*1525 FILLER_27_223
*1526 FILLER_27_225
*1527 FILLER_27_228
*1528 FILLER_27_3
*1529 FILLER_27_53
*1530 FILLER_27_57
*1531 FILLER_27_60
*1532 FILLER_27_63
*1533 FILLER_27_66
*1534 FILLER_27_83
*1535 FILLER_27_86
*1536 FILLER_27_89
*1537 FILLER_27_92
*1538 FILLER_27_95
*1539 FILLER_27_98
*1540 FILLER_28_103
*1541 FILLER_28_106
*1542 FILLER_28_109
*1543 FILLER_28_112
*1544 FILLER_28_115
*1545 FILLER_28_118
*1546 FILLER_28_121
*1547 FILLER_28_124
*1548 FILLER_28_127
*1549 FILLER_28_130
*1550 FILLER_28_133
*1551 FILLER_28_136
*1552 FILLER_28_139
*1553 FILLER_28_141
*1554 FILLER_28_144
*1555 FILLER_28_147
*1556 FILLER_28_150
*1557 FILLER_28_153
*1558 FILLER_28_156
*1559 FILLER_28_159
*1560 FILLER_28_162
*1561 FILLER_28_165
*1562 FILLER_28_168
*1563 FILLER_28_171
*1564 FILLER_28_174
*1565 FILLER_28_177
*1566 FILLER_28_180
*1567 FILLER_28_183
*1568 FILLER_28_186
*1569 FILLER_28_189
*1570 FILLER_28_192
*1571 FILLER_28_195
*1572 FILLER_28_197
*1573 FILLER_28_20
*1574 FILLER_28_209
*1575 FILLER_28_212
*1576 FILLER_28_215
*1577 FILLER_28_218
*1578 FILLER_28_221
*1579 FILLER_28_224
*1580 FILLER_28_227
*1581 FILLER_28_23
*1582 FILLER_28_230
*1583 FILLER_28_233
*1584 FILLER_28_236
*1585 FILLER_28_26
*1586 FILLER_28_29
*1587 FILLER_28_3
*1588 FILLER_28_49
*1589 FILLER_28_52
*1590 FILLER_28_55
*1591 FILLER_28_74
*1592 FILLER_28_77
*1593 FILLER_28_85
*1594 FILLER_28_88
*1595 FILLER_28_91
*1596 FILLER_28_94
*1597 FILLER_29_107
*1598 FILLER_29_110
*1599 FILLER_29_113
*1600 FILLER_29_116
*1601 FILLER_29_119
*1602 FILLER_29_122
*1603 FILLER_29_125
*1604 FILLER_29_128
*1605 FILLER_29_131
*1606 FILLER_29_138
*1607 FILLER_29_169
*1608 FILLER_29_172
*1609 FILLER_29_175
*1610 FILLER_29_178
*1611 FILLER_29_18
*1612 FILLER_29_181
*1613 FILLER_29_184
*1614 FILLER_29_187
*1615 FILLER_29_190
*1616 FILLER_29_193
*1617 FILLER_29_196
*1618 FILLER_29_214
*1619 FILLER_29_217
*1620 FILLER_29_220
*1621 FILLER_29_223
*1622 FILLER_29_225
*1623 FILLER_29_228
*1624 FILLER_29_231
*1625 FILLER_29_234
*1626 FILLER_29_28
*1627 FILLER_29_3
*1628 FILLER_29_37
*1629 FILLER_29_40
*1630 FILLER_29_43
*1631 FILLER_29_46
*1632 FILLER_29_49
*1633 FILLER_29_52
*1634 FILLER_29_55
*1635 FILLER_29_57
*1636 FILLER_29_60
*1637 FILLER_29_63
*1638 FILLER_29_89
*1639 FILLER_2_12
*1640 FILLER_2_123
*1641 FILLER_2_15
*1642 FILLER_2_160
*1643 FILLER_2_171
*1644 FILLER_2_18
*1645 FILLER_2_21
*1646 FILLER_2_233
*1647 FILLER_2_236
*1648 FILLER_2_239
*1649 FILLER_2_242
*1650 FILLER_2_29
*1651 FILLER_2_3
*1652 FILLER_2_40
*1653 FILLER_2_6
*1654 FILLER_2_9
*1655 FILLER_30_102
*1656 FILLER_30_11
*1657 FILLER_30_117
*1658 FILLER_30_120
*1659 FILLER_30_123
*1660 FILLER_30_126
*1661 FILLER_30_129
*1662 FILLER_30_137
*1663 FILLER_30_14
*1664 FILLER_30_141
*1665 FILLER_30_144
*1666 FILLER_30_147
*1667 FILLER_30_154
*1668 FILLER_30_157
*1669 FILLER_30_160
*1670 FILLER_30_163
*1671 FILLER_30_166
*1672 FILLER_30_169
*1673 FILLER_30_17
*1674 FILLER_30_172
*1675 FILLER_30_175
*1676 FILLER_30_197
*1677 FILLER_30_20
*1678 FILLER_30_200
*1679 FILLER_30_203
*1680 FILLER_30_211
*1681 FILLER_30_214
*1682 FILLER_30_217
*1683 FILLER_30_220
*1684 FILLER_30_223
*1685 FILLER_30_226
*1686 FILLER_30_229
*1687 FILLER_30_23
*1688 FILLER_30_232
*1689 FILLER_30_235
*1690 FILLER_30_26
*1691 FILLER_30_29
*1692 FILLER_30_32
*1693 FILLER_30_35
*1694 FILLER_30_38
*1695 FILLER_30_55
*1696 FILLER_30_58
*1697 FILLER_30_61
*1698 FILLER_30_64
*1699 FILLER_30_67
*1700 FILLER_30_85
*1701 FILLER_30_88
*1702 FILLER_30_91
*1703 FILLER_30_99
*1704 FILLER_31_102
*1705 FILLER_31_105
*1706 FILLER_31_11
*1707 FILLER_31_119
*1708 FILLER_31_122
*1709 FILLER_31_125
*1710 FILLER_31_128
*1711 FILLER_31_131
*1712 FILLER_31_134
*1713 FILLER_31_141
*1714 FILLER_31_144
*1715 FILLER_31_150
*1716 FILLER_31_165
*1717 FILLER_31_169
*1718 FILLER_31_172
*1719 FILLER_31_190
*1720 FILLER_31_193
*1721 FILLER_31_196
*1722 FILLER_31_199
*1723 FILLER_31_202
*1724 FILLER_31_205
*1725 FILLER_31_208
*1726 FILLER_31_21
*1727 FILLER_31_211
*1728 FILLER_31_214
*1729 FILLER_31_217
*1730 FILLER_31_220
*1731 FILLER_31_223
*1732 FILLER_31_225
*1733 FILLER_31_228
*1734 FILLER_31_231
*1735 FILLER_31_234
*1736 FILLER_31_24
*1737 FILLER_31_243
*1738 FILLER_31_27
*1739 FILLER_31_3
*1740 FILLER_31_50
*1741 FILLER_31_53
*1742 FILLER_31_57
*1743 FILLER_31_60
*1744 FILLER_31_63
*1745 FILLER_31_66
*1746 FILLER_31_69
*1747 FILLER_31_80
*1748 FILLER_31_90
*1749 FILLER_31_93
*1750 FILLER_31_96
*1751 FILLER_31_99
*1752 FILLER_32_101
*1753 FILLER_32_104
*1754 FILLER_32_107
*1755 FILLER_32_110
*1756 FILLER_32_113
*1757 FILLER_32_116
*1758 FILLER_32_119
*1759 FILLER_32_122
*1760 FILLER_32_125
*1761 FILLER_32_128
*1762 FILLER_32_151
*1763 FILLER_32_154
*1764 FILLER_32_157
*1765 FILLER_32_173
*1766 FILLER_32_185
*1767 FILLER_32_188
*1768 FILLER_32_191
*1769 FILLER_32_194
*1770 FILLER_32_197
*1771 FILLER_32_200
*1772 FILLER_32_203
*1773 FILLER_32_206
*1774 FILLER_32_209
*1775 FILLER_32_212
*1776 FILLER_32_215
*1777 FILLER_32_218
*1778 FILLER_32_221
*1779 FILLER_32_224
*1780 FILLER_32_227
*1781 FILLER_32_230
*1782 FILLER_32_233
*1783 FILLER_32_236
*1784 FILLER_32_239
*1785 FILLER_32_24
*1786 FILLER_32_242
*1787 FILLER_32_27
*1788 FILLER_32_29
*1789 FILLER_32_3
*1790 FILLER_32_51
*1791 FILLER_32_54
*1792 FILLER_32_74
*1793 FILLER_32_77
*1794 FILLER_32_80
*1795 FILLER_32_83
*1796 FILLER_32_95
*1797 FILLER_32_98
*1798 FILLER_33_109
*1799 FILLER_33_11
*1800 FILLER_33_113
*1801 FILLER_33_116
*1802 FILLER_33_119
*1803 FILLER_33_122
*1804 FILLER_33_125
*1805 FILLER_33_128
*1806 FILLER_33_131
*1807 FILLER_33_134
*1808 FILLER_33_137
*1809 FILLER_33_140
*1810 FILLER_33_149
*1811 FILLER_33_160
*1812 FILLER_33_163
*1813 FILLER_33_166
*1814 FILLER_33_169
*1815 FILLER_33_172
*1816 FILLER_33_175
*1817 FILLER_33_178
*1818 FILLER_33_181
*1819 FILLER_33_184
*1820 FILLER_33_187
*1821 FILLER_33_19
*1822 FILLER_33_190
*1823 FILLER_33_193
*1824 FILLER_33_196
*1825 FILLER_33_199
*1826 FILLER_33_202
*1827 FILLER_33_205
*1828 FILLER_33_208
*1829 FILLER_33_211
*1830 FILLER_33_214
*1831 FILLER_33_217
*1832 FILLER_33_22
*1833 FILLER_33_220
*1834 FILLER_33_223
*1835 FILLER_33_225
*1836 FILLER_33_228
*1837 FILLER_33_231
*1838 FILLER_33_234
*1839 FILLER_33_237
*1840 FILLER_33_240
*1841 FILLER_33_243
*1842 FILLER_33_27
*1843 FILLER_33_30
*1844 FILLER_33_43
*1845 FILLER_33_55
*1846 FILLER_33_57
*1847 FILLER_33_60
*1848 FILLER_33_63
*1849 FILLER_33_66
*1850 FILLER_33_69
*1851 FILLER_33_93
*1852 FILLER_33_96
*1853 FILLER_33_99
*1854 FILLER_34_11
*1855 FILLER_34_120
*1856 FILLER_34_123
*1857 FILLER_34_126
*1858 FILLER_34_129
*1859 FILLER_34_132
*1860 FILLER_34_14
*1861 FILLER_34_141
*1862 FILLER_34_150
*1863 FILLER_34_153
*1864 FILLER_34_165
*1865 FILLER_34_177
*1866 FILLER_34_180
*1867 FILLER_34_183
*1868 FILLER_34_186
*1869 FILLER_34_189
*1870 FILLER_34_192
*1871 FILLER_34_195
*1872 FILLER_34_197
*1873 FILLER_34_200
*1874 FILLER_34_203
*1875 FILLER_34_206
*1876 FILLER_34_209
*1877 FILLER_34_212
*1878 FILLER_34_215
*1879 FILLER_34_218
*1880 FILLER_34_22
*1881 FILLER_34_221
*1882 FILLER_34_224
*1883 FILLER_34_227
*1884 FILLER_34_230
*1885 FILLER_34_233
*1886 FILLER_34_236
*1887 FILLER_34_239
*1888 FILLER_34_242
*1889 FILLER_34_25
*1890 FILLER_34_29
*1891 FILLER_34_39
*1892 FILLER_34_42
*1893 FILLER_34_51
*1894 FILLER_34_69
*1895 FILLER_34_72
*1896 FILLER_34_75
*1897 FILLER_34_78
*1898 FILLER_34_81
*1899 FILLER_34_85
*1900 FILLER_35_101
*1901 FILLER_35_111
*1902 FILLER_35_113
*1903 FILLER_35_116
*1904 FILLER_35_119
*1905 FILLER_35_12
*1906 FILLER_35_122
*1907 FILLER_35_125
*1908 FILLER_35_128
*1909 FILLER_35_131
*1910 FILLER_35_134
*1911 FILLER_35_137
*1912 FILLER_35_140
*1913 FILLER_35_143
*1914 FILLER_35_146
*1915 FILLER_35_149
*1916 FILLER_35_15
*1917 FILLER_35_152
*1918 FILLER_35_164
*1919 FILLER_35_18
*1920 FILLER_35_184
*1921 FILLER_35_187
*1922 FILLER_35_190
*1923 FILLER_35_193
*1924 FILLER_35_196
*1925 FILLER_35_199
*1926 FILLER_35_202
*1927 FILLER_35_205
*1928 FILLER_35_208
*1929 FILLER_35_21
*1930 FILLER_35_211
*1931 FILLER_35_214
*1932 FILLER_35_217
*1933 FILLER_35_220
*1934 FILLER_35_223
*1935 FILLER_35_225
*1936 FILLER_35_228
*1937 FILLER_35_231
*1938 FILLER_35_234
*1939 FILLER_35_237
*1940 FILLER_35_24
*1941 FILLER_35_240
*1942 FILLER_35_243
*1943 FILLER_35_27
*1944 FILLER_35_3
*1945 FILLER_35_30
*1946 FILLER_35_33
*1947 FILLER_35_36
*1948 FILLER_35_46
*1949 FILLER_35_49
*1950 FILLER_35_52
*1951 FILLER_35_55
*1952 FILLER_35_57
*1953 FILLER_35_6
*1954 FILLER_35_60
*1955 FILLER_35_63
*1956 FILLER_35_71
*1957 FILLER_35_74
*1958 FILLER_35_77
*1959 FILLER_35_80
*1960 FILLER_35_9
*1961 FILLER_35_95
*1962 FILLER_35_98
*1963 FILLER_36_102
*1964 FILLER_36_105
*1965 FILLER_36_108
*1966 FILLER_36_111
*1967 FILLER_36_114
*1968 FILLER_36_117
*1969 FILLER_36_12
*1970 FILLER_36_120
*1971 FILLER_36_123
*1972 FILLER_36_126
*1973 FILLER_36_129
*1974 FILLER_36_132
*1975 FILLER_36_148
*1976 FILLER_36_15
*1977 FILLER_36_151
*1978 FILLER_36_154
*1979 FILLER_36_157
*1980 FILLER_36_160
*1981 FILLER_36_163
*1982 FILLER_36_166
*1983 FILLER_36_169
*1984 FILLER_36_176
*1985 FILLER_36_18
*1986 FILLER_36_186
*1987 FILLER_36_189
*1988 FILLER_36_192
*1989 FILLER_36_195
*1990 FILLER_36_197
*1991 FILLER_36_200
*1992 FILLER_36_203
*1993 FILLER_36_206
*1994 FILLER_36_209
*1995 FILLER_36_21
*1996 FILLER_36_212
*1997 FILLER_36_215
*1998 FILLER_36_218
*1999 FILLER_36_221
*2000 FILLER_36_224
*2001 FILLER_36_227
*2002 FILLER_36_230
*2003 FILLER_36_233
*2004 FILLER_36_236
*2005 FILLER_36_239
*2006 FILLER_36_24
*2007 FILLER_36_242
*2008 FILLER_36_27
*2009 FILLER_36_29
*2010 FILLER_36_3
*2011 FILLER_36_32
*2012 FILLER_36_40
*2013 FILLER_36_43
*2014 FILLER_36_46
*2015 FILLER_36_49
*2016 FILLER_36_52
*2017 FILLER_36_55
*2018 FILLER_36_58
*2019 FILLER_36_6
*2020 FILLER_36_76
*2021 FILLER_36_83
*2022 FILLER_36_85
*2023 FILLER_36_88
*2024 FILLER_36_9
*2025 FILLER_36_93
*2026 FILLER_36_96
*2027 FILLER_36_99
*2028 FILLER_37_11
*2029 FILLER_37_124
*2030 FILLER_37_14
*2031 FILLER_37_140
*2032 FILLER_37_150
*2033 FILLER_37_153
*2034 FILLER_37_156
*2035 FILLER_37_159
*2036 FILLER_37_167
*2037 FILLER_37_169
*2038 FILLER_37_17
*2039 FILLER_37_172
*2040 FILLER_37_175
*2041 FILLER_37_178
*2042 FILLER_37_181
*2043 FILLER_37_192
*2044 FILLER_37_195
*2045 FILLER_37_198
*2046 FILLER_37_20
*2047 FILLER_37_201
*2048 FILLER_37_204
*2049 FILLER_37_207
*2050 FILLER_37_210
*2051 FILLER_37_213
*2052 FILLER_37_216
*2053 FILLER_37_219
*2054 FILLER_37_222
*2055 FILLER_37_225
*2056 FILLER_37_228
*2057 FILLER_37_23
*2058 FILLER_37_231
*2059 FILLER_37_234
*2060 FILLER_37_237
*2061 FILLER_37_240
*2062 FILLER_37_243
*2063 FILLER_37_26
*2064 FILLER_37_29
*2065 FILLER_37_38
*2066 FILLER_37_48
*2067 FILLER_37_51
*2068 FILLER_37_54
*2069 FILLER_37_57
*2070 FILLER_37_63
*2071 FILLER_37_85
*2072 FILLER_37_88
*2073 FILLER_37_91
*2074 FILLER_37_94
*2075 FILLER_38_101
*2076 FILLER_38_12
*2077 FILLER_38_141
*2078 FILLER_38_147
*2079 FILLER_38_15
*2080 FILLER_38_150
*2081 FILLER_38_153
*2082 FILLER_38_177
*2083 FILLER_38_18
*2084 FILLER_38_180
*2085 FILLER_38_192
*2086 FILLER_38_195
*2087 FILLER_38_197
*2088 FILLER_38_200
*2089 FILLER_38_203
*2090 FILLER_38_206
*2091 FILLER_38_209
*2092 FILLER_38_21
*2093 FILLER_38_212
*2094 FILLER_38_215
*2095 FILLER_38_218
*2096 FILLER_38_221
*2097 FILLER_38_224
*2098 FILLER_38_227
*2099 FILLER_38_230
*2100 FILLER_38_233
*2101 FILLER_38_236
*2102 FILLER_38_239
*2103 FILLER_38_24
*2104 FILLER_38_242
*2105 FILLER_38_27
*2106 FILLER_38_3
*2107 FILLER_38_49
*2108 FILLER_38_6
*2109 FILLER_38_64
*2110 FILLER_38_9
*2111 FILLER_38_98
*2112 FILLER_39_102
*2113 FILLER_39_12
*2114 FILLER_39_124
*2115 FILLER_39_145
*2116 FILLER_39_148
*2117 FILLER_39_15
*2118 FILLER_39_151
*2119 FILLER_39_154
*2120 FILLER_39_157
*2121 FILLER_39_18
*2122 FILLER_39_182
*2123 FILLER_39_194
*2124 FILLER_39_197
*2125 FILLER_39_200
*2126 FILLER_39_203
*2127 FILLER_39_206
*2128 FILLER_39_209
*2129 FILLER_39_21
*2130 FILLER_39_212
*2131 FILLER_39_215
*2132 FILLER_39_218
*2133 FILLER_39_221
*2134 FILLER_39_225
*2135 FILLER_39_228
*2136 FILLER_39_231
*2137 FILLER_39_234
*2138 FILLER_39_237
*2139 FILLER_39_24
*2140 FILLER_39_240
*2141 FILLER_39_243
*2142 FILLER_39_27
*2143 FILLER_39_3
*2144 FILLER_39_44
*2145 FILLER_39_47
*2146 FILLER_39_50
*2147 FILLER_39_53
*2148 FILLER_39_6
*2149 FILLER_39_9
*2150 FILLER_39_93
*2151 FILLER_3_109
*2152 FILLER_3_12
*2153 FILLER_3_130
*2154 FILLER_3_15
*2155 FILLER_3_169
*2156 FILLER_3_18
*2157 FILLER_3_185
*2158 FILLER_3_21
*2159 FILLER_3_212
*2160 FILLER_3_221
*2161 FILLER_3_225
*2162 FILLER_3_228
*2163 FILLER_3_231
*2164 FILLER_3_234
*2165 FILLER_3_237
*2166 FILLER_3_24
*2167 FILLER_3_240
*2168 FILLER_3_243
*2169 FILLER_3_27
*2170 FILLER_3_3
*2171 FILLER_3_55
*2172 FILLER_3_6
*2173 FILLER_3_9
*2174 FILLER_40_111
*2175 FILLER_40_12
*2176 FILLER_40_129
*2177 FILLER_40_15
*2178 FILLER_40_153
*2179 FILLER_40_156
*2180 FILLER_40_159
*2181 FILLER_40_18
*2182 FILLER_40_181
*2183 FILLER_40_184
*2184 FILLER_40_195
*2185 FILLER_40_205
*2186 FILLER_40_208
*2187 FILLER_40_21
*2188 FILLER_40_211
*2189 FILLER_40_214
*2190 FILLER_40_217
*2191 FILLER_40_220
*2192 FILLER_40_223
*2193 FILLER_40_225
*2194 FILLER_40_228
*2195 FILLER_40_231
*2196 FILLER_40_234
*2197 FILLER_40_237
*2198 FILLER_40_24
*2199 FILLER_40_240
*2200 FILLER_40_243
*2201 FILLER_40_27
*2202 FILLER_40_29
*2203 FILLER_40_3
*2204 FILLER_40_32
*2205 FILLER_40_35
*2206 FILLER_40_38
*2207 FILLER_40_41
*2208 FILLER_40_51
*2209 FILLER_40_54
*2210 FILLER_40_57
*2211 FILLER_40_6
*2212 FILLER_40_60
*2213 FILLER_40_85
*2214 FILLER_40_9
*2215 FILLER_4_113
*2216 FILLER_4_116
*2217 FILLER_4_12
*2218 FILLER_4_131
*2219 FILLER_4_134
*2220 FILLER_4_137
*2221 FILLER_4_141
*2222 FILLER_4_144
*2223 FILLER_4_15
*2224 FILLER_4_152
*2225 FILLER_4_155
*2226 FILLER_4_158
*2227 FILLER_4_173
*2228 FILLER_4_176
*2229 FILLER_4_18
*2230 FILLER_4_197
*2231 FILLER_4_21
*2232 FILLER_4_226
*2233 FILLER_4_229
*2234 FILLER_4_232
*2235 FILLER_4_235
*2236 FILLER_4_238
*2237 FILLER_4_24
*2238 FILLER_4_241
*2239 FILLER_4_244
*2240 FILLER_4_27
*2241 FILLER_4_29
*2242 FILLER_4_3
*2243 FILLER_4_32
*2244 FILLER_4_42
*2245 FILLER_4_6
*2246 FILLER_4_9
*2247 FILLER_4_90
*2248 FILLER_5_110
*2249 FILLER_5_113
*2250 FILLER_5_116
*2251 FILLER_5_119
*2252 FILLER_5_12
*2253 FILLER_5_122
*2254 FILLER_5_125
*2255 FILLER_5_128
*2256 FILLER_5_131
*2257 FILLER_5_15
*2258 FILLER_5_162
*2259 FILLER_5_174
*2260 FILLER_5_177
*2261 FILLER_5_18
*2262 FILLER_5_180
*2263 FILLER_5_183
*2264 FILLER_5_194
*2265 FILLER_5_21
*2266 FILLER_5_214
*2267 FILLER_5_217
*2268 FILLER_5_220
*2269 FILLER_5_223
*2270 FILLER_5_225
*2271 FILLER_5_228
*2272 FILLER_5_231
*2273 FILLER_5_234
*2274 FILLER_5_237
*2275 FILLER_5_24
*2276 FILLER_5_240
*2277 FILLER_5_243
*2278 FILLER_5_27
*2279 FILLER_5_3
*2280 FILLER_5_30
*2281 FILLER_5_33
*2282 FILLER_5_36
*2283 FILLER_5_39
*2284 FILLER_5_42
*2285 FILLER_5_51
*2286 FILLER_5_54
*2287 FILLER_5_6
*2288 FILLER_5_9
*2289 FILLER_5_90
*2290 FILLER_5_93
*2291 FILLER_6_102
*2292 FILLER_6_12
*2293 FILLER_6_124
*2294 FILLER_6_127
*2295 FILLER_6_141
*2296 FILLER_6_149
*2297 FILLER_6_15
*2298 FILLER_6_152
*2299 FILLER_6_155
*2300 FILLER_6_175
*2301 FILLER_6_178
*2302 FILLER_6_18
*2303 FILLER_6_181
*2304 FILLER_6_184
*2305 FILLER_6_187
*2306 FILLER_6_194
*2307 FILLER_6_197
*2308 FILLER_6_200
*2309 FILLER_6_21
*2310 FILLER_6_215
*2311 FILLER_6_218
*2312 FILLER_6_221
*2313 FILLER_6_24
*2314 FILLER_6_244
*2315 FILLER_6_27
*2316 FILLER_6_29
*2317 FILLER_6_3
*2318 FILLER_6_32
*2319 FILLER_6_35
*2320 FILLER_6_38
*2321 FILLER_6_41
*2322 FILLER_6_44
*2323 FILLER_6_47
*2324 FILLER_6_50
*2325 FILLER_6_53
*2326 FILLER_6_6
*2327 FILLER_6_67
*2328 FILLER_6_85
*2329 FILLER_6_9
*2330 FILLER_6_93
*2331 FILLER_6_96
*2332 FILLER_6_99
*2333 FILLER_7_100
*2334 FILLER_7_103
*2335 FILLER_7_12
*2336 FILLER_7_129
*2337 FILLER_7_132
*2338 FILLER_7_135
*2339 FILLER_7_138
*2340 FILLER_7_15
*2341 FILLER_7_167
*2342 FILLER_7_18
*2343 FILLER_7_184
*2344 FILLER_7_187
*2345 FILLER_7_190
*2346 FILLER_7_193
*2347 FILLER_7_196
*2348 FILLER_7_199
*2349 FILLER_7_202
*2350 FILLER_7_205
*2351 FILLER_7_208
*2352 FILLER_7_21
*2353 FILLER_7_211
*2354 FILLER_7_214
*2355 FILLER_7_225
*2356 FILLER_7_24
*2357 FILLER_7_244
*2358 FILLER_7_27
*2359 FILLER_7_3
*2360 FILLER_7_30
*2361 FILLER_7_33
*2362 FILLER_7_36
*2363 FILLER_7_39
*2364 FILLER_7_42
*2365 FILLER_7_45
*2366 FILLER_7_48
*2367 FILLER_7_57
*2368 FILLER_7_6
*2369 FILLER_7_60
*2370 FILLER_7_63
*2371 FILLER_7_66
*2372 FILLER_7_69
*2373 FILLER_7_79
*2374 FILLER_7_82
*2375 FILLER_7_85
*2376 FILLER_7_9
*2377 FILLER_7_94
*2378 FILLER_7_97
*2379 FILLER_8_101
*2380 FILLER_8_104
*2381 FILLER_8_113
*2382 FILLER_8_12
*2383 FILLER_8_130
*2384 FILLER_8_133
*2385 FILLER_8_136
*2386 FILLER_8_139
*2387 FILLER_8_141
*2388 FILLER_8_15
*2389 FILLER_8_179
*2390 FILLER_8_18
*2391 FILLER_8_182
*2392 FILLER_8_185
*2393 FILLER_8_188
*2394 FILLER_8_191
*2395 FILLER_8_194
*2396 FILLER_8_197
*2397 FILLER_8_207
*2398 FILLER_8_21
*2399 FILLER_8_210
*2400 FILLER_8_24
*2401 FILLER_8_27
*2402 FILLER_8_29
*2403 FILLER_8_3
*2404 FILLER_8_32
*2405 FILLER_8_35
*2406 FILLER_8_38
*2407 FILLER_8_41
*2408 FILLER_8_44
*2409 FILLER_8_47
*2410 FILLER_8_56
*2411 FILLER_8_6
*2412 FILLER_8_65
*2413 FILLER_8_68
*2414 FILLER_8_71
*2415 FILLER_8_74
*2416 FILLER_8_77
*2417 FILLER_8_80
*2418 FILLER_8_83
*2419 FILLER_8_85
*2420 FILLER_8_9
*2421 FILLER_9_100
*2422 FILLER_9_103
*2423 FILLER_9_106
*2424 FILLER_9_109
*2425 FILLER_9_12
*2426 FILLER_9_131
*2427 FILLER_9_134
*2428 FILLER_9_137
*2429 FILLER_9_15
*2430 FILLER_9_159
*2431 FILLER_9_162
*2432 FILLER_9_165
*2433 FILLER_9_173
*2434 FILLER_9_176
*2435 FILLER_9_179
*2436 FILLER_9_18
*2437 FILLER_9_182
*2438 FILLER_9_185
*2439 FILLER_9_188
*2440 FILLER_9_191
*2441 FILLER_9_194
*2442 FILLER_9_197
*2443 FILLER_9_200
*2444 FILLER_9_203
*2445 FILLER_9_206
*2446 FILLER_9_21
*2447 FILLER_9_223
*2448 FILLER_9_232
*2449 FILLER_9_235
*2450 FILLER_9_24
*2451 FILLER_9_27
*2452 FILLER_9_3
*2453 FILLER_9_30
*2454 FILLER_9_33
*2455 FILLER_9_36
*2456 FILLER_9_39
*2457 FILLER_9_42
*2458 FILLER_9_57
*2459 FILLER_9_6
*2460 FILLER_9_67
*2461 FILLER_9_70
*2462 FILLER_9_9
*2463 FILLER_9_94
*2464 FILLER_9_97
*2465 PHY_EDGE_ROW_0_Left_41
*2466 PHY_EDGE_ROW_0_Right_0
*2467 PHY_EDGE_ROW_10_Left_51
*2468 PHY_EDGE_ROW_10_Right_10
*2469 PHY_EDGE_ROW_11_Left_52
*2470 PHY_EDGE_ROW_11_Right_11
*2471 PHY_EDGE_ROW_12_Left_53
*2472 PHY_EDGE_ROW_12_Right_12
*2473 PHY_EDGE_ROW_13_Left_54
*2474 PHY_EDGE_ROW_13_Right_13
*2475 PHY_EDGE_ROW_14_Left_55
*2476 PHY_EDGE_ROW_14_Right_14
*2477 PHY_EDGE_ROW_15_Left_56
*2478 PHY_EDGE_ROW_15_Right_15
*2479 PHY_EDGE_ROW_16_Left_57
*2480 PHY_EDGE_ROW_16_Right_16
*2481 PHY_EDGE_ROW_17_Left_58
*2482 PHY_EDGE_ROW_17_Right_17
*2483 PHY_EDGE_ROW_18_Left_59
*2484 PHY_EDGE_ROW_18_Right_18
*2485 PHY_EDGE_ROW_19_Left_60
*2486 PHY_EDGE_ROW_19_Right_19
*2487 PHY_EDGE_ROW_1_Left_42
*2488 PHY_EDGE_ROW_1_Right_1
*2489 PHY_EDGE_ROW_20_Left_61
*2490 PHY_EDGE_ROW_20_Right_20
*2491 PHY_EDGE_ROW_21_Left_62
*2492 PHY_EDGE_ROW_21_Right_21
*2493 PHY_EDGE_ROW_22_Left_63
*2494 PHY_EDGE_ROW_22_Right_22
*2495 PHY_EDGE_ROW_23_Left_64
*2496 PHY_EDGE_ROW_23_Right_23
*2497 PHY_EDGE_ROW_24_Left_65
*2498 PHY_EDGE_ROW_24_Right_24
*2499 PHY_EDGE_ROW_25_Left_66
*2500 PHY_EDGE_ROW_25_Right_25
*2501 PHY_EDGE_ROW_26_Left_67
*2502 PHY_EDGE_ROW_26_Right_26
*2503 PHY_EDGE_ROW_27_Left_68
*2504 PHY_EDGE_ROW_27_Right_27
*2505 PHY_EDGE_ROW_28_Left_69
*2506 PHY_EDGE_ROW_28_Right_28
*2507 PHY_EDGE_ROW_29_Left_70
*2508 PHY_EDGE_ROW_29_Right_29
*2509 PHY_EDGE_ROW_2_Left_43
*2510 PHY_EDGE_ROW_2_Right_2
*2511 PHY_EDGE_ROW_30_Left_71
*2512 PHY_EDGE_ROW_30_Right_30
*2513 PHY_EDGE_ROW_31_Left_72
*2514 PHY_EDGE_ROW_31_Right_31
*2515 PHY_EDGE_ROW_32_Left_73
*2516 PHY_EDGE_ROW_32_Right_32
*2517 PHY_EDGE_ROW_33_Left_74
*2518 PHY_EDGE_ROW_33_Right_33
*2519 PHY_EDGE_ROW_34_Left_75
*2520 PHY_EDGE_ROW_34_Right_34
*2521 PHY_EDGE_ROW_35_Left_76
*2522 PHY_EDGE_ROW_35_Right_35
*2523 PHY_EDGE_ROW_36_Left_77
*2524 PHY_EDGE_ROW_36_Right_36
*2525 PHY_EDGE_ROW_37_Left_78
*2526 PHY_EDGE_ROW_37_Right_37
*2527 PHY_EDGE_ROW_38_Left_79
*2528 PHY_EDGE_ROW_38_Right_38
*2529 PHY_EDGE_ROW_39_Left_80
*2530 PHY_EDGE_ROW_39_Right_39
*2531 PHY_EDGE_ROW_3_Left_44
*2532 PHY_EDGE_ROW_3_Right_3
*2533 PHY_EDGE_ROW_40_Left_81
*2534 PHY_EDGE_ROW_40_Right_40
*2535 PHY_EDGE_ROW_4_Left_45
*2536 PHY_EDGE_ROW_4_Right_4
*2537 PHY_EDGE_ROW_5_Left_46
*2538 PHY_EDGE_ROW_5_Right_5
*2539 PHY_EDGE_ROW_6_Left_47
*2540 PHY_EDGE_ROW_6_Right_6
*2541 PHY_EDGE_ROW_7_Left_48
*2542 PHY_EDGE_ROW_7_Right_7
*2543 PHY_EDGE_ROW_8_Left_49
*2544 PHY_EDGE_ROW_8_Right_8
*2545 PHY_EDGE_ROW_9_Left_50
*2546 PHY_EDGE_ROW_9_Right_9
*2547 TAP_TAPCELL_ROW_0_82
*2548 TAP_TAPCELL_ROW_0_83
*2549 TAP_TAPCELL_ROW_0_84
*2550 TAP_TAPCELL_ROW_0_85
*2551 TAP_TAPCELL_ROW_0_86
*2552 TAP_TAPCELL_ROW_0_87
*2553 TAP_TAPCELL_ROW_0_88
*2554 TAP_TAPCELL_ROW_0_89
*2555 TAP_TAPCELL_ROW_10_126
*2556 TAP_TAPCELL_ROW_10_127
*2557 TAP_TAPCELL_ROW_10_128
*2558 TAP_TAPCELL_ROW_10_129
*2559 TAP_TAPCELL_ROW_11_130
*2560 TAP_TAPCELL_ROW_11_131
*2561 TAP_TAPCELL_ROW_11_132
*2562 TAP_TAPCELL_ROW_11_133
*2563 TAP_TAPCELL_ROW_12_134
*2564 TAP_TAPCELL_ROW_12_135
*2565 TAP_TAPCELL_ROW_12_136
*2566 TAP_TAPCELL_ROW_12_137
*2567 TAP_TAPCELL_ROW_13_138
*2568 TAP_TAPCELL_ROW_13_139
*2569 TAP_TAPCELL_ROW_13_140
*2570 TAP_TAPCELL_ROW_13_141
*2571 TAP_TAPCELL_ROW_14_142
*2572 TAP_TAPCELL_ROW_14_143
*2573 TAP_TAPCELL_ROW_14_144
*2574 TAP_TAPCELL_ROW_14_145
*2575 TAP_TAPCELL_ROW_15_146
*2576 TAP_TAPCELL_ROW_15_147
*2577 TAP_TAPCELL_ROW_15_148
*2578 TAP_TAPCELL_ROW_15_149
*2579 TAP_TAPCELL_ROW_16_150
*2580 TAP_TAPCELL_ROW_16_151
*2581 TAP_TAPCELL_ROW_16_152
*2582 TAP_TAPCELL_ROW_16_153
*2583 TAP_TAPCELL_ROW_17_154
*2584 TAP_TAPCELL_ROW_17_155
*2585 TAP_TAPCELL_ROW_17_156
*2586 TAP_TAPCELL_ROW_17_157
*2587 TAP_TAPCELL_ROW_18_158
*2588 TAP_TAPCELL_ROW_18_159
*2589 TAP_TAPCELL_ROW_18_160
*2590 TAP_TAPCELL_ROW_18_161
*2591 TAP_TAPCELL_ROW_19_162
*2592 TAP_TAPCELL_ROW_19_163
*2593 TAP_TAPCELL_ROW_19_164
*2594 TAP_TAPCELL_ROW_19_165
*2595 TAP_TAPCELL_ROW_1_90
*2596 TAP_TAPCELL_ROW_1_91
*2597 TAP_TAPCELL_ROW_1_92
*2598 TAP_TAPCELL_ROW_1_93
*2599 TAP_TAPCELL_ROW_20_166
*2600 TAP_TAPCELL_ROW_20_167
*2601 TAP_TAPCELL_ROW_20_168
*2602 TAP_TAPCELL_ROW_20_169
*2603 TAP_TAPCELL_ROW_21_170
*2604 TAP_TAPCELL_ROW_21_171
*2605 TAP_TAPCELL_ROW_21_172
*2606 TAP_TAPCELL_ROW_21_173
*2607 TAP_TAPCELL_ROW_22_174
*2608 TAP_TAPCELL_ROW_22_175
*2609 TAP_TAPCELL_ROW_22_176
*2610 TAP_TAPCELL_ROW_22_177
*2611 TAP_TAPCELL_ROW_23_178
*2612 TAP_TAPCELL_ROW_23_179
*2613 TAP_TAPCELL_ROW_23_180
*2614 TAP_TAPCELL_ROW_23_181
*2615 TAP_TAPCELL_ROW_24_182
*2616 TAP_TAPCELL_ROW_24_183
*2617 TAP_TAPCELL_ROW_24_184
*2618 TAP_TAPCELL_ROW_24_185
*2619 TAP_TAPCELL_ROW_25_186
*2620 TAP_TAPCELL_ROW_25_187
*2621 TAP_TAPCELL_ROW_25_188
*2622 TAP_TAPCELL_ROW_25_189
*2623 TAP_TAPCELL_ROW_26_190
*2624 TAP_TAPCELL_ROW_26_191
*2625 TAP_TAPCELL_ROW_26_192
*2626 TAP_TAPCELL_ROW_26_193
*2627 TAP_TAPCELL_ROW_27_194
*2628 TAP_TAPCELL_ROW_27_195
*2629 TAP_TAPCELL_ROW_27_196
*2630 TAP_TAPCELL_ROW_27_197
*2631 TAP_TAPCELL_ROW_28_198
*2632 TAP_TAPCELL_ROW_28_199
*2633 TAP_TAPCELL_ROW_28_200
*2634 TAP_TAPCELL_ROW_28_201
*2635 TAP_TAPCELL_ROW_29_202
*2636 TAP_TAPCELL_ROW_29_203
*2637 TAP_TAPCELL_ROW_29_204
*2638 TAP_TAPCELL_ROW_29_205
*2639 TAP_TAPCELL_ROW_2_94
*2640 TAP_TAPCELL_ROW_2_95
*2641 TAP_TAPCELL_ROW_2_96
*2642 TAP_TAPCELL_ROW_2_97
*2643 TAP_TAPCELL_ROW_30_206
*2644 TAP_TAPCELL_ROW_30_207
*2645 TAP_TAPCELL_ROW_30_208
*2646 TAP_TAPCELL_ROW_30_209
*2647 TAP_TAPCELL_ROW_31_210
*2648 TAP_TAPCELL_ROW_31_211
*2649 TAP_TAPCELL_ROW_31_212
*2650 TAP_TAPCELL_ROW_31_213
*2651 TAP_TAPCELL_ROW_32_214
*2652 TAP_TAPCELL_ROW_32_215
*2653 TAP_TAPCELL_ROW_32_216
*2654 TAP_TAPCELL_ROW_32_217
*2655 TAP_TAPCELL_ROW_33_218
*2656 TAP_TAPCELL_ROW_33_219
*2657 TAP_TAPCELL_ROW_33_220
*2658 TAP_TAPCELL_ROW_33_221
*2659 TAP_TAPCELL_ROW_34_222
*2660 TAP_TAPCELL_ROW_34_223
*2661 TAP_TAPCELL_ROW_34_224
*2662 TAP_TAPCELL_ROW_34_225
*2663 TAP_TAPCELL_ROW_35_226
*2664 TAP_TAPCELL_ROW_35_227
*2665 TAP_TAPCELL_ROW_35_228
*2666 TAP_TAPCELL_ROW_35_229
*2667 TAP_TAPCELL_ROW_36_230
*2668 TAP_TAPCELL_ROW_36_231
*2669 TAP_TAPCELL_ROW_36_232
*2670 TAP_TAPCELL_ROW_36_233
*2671 TAP_TAPCELL_ROW_37_234
*2672 TAP_TAPCELL_ROW_37_235
*2673 TAP_TAPCELL_ROW_37_236
*2674 TAP_TAPCELL_ROW_37_237
*2675 TAP_TAPCELL_ROW_38_238
*2676 TAP_TAPCELL_ROW_38_239
*2677 TAP_TAPCELL_ROW_38_240
*2678 TAP_TAPCELL_ROW_38_241
*2679 TAP_TAPCELL_ROW_39_242
*2680 TAP_TAPCELL_ROW_39_243
*2681 TAP_TAPCELL_ROW_39_244
*2682 TAP_TAPCELL_ROW_39_245
*2683 TAP_TAPCELL_ROW_3_100
*2684 TAP_TAPCELL_ROW_3_101
*2685 TAP_TAPCELL_ROW_3_98
*2686 TAP_TAPCELL_ROW_3_99
*2687 TAP_TAPCELL_ROW_40_246
*2688 TAP_TAPCELL_ROW_40_247
*2689 TAP_TAPCELL_ROW_40_248
*2690 TAP_TAPCELL_ROW_40_249
*2691 TAP_TAPCELL_ROW_40_250
*2692 TAP_TAPCELL_ROW_40_251
*2693 TAP_TAPCELL_ROW_40_252
*2694 TAP_TAPCELL_ROW_40_253
*2695 TAP_TAPCELL_ROW_4_102
*2696 TAP_TAPCELL_ROW_4_103
*2697 TAP_TAPCELL_ROW_4_104
*2698 TAP_TAPCELL_ROW_4_105
*2699 TAP_TAPCELL_ROW_5_106
*2700 TAP_TAPCELL_ROW_5_107
*2701 TAP_TAPCELL_ROW_5_108
*2702 TAP_TAPCELL_ROW_5_109
*2703 TAP_TAPCELL_ROW_6_110
*2704 TAP_TAPCELL_ROW_6_111
*2705 TAP_TAPCELL_ROW_6_112
*2706 TAP_TAPCELL_ROW_6_113
*2707 TAP_TAPCELL_ROW_7_114
*2708 TAP_TAPCELL_ROW_7_115
*2709 TAP_TAPCELL_ROW_7_116
*2710 TAP_TAPCELL_ROW_7_117
*2711 TAP_TAPCELL_ROW_8_118
*2712 TAP_TAPCELL_ROW_8_119
*2713 TAP_TAPCELL_ROW_8_120
*2714 TAP_TAPCELL_ROW_8_121
*2715 TAP_TAPCELL_ROW_9_122
*2716 TAP_TAPCELL_ROW_9_123
*2717 TAP_TAPCELL_ROW_9_124
*2718 TAP_TAPCELL_ROW_9_125
*2719 _349_
*2720 _350_
*2721 _351_
*2722 _352_
*2723 _353_
*2724 _354_
*2725 _355_
*2726 _356_
*2727 _357_
*2728 _358_
*2729 _359_
*2730 _360_
*2731 _361_
*2732 _362_
*2733 _363_
*2734 _364_
*2735 _365_
*2736 _366_
*2737 _367_
*2738 _368_
*2739 _369_
*2740 _370_
*2741 _371_
*2742 _372_
*2743 _373_
*2744 _374_
*2745 _375_
*2746 _376_
*2747 _377_
*2748 _378_
*2749 _379_
*2750 _380_
*2751 _381_
*2752 _382_
*2753 _383_
*2754 _384_
*2755 _385_
*2756 _386_
*2757 _387_
*2758 _388_
*2759 _389_
*2760 _390_
*2761 _391_
*2762 _392_
*2763 _393_
*2764 _394_
*2765 _395_
*2766 _396_
*2767 _397_
*2768 _398_
*2769 _399_
*2770 _400_
*2771 _401_
*2772 _402_
*2773 _403_
*2774 _404_
*2775 _405_
*2776 _406_
*2777 _407_
*2778 _408_
*2779 _409_
*2780 _410_
*2781 _411_
*2782 _412_
*2783 _413_
*2784 _414_
*2785 _415_
*2786 _416_
*2787 _417_
*2788 _418_
*2789 _419_
*2790 _420_
*2791 _421_
*2792 _422_
*2793 _423_
*2794 _424_
*2795 _425_
*2796 _426_
*2797 _427_
*2798 _428_
*2799 _429_
*2800 _430_
*2801 _431_
*2802 _432_
*2803 _433_
*2804 _434_
*2805 _435_
*2806 _436_
*2807 _437_
*2808 _438_
*2809 _439_
*2810 _440_
*2811 _441_
*2812 _442_
*2813 _443_
*2814 _444_
*2815 _445_
*2816 _446_
*2817 _447_
*2818 _448_
*2819 _449_
*2820 _450_
*2821 _451_
*2822 _452_
*2823 _453_
*2824 _454_
*2825 _455_
*2826 _456_
*2827 _457_
*2828 _458_
*2829 _459_
*2830 _460_
*2831 _461_
*2832 _462_
*2833 _463_
*2834 _464_
*2835 _465_
*2836 _466_
*2837 _467_
*2838 _468_
*2839 _469_
*2840 _470_
*2841 _471_
*2842 _472_
*2843 _473_
*2844 _474_
*2845 _475_
*2846 _476_
*2847 _477_
*2848 _478_
*2849 _479_
*2850 _480_
*2851 _481_
*2852 _482_
*2853 _483_
*2854 _484_
*2855 _485_
*2856 _486_
*2857 _487_
*2858 _488_
*2859 _489_
*2860 _490_
*2861 _491_
*2862 _492_
*2863 _493_
*2864 _494_
*2865 _495_
*2866 _496_
*2867 _497_
*2868 _498_
*2869 _499_
*2870 _500_
*2871 _501_
*2872 _502_
*2873 _503_
*2874 _504_
*2875 _505_
*2876 _506_
*2877 _507_
*2878 _508_
*2879 _509_
*2880 _510_
*2881 _511_
*2882 _512_
*2883 _513_
*2884 _514_
*2885 _515_
*2886 _516_
*2887 _517_
*2888 _518_
*2889 _519_
*2890 _520_
*2891 _521_
*2892 _522_
*2893 _523_
*2894 _524_
*2895 _525_
*2896 _526_
*2897 _527_
*2898 _528_
*2899 _529_
*2900 _530_
*2901 _531_
*2902 _532_
*2903 _533_
*2904 _534_
*2905 _535_
*2906 _536_
*2907 _537_
*2908 _538_
*2909 _539_
*2910 _540_
*2911 _541_
*2912 _542_
*2913 _543_
*2914 _544_
*2915 _545_
*2916 _546_
*2917 _547_
*2918 _548_
*2919 _549_
*2920 _550_
*2921 _551_
*2922 _552_
*2923 _553_
*2924 _554_
*2925 _555_
*2926 _556_
*2927 _557_
*2928 _558_
*2929 _559_
*2930 _560_
*2931 _561_
*2932 _562_
*2933 _563_
*2934 _564_
*2935 _565_
*2936 _566_
*2937 _567_
*2938 _568_
*2939 _569_
*2940 _570_
*2941 _571_
*2942 _572_
*2943 _573_
*2944 _574_
*2945 _575_
*2946 _576_
*2947 _577_
*2948 _578_
*2949 _579_
*2950 _580_
*2951 _581_
*2952 _582_
*2953 _583_
*2954 _584_
*2955 _585_
*2956 _586_
*2957 _587_
*2958 _588_
*2959 _589_
*2960 _590_
*2961 _591_
*2962 _592_
*2963 _593_
*2964 _594_
*2965 _595_
*2966 _596_
*2967 _597_
*2968 _598_
*2969 _599_
*2970 _600_
*2971 _601_
*2972 _602_
*2973 _603_
*2974 _604_
*2975 _605_
*2976 _606_
*2977 _607_
*2978 _608_
*2979 _609_
*2980 _610_
*2981 _611_
*2982 _612_
*2983 _613_
*2984 _614_
*2985 _615_
*2986 _616_
*2987 _617_
*2988 _618_
*2989 _619_
*2990 _620_
*2991 _621_
*2992 _622_
*2993 _623_
*2994 _624_
*2995 _625_
*2996 _626_
*2997 _627_
*2998 _628_
*2999 _629_
*3000 _630_
*3001 _631_
*3002 _632_
*3003 _633_
*3004 _634_
*3005 _635_
*3006 _636_
*3007 _637_
*3008 _638_
*3009 _639_
*3010 _640_
*3011 _641_
*3012 _642_
*3013 _643_
*3014 _644_
*3015 _645_
*3016 _646_
*3017 _647_
*3018 _648_
*3019 _649_
*3020 _650_
*3021 _651_
*3022 _652_
*3023 _653_
*3024 _654_
*3025 _655_
*3026 _656_
*3027 _657_
*3028 _658_
*3029 _659_
*3030 _660_
*3031 _661_
*3032 _662_
*3033 _663_
*3034 _664_
*3035 _665_
*3036 _666_
*3037 _667_
*3038 _668_
*3039 _669_
*3040 _670_
*3041 _671_
*3042 _672_
*3043 _673_
*3044 _674_
*3045 _675_
*3046 _676_
*3047 _677_
*3048 _678_
*3049 _679_
*3050 _680_
*3051 _681_
*3052 _682_
*3053 _683_
*3054 _684_
*3055 _685_
*3056 _686_
*3057 _687_
*3058 _688_
*3059 _689_
*3060 _690_
*3061 _691_
*3062 _692_
*3063 _693_
*3064 _694_
*3065 _695_
*3066 _696_
*3067 _697_
*3068 _698_
*3069 _699_
*3070 _700_
*3071 _701_
*3072 _702_
*3073 _703_
*3074 _704_
*3075 _705_
*3076 _706_
*3077 _707_
*3078 _708_
*3079 _709_
*3080 _710_
*3081 _711_
*3082 _712_
*3083 _713_
*3084 _714_
*3085 _715_
*3086 _716_
*3087 _717_
*3088 _718_
*3089 _719_
*3090 _720_
*3091 _721_
*3092 _722_
*3093 _723_
*3094 _724_
*3095 _725_
*3096 _726_
*3097 _727_
*3098 _728_
*3099 _729_
*3100 _730_
*3101 fanout100
*3102 fanout102
*3103 fanout104
*3104 fanout105
*3105 fanout106
*3106 fanout108
*3107 fanout109
*3108 fanout111
*3109 fanout113
*3110 fanout116
*3111 fanout117
*3112 fanout119
*3113 fanout121
*3114 input1
*3115 input10
*3116 input11
*3117 input12
*3118 input13
*3119 input14
*3120 input15
*3121 input16
*3122 input17
*3123 input18
*3124 input19
*3125 input2
*3126 input20
*3127 input21
*3128 input22
*3129 input23
*3130 input24
*3131 input25
*3132 input26
*3133 input27
*3134 input28
*3135 input29
*3136 input3
*3137 input30
*3138 input31
*3139 input32
*3140 input33
*3141 input34
*3142 input35
*3143 input36
*3144 input37
*3145 input38
*3146 input39
*3147 input4
*3148 input40
*3149 input41
*3150 input42
*3151 input43
*3152 input44
*3153 input45
*3154 input46
*3155 input47
*3156 input48
*3157 input49
*3158 input5
*3159 input50
*3160 input51
*3161 input52
*3162 input53
*3163 input54
*3164 input55
*3165 input56
*3166 input57
*3167 input58
*3168 input59
*3169 input6
*3170 input60
*3171 input61
*3172 input62
*3173 input63
*3174 input64
*3175 input65
*3176 input7
*3177 input8
*3178 input9
*3179 load_slew101
*3180 load_slew103
*3181 load_slew107
*3182 load_slew112
*3183 load_slew114
*3184 load_slew115
*3185 load_slew118
*3186 load_slew120
*3187 max_cap99
*3188 output66
*3189 output67
*3190 output68
*3191 output69
*3192 output70
*3193 output71
*3194 output72
*3195 output73
*3196 output74
*3197 output75
*3198 output76
*3199 output77
*3200 output78
*3201 output79
*3202 output80
*3203 output81
*3204 output82
*3205 output83
*3206 output84
*3207 output85
*3208 output86
*3209 output87
*3210 output88
*3211 output89
*3212 output90
*3213 output91
*3214 output92
*3215 output93
*3216 output94
*3217 output95
*3218 output96
*3219 output97
*3220 output98
*3221 rebuffer122
*3222 rebuffer123
*3223 rebuffer124
*3224 rebuffer125
*3225 rebuffer126
*3226 rebuffer127
*3227 rebuffer128
*3228 rebuffer129
*3229 rebuffer130
*3230 rebuffer131
*3231 rebuffer132
*3232 rebuffer133
*3233 rebuffer134
*3234 rebuffer135
*3235 rebuffer136
*3236 rebuffer137
*3237 rebuffer138
*3238 rebuffer139
*3239 rebuffer140
*3240 rebuffer141
*3241 rebuffer142
*3242 rebuffer143
*3243 rebuffer144
*3244 rebuffer145
*3245 rebuffer146
*3246 rebuffer147
*3247 rebuffer148
*3248 rebuffer149
*3249 rebuffer167
*3250 rebuffer177
*3251 rebuffer178
*3252 rebuffer179
*3253 rebuffer180
*3254 rebuffer181
*3255 rebuffer182
*3256 rebuffer224
*3257 rebuffer225
*3258 rebuffer226
*3259 rebuffer227
*3260 wire110

*PORTS
A[0] I
A[10] I
A[11] I
A[12] I
A[13] I
A[14] I
A[15] I
A[16] I
A[17] I
A[18] I
A[19] I
A[1] I
A[20] I
A[21] I
A[22] I
A[23] I
A[24] I
A[25] I
A[26] I
A[27] I
A[28] I
A[29] I
A[2] I
A[30] I
A[31] I
A[3] I
A[4] I
A[5] I
A[6] I
A[7] I
A[8] I
A[9] I
B[0] I
B[10] I
B[11] I
B[12] I
B[13] I
B[14] I
B[15] I
B[16] I
B[17] I
B[18] I
B[19] I
B[1] I
B[20] I
B[21] I
B[22] I
B[23] I
B[24] I
B[25] I
B[26] I
B[27] I
B[28] I
B[29] I
B[2] I
B[30] I
B[31] I
B[3] I
B[4] I
B[5] I
B[6] I
B[7] I
B[8] I
B[9] I
S[0] O
S[10] O
S[11] O
S[12] O
S[13] O
S[14] O
S[15] O
S[16] O
S[17] O
S[18] O
S[19] O
S[1] O
S[20] O
S[21] O
S[22] O
S[23] O
S[24] O
S[25] O
S[26] O
S[27] O
S[28] O
S[29] O
S[2] O
S[30] O
S[31] O
S[3] O
S[4] O
S[5] O
S[6] O
S[7] O
S[8] O
S[9] O
carryOut O
sub I

*D_NET *1 0.00326697
*CONN
*P A[0] I
*I *3114:A I *D sky130_fd_sc_hd__clkdlybuf4s25_1
*CAP
1 A[0] 0.000940509
2 *3114:A 0
3 *1:9 0.000940509
4 *1:9 S[1] 0
5 *1:9 *2758:B 5.3304e-05
6 *1:9 *2985:A 0
7 *1:9 *2985:B 0
8 *1:9 *33:9 0.000507821
9 *1:9 *429:10 7.88828e-05
10 *1:9 *450:6 0.000229801
11 *1:9 *450:15 9.64943e-05
12 *1:9 *537:23 8.76309e-05
13 *1:9 *537:32 0.000212703
14 *1:9 *572:20 0.000119313
15 *1:9 *585:8 0
*RES
1 A[0] *1:9 39.4014 
2 *1:9 *3114:A 23 
*END

*D_NET *2 0.00279403
*CONN
*P A[10] I
*I *3125:A I *D sky130_fd_sc_hd__clkdlybuf4s25_1
*CAP
1 A[10] 0.000949039
2 *3125:A 0
3 *2:11 0.000949039
4 *2:11 *3081:A 0.000358812
5 *2:11 *3088:A1 0.000117755
6 *2:11 *34:15 0.000294553
7 *2:11 *538:8 0.000124829
*RES
1 A[10] *2:11 30.4227 
2 *2:11 *3125:A 23 
*END

*D_NET *3 0.00266856
*CONN
*P A[11] I
*I *3136:A I *D sky130_fd_sc_hd__clkdlybuf4s25_1
*CAP
1 A[11] 0.000740179
2 *3136:A 0
3 *3:17 0.000740179
4 *3:17 *3083:A_N 0.000272377
5 *3:17 *34:15 0.000347523
6 *3:17 *35:15 0.00026882
7 *3:17 *161:8 0.000115422
8 *3:17 *469:24 0.000124346
9 *3:17 *469:76 2.25927e-05
10 *3:17 *533:10 3.71251e-05
*RES
1 A[11] *3:17 38.0919 
2 *3:17 *3136:A 23 
*END

*D_NET *4 0.00158934
*CONN
*P A[12] I
*I *3147:A I *D sky130_fd_sc_hd__clkdlybuf4s25_1
*CAP
1 A[12] 0.000429958
2 *3147:A 0
3 *4:11 0.000429958
4 *4:11 S[14] 8.05212e-05
5 *4:11 S[28] 0.000380082
6 *4:11 *21:13 0
7 *4:11 *36:15 0.00026882
8 *4:11 *540:20 0
*RES
1 A[12] *4:11 28.8684 
2 *4:11 *3147:A 23 
*END

*D_NET *5 0.00135887
*CONN
*P A[13] I
*I *3158:A I *D sky130_fd_sc_hd__clkdlybuf4s25_1
*CAP
1 A[13] 0.000624683
2 *3158:A 0
3 *5:11 0.000624683
4 *5:11 S[15] 0
5 *5:11 *6:11 0
6 *5:11 *37:13 0.000109509
7 *5:11 *580:8 0
*RES
1 A[13] *5:11 28.8684 
2 *5:11 *3158:A 23 
*END

*D_NET *6 0.00110973
*CONN
*P A[14] I
*I *3169:A I *D sky130_fd_sc_hd__clkdlybuf4s25_1
*CAP
1 A[14] 0.000457251
2 *3169:A 0
3 *6:11 0.000457251
4 *6:11 *7:13 0
5 *6:11 *37:13 2.69993e-05
6 *6:11 *38:13 5.84829e-05
7 *6:11 *39:11 0
8 *6:11 *541:10 0.000109743
9 *5:11 *6:11 0
*RES
1 A[14] *6:11 27.1077 
2 *6:11 *3169:A 23 
*END

*D_NET *7 0.00135966
*CONN
*P A[15] I
*I *3176:A I *D sky130_fd_sc_hd__clkdlybuf4s25_1
*CAP
1 A[15] 0.000575801
2 *3176:A 0
3 *7:13 0.000575801
4 *7:13 *37:13 7.60701e-05
5 *7:13 *39:11 0.00013199
6 *6:11 *7:13 0
*RES
1 A[15] *7:13 32.5669 
2 *7:13 *3176:A 23 
*END

*D_NET *8 0.000922412
*CONN
*P A[16] I
*I *3177:A I *D sky130_fd_sc_hd__clkdlybuf4s25_1
*CAP
1 A[16] 0.00039169
2 *3177:A 0
3 *8:13 0.00039169
4 *8:13 S[17] 7.87199e-05
5 *8:13 *40:11 9.81333e-06
6 *8:13 *73:10 5.04995e-05
*RES
1 A[16] *8:13 29.4173 
2 *8:13 *3177:A 23 
*END

*D_NET *9 0.00125135
*CONN
*P A[17] I
*I *3178:A I *D sky130_fd_sc_hd__clkdlybuf4s25_1
*CAP
1 A[17] 0.000327733
2 *3178:A 0
3 *9:13 0.000327733
4 *9:13 *3115:A 0.000208068
5 *9:13 *41:13 0.000232698
6 *9:13 *42:15 0.000155117
*RES
1 A[17] *9:13 29.2637 
2 *9:13 *3178:A 23 
*END

*D_NET *10 0.00105009
*CONN
*P A[18] I
*I *3115:A I *D sky130_fd_sc_hd__clkdlybuf4s25_1
*CAP
1 A[18] 0.000421012
2 *3115:A 0.000421012
3 *3115:A *2796:A 0
4 *3115:A *42:15 0
5 *9:13 *3115:A 0.000208068
*RES
1 A[18] *3115:A 49.7369 
*END

*D_NET *11 0.00227779
*CONN
*P A[19] I
*I *3116:A I *D sky130_fd_sc_hd__clkdlybuf4s25_1
*CAP
1 A[19] 0.000411169
2 *3116:A 0
3 *11:9 0.000411169
4 *11:9 *16:11 0.000813914
5 *11:9 *48:7 0.000641541
*RES
1 A[19] *11:9 33.5393 
2 *11:9 *3116:A 23 
*END

*D_NET *12 0.00266002
*CONN
*P A[1] I
*I *3117:A I *D sky130_fd_sc_hd__clkdlybuf4s25_1
*CAP
1 A[1] 0.000724968
2 *3117:A 0
3 *12:11 0.000724968
4 *12:11 *44:19 0.000748762
5 *12:11 *209:10 1.76557e-05
6 *12:11 *549:16 0.000352388
7 *12:11 *564:10 3.04021e-05
8 *12:11 *567:10 6.08751e-05
*RES
1 A[1] *12:11 34.6993 
2 *12:11 *3117:A 23 
*END

*D_NET *13 0.00216028
*CONN
*P A[20] I
*I *3118:A I *D sky130_fd_sc_hd__clkdlybuf4s25_1
*CAP
1 A[20] 0.000679261
2 *3118:A 0
3 *13:13 0.000679261
4 *13:13 *45:11 0.000801754
5 *13:13 *459:62 0
6 *13:13 *460:14 0
7 *13:13 *550:8 0
*RES
1 A[20] *13:13 33.0784 
2 *13:13 *3118:A 23 
*END

*D_NET *14 0.00151169
*CONN
*P A[21] I
*I *3119:A I *D sky130_fd_sc_hd__clkdlybuf4s25_1
*CAP
1 A[21] 0.000755847
2 *3119:A 0
3 *14:9 0.000755847
*RES
1 A[21] *14:9 31.1571 
2 *14:9 *3119:A 23 
*END

*D_NET *15 0.00315404
*CONN
*P A[22] I
*I *3120:A I *D sky130_fd_sc_hd__clkdlybuf4s25_1
*CAP
1 A[22] 0.000681546
2 *3120:A 0
3 *15:11 0.000681546
4 *15:11 S[19] 0.000719556
5 *15:11 *48:7 0.000644007
6 *15:11 *314:10 0.000169665
7 *15:11 *506:6 0.000226295
8 *15:11 *552:33 0
9 *15:11 *553:8 0
10 *15:11 *584:16 3.14274e-05
*RES
1 A[22] *15:11 39.3186 
2 *15:11 *3120:A 23 
*END

*D_NET *16 0.00240618
*CONN
*P A[23] I
*I *3121:A I *D sky130_fd_sc_hd__clkdlybuf4s25_1
*CAP
1 A[23] 0.000762126
2 *3121:A 0
3 *16:11 0.000762126
4 *16:11 *80:10 1.32314e-05
5 *16:11 *462:8 5.47808e-05
6 *11:9 *16:11 0.000813914
*RES
1 A[23] *16:11 36.5429 
2 *16:11 *3121:A 23 
*END

*D_NET *17 0.00182562
*CONN
*P A[24] I
*I *3122:A I *D sky130_fd_sc_hd__clkdlybuf4s25_1
*CAP
1 A[24] 0.00052964
2 *3122:A 0
3 *17:9 0.00052964
4 *17:9 S[24] 0
5 *17:9 *49:11 0.000666158
6 *17:9 *554:12 0.00010018
*RES
1 A[24] *17:9 31.6336 
2 *17:9 *3122:A 23 
*END

*D_NET *18 0.00203364
*CONN
*P A[25] I
*I *3123:A I *D sky130_fd_sc_hd__clkdlybuf4s25_1
*CAP
1 A[25] 0.00052741
2 *3123:A 0
3 *18:9 0.00052741
4 *18:9 *2905:A2 0.000139357
5 *18:9 *50:9 0.000634526
6 *18:9 *356:8 6.38845e-05
7 *18:9 *513:6 0.000141052
*RES
1 A[25] *18:9 32.11 
2 *18:9 *3123:A 23 
*END

*D_NET *19 0.00150177
*CONN
*P A[26] I
*I *3124:A I *D sky130_fd_sc_hd__clkdlybuf4s25_1
*CAP
1 A[26] 0.000734739
2 *3124:A 0
3 *19:9 0.000734739
4 *19:9 S[26] 0
5 *19:9 *51:9 0
6 *19:9 *474:89 0
7 *19:9 *517:10 3.22879e-05
*RES
1 A[26] *19:9 31.1571 
2 *19:9 *3124:A 23 
*END

*D_NET *20 0.00129998
*CONN
*P A[27] I
*I *3126:A I *D sky130_fd_sc_hd__clkdlybuf4s25_1
*CAP
1 A[27] 0.000465161
2 *3126:A 0
3 *20:13 0.000465161
4 *20:13 S[27] 0.000102375
5 *20:13 *52:11 0.000191211
6 *20:13 *84:10 7.60701e-05
*RES
1 A[27] *20:13 31.4336 
2 *20:13 *3126:A 23 
*END

*D_NET *21 0.00198831
*CONN
*P A[28] I
*I *3127:A I *D sky130_fd_sc_hd__clkdlybuf4s25_1
*CAP
1 A[28] 0.000713608
2 *3127:A 0
3 *21:13 0.000713608
4 *21:13 S[13] 0.000187831
5 *21:13 S[14] 0.000187831
6 *21:13 *34:15 0.000185428
7 *21:13 *68:10 0
8 *4:11 *21:13 0
*RES
1 A[28] *21:13 36.7157 
2 *21:13 *3127:A 23 
*END

*D_NET *22 0.00254751
*CONN
*P A[29] I
*I *3128:A I *D sky130_fd_sc_hd__clkdlybuf4s25_1
*CAP
1 A[29] 0.000558693
2 *3128:A 0
3 *22:13 0.000558693
4 *22:13 *27:17 0.000522588
5 *22:13 *59:11 0.000496572
6 *22:13 *182:10 1.14452e-05
7 *22:13 *188:6 9.67842e-05
8 *22:13 *456:19 9.74235e-05
9 *22:13 *560:14 0.000205313
10 *22:13 *565:16 0
11 *22:13 *603:10 0
*RES
1 A[29] *22:13 34.9271 
2 *22:13 *3128:A 23 
*END

*D_NET *23 0.00101909
*CONN
*P A[2] I
*I *3129:A I *D sky130_fd_sc_hd__clkdlybuf4s25_1
*CAP
1 A[2] 0.00043478
2 *3129:A 0
3 *23:13 0.00043478
4 *23:13 S[3] 4.15523e-05
5 *23:13 *55:13 0.000107978
*RES
1 A[2] *23:13 28.9115 
2 *23:13 *3129:A 23 
*END

*D_NET *24 0.00197472
*CONN
*P A[30] I
*I *3130:A I *D sky130_fd_sc_hd__clkdlybuf4s25_1
*CAP
1 A[30] 0.000371541
2 *3130:A 0
3 *24:11 0.000371541
4 *24:11 S[31] 0.000208068
5 *24:11 carryOut 0.000195667
6 *24:11 *56:11 0.000621279
7 *24:11 *99:8 0.000206622
8 *24:11 *608:8 0
*RES
1 A[30] *24:11 27.8618 
2 *24:11 *3130:A 23 
*END

*D_NET *25 0.0018336
*CONN
*P A[31] I
*I *3131:A I *D sky130_fd_sc_hd__clkdlybuf4s25_1
*CAP
1 A[31] 0.000704357
2 *3131:A 0
3 *25:15 0.000704357
4 *25:15 carryOut 0.000116599
5 *25:15 *57:13 0.00010459
6 *25:15 *89:10 0.000143655
7 *25:15 *563:8 0
8 *25:15 *600:14 6.00453e-05
*RES
1 A[31] *25:15 32.8001 
2 *25:15 *3131:A 23 
*END

*D_NET *26 0.00326449
*CONN
*P A[3] I
*I *3132:A I *D sky130_fd_sc_hd__clkdlybuf4s25_1
*CAP
1 A[3] 0.000744919
2 *3132:A 0
3 *26:9 0.000744919
4 *26:9 *2721:A_N 5.3304e-05
5 *26:9 *2751:A 0.000100522
6 *26:9 *44:19 0.000475476
7 *26:9 *58:17 0.000481806
8 *26:9 *60:11 0
9 *26:9 *210:8 0.000246748
10 *26:9 *223:29 5.50106e-05
11 *26:9 *454:8 0.000129106
12 *26:9 *454:17 0.00010763
13 *26:9 *455:18 1.24376e-05
14 *26:9 *529:10 1.01436e-05
15 *26:9 *567:18 3.14377e-05
16 *26:9 *567:31 6.32794e-05
17 *26:9 *567:44 7.75329e-06
*RES
1 A[3] *26:9 38.2829 
2 *26:9 *3132:A 23 
*END

*D_NET *27 0.00390067
*CONN
*P A[4] I
*I *3133:A I *D sky130_fd_sc_hd__clkdlybuf4s25_1
*CAP
1 A[4] 0.000887499
2 *3133:A 0
3 *27:17 0.000887499
4 *27:17 *28:15 0
5 *27:17 *58:17 0.000280192
6 *27:17 *59:11 0.000212581
7 *27:17 *60:11 0.000365224
8 *27:17 *457:75 0.000358425
9 *27:17 *565:8 0.000386662
10 *22:13 *27:17 0.000522588
*RES
1 A[4] *27:17 42.4257 
2 *27:17 *3133:A 23 
*END

*D_NET *28 0.00318279
*CONN
*P A[5] I
*I *3134:A I *D sky130_fd_sc_hd__clkdlybuf4s25_1
*CAP
1 A[5] 0.00113469
2 *3134:A 0
3 *28:15 0.00113469
4 *28:15 *2752:A 9.75779e-05
5 *28:15 *60:11 0
6 *28:15 *185:14 0
7 *28:15 *212:6 1.03836e-05
8 *28:15 *454:23 0.000333159
9 *28:15 *457:75 0
10 *28:15 *531:8 0.00025392
11 *28:15 *549:33 0.000218372
12 *28:15 *560:14 0
13 *27:17 *28:15 0
*RES
1 A[5] *28:15 39.36 
2 *28:15 *3134:A 23 
*END

*D_NET *29 0.00175485
*CONN
*P A[6] I
*I *3135:A I *D sky130_fd_sc_hd__clkdlybuf4s25_1
*CAP
1 A[6] 0.000774202
2 *3135:A 0
3 *29:11 0.000774202
4 *29:11 *3099:B 8.1796e-05
5 *29:11 *3099:C 6.17014e-05
6 *29:11 *61:9 0
7 *29:11 *532:8 6.29487e-05
*RES
1 A[6] *29:11 32.0064 
2 *29:11 *3135:A 23 
*END

*D_NET *30 0.00207041
*CONN
*P A[7] I
*I *3137:A I *D sky130_fd_sc_hd__clkdlybuf4s25_1
*CAP
1 A[7] 0.000877318
2 *3137:A 0
3 *30:9 0.000877318
4 *30:9 S[7] 0
5 *30:9 *62:11 0.00012239
6 *30:9 *175:8 0
7 *30:9 *465:10 0.000193379
8 *30:9 *532:16 0
*RES
1 A[7] *30:9 33.6843 
2 *30:9 *3137:A 23 
*END

*D_NET *31 0.00294376
*CONN
*P A[8] I
*I *3138:A I *D sky130_fd_sc_hd__clkdlybuf4s25_1
*CAP
1 A[8] 0.000761221
2 *3138:A 0.000262696
3 *31:11 0.00102392
4 *3138:A S[8] 0
5 *3138:A S[9] 0.000614412
6 *3138:A *32:11 0
7 *31:11 *62:11 0.000103592
8 *31:11 *62:15 0
9 *31:11 *63:13 0.000177918
*RES
1 A[8] *31:11 47.3379 
2 *31:11 *3138:A 46.2443 
*END

*D_NET *32 0.00225718
*CONN
*P A[9] I
*I *3139:A I *D sky130_fd_sc_hd__clkdlybuf4s25_1
*CAP
1 A[9] 0.000836453
2 *3139:A 0
3 *32:11 0.000836453
4 *32:11 S[9] 0
5 *32:11 *3219:A 5.50106e-05
6 *32:11 *64:19 1.17182e-05
7 *32:11 *96:8 0.000165918
8 *32:11 *466:10 1.01436e-05
9 *32:11 *535:10 5.41385e-05
10 *32:11 *536:10 0.000275371
11 *32:11 *607:10 1.19692e-05
12 *3138:A *32:11 0
*RES
1 A[9] *32:11 35.5693 
2 *32:11 *3139:A 23 
*END

*D_NET *33 0.00191376
*CONN
*P B[0] I
*I *3140:A I *D sky130_fd_sc_hd__dlymetal6s4s_1
*CAP
1 B[0] 0.000495192
2 *3140:A 0
3 *33:9 0.000495192
4 *33:9 S[0] 0
5 *33:9 *65:6 0.000313249
6 *33:9 *564:6 0.000102301
7 *1:9 *33:9 0.000507821
*RES
1 B[0] *33:9 30.9086 
2 *33:9 *3140:A 23 
*END

*D_NET *34 0.00229307
*CONN
*P B[10] I
*I *3141:A I *D sky130_fd_sc_hd__clkdlybuf4s25_1
*CAP
1 B[10] 0.000620766
2 *3141:A 0
3 *34:15 0.000620766
4 *34:15 *35:15 0.00019175
5 *34:15 *158:8 0
6 *34:15 *159:8 0
7 *34:15 *520:8 3.22879e-05
8 *2:11 *34:15 0.000294553
9 *3:17 *34:15 0.000347523
10 *21:13 *34:15 0.000185428
*RES
1 B[10] *34:15 35.9406 
2 *34:15 *3141:A 23 
*END

*D_NET *35 0.00230715
*CONN
*P B[11] I
*I *3142:A I *D sky130_fd_sc_hd__clkdlybuf4s25_1
*CAP
1 B[11] 0.000903347
2 *3142:A 0
3 *35:15 0.000903347
4 *35:15 *3162:A 0
5 *35:15 *520:8 3.98818e-05
6 *3:17 *35:15 0.00026882
7 *34:15 *35:15 0.00019175
*RES
1 B[11] *35:15 34.2778 
2 *35:15 *3142:A 23 
*END

*D_NET *36 0.00179536
*CONN
*P B[12] I
*I *3143:A I *D sky130_fd_sc_hd__clkdlybuf4s25_1
*CAP
1 B[12] 0.000597385
2 *3143:A 0
3 *36:15 0.000597385
4 *36:15 S[14] 0.00026882
5 *36:15 *596:8 6.29487e-05
6 *4:11 *36:15 0.00026882
*RES
1 B[12] *36:15 33.6383 
2 *36:15 *3143:A 23 
*END

*D_NET *37 0.00172093
*CONN
*P B[13] I
*I *3144:A I *D sky130_fd_sc_hd__clkdlybuf4s25_1
*CAP
1 B[13] 0.00069429
2 *3144:A 0
3 *37:13 0.00069429
4 *37:13 *38:13 0.000119773
5 *5:11 *37:13 0.000109509
6 *6:11 *37:13 2.69993e-05
7 *7:13 *37:13 7.60701e-05
*RES
1 B[13] *37:13 36.831 
2 *37:13 *3144:A 23 
*END

*D_NET *38 0.00135223
*CONN
*P B[14] I
*I *3145:A I *D sky130_fd_sc_hd__clkdlybuf4s25_1
*CAP
1 B[14] 0.000586987
2 *3145:A 0
3 *38:13 0.000586987
4 *6:11 *38:13 5.84829e-05
5 *37:13 *38:13 0.000119773
*RES
1 B[14] *38:13 34.4428 
2 *38:13 *3145:A 23 
*END

*D_NET *39 0.00159283
*CONN
*P B[15] I
*I *3146:A I *D sky130_fd_sc_hd__clkdlybuf4s25_1
*CAP
1 B[15] 0.000730419
2 *3146:A 0
3 *39:11 0.000730419
4 *39:11 *52:11 0
5 *39:11 *543:8 0
6 *6:11 *39:11 0
7 *7:13 *39:11 0.00013199
*RES
1 B[15] *39:11 29.5727 
2 *39:11 *3146:A 23 
*END

*D_NET *40 0.0018028
*CONN
*P B[16] I
*I *3148:A I *D sky130_fd_sc_hd__clkdlybuf4s25_1
*CAP
1 B[16] 0.000662555
2 *3148:A 0
3 *40:11 0.000662555
4 *40:11 S[16] 0.000389156
5 *40:11 S[17] 7.87199e-05
6 *40:11 *3027:A_N 0
7 *40:11 *3028:A1 0
8 *40:11 *77:10 0
9 *40:11 *459:62 0
10 *40:11 *545:8 0
11 *40:11 *545:10 0
12 *8:13 *40:11 9.81333e-06
*RES
1 B[16] *40:11 32.3711 
2 *40:11 *3148:A 23 
*END

*D_NET *41 0.0012676
*CONN
*P B[17] I
*I *3149:A I *D sky130_fd_sc_hd__clkdlybuf4s25_1
*CAP
1 B[17] 0.000426353
2 *3149:A 0
3 *41:13 0.000426353
4 *41:13 *42:15 0.000182199
5 *9:13 *41:13 0.000232698
*RES
1 B[17] *41:13 30.7106 
2 *41:13 *3149:A 23 
*END

*D_NET *42 0.00154513
*CONN
*P B[18] I
*I *3150:A I *D sky130_fd_sc_hd__clkdlybuf4s25_1
*CAP
1 B[18] 0.000592391
2 *3150:A 0
3 *42:15 0.000592391
4 *42:15 S[30] 0
5 *42:15 *599:10 2.30292e-05
6 *3115:A *42:15 0
7 *9:13 *42:15 0.000155117
8 *41:13 *42:15 0.000182199
*RES
1 B[18] *42:15 30.6014 
2 *42:15 *3150:A 23 
*END

*D_NET *43 0.00169872
*CONN
*P B[19] I
*I *3151:A I *D sky130_fd_sc_hd__clkdlybuf4s25_1
*CAP
1 B[19] 0.000527356
2 *3151:A 0
3 *43:9 0.000527356
4 *43:9 S[18] 0.000644007
*RES
1 B[19] *43:9 31.1571 
2 *43:9 *3151:A 23 
*END

*D_NET *44 0.00502339
*CONN
*P B[1] I
*I *3152:A I *D sky130_fd_sc_hd__clkdlybuf4s25_1
*CAP
1 B[1] 0.00103048
2 *3152:A 0
3 *44:19 0.00103048
4 *44:19 *2751:A 7.20415e-05
5 *44:19 *2756:A1 7.4416e-05
6 *44:19 *2756:A2 8.1796e-05
7 *44:19 *2756:B1 7.88828e-05
8 *44:19 *223:14 0.000135375
9 *44:19 *223:29 1.21972e-05
10 *44:19 *454:8 0.000267292
11 *44:19 *454:17 0.000183314
12 *44:19 *473:29 0.000161121
13 *44:19 *549:8 0.000655835
14 *44:19 *564:10 1.59208e-05
15 *12:11 *44:19 0.000748762
16 *26:9 *44:19 0.000475476
*RES
1 B[1] *44:19 48.5364 
2 *44:19 *3152:A 23 
*END

*D_NET *45 0.00200485
*CONN
*P B[20] I
*I *3153:A I *D sky130_fd_sc_hd__clkdlybuf4s25_1
*CAP
1 B[20] 0.000538017
2 *3153:A 0
3 *45:11 0.000538017
4 *45:11 S[20] 0.000127066
5 *45:11 *459:62 0
6 *13:13 *45:11 0.000801754
*RES
1 B[20] *45:11 31.3147 
2 *45:11 *3153:A 23 
*END

*D_NET *46 0.00103293
*CONN
*P B[21] I
*I *3154:A I *D sky130_fd_sc_hd__clkdlybuf4s25_1
*CAP
1 B[21] 0.000516465
2 *3154:A 0
3 *46:13 0.000516465
*RES
1 B[21] *46:13 29.9679 
2 *46:13 *3154:A 23 
*END

*D_NET *47 0.0020305
*CONN
*P B[22] I
*I *3155:A I *D sky130_fd_sc_hd__clkdlybuf4s25_1
*CAP
1 B[22] 0.000373708
2 *3155:A 0
3 *47:9 0.000373708
4 *47:9 S[18] 0.000641541
5 *47:9 S[19] 0.000641541
*RES
1 B[22] *47:9 32.11 
2 *47:9 *3155:A 23 
*END

*D_NET *48 0.00181814
*CONN
*P B[23] I
*I *3156:A I *D sky130_fd_sc_hd__clkdlybuf4s25_1
*CAP
1 B[23] 0.000266297
2 *3156:A 0
3 *48:7 0.000266297
4 *11:9 *48:7 0.000641541
5 *15:11 *48:7 0.000644007
*RES
1 B[23] *48:7 30.5357 
2 *48:7 *3156:A 23 
*END

*D_NET *49 0.00224719
*CONN
*P B[24] I
*I *3157:A I *D sky130_fd_sc_hd__clkdlybuf4s25_1
*CAP
1 B[24] 0.000733584
2 *3157:A 0
3 *49:11 0.000733584
4 *49:11 *554:12 0.000113862
5 *17:9 *49:11 0.000666158
*RES
1 B[24] *49:11 35.1136 
2 *49:11 *3157:A 23 
*END

*D_NET *50 0.00206587
*CONN
*P B[25] I
*I *3159:A I *D sky130_fd_sc_hd__clkdlybuf4s25_1
*CAP
1 B[25] 0.000657992
2 *3159:A 0
3 *50:9 0.000657992
4 *50:9 S[26] 0
5 *50:9 *2905:A2 0
6 *50:9 *353:6 5.67058e-05
7 *50:9 *356:8 5.86535e-05
8 *50:9 *556:22 0
9 *18:9 *50:9 0.000634526
*RES
1 B[25] *50:9 33.6221 
2 *50:9 *3159:A 23 
*END

*D_NET *51 0.00159602
*CONN
*P B[26] I
*I *3160:A I *D sky130_fd_sc_hd__clkdlybuf4s25_1
*CAP
1 B[26] 0.000794243
2 *3160:A 0
3 *51:9 0.000794243
4 *51:9 *517:10 7.53384e-06
5 *19:9 *51:9 0
*RES
1 B[26] *51:9 32.11 
2 *51:9 *3160:A 23 
*END

*D_NET *52 0.00108309
*CONN
*P B[27] I
*I *3161:A I *D sky130_fd_sc_hd__clkdlybuf4s25_1
*CAP
1 B[27] 0.000445938
2 *3161:A 0
3 *52:11 0.000445938
4 *52:11 S[27] 0
5 *20:13 *52:11 0.000191211
6 *39:11 *52:11 0
*RES
1 B[27] *52:11 27.1077 
2 *52:11 *3161:A 23 
*END

*D_NET *53 0.00179082
*CONN
*P B[28] I
*I *3162:A I *D sky130_fd_sc_hd__clkdlybuf4s25_1
*CAP
1 B[28] 0.000555519
2 *3162:A 0.000555519
3 *3162:A S[12] 0.000425218
4 *3162:A S[13] 6.47187e-05
5 *3162:A *540:20 0.00012799
6 *3162:A *576:10 6.18548e-05
7 *35:15 *3162:A 0
*RES
1 B[28] *3162:A 49.824 
*END

*D_NET *54 0.00174901
*CONN
*P B[29] I
*I *3163:A I *D sky130_fd_sc_hd__clkdlybuf4s25_1
*CAP
1 B[29] 0.000494574
2 *3163:A 0
3 *54:9 0.000494574
4 *54:9 S[4] 0
5 *54:9 *59:11 0.000635924
6 *54:9 *565:8 0.000123934
*RES
1 B[29] *54:9 29.9557 
2 *54:9 *3163:A 23 
*END

*D_NET *55 0.000936
*CONN
*P B[2] I
*I *3164:A I *D sky130_fd_sc_hd__clkdlybuf4s25_1
*CAP
1 B[2] 0.000361717
2 *3164:A 0
3 *55:13 0.000361717
4 *55:13 S[3] 0.00010459
5 *55:13 *90:10 0
6 *23:13 *55:13 0.000107978
*RES
1 B[2] *55:13 29.4173 
2 *55:13 *3164:A 23 
*END

*D_NET *56 0.00220675
*CONN
*P B[30] I
*I *3165:A I *D sky130_fd_sc_hd__clkdlybuf4s25_1
*CAP
1 B[30] 0.000707167
2 *3165:A 0
3 *56:11 0.000707167
4 *56:11 S[30] 0.000113215
5 *56:11 *457:42 3.52734e-05
6 *56:11 *527:8 2.26497e-05
7 *56:11 *608:8 0
8 *24:11 *56:11 0.000621279
*RES
1 B[30] *56:11 27.1402 
2 *56:11 *3165:A 23 
*END

*D_NET *57 0.00158474
*CONN
*P B[31] I
*I *3166:A I *D sky130_fd_sc_hd__clkdlybuf4s25_1
*CAP
1 B[31] 0.000687778
2 *3166:A 0
3 *57:13 0.000687778
4 *57:13 carryOut 0.00010459
5 *57:13 *89:10 0
6 *57:13 *90:10 0
7 *25:15 *57:13 0.00010459
*RES
1 B[31] *57:13 36.4602 
2 *57:13 *3166:A 23 
*END

*D_NET *58 0.00437773
*CONN
*P B[3] I
*I *3167:A I *D sky130_fd_sc_hd__clkdlybuf4s25_1
*CAP
1 B[3] 0.000890721
2 *3167:A 0
3 *58:17 0.000890721
4 *58:17 *60:11 0.000679838
5 *58:17 *65:6 0.000141954
6 *58:17 *564:6 0.000305377
7 *58:17 *567:10 0.000707122
8 *26:9 *58:17 0.000481806
9 *27:17 *58:17 0.000280192
*RES
1 B[3] *58:17 45.7814 
2 *58:17 *3167:A 23 
*END

*D_NET *59 0.00236802
*CONN
*P B[4] I
*I *3168:A I *D sky130_fd_sc_hd__clkdlybuf4s25_1
*CAP
1 B[4] 0.000506275
2 *3168:A 0
3 *59:11 0.000506275
4 *59:11 *565:8 1.03955e-05
5 *22:13 *59:11 0.000496572
6 *27:17 *59:11 0.000212581
7 *54:9 *59:11 0.000635924
*RES
1 B[4] *59:11 32.9593 
2 *59:11 *3168:A 23 
*END

*D_NET *60 0.00324942
*CONN
*P B[5] I
*I *3170:A I *D sky130_fd_sc_hd__clkdlybuf4s25_1
*CAP
1 B[5] 0.000650037
2 *3170:A 0
3 *60:11 0.000650037
4 *60:11 *457:75 9.84794e-05
5 *60:11 *530:8 0.000781048
6 *60:11 *564:6 2.4754e-05
7 *26:9 *60:11 0
8 *27:17 *60:11 0.000365224
9 *28:15 *60:11 0
10 *58:17 *60:11 0.000679838
*RES
1 B[5] *60:11 37.475 
2 *60:11 *3170:A 23 
*END

*D_NET *61 0.00198616
*CONN
*P B[6] I
*I *3171:A I *D sky130_fd_sc_hd__clkdlybuf4s25_1
*CAP
1 B[6] 0.000853122
2 *3171:A 0
3 *61:9 0.000853122
4 *61:9 *174:8 0
5 *61:9 *177:10 0
6 *61:9 *464:10 1.01436e-05
7 *61:9 *475:8 0
8 *61:9 *568:10 0.000269775
9 *29:11 *61:9 0
*RES
1 B[6] *61:9 33.6014 
2 *61:9 *3171:A 23 
*END

*D_NET *62 0.00283099
*CONN
*P B[7] I
*I *3172:A I *D sky130_fd_sc_hd__clkdlybuf4s25_1
*CAP
1 B[7] 0.000610953
2 *3172:A 0
3 *62:15 0.000641607
4 *62:11 0.00125256
5 *62:11 S[7] 0
6 *62:15 *3073:B 0
7 *62:15 *63:13 0
8 *62:15 *475:27 9.98891e-05
9 *62:15 *570:23 0
10 *30:9 *62:11 0.00012239
11 *31:11 *62:11 0.000103592
12 *31:11 *62:15 0
*RES
1 B[7] *62:11 43.5471 
2 *62:11 *62:15 27.8221 
3 *62:15 *3172:A 23 
*END

*D_NET *63 0.00279535
*CONN
*P B[8] I
*I *3173:A I *D sky130_fd_sc_hd__clkdlybuf4s25_1
*CAP
1 B[8] 0.000845148
2 *3173:A 0
3 *63:13 0.000845148
4 *63:13 S[7] 0
5 *63:13 *3073:A_N 5.3304e-05
6 *63:13 *466:10 0.000187129
7 *63:13 *570:6 0.000651923
8 *63:13 *570:23 3.47781e-05
9 *31:11 *63:13 0.000177918
10 *62:15 *63:13 0
*RES
1 B[8] *63:13 37.8686 
2 *63:13 *3173:A 23 
*END

*D_NET *64 0.00275728
*CONN
*P B[9] I
*I *3174:A I *D sky130_fd_sc_hd__clkdlybuf4s25_1
*CAP
1 B[9] 0.00104057
2 *3174:A 0
3 *64:19 0.00104057
4 *64:19 *3068:A2 4.95081e-05
5 *64:19 *504:8 0.000228909
6 *64:19 *504:19 0.000141954
7 *64:19 *536:10 0.000141879
8 *64:19 *536:19 6.38845e-05
9 *64:19 *607:10 3.82956e-05
10 *32:11 *64:19 1.17182e-05
*RES
1 B[9] *64:19 38.78 
2 *64:19 *3174:A 23 
*END

*D_NET *65 0.0034372
*CONN
*P S[0] O
*I *3188:X O *D sky130_fd_sc_hd__clkdlybuf4s25_1
*CAP
1 S[0] 0.000386965
2 *3188:X 0.000712924
3 *65:6 0.00109989
4 S[0] S[1] 0.000496572
5 *65:6 *3188:A 0.000278201
6 *65:6 *564:6 7.44161e-06
7 *33:9 S[0] 0
8 *33:9 *65:6 0.000313249
9 *58:17 *65:6 0.000141954
*RES
1 *3188:X *65:6 36.485 
2 *65:6 S[0] 27.0764 
*END

*D_NET *66 0.00115301
*CONN
*P S[10] O
*I *3189:X O *D sky130_fd_sc_hd__buf_6
*CAP
1 S[10] 0.000447399
2 *3189:X 0.000447399
3 S[10] S[11] 0.000243415
4 S[10] *575:8 1.4796e-05
*RES
1 *3189:X S[10] 48.4241 
*END

*D_NET *67 0.00113903
*CONN
*P S[11] O
*I *3190:X O *D sky130_fd_sc_hd__buf_6
*CAP
1 S[11] 0.000428581
2 *3190:X 0.000428581
3 S[11] *575:8 3.84556e-05
4 S[10] S[11] 0.000243415
*RES
1 *3190:X S[11] 48.6904 
*END

*D_NET *68 0.00153793
*CONN
*P S[12] O
*I *3191:X O *D sky130_fd_sc_hd__buf_6
*CAP
1 S[12] 0.000173737
2 *3191:X 0.000161403
3 *68:10 0.00033514
4 S[12] S[13] 0.000442436
5 *68:10 S[13] 0
6 *68:10 *540:20 0
7 *68:10 *576:10 0
8 *3162:A S[12] 0.000425218
9 *21:13 *68:10 0
*RES
1 *3191:X *68:10 48.7861 
2 *68:10 S[12] 1.49333 
*END

*D_NET *69 0.00172425
*CONN
*P S[13] O
*I *3192:X O *D sky130_fd_sc_hd__buf_6
*CAP
1 S[13] 0.000421548
2 *3192:X 0.000421548
3 S[13] S[14] 0.000120697
4 S[13] S[28] 0
5 S[13] *540:20 6.54744e-05
6 S[12] S[13] 0.000442436
7 *3162:A S[13] 6.47187e-05
8 *21:13 S[13] 0.000187831
9 *68:10 S[13] 0
*RES
1 *3192:X S[13] 49.7382 
*END

*D_NET *70 0.00116232
*CONN
*P S[14] O
*I *3193:X O *D sky130_fd_sc_hd__buf_6
*CAP
1 S[14] 0.000252223
2 *3193:X 0.000252223
3 S[14] S[28] 0
4 S[14] *540:20 0
5 S[13] S[14] 0.000120697
6 *4:11 S[14] 8.05212e-05
7 *21:13 S[14] 0.000187831
8 *36:15 S[14] 0.00026882
*RES
1 *3193:X S[14] 48.1665 
*END

*D_NET *71 0.0011016
*CONN
*P S[15] O
*I *3194:X O *D sky130_fd_sc_hd__clkbuf_2
*CAP
1 S[15] 0.000439405
2 *3194:X 0.000439405
3 S[15] S[28] 0
4 S[15] S[29] 0.000222787
5 S[15] *580:8 0
6 *5:11 S[15] 0
*RES
1 *3194:X S[15] 48.9567 
*END

*D_NET *72 0.00261858
*CONN
*P S[16] O
*I *3195:X O *D sky130_fd_sc_hd__buf_6
*CAP
1 S[16] 0.000604026
2 *3195:X 0.000284398
3 *72:10 0.000888424
4 S[16] S[20] 0
5 *72:10 *105:10 0.000143655
6 *72:10 *459:32 7.76035e-05
7 *72:10 *459:41 0.000169665
8 *72:10 *459:62 6.16531e-05
9 *40:11 S[16] 0.000389156
*RES
1 *3195:X *72:10 44.8461 
2 *72:10 S[16] 10.2475 
*END

*D_NET *73 0.00134299
*CONN
*P S[17] O
*I *3196:X O *D sky130_fd_sc_hd__buf_6
*CAP
1 S[17] 3.64391e-05
2 *3196:X 0.000531089
3 *73:10 0.000567528
4 *8:13 S[17] 7.87199e-05
5 *8:13 *73:10 5.04995e-05
6 *40:11 S[17] 7.87199e-05
*RES
1 *3196:X *73:10 48.5332 
2 *73:10 S[17] 8.27253 
*END

*D_NET *74 0.0033069
*CONN
*P S[18] O
*I *3197:X O *D sky130_fd_sc_hd__buf_2
*CAP
1 S[18] 0.000563111
2 *3197:X 0.000158976
3 *74:8 0.000722087
4 S[18] S[19] 0
5 S[18] *463:84 0.00011273
6 S[18] *552:8 6.93449e-05
7 S[18] *552:33 0.000348456
8 *74:8 *463:71 7.44161e-06
9 *74:8 *463:84 3.16665e-05
10 *74:8 *552:33 7.53384e-06
11 *43:9 S[18] 0.000644007
12 *47:9 S[18] 0.000641541
*RES
1 *3197:X *74:8 40.0507 
2 *74:8 S[18] 22.9307 
*END

*D_NET *75 0.00230238
*CONN
*P S[19] O
*I *3198:X O *D sky130_fd_sc_hd__buf_4
*CAP
1 S[19] 0.000373959
2 *3198:X 1.89204e-05
3 *75:8 0.000392879
4 *75:8 *2858:A 9.84851e-05
5 *75:8 *2858:B 5.70419e-05
6 S[18] S[19] 0
7 *15:11 S[19] 0.000719556
8 *47:9 S[19] 0.000641541
*RES
1 *3198:X *75:8 39.0979 
2 *75:8 S[19] 17.6486 
*END

*D_NET *76 0.00276123
*CONN
*P S[1] O
*I *3199:X O *D sky130_fd_sc_hd__buf_6
*CAP
1 S[1] 0.000494238
2 *3199:X 7.93442e-05
3 *76:8 0.000573582
4 S[1] S[2] 0.000499048
5 S[1] *429:10 0.000141869
6 S[1] *523:8 1.12487e-05
7 S[1] *585:8 3.21223e-05
8 S[1] *597:10 0
9 *76:8 *429:10 0.000313249
10 *76:8 *572:20 0.000119957
11 S[0] S[1] 0.000496572
12 *1:9 S[1] 0
*RES
1 *3199:X *76:8 41.48 
2 *76:8 S[1] 17.7107 
*END

*D_NET *77 0.00138019
*CONN
*P S[20] O
*I *3200:X O *D sky130_fd_sc_hd__clkbuf_4
*CAP
1 S[20] 0.00015233
2 *3200:X 0.000474231
3 *77:10 0.000626561
4 S[16] S[20] 0
5 *40:11 *77:10 0
6 *45:11 S[20] 0.000127066
*RES
1 *3200:X *77:10 45.5711 
2 *77:10 S[20] 8.78773 
*END

*D_NET *78 0.0026814
*CONN
*P S[21] O
*I *3201:X O *D sky130_fd_sc_hd__buf_8
*CAP
1 S[21] 0.000583287
2 *3201:X 0.00028387
3 *78:8 0.000867157
4 S[21] S[22] 0.000629251
5 S[21] *319:8 0
6 S[21] *320:8 3.92407e-05
7 S[21] *495:8 0
8 S[21] *589:8 0.000199701
9 *78:8 *2876:A 7.88926e-05
*RES
1 *3201:X *78:8 42.9093 
2 *78:8 S[21] 18.3529 
*END

*D_NET *79 0.00189095
*CONN
*P S[22] O
*I *3202:X O *D sky130_fd_sc_hd__buf_8
*CAP
1 S[22] 0.000474526
2 *3202:X 0.000127971
3 *79:8 0.000602496
4 *79:8 *3202:A 5.67058e-05
5 S[21] S[22] 0.000629251
*RES
1 *3202:X *79:8 40.5271 
2 *79:8 S[22] 15.1836 
*END

*D_NET *80 0.00233127
*CONN
*P S[23] O
*I *3203:X O *D sky130_fd_sc_hd__buf_6
*CAP
1 S[23] 0.00067697
2 *3203:X 0.000402405
3 *80:10 0.00107938
4 *80:10 *3203:A 7.88828e-05
5 *80:10 *507:8 8.04014e-05
6 *16:11 *80:10 1.32314e-05
*RES
1 *3203:X *80:10 45.7886 
2 *80:10 S[23] 14.8314 
*END

*D_NET *81 0.00185636
*CONN
*P S[24] O
*I *3204:X O *D sky130_fd_sc_hd__clkbuf_2
*CAP
1 S[24] 0.000876533
2 *3204:X 4.01848e-05
3 *81:8 0.000916718
4 S[24] S[25] 0
5 S[24] *509:10 2.29192e-05
6 S[24] *509:18 0
7 S[24] *592:8 0
8 *17:9 S[24] 0
*RES
1 *3204:X *81:8 38.6214 
2 *81:8 S[24] 17.6486 
*END

*D_NET *82 0.00168857
*CONN
*P S[25] O
*I *3205:X O *D sky130_fd_sc_hd__clkbuf_2
*CAP
1 S[25] 0.00067697
2 *3205:X 0.000125354
3 *82:8 0.000802325
4 *82:8 *3205:A 7.24484e-05
5 *82:8 *554:12 1.14762e-05
6 S[24] S[25] 0
*RES
1 *3205:X *82:8 40.5271 
2 *82:8 S[25] 14.8314 
*END

*D_NET *83 0.00147873
*CONN
*P S[26] O
*I *3206:X O *D sky130_fd_sc_hd__clkbuf_2
*CAP
1 S[26] 0.000683542
2 *3206:X 2.37754e-05
3 *83:8 0.000707317
4 *83:8 *474:89 5.50106e-05
5 *83:8 *513:6 5.37348e-06
6 *83:8 *593:14 3.7122e-06
7 *19:9 S[26] 0
8 *50:9 S[26] 0
*RES
1 *3206:X *83:8 38.6214 
2 *83:8 S[26] 14.8314 
*END

*D_NET *84 0.00144074
*CONN
*P S[27] O
*I *3207:X O *D sky130_fd_sc_hd__buf_4
*CAP
1 S[27] 0.000152334
2 *3207:X 0.000478812
3 *84:10 0.000631147
4 *20:13 S[27] 0.000102375
5 *20:13 *84:10 7.60701e-05
6 *52:11 S[27] 0
*RES
1 *3207:X *84:10 47.5804 
2 *84:10 S[27] 8.72053 
*END

*D_NET *85 0.00201215
*CONN
*P S[28] O
*I *3208:X O *D sky130_fd_sc_hd__buf_6
*CAP
1 S[28] 0.000433009
2 *3208:X 0.000119145
3 *85:10 0.000552154
4 S[28] S[29] 0.000449908
5 *85:10 S[29] 0
6 *85:10 *3043:B 5.56203e-05
7 *85:10 *540:20 2.22269e-05
8 S[13] S[28] 0
9 S[14] S[28] 0
10 S[15] S[28] 0
11 *4:11 S[28] 0.000380082
*RES
1 *3208:X *85:10 48.0818 
2 *85:10 S[28] 2.00853 
*END

*D_NET *86 0.00122372
*CONN
*P S[29] O
*I *3209:X O *D sky130_fd_sc_hd__buf_6
*CAP
1 S[29] 0.000275511
2 *3209:X 0.000275511
3 S[15] S[29] 0.000222787
4 S[28] S[29] 0.000449908
5 *85:10 S[29] 0
*RES
1 *3209:X S[29] 48.8708 
*END

*D_NET *87 0.00126108
*CONN
*P S[2] O
*I *3210:X O *D sky130_fd_sc_hd__buf_6
*CAP
1 S[2] 0.000381016
2 *3210:X 0
3 *87:6 0.000381016
4 S[1] S[2] 0.000499048
*RES
1 *3210:X *87:6 38 
2 *87:6 S[2] 12.0764 
*END

*D_NET *88 0.000986704
*CONN
*P S[30] O
*I *3211:X O *D sky130_fd_sc_hd__buf_6
*CAP
1 S[30] 0.00014171
2 *3211:X 0.000295034
3 *88:10 0.000436745
4 *42:15 S[30] 0
5 *56:11 S[30] 0.000113215
*RES
1 *3211:X *88:10 43.3339 
2 *88:10 S[30] 8.70187 
*END

*D_NET *89 0.00176677
*CONN
*P S[31] O
*I *3212:X O *D sky130_fd_sc_hd__buf_6
*CAP
1 S[31] 7.42636e-05
2 *3212:X 0.000529225
3 *89:10 0.000603488
4 S[31] carryOut 0.000208068
5 *89:10 *2977:B 0
6 *89:10 *421:10 0
7 *24:11 S[31] 0.000208068
8 *25:15 *89:10 0.000143655
9 *57:13 *89:10 0
*RES
1 *3212:X *89:10 49.3204 
2 *89:10 S[31] 8.70187 
*END

*D_NET *90 0.00100998
*CONN
*P S[3] O
*I *3213:X O *D sky130_fd_sc_hd__buf_8
*CAP
1 S[3] 0.000118511
2 *3213:X 0.000313406
3 *90:10 0.000431917
4 *23:13 S[3] 4.15523e-05
5 *55:13 S[3] 0.00010459
6 *55:13 *90:10 0
7 *57:13 *90:10 0
*RES
1 *3213:X *90:10 43.9346 
2 *90:10 S[3] 8.616 
*END

*D_NET *91 0.00201119
*CONN
*P S[4] O
*I *3214:X O *D sky130_fd_sc_hd__buf_6
*CAP
1 S[4] 0.000440373
2 *3214:X 0.000237033
3 *91:8 0.000677406
4 S[4] S[5] 0.000507821
5 S[4] *603:10 0
6 S[4] *604:8 6.7177e-06
7 *91:8 *92:12 9.67842e-05
8 *91:8 *93:8 4.5051e-05
9 *54:9 S[4] 0
*RES
1 *3214:X *91:8 42.4329 
2 *91:8 S[4] 12.7807 
*END

*D_NET *92 0.00232067
*CONN
*P S[5] O
*I *3215:X O *D sky130_fd_sc_hd__buf_6
*CAP
1 S[5] 0.000236623
2 *3215:X 0.000270021
3 *92:12 0.000506644
4 S[5] S[6] 0.000496572
5 S[5] *604:8 1.01436e-05
6 *92:12 *93:8 0.000139352
7 *92:12 *565:8 5.67058e-05
8 S[4] S[5] 0.000507821
9 *91:8 *92:12 9.67842e-05
*RES
1 *3215:X *92:12 44.0279 
2 *92:12 S[5] 12.4286 
*END

*D_NET *93 0.00173038
*CONN
*P S[6] O
*I *3216:X O *D sky130_fd_sc_hd__buf_6
*CAP
1 S[6] 0.000386965
2 *3216:X 0.00013774
3 *93:8 0.000524704
4 S[5] S[6] 0.000496572
5 *91:8 *93:8 4.5051e-05
6 *92:12 *93:8 0.000139352
*RES
1 *3216:X *93:8 40.5271 
2 *93:8 S[6] 12.0764 
*END

*D_NET *94 0.00285346
*CONN
*P S[7] O
*I *3217:X O *D sky130_fd_sc_hd__buf_6
*CAP
1 S[7] 0.000980486
2 *3217:X 6.18015e-05
3 *94:8 0.00104229
4 S[7] *3097:A 0.00019266
5 S[7] *175:8 0.000114092
6 S[7] *449:12 1.12487e-05
7 S[7] *465:10 0
8 S[7] *534:8 0.000137788
9 S[7] *570:23 0
10 *94:8 *3072:A 9.67842e-05
11 *94:8 *3072:B 0.000147191
12 *94:8 *150:10 1.41129e-05
13 *94:8 *468:12 5.50106e-05
14 *30:9 S[7] 0
15 *62:11 S[7] 0
16 *63:13 S[7] 0
*RES
1 *3217:X *94:8 40.0507 
2 *94:8 S[7] 21.6464 
*END

*D_NET *95 0.00242767
*CONN
*P S[8] O
*I *3218:X O *D sky130_fd_sc_hd__buf_6
*CAP
1 S[8] 0.000917913
2 *3218:X 0.00015563
3 *95:10 0.00107354
4 S[8] S[9] 0
5 S[8] *439:10 0.000141869
6 S[8] *475:38 0
7 S[8] *535:10 0.000138718
8 *3138:A S[8] 0
*RES
1 *3218:X *95:10 40.5479 
2 *95:10 S[8] 20.2586 
*END

*D_NET *96 0.00234878
*CONN
*P S[9] O
*I *3219:X O *D sky130_fd_sc_hd__buf_6
*CAP
1 S[9] 0.000427005
2 *3219:X 0.000285704
3 *96:8 0.000712709
4 *96:8 *3219:A 5.67058e-05
5 *96:8 *466:10 7.88926e-05
6 *96:8 *535:10 7.43025e-06
7 S[8] S[9] 0
8 *3138:A S[9] 0.000614412
9 *32:11 S[9] 0
10 *32:11 *96:8 0.000165918
*RES
1 *3219:X *96:8 43.8621 
2 *96:8 S[9] 12.0764 
*END

*D_NET *99 0.0025384
*CONN
*P carryOut O
*I *3220:X O *D sky130_fd_sc_hd__buf_6
*CAP
1 carryOut 0.000364932
2 *3220:X 0.000327543
3 *99:8 0.000692475
4 *99:8 *563:8 0.000180036
5 *99:8 *598:16 0.000141869
6 *99:8 *608:8 0
7 S[31] carryOut 0.000208068
8 *24:11 carryOut 0.000195667
9 *24:11 *99:8 0.000206622
10 *25:15 carryOut 0.000116599
11 *57:13 carryOut 0.00010459
*RES
1 *3220:X *99:8 45.7161 
2 *99:8 carryOut 9.98987 
*END

*D_NET *100 0.00161607
*CONN
*P sub I
*I *3175:A I *D sky130_fd_sc_hd__buf_8
*CAP
1 sub 0.000808033
2 *3175:A 0
3 *100:19 0.000808033
*RES
1 sub *100:19 32.8971 
2 *100:19 *3175:A 23 
*END

*D_NET *101 0.00033723
*CONN
*I *2728:A I *D sky130_fd_sc_hd__nand3_2
*I *3023:Y O *D sky130_fd_sc_hd__inv_2
*CAP
1 *2728:A 0
2 *3023:Y 0.000126559
3 *101:8 0.000126559
4 *101:8 *2728:B 8.41115e-05
5 *101:8 *531:21 0
*RES
1 *3023:Y *101:8 40.2579 
2 *101:8 *2728:A 38 
*END

*D_NET *102 0.00104681
*CONN
*I *3027:A_N I *D sky130_fd_sc_hd__nand3b_2
*I *3028:A1 I *D sky130_fd_sc_hd__o21bai_4
*I *3024:Y O *D sky130_fd_sc_hd__nor2_8
*CAP
1 *3027:A_N 0.000279881
2 *3028:A1 9.71431e-05
3 *3024:Y 0
4 *102:6 0.000377024
5 *3027:A_N *3025:A 2.22033e-05
6 *3027:A_N *3026:A 9.84794e-05
7 *3027:A_N *3027:B 5.41288e-05
8 *3027:A_N *545:10 7.45536e-05
9 *3028:A1 *3025:A 4.33941e-05
10 *40:11 *3027:A_N 0
11 *40:11 *3028:A1 0
*RES
1 *3024:Y *102:6 38 
2 *102:6 *3028:A1 39.9057 
3 *102:6 *3027:A_N 43.7379 
*END

*D_NET *103 0.000595067
*CONN
*I *3028:A2 I *D sky130_fd_sc_hd__o21bai_4
*I *3025:X O *D sky130_fd_sc_hd__and2_4
*CAP
1 *3028:A2 8.86164e-05
2 *3025:X 8.83236e-05
3 *103:8 0.00017694
4 *3028:A2 *3028:B1_N 7.15126e-05
5 *103:8 *459:32 0.000169674
6 *103:8 *582:8 0
*RES
1 *3025:X *103:8 40.2579 
2 *103:8 *3028:A2 39.5743 
*END

*D_NET *104 0.000649853
*CONN
*I *3027:B I *D sky130_fd_sc_hd__nand3b_2
*I *3026:Y O *D sky130_fd_sc_hd__nand2_2
*CAP
1 *3027:B 0.00015371
2 *3026:Y 0.00015371
3 *3027:B *3026:A 1.03955e-05
4 *3027:B *3026:B 0.000277909
5 *3027:A_N *3027:B 5.41288e-05
*RES
1 *3026:Y *3027:B 49.8529 
*END

*D_NET *105 0.00358155
*CONN
*I *3029:A I *D sky130_fd_sc_hd__nand2_2
*I *2811:A I *D sky130_fd_sc_hd__and4_2
*I *2812:A I *D sky130_fd_sc_hd__nand2_2
*I *2802:A2 I *D sky130_fd_sc_hd__a21bo_2
*I *3027:Y O *D sky130_fd_sc_hd__nand3b_2
*CAP
1 *3029:A 0
2 *2811:A 0
3 *2812:A 0.000308523
4 *2802:A2 0
5 *3027:Y 0.000476982
6 *105:44 0.000122101
7 *105:38 0.000182294
8 *105:21 0.000540197
9 *105:10 0.000648464
10 *2812:A *2812:B 0.000208459
11 *2812:A *2813:A 3.18142e-05
12 *2812:A *581:8 3.70094e-05
13 *105:10 *2802:B1_N 0.000142432
14 *105:10 *3195:A 0.000156619
15 *105:21 *3195:A 5.40241e-05
16 *105:21 *261:8 0
17 *105:21 *581:8 0.000219882
18 *105:38 *107:8 0.000144494
19 *105:38 *260:25 0.000100543
20 *105:44 *260:10 5.58975e-06
21 *105:44 *260:25 5.84705e-05
22 *105:44 *261:8 0
23 *72:10 *105:10 0.000143655
*RES
1 *3027:Y *105:10 32.8393 
2 *105:10 *2802:A2 23 
3 *105:10 *105:21 19.06 
4 *105:21 *2812:A 43.7586 
5 *105:21 *105:38 17.0507 
6 *105:38 *105:44 32.61 
7 *105:44 *2811:A 23 
8 *105:38 *3029:A 23 
*END

*D_NET *106 0.00313045
*CONN
*I *2802:B1_N I *D sky130_fd_sc_hd__a21bo_2
*I *3029:B I *D sky130_fd_sc_hd__nand2_2
*I *2811:B I *D sky130_fd_sc_hd__and4_2
*I *3028:Y O *D sky130_fd_sc_hd__o21bai_4
*CAP
1 *2802:B1_N 0.000212089
2 *3029:B 0.000107513
3 *2811:B 0.00028108
4 *3028:Y 0.000372899
5 *106:21 0.000405263
6 *106:10 0.00073964
7 *2802:B1_N *3195:A 0.000142432
8 *2802:B1_N *261:8 0.000195248
9 *2811:B *258:21 0.000269718
10 *106:10 *3028:B1_N 3.06338e-05
11 *106:10 *258:21 2.70469e-05
12 *106:10 *261:8 6.48049e-05
13 *106:10 *582:8 0
14 *106:21 *261:8 0.000139647
15 *105:10 *2802:B1_N 0.000142432
*RES
1 *3028:Y *106:10 44.9393 
2 *106:10 *2811:B 41.9564 
3 *106:10 *106:21 1.90571 
4 *106:21 *3029:B 39.5743 
5 *106:21 *2802:B1_N 42.8937 
*END

*D_NET *107 0.00150006
*CONN
*I *2834:D I *D sky130_fd_sc_hd__nor4_4
*I *2795:A I *D sky130_fd_sc_hd__xor2_2
*I *3029:Y O *D sky130_fd_sc_hd__nand2_2
*CAP
1 *2834:D 0.000192826
2 *2795:A 0
3 *3029:Y 0.000278975
4 *107:8 0.0004718
5 *2834:D *260:25 0.000275371
6 *107:8 *260:25 0.000136594
7 *105:38 *107:8 0.000144494
*RES
1 *3029:Y *107:8 29.3593 
2 *107:8 *2795:A 23 
3 *107:8 *2834:D 28.3857 
*END

*D_NET *108 0.00103457
*CONN
*I *3051:A1 I *D sky130_fd_sc_hd__o21bai_2
*I *3032:B I *D sky130_fd_sc_hd__or3b_4
*I *3030:Y O *D sky130_fd_sc_hd__nor2_2
*CAP
1 *3051:A1 0
2 *3032:B 0
3 *3030:Y 0.000205671
4 *108:21 0.000162581
5 *108:8 0.000368252
6 *108:8 *470:74 9.58714e-05
7 *108:8 *543:24 0.000103324
8 *108:21 *3051:A2 9.88678e-05
9 *108:21 *541:10 0
*RES
1 *3030:Y *108:8 26.9771 
2 *108:8 *3032:B 23 
3 *108:8 *108:21 33.2314 
4 *108:21 *3051:A1 23 
*END

*D_NET *109 0.00059912
*CONN
*I *3032:A I *D sky130_fd_sc_hd__or3b_4
*I *3051:A2 I *D sky130_fd_sc_hd__o21bai_2
*I *3031:X O *D sky130_fd_sc_hd__and2_4
*CAP
1 *3032:A 0
2 *3051:A2 0.000123078
3 *3031:X 7.91471e-05
4 *109:8 0.000202225
5 *3051:A2 *3051:B1_N 0
6 *3051:A2 *110:8 2.5415e-05
7 *3051:A2 *470:74 0
8 *3051:A2 *543:24 4.6318e-06
9 *109:8 *543:24 6.57551e-05
10 *108:21 *3051:A2 9.88678e-05
*RES
1 *3031:X *109:8 39.9057 
2 *109:8 *3051:A2 40.9621 
3 *109:8 *3032:A 38 
*END

*D_NET *110 0.00871568
*CONN
*I *3062:A I *D sky130_fd_sc_hd__and4_4
*I *3063:A3 I *D sky130_fd_sc_hd__a41o_2
*I *3241:A I *D sky130_fd_sc_hd__buf_2
*I *3054:B1_N I *D sky130_fd_sc_hd__a21boi_2
*I *3245:A I *D sky130_fd_sc_hd__buf_2
*I *3032:X O *D sky130_fd_sc_hd__or3b_4
*CAP
1 *3062:A 0
2 *3063:A3 0
3 *3241:A 0.000179701
4 *3054:B1_N 0.000172583
5 *3245:A 0.000448438
6 *3032:X 5.77815e-05
7 *110:43 0.00050704
8 *110:39 0.000263146
9 *110:37 0.000960183
10 *110:16 0.00199995
11 *110:8 0.000757495
12 *3054:B1_N *3054:A1 1.24376e-05
13 *3054:B1_N *132:6 0.000141052
14 *3241:A *129:43 0
15 *3241:A *130:8 7.03869e-05
16 *3241:A *141:8 0
17 *3245:A *3019:A1 0.000163361
18 *3245:A *3047:C 1.01436e-05
19 *3245:A *3056:A2 0
20 *3245:A *121:10 0
21 *3245:A *121:12 0
22 *3245:A *123:10 0
23 *3245:A *124:8 0
24 *3245:A *129:10 2.04807e-05
25 *3245:A *447:10 0
26 *3245:A *469:91 0
27 *3245:A *470:26 0
28 *3245:A *502:10 0.000398655
29 *110:8 *3051:B1_N 3.3746e-05
30 *110:8 *470:74 1.01436e-05
31 *110:16 *3051:B1_N 0
32 *110:16 *124:8 0
33 *110:16 *129:10 0.00024346
34 *110:16 *470:10 0
35 *110:16 *470:16 0
36 *110:16 *474:10 0
37 *110:16 *566:8 1.32289e-05
38 *110:37 *3060:D1 0.000221084
39 *110:37 *3062:C 0.000215671
40 *110:37 *3063:A4 0.000228903
41 *110:37 *114:6 2.63049e-05
42 *110:37 *129:28 2.78262e-05
43 *110:37 *542:6 0.000485452
44 *110:37 *542:18 0.000178517
45 *110:39 *3062:C 0.000139352
46 *110:39 *3063:A2 7.55481e-05
47 *110:39 *3063:A4 0.000484545
48 *110:39 *140:14 0.000143655
49 *110:43 *129:43 0
50 *110:43 *141:8 0
51 *3051:A2 *110:8 2.5415e-05
*RES
1 *3032:X *110:8 39.2014 
2 *110:8 *110:16 42.0764 
3 *110:16 *3245:A 47.3007 
4 *110:16 *110:37 30.7221 
5 *110:37 *110:39 5.38571 
6 *110:39 *110:43 17.2579 
7 *110:43 *3054:B1_N 41.5007 
8 *110:43 *3241:A 41.3143 
9 *110:39 *3063:A3 23 
10 *110:37 *3062:A 23 
*END

*D_NET *111 0.00245826
*CONN
*I *3050:A2 I *D sky130_fd_sc_hd__o21bai_4
*I *3244:A I *D sky130_fd_sc_hd__buf_2
*I *3060:A2 I *D sky130_fd_sc_hd__o2111a_2
*I *3035:A I *D sky130_fd_sc_hd__nor2_2
*I *3033:X O *D sky130_fd_sc_hd__and2_4
*CAP
1 *3050:A2 4.58204e-05
2 *3244:A 0.000161952
3 *3060:A2 0.00017495
4 *3035:A 0.00013295
5 *3033:X 0.000217686
6 *111:33 0.000207772
7 *111:22 0.000259686
8 *3035:A *3053:A1 9.41435e-05
9 *3035:A *3053:A2 6.99492e-05
10 *3035:A *3055:A2 1.21972e-05
11 *3050:A2 *128:10 5.50106e-05
12 *3050:A2 *501:10 4.34973e-05
13 *3060:A2 *118:20 0.000194309
14 *3060:A2 *126:8 7.20415e-05
15 *3060:A2 *128:10 0.000342134
16 *3244:A *3050:A1 1.21972e-05
17 *3244:A *3052:A1 5.50049e-05
18 *3244:A *3052:A2 7.44257e-05
19 *3244:A *501:10 0.000115
20 *111:22 *126:8 8.05114e-05
21 *111:22 *128:10 3.70187e-05
22 *111:22 *542:18 0
*RES
1 *3033:X *3035:A 48.5479 
2 *3033:X *111:22 40.2579 
3 *111:22 *3060:A2 42.7229 
4 *111:22 *111:33 15 
5 *111:33 *3244:A 26.48 
6 *111:33 *3050:A2 24.0979 
*END

*D_NET *112 0.0011858
*CONN
*I *3035:B I *D sky130_fd_sc_hd__nor2_2
*I *3050:A1 I *D sky130_fd_sc_hd__o21bai_4
*I *3034:Y O *D sky130_fd_sc_hd__nor2_4
*CAP
1 *3035:B 0
2 *3050:A1 0.000156626
3 *3034:Y 0.00017576
4 *112:10 0.000332386
5 *3050:A1 *3052:A2 5.50049e-05
6 *3050:A1 *3053:A1 0.000165593
7 *3050:A1 *113:17 0.000136486
8 *3050:A1 *475:71 1.37349e-05
9 *112:10 *3053:A1 5.01986e-05
10 *112:10 *475:71 8.78099e-05
11 *3244:A *3050:A1 1.21972e-05
*RES
1 *3034:Y *112:10 41.3557 
2 *112:10 *3050:A1 41.3557 
3 *112:10 *3035:B 38 
*END

*D_NET *113 0.00270844
*CONN
*I *3052:A2 I *D sky130_fd_sc_hd__o21a_2
*I *3048:A1 I *D sky130_fd_sc_hd__a22oi_2
*I *3053:A2 I *D sky130_fd_sc_hd__o21ai_2
*I *3035:Y O *D sky130_fd_sc_hd__nor2_2
*CAP
1 *3052:A2 0.000270023
2 *3048:A1 0.000161019
3 *3053:A2 0.000123479
4 *3035:Y 0
5 *113:17 0.000504083
6 *113:4 0.00019652
7 *3048:A1 *3053:A1 4.18957e-05
8 *3048:A1 *129:43 0
9 *3048:A1 *475:71 0.000240426
10 *3048:A1 *566:43 6.7911e-05
11 *3052:A2 *3052:A1 0.00011633
12 *3052:A2 *3052:B1 9.84794e-05
13 *3053:A2 *3053:A1 7.29907e-05
14 *3053:A2 *3055:A2 0.000310636
15 *113:17 *3053:A1 7.65883e-06
16 *113:17 *475:71 0.000161121
17 *3035:A *3053:A2 6.99492e-05
18 *3050:A1 *3052:A2 5.50049e-05
19 *3050:A1 *113:17 0.000136486
20 *3244:A *3052:A2 7.44257e-05
*RES
1 *3035:Y *113:4 23 
2 *113:4 *3053:A2 26.9771 
3 *113:4 *113:17 17.2579 
4 *113:17 *3048:A1 41.3143 
5 *113:17 *3052:A2 43.8621 
*END

*D_NET *114 0.00180064
*CONN
*I *3060:A1 I *D sky130_fd_sc_hd__o2111a_2
*I *3058:A2 I *D sky130_fd_sc_hd__o21a_2
*I *3049:A2 I *D sky130_fd_sc_hd__o211ai_2
*I *3036:Y O *D sky130_fd_sc_hd__o21ai_2
*CAP
1 *3060:A1 0
2 *3058:A2 0.000136916
3 *3049:A2 0.000189474
4 *3036:Y 4.59485e-05
5 *114:8 0.000326391
6 *114:6 4.59485e-05
7 *3049:A2 *3049:A1 0.000220997
8 *3049:A2 *3049:B1 6.70272e-05
9 *3049:A2 *119:16 4.6318e-06
10 *3049:A2 *119:18 6.08751e-05
11 *3049:A2 *119:20 1.58805e-05
12 *3049:A2 *446:20 4.21378e-05
13 *3058:A2 *3048:B1 9.41704e-05
14 *3058:A2 *3049:A1 0.000184546
15 *3058:A2 *119:16 5.76159e-06
16 *3058:A2 *128:10 0.000156632
17 *3058:A2 *136:10 9.41704e-05
18 *114:6 *3036:B1 5.50106e-05
19 *114:6 *129:28 2.02872e-05
20 *114:6 *542:18 7.53384e-06
21 *110:37 *114:6 2.63049e-05
*RES
1 *3036:Y *114:6 24.0979 
2 *114:6 *114:8 15 
3 *114:8 *3049:A2 42.3293 
4 *114:8 *3058:A2 41.7079 
5 *114:6 *3060:A1 23 
*END

*D_NET *115 0.000828021
*CONN
*I *3041:A_N I *D sky130_fd_sc_hd__nand3b_4
*I *3040:A1 I *D sky130_fd_sc_hd__o21bai_4
*I *3037:Y O *D sky130_fd_sc_hd__nor2_2
*CAP
1 *3041:A_N 0
2 *3040:A1 4.3975e-05
3 *3037:Y 4.97247e-05
4 *115:21 0.000169186
5 *115:6 0.000262886
6 *3040:A1 *3037:A 5.67058e-05
7 *3040:A1 *541:25 2.18409e-05
8 *115:6 *541:25 2.93845e-05
9 *115:21 *117:10 0
10 *115:21 *541:10 0.000194318
*RES
1 *3037:Y *115:6 24.0979 
2 *115:6 *3040:A1 24.0979 
3 *115:6 *115:21 33.5836 
4 *115:21 *3041:A_N 23 
*END

*D_NET *116 0.00132856
*CONN
*I *3040:A2 I *D sky130_fd_sc_hd__o21bai_4
*I *3038:X O *D sky130_fd_sc_hd__and2_4
*CAP
1 *3040:A2 0
2 *3038:X 0.000384291
3 *116:8 0.000384291
4 *116:8 *3038:B 0.000114798
5 *116:8 *3040:B1_N 0.000267167
6 *116:8 *118:14 2.24793e-05
7 *116:8 *470:16 9.61128e-05
8 *116:8 *541:25 5.94258e-05
*RES
1 *3038:X *116:8 30.7886 
2 *116:8 *3040:A2 23 
*END

*D_NET *117 0.00158906
*CONN
*I *3041:B I *D sky130_fd_sc_hd__nand3b_4
*I *3039:Y O *D sky130_fd_sc_hd__nand2_2
*CAP
1 *3041:B 0
2 *3039:Y 0.000432302
3 *117:10 0.000432302
4 *117:10 *3041:C 0.000194318
5 *117:10 *469:91 5.41385e-05
6 *117:10 *541:46 7.76364e-06
7 *117:10 *555:10 0.000425864
8 *117:10 *580:8 4.23714e-05
9 *115:21 *117:10 0
*RES
1 *3039:Y *117:10 46.99 
2 *117:10 *3041:B 38 
*END

*D_NET *118 0.00655889
*CONN
*I *3048:B2 I *D sky130_fd_sc_hd__a22oi_2
*I *3060:C1 I *D sky130_fd_sc_hd__o2111a_2
*I *3047:A I *D sky130_fd_sc_hd__nand3_2
*I *3059:A I *D sky130_fd_sc_hd__nand2_2
*I *3061:C I *D sky130_fd_sc_hd__and3_2
*I *3040:Y O *D sky130_fd_sc_hd__o21bai_4
*CAP
1 *3048:B2 2.14194e-05
2 *3060:C1 7.68064e-05
3 *3047:A 2.85355e-05
4 *3059:A 0
5 *3061:C 0.000425105
6 *3040:Y 0.000617201
7 *118:47 0.00022711
8 *118:22 0.000806903
9 *118:20 0.000459314
10 *118:14 0.000837904
11 *3047:A *125:8 6.9805e-05
12 *3047:A *596:8 0.000143655
13 *3048:B2 *3048:A2 0
14 *3048:B2 *3048:B1 5.90675e-06
15 *3048:B2 *566:37 0
16 *3060:C1 *129:28 9.67842e-05
17 *3061:C *3061:B 5.85822e-06
18 *3061:C *3242:A 1.14154e-05
19 *3061:C *119:37 4.78119e-05
20 *3061:C *135:57 9.84794e-05
21 *3061:C *442:26 5.50106e-05
22 *3061:C *475:71 1.86369e-05
23 *3061:C *499:10 2.02872e-05
24 *118:14 *3038:B 0
25 *118:14 *3048:B1 0.000234158
26 *118:14 *3058:B1 9.67842e-05
27 *118:14 *470:16 0.000122217
28 *118:14 *470:20 0.000182832
29 *118:14 *566:37 0.000136738
30 *118:20 *3048:B1 4.96717e-05
31 *118:20 *119:16 3.69517e-05
32 *118:20 *119:18 5.94125e-05
33 *118:20 *126:8 1.14452e-05
34 *118:20 *128:10 1.32832e-05
35 *118:20 *136:10 8.06804e-06
36 *118:20 *475:71 0.000148953
37 *118:20 *566:37 0.000136743
38 *118:22 *3044:A 0
39 *118:22 *3046:B1 9.26005e-05
40 *118:22 *119:18 7.39034e-05
41 *118:22 *119:20 0.000206577
42 *118:22 *475:71 0.000163521
43 *118:47 *3015:B1 3.70187e-05
44 *118:47 *3044:A 0
45 *118:47 *122:22 0
46 *118:47 *125:8 0.000184527
47 *118:47 *442:16 0
48 *118:47 *442:26 4.55577e-05
49 *118:47 *443:8 1.14452e-05
50 *118:47 *475:71 0
51 *118:47 *499:10 0.000124102
52 *118:47 *596:8 9.16459e-05
53 *3060:A2 *118:20 0.000194309
54 *116:8 *118:14 2.24793e-05
*RES
1 *3040:Y *118:14 35.1386 
2 *118:14 *118:20 20.945 
3 *118:20 *118:22 5.25107 
4 *118:22 *3061:C 44.3696 
5 *118:22 *118:47 20.3339 
6 *118:47 *3059:A 23 
7 *118:47 *3047:A 24.5743 
8 *118:20 *3060:C1 39.0979 
9 *118:14 *3048:B2 23.4971 
*END

*D_NET *119 0.00707293
*CONN
*I *3060:B1 I *D sky130_fd_sc_hd__o2111a_2
*I *3049:B1 I *D sky130_fd_sc_hd__o211ai_2
*I *3242:A I *D sky130_fd_sc_hd__buf_2
*I *3061:B I *D sky130_fd_sc_hd__and3_2
*I *3046:B1 I *D sky130_fd_sc_hd__o21ai_2
*I *3041:Y O *D sky130_fd_sc_hd__nand3b_4
*CAP
1 *3060:B1 2.32701e-05
2 *3049:B1 0.000190576
3 *3242:A 5.42616e-05
4 *3061:B 0.0001667
5 *3046:B1 0.000360743
6 *3041:Y 0.000214454
7 *119:37 0.000501591
8 *119:20 0.000763129
9 *119:18 0.000411329
10 *119:16 0.00131119
11 *119:8 0.00140337
12 *3046:B1 *3044:A 0
13 *3046:B1 *121:44 0
14 *3046:B1 *442:26 1.69887e-05
15 *3046:B1 *499:10 1.24376e-05
16 *3046:B1 *511:12 0.000168965
17 *3049:B1 *446:20 4.56219e-05
18 *3060:B1 *3060:D1 5.3304e-05
19 *3060:B1 *129:28 5.3304e-05
20 *3061:B *135:57 2.72257e-05
21 *119:8 *3041:C 0.000184174
22 *119:8 *129:10 0
23 *119:8 *541:46 0.000174088
24 *119:8 *555:10 0.000198722
25 *119:16 *128:10 2.05503e-05
26 *119:20 *3049:A1 9.20311e-06
27 *119:20 *121:44 0
28 *119:37 *442:26 1.32939e-05
29 *119:37 *499:10 5.73835e-06
30 *3049:A2 *3049:B1 6.70272e-05
31 *3049:A2 *119:16 4.6318e-06
32 *3049:A2 *119:18 6.08751e-05
33 *3049:A2 *119:20 1.58805e-05
34 *3058:A2 *119:16 5.76159e-06
35 *3061:C *3061:B 5.85822e-06
36 *3061:C *3242:A 1.14154e-05
37 *3061:C *119:37 4.78119e-05
38 *118:20 *119:16 3.69517e-05
39 *118:20 *119:18 5.94125e-05
40 *118:22 *3046:B1 9.26005e-05
41 *118:22 *119:18 7.39034e-05
42 *118:22 *119:20 0.000206577
*RES
1 *3041:Y *119:8 43.6032 
2 *119:8 *119:16 18.9617 
3 *119:16 *119:18 1.90571 
4 *119:18 *119:20 2.96214 
5 *119:20 *3046:B1 45.0843 
6 *119:20 *119:37 18.48 
7 *119:37 *3061:B 25.0507 
8 *119:37 *3242:A 24.2014 
9 *119:18 *3049:B1 40.9 
10 *119:16 *3060:B1 38.6214 
*END

*D_NET *120 0.00350963
*CONN
*I *3044:A I *D sky130_fd_sc_hd__nor2_2
*I *3056:A1 I *D sky130_fd_sc_hd__o21bai_2
*I *3042:Y O *D sky130_fd_sc_hd__nor2_2
*CAP
1 *3044:A 0.000454004
2 *3056:A1 0.000440455
3 *3042:Y 0.000260361
4 *120:8 0.00115482
5 *3044:A *3012:B 4.1462e-05
6 *3044:A *3015:B1 0
7 *3044:A *121:44 0.000194327
8 *3044:A *122:10 0.000397734
9 *3044:A *124:8 9.21347e-06
10 *3044:A *137:8 0
11 *3044:A *444:8 5.56306e-05
12 *3044:A *499:10 0
13 *3044:A *511:12 7.58551e-05
14 *3056:A1 *3014:A 5.50106e-05
15 *3056:A1 *544:10 0.000269781
16 *120:8 *3012:B 7.13673e-05
17 *120:8 *123:10 0
18 *120:8 *137:8 0
19 *120:8 *444:8 2.96051e-05
20 *3046:B1 *3044:A 0
21 *118:22 *3044:A 0
22 *118:47 *3044:A 0
*RES
1 *3042:Y *120:8 43.4271 
2 *120:8 *3056:A1 45.9336 
3 *120:8 *3044:A 49.0614 
*END

*D_NET *121 0.00422824
*CONN
*I *3046:A1 I *D sky130_fd_sc_hd__o21ai_2
*I *3044:B I *D sky130_fd_sc_hd__nor2_2
*I *3057:A1 I *D sky130_fd_sc_hd__o21a_2
*I *3056:A2 I *D sky130_fd_sc_hd__o21bai_2
*I *3043:X O *D sky130_fd_sc_hd__and2_2
*CAP
1 *3046:A1 4.01155e-05
2 *3044:B 0
3 *3057:A1 1.50079e-05
4 *3056:A2 0.000373173
5 *3043:X 0.000187902
6 *121:44 0.00027831
7 *121:36 0.000620009
8 *121:12 0.000424827
9 *121:10 0.000526132
10 *3056:A2 *122:22 0
11 *3056:A2 *469:91 0.000605241
12 *3056:A2 *511:33 9.28945e-05
13 *3056:A2 *544:10 5.3304e-05
14 *3057:A1 *3057:B1 5.50049e-05
15 *3057:A1 *595:16 5.50049e-05
16 *121:10 *469:91 0.00016599
17 *121:10 *541:46 2.45549e-06
18 *121:12 *469:91 5.94125e-05
19 *121:36 *3057:A2 0.000136697
20 *121:36 *3057:B1 0.000185428
21 *121:36 *135:10 5.61255e-06
22 *121:36 *595:16 1.21972e-05
23 *121:44 *135:10 2.45549e-06
24 *121:44 *511:12 0.000136738
25 *3044:A *121:44 0.000194327
26 *3046:B1 *121:44 0
27 *3245:A *3056:A2 0
28 *3245:A *121:10 0
29 *3245:A *121:12 0
30 *119:20 *121:44 0
*RES
1 *3043:X *121:10 41.1279 
2 *121:10 *121:12 0.849286 
3 *121:12 *3056:A2 46.8657 
4 *121:12 *3057:A1 38.6214 
5 *121:10 *121:36 20.8621 
6 *121:36 *121:44 35.1371 
7 *121:44 *3044:B 23 
8 *121:36 *3046:A1 23.8493 
*END

*D_NET *122 0.0026427
*CONN
*I *3047:B I *D sky130_fd_sc_hd__nand3_2
*I *3013:A2 I *D sky130_fd_sc_hd__a22o_4
*I *3044:Y O *D sky130_fd_sc_hd__nor2_2
*CAP
1 *3047:B 0
2 *3013:A2 0
3 *3044:Y 0.000287587
4 *122:22 0.000378157
5 *122:12 0.000378157
6 *122:10 0.000287587
7 *122:10 *124:8 7.03766e-05
8 *122:10 *446:20 0.000100966
9 *122:10 *502:10 0
10 *122:10 *511:12 0.000215791
11 *122:22 *3047:C 0.00032977
12 *122:22 *135:36 7.44257e-05
13 *122:22 *511:33 4.21594e-06
14 *122:22 *544:23 4.6318e-06
15 *122:22 *596:8 0.000113302
16 *3044:A *122:10 0.000397734
17 *3056:A2 *122:22 0
18 *118:47 *122:22 0
*RES
1 *3044:Y *122:10 45.4779 
2 *122:10 *122:12 15 
3 *122:12 *122:22 38.3686 
4 *122:22 *3013:A2 23 
5 *122:12 *3047:B 23 
*END

*D_NET *123 0.00291348
*CONN
*I *3057:A2 I *D sky130_fd_sc_hd__o21a_2
*I *3046:A2 I *D sky130_fd_sc_hd__o21ai_2
*I *3045:Y O *D sky130_fd_sc_hd__o21ai_2
*CAP
1 *3057:A2 8.97271e-05
2 *3046:A2 0
3 *3045:Y 0
4 *123:10 0.000774886
5 *123:6 0.000685159
6 *3057:A2 *3057:B1 0.00010018
7 *3057:A2 *595:16 0.000354122
8 *123:10 *3012:A 0.000202918
9 *123:10 *3012:B 1.02387e-05
10 *123:10 *3045:B1 0.000148697
11 *123:10 *3047:C 7.20786e-05
12 *123:10 *135:10 5.97612e-05
13 *123:10 *135:12 8.16253e-05
14 *123:10 *467:25 0
15 *123:10 *502:10 3.884e-05
16 *123:10 *511:12 0
17 *123:10 *544:23 4.98647e-05
18 *123:10 *595:16 0.000108681
19 *3245:A *123:10 0
20 *120:8 *123:10 0
21 *121:36 *3057:A2 0.000136697
*RES
1 *3045:Y *123:6 38 
2 *123:6 *123:10 29.5829 
3 *123:10 *3046:A2 23 
4 *123:10 *3057:A2 26.9564 
*END

*D_NET *124 0.00224638
*CONN
*I *3048:B1 I *D sky130_fd_sc_hd__a22oi_2
*I *3046:Y O *D sky130_fd_sc_hd__o21ai_2
*CAP
1 *3048:B1 0.000266293
2 *3046:Y 0.000481407
3 *124:8 0.0007477
4 *3048:B1 *3048:A2 0
5 *3048:B1 *3058:B1 9.67842e-05
6 *3048:B1 *136:10 0.0001262
7 *124:8 *3018:B 0
8 *124:8 *3049:A1 0
9 *124:8 *129:74 5.21127e-05
10 *124:8 *446:34 7.75329e-06
11 *124:8 *470:16 4.6318e-06
12 *124:8 *492:10 0
13 *124:8 *502:10 0
14 *3044:A *124:8 9.21347e-06
15 *3048:B2 *3048:B1 5.90675e-06
16 *3058:A2 *3048:B1 9.41704e-05
17 *3245:A *124:8 0
18 *110:16 *124:8 0
19 *118:14 *3048:B1 0.000234158
20 *118:20 *3048:B1 4.96717e-05
21 *122:10 *124:8 7.03766e-05
*RES
1 *3046:Y *124:8 45.54 
2 *124:8 *3048:B1 44.3593 
*END

*D_NET *125 0.00354754
*CONN
*I *3049:C1 I *D sky130_fd_sc_hd__o211ai_2
*I *3015:C1 I *D sky130_fd_sc_hd__o211ai_2
*I *3047:Y O *D sky130_fd_sc_hd__nand3_2
*CAP
1 *3049:C1 0.000201132
2 *3015:C1 0.000123924
3 *3047:Y 0.000162342
4 *125:8 0.000487397
5 *3015:C1 *136:14 0.000191148
6 *3015:C1 *442:10 0.000381644
7 *3015:C1 *475:71 9.6289e-05
8 *3049:C1 *3016:A1 0.000397716
9 *3049:C1 *136:14 0.00042235
10 *3049:C1 *442:10 2.55642e-05
11 *125:8 *135:36 0.000607156
12 *125:8 *442:16 0.000136743
13 *125:8 *596:8 5.98028e-05
14 *3047:A *125:8 6.9805e-05
15 *118:47 *125:8 0.000184527
*RES
1 *3047:Y *125:8 44.815 
2 *125:8 *3015:C1 43.075 
3 *125:8 *3049:C1 43.7793 
*END

*D_NET *126 0.00232065
*CONN
*I *3055:A2 I *D sky130_fd_sc_hd__o21ai_4
*I *3048:Y O *D sky130_fd_sc_hd__a22oi_2
*CAP
1 *3055:A2 0.000519261
2 *3048:Y 0.000154026
3 *126:8 0.000673287
4 *3055:A2 *3055:A1 0.000141954
5 *126:8 *475:71 0.000345295
6 *126:8 *542:18 0
7 *3035:A *3055:A2 1.21972e-05
8 *3053:A2 *3055:A2 0.000310636
9 *3060:A2 *126:8 7.20415e-05
10 *111:22 *126:8 8.05114e-05
11 *118:20 *126:8 1.14452e-05
*RES
1 *3048:Y *126:8 42.7229 
2 *126:8 *3055:A2 47.715 
*END

*D_NET *127 0.00200736
*CONN
*I *3016:B1 I *D sky130_fd_sc_hd__a21o_2
*I *3054:A2 I *D sky130_fd_sc_hd__a21boi_2
*I *3049:Y O *D sky130_fd_sc_hd__o211ai_2
*CAP
1 *3016:B1 0
2 *3054:A2 0
3 *3049:Y 0.000104084
4 *127:14 0.000478788
5 *127:6 0.000582872
6 *127:6 *3016:A1 0.000227208
7 *127:6 *446:20 0.0002263
8 *127:14 *3054:A1 5.67058e-05
9 *127:14 *129:43 0.00026916
10 *127:14 *135:57 6.22372e-05
11 *127:14 *136:10 0
12 *127:14 *136:14 0
13 *127:14 *475:71 0
*RES
1 *3049:Y *127:6 26.48 
2 *127:6 *127:14 39.3836 
3 *127:14 *3054:A2 23 
4 *127:6 *3016:B1 23 
*END

*D_NET *128 0.00361437
*CONN
*I *3236:A I *D sky130_fd_sc_hd__buf_2
*I *3060:D1 I *D sky130_fd_sc_hd__o2111a_2
*I *3050:Y O *D sky130_fd_sc_hd__o21bai_4
*CAP
1 *3236:A 0
2 *3060:D1 7.93893e-05
3 *3050:Y 0.000613447
4 *128:34 0.000318552
5 *128:10 0.000374285
6 *3060:D1 *129:28 8.40203e-05
7 *128:10 *3049:A1 2.60152e-05
8 *128:10 *501:10 7.13708e-05
9 *128:10 *542:18 2.36844e-05
10 *128:34 *3036:A1 5.94125e-05
11 *128:34 *471:19 0.000223043
12 *128:34 *471:34 0.000117017
13 *128:34 *471:47 0.000133749
14 *128:34 *474:10 0
15 *128:34 *492:8 0.000538066
16 *128:34 *566:18 5.3304e-05
17 *3050:A2 *128:10 5.50106e-05
18 *3058:A2 *128:10 0.000156632
19 *3060:A2 *128:10 0.000342134
20 *3060:B1 *3060:D1 5.3304e-05
21 *110:37 *3060:D1 0.000221084
22 *111:22 *128:10 3.70187e-05
23 *118:20 *128:10 1.32832e-05
24 *119:16 *128:10 2.05503e-05
*RES
1 *3050:Y *128:10 44.8771 
2 *128:10 *3060:D1 40.5271 
3 *3050:Y *128:34 48.6886 
4 *128:34 *3236:A 38 
*END

*D_NET *129 0.00754637
*CONN
*I *3019:A2 I *D sky130_fd_sc_hd__a22oi_2
*I *3018:C I *D sky130_fd_sc_hd__and4_2
*I *3062:B I *D sky130_fd_sc_hd__and4_4
*I *3053:B1 I *D sky130_fd_sc_hd__o21ai_2
*I *3052:B1 I *D sky130_fd_sc_hd__o21a_2
*I *3063:A2 I *D sky130_fd_sc_hd__a41o_2
*I *3051:Y O *D sky130_fd_sc_hd__o21bai_2
*CAP
1 *3019:A2 0
2 *3018:C 0
3 *3062:B 0
4 *3053:B1 0.000239164
5 *3052:B1 8.40265e-05
6 *3063:A2 0.000265042
7 *3051:Y 0.000487441
8 *129:74 9.12559e-05
9 *129:43 0.000678421
10 *129:30 0.000663963
11 *129:28 0.000934523
12 *129:16 0.00122459
13 *129:12 0.000242506
14 *129:10 0.000487441
15 *3052:B1 *3052:A1 2.93747e-05
16 *3053:B1 *3053:A1 0
17 *3053:B1 *3055:A1 2.93747e-05
18 *3053:B1 *498:8 0
19 *3063:A2 *3062:C 6.17437e-06
20 *3063:A2 *140:14 5.84916e-05
21 *129:10 *447:10 1.14452e-05
22 *129:10 *470:26 7.74128e-05
23 *129:10 *541:46 6.7177e-06
24 *129:10 *566:8 0.000103647
25 *129:16 *448:8 0.00012238
26 *129:16 *542:6 4.39607e-05
27 *129:28 *3019:B2 0.000123944
28 *129:28 *3036:A2 1.57571e-05
29 *129:28 *3036:B1 9.84851e-05
30 *129:28 *3062:C 0.000174996
31 *129:28 *542:6 7.43025e-06
32 *129:28 *542:18 2.25419e-05
33 *129:30 *3062:C 2.64616e-05
34 *129:43 *3053:A1 0
35 *129:43 *130:8 0
36 *129:43 *135:57 3.70187e-05
37 *129:43 *566:43 0
38 *129:74 *446:34 0.000110913
39 *3048:A1 *129:43 0
40 *3052:A2 *3052:B1 9.84794e-05
41 *3060:B1 *129:28 5.3304e-05
42 *3060:C1 *129:28 9.67842e-05
43 *3060:D1 *129:28 8.40203e-05
44 *3241:A *129:43 0
45 *3245:A *129:10 2.04807e-05
46 *110:16 *129:10 0.00024346
47 *110:37 *129:28 2.78262e-05
48 *110:39 *3063:A2 7.55481e-05
49 *110:43 *129:43 0
50 *114:6 *129:28 2.02872e-05
51 *119:8 *129:10 0
52 *124:8 *129:74 5.21127e-05
53 *127:14 *129:43 0.00026916
*RES
1 *3051:Y *129:10 48.6471 
2 *129:10 *129:12 15 
3 *129:12 *129:16 4.45357 
4 *129:16 *129:28 14.79 
5 *129:28 *129:30 0.621429 
6 *129:30 *3063:A2 26.9771 
7 *129:30 *129:43 21.8357 
8 *129:43 *3052:B1 40.0507 
9 *129:43 *3053:B1 41.9357 
10 *129:28 *3062:B 23 
11 *129:16 *129:74 31.5536 
12 *129:74 *3018:C 23 
13 *129:12 *3019:A2 23 
*END

*D_NET *130 0.000425886
*CONN
*I *3054:A1 I *D sky130_fd_sc_hd__a21boi_2
*I *3052:X O *D sky130_fd_sc_hd__o21a_2
*CAP
1 *3054:A1 5.68784e-05
2 *3052:X 8.62996e-05
3 *130:8 0.000143178
4 *3054:B1_N *3054:A1 1.24376e-05
5 *3241:A *130:8 7.03869e-05
6 *127:14 *3054:A1 5.67058e-05
7 *129:43 *130:8 0
*RES
1 *3052:X *130:8 39.9057 
2 *130:8 *3054:A1 39.0979 
*END

*D_NET *131 0.00026616
*CONN
*I *3055:A1 I *D sky130_fd_sc_hd__o21ai_4
*I *3053:Y O *D sky130_fd_sc_hd__o21ai_2
*CAP
1 *3055:A1 4.74158e-05
2 *3053:Y 4.74158e-05
3 *3053:B1 *3055:A1 2.93747e-05
4 *3055:A2 *3055:A1 0.000141954
*RES
1 *3053:Y *3055:A1 47.5743 
*END

*D_NET *132 0.00078658
*CONN
*I *2792:A I *D sky130_fd_sc_hd__nand2_4
*I *3054:Y O *D sky130_fd_sc_hd__a21boi_2
*CAP
1 *2792:A 0
2 *3054:Y 0.000322764
3 *132:6 0.000322764
4 *3054:B1_N *132:6 0.000141052
*RES
1 *3054:Y *132:6 29.3386 
2 *132:6 *2792:A 23 
*END

*D_NET *133 0.00866474
*CONN
*I *2794:A2 I *D sky130_fd_sc_hd__o22ai_4
*I *2890:A2 I *D sky130_fd_sc_hd__o221ai_2
*I *3063:B1 I *D sky130_fd_sc_hd__a41o_2
*I *2944:A2 I *D sky130_fd_sc_hd__o221ai_4
*I *2791:B1 I *D sky130_fd_sc_hd__a31oi_2
*I *3055:Y O *D sky130_fd_sc_hd__o21ai_4
*CAP
1 *2794:A2 0.000107513
2 *2890:A2 0.00014887
3 *3063:B1 0.000362391
4 *2944:A2 0
5 *2791:B1 0
6 *3055:Y 0.000603401
7 *133:29 0.000387397
8 *133:20 0.00131986
9 *133:14 0.00149866
10 *133:12 0.000403604
11 *133:10 0.000811858
12 *2890:A2 *245:25 0
13 *2890:A2 *252:8 6.15195e-05
14 *3063:B1 *2944:A1 0.000143655
15 *3063:B1 *3063:A4 1.14154e-05
16 *3063:B1 *140:14 0.000316154
17 *3063:B1 *140:22 0.000207719
18 *133:10 *2794:A1 1.37349e-05
19 *133:10 *254:12 0
20 *133:12 *2794:A1 7.80354e-05
21 *133:14 *2794:A1 1.22803e-05
22 *133:14 *250:30 0.000240695
23 *133:20 *2791:A1 0.00010018
24 *133:20 *2793:C 0
25 *133:20 *3225:A 1.01436e-05
26 *133:20 *244:27 0.00025307
27 *133:20 *250:8 0
28 *133:20 *250:30 0.00147169
29 *133:20 *251:8 0
30 *133:20 *487:10 4.5882e-05
31 *133:29 *140:22 5.50106e-05
*RES
1 *3055:Y *133:10 49.2064 
2 *133:10 *133:12 2.25786 
3 *133:12 *133:14 3.66643 
4 *133:14 *133:20 44.8907 
5 *133:20 *2791:B1 23 
6 *133:14 *133:29 15.6214 
7 *133:29 *2944:A2 23 
8 *133:29 *3063:B1 33.1914 
9 *133:12 *2890:A2 40.5479 
10 *133:10 *2794:A2 39.5743 
*END

*D_NET *134 0.00205136
*CONN
*I *3057:B1 I *D sky130_fd_sc_hd__o21a_2
*I *3056:Y O *D sky130_fd_sc_hd__o21bai_2
*CAP
1 *3057:B1 0.000103395
2 *3056:Y 0.000270206
3 *134:8 0.000373601
4 *3057:B1 *595:16 3.75074e-05
5 *134:8 *3043:B 5.08795e-05
6 *134:8 *469:91 0.000659912
7 *134:8 *520:12 0.000137163
8 *134:8 *540:20 7.8085e-05
9 *3057:A1 *3057:B1 5.50049e-05
10 *3057:A2 *3057:B1 0.00010018
11 *121:36 *3057:B1 0.000185428
*RES
1 *3056:Y *134:8 46.9486 
2 *134:8 *3057:B1 41.0036 
*END

*D_NET *135 0.00665528
*CONN
*I *3061:A I *D sky130_fd_sc_hd__and3_2
*I *3062:D I *D sky130_fd_sc_hd__and4_4
*I *3011:B I *D sky130_fd_sc_hd__nand2_2
*I *3013:B2 I *D sky130_fd_sc_hd__a22o_4
*I *3012:A I *D sky130_fd_sc_hd__xor2_2
*I *3057:X O *D sky130_fd_sc_hd__o21a_2
*CAP
1 *3061:A 0
2 *3062:D 0
3 *3011:B 5.70926e-05
4 *3013:B2 0
5 *3012:A 0.000146718
6 *3057:X 0.000338857
7 *135:57 0.000435575
8 *135:49 0.000557826
9 *135:36 0.00096029
10 *135:12 0.000221229
11 *135:10 0.00119431
12 *3011:B *442:16 9.41704e-05
13 *3011:B *596:8 0.000135037
14 *3012:A *3012:B 0.000406297
15 *135:10 *511:12 9.95114e-05
16 *135:10 *595:16 0.000306038
17 *135:12 *3012:B 8.43224e-05
18 *135:12 *511:12 3.26076e-05
19 *135:36 *3016:A1 2.55642e-05
20 *135:36 *442:10 6.48142e-05
21 *135:36 *442:16 2.02872e-05
22 *135:36 *596:8 3.06213e-05
23 *135:49 *3016:A1 0.00015795
24 *135:57 *3016:A1 0
25 *135:57 *3063:A1 0
26 *135:57 *139:10 2.7237e-05
27 *3061:B *135:57 2.72257e-05
28 *3061:C *135:57 9.84794e-05
29 *121:36 *135:10 5.61255e-06
30 *121:44 *135:10 2.45549e-06
31 *122:22 *135:36 7.44257e-05
32 *123:10 *3012:A 0.000202918
33 *123:10 *135:10 5.97612e-05
34 *123:10 *135:12 8.16253e-05
35 *125:8 *135:36 0.000607156
36 *127:14 *135:57 6.22372e-05
37 *129:43 *135:57 3.70187e-05
*RES
1 *3057:X *135:10 43.9657 
2 *135:10 *135:12 2.25786 
3 *135:12 *3012:A 43.4271 
4 *135:12 *3013:B2 38 
5 *135:10 *135:36 41.8279 
6 *135:36 *3011:B 39.5743 
7 *135:36 *135:49 17.2579 
8 *135:49 *135:57 38.7829 
9 *135:57 *3062:D 23 
10 *135:49 *3061:A 23 
*END

*D_NET *136 0.00544264
*CONN
*I *3063:A4 I *D sky130_fd_sc_hd__a41o_2
*I *3017:A I *D sky130_fd_sc_hd__xor2_2
*I *3058:X O *D sky130_fd_sc_hd__o21a_2
*CAP
1 *3063:A4 0.000413055
2 *3017:A 0
3 *3058:X 0.000634354
4 *136:14 0.000522233
5 *136:10 0.00156964
6 *3063:A4 *140:14 4.24098e-05
7 *136:10 *475:71 3.31683e-05
8 *136:10 *566:37 2.41846e-05
9 *136:10 *566:43 1.39431e-05
10 *136:14 *3016:A1 3.47776e-05
11 *136:14 *475:71 0.000588075
12 *3015:C1 *136:14 0.000191148
13 *3048:B1 *136:10 0.0001262
14 *3049:C1 *136:14 0.00042235
15 *3058:A2 *136:10 9.41704e-05
16 *3063:B1 *3063:A4 1.14154e-05
17 *110:37 *3063:A4 0.000228903
18 *110:39 *3063:A4 0.000484545
19 *118:20 *136:10 8.06804e-06
20 *127:14 *136:10 0
21 *127:14 *136:14 0
*RES
1 *3058:X *136:10 46.3686 
2 *136:10 *136:14 27.1179 
3 *136:14 *3017:A 23 
4 *136:10 *3063:A4 47.2179 
*END

*D_NET *137 0.0011515
*CONN
*I *3014:A I *D sky130_fd_sc_hd__xnor2_2
*I *3015:A1 I *D sky130_fd_sc_hd__o211ai_2
*I *3059:Y O *D sky130_fd_sc_hd__nand2_2
*CAP
1 *3014:A 0.000161589
2 *3015:A1 6.34506e-05
3 *3059:Y 0.000323205
4 *137:10 0.000225039
5 *137:8 0.000323205
6 *137:8 *3015:B1 0
7 *137:8 *443:8 0
8 *3044:A *137:8 0
9 *3056:A1 *3014:A 5.50106e-05
10 *120:8 *137:8 0
*RES
1 *3059:Y *137:8 43.4271 
2 *137:8 *137:10 15 
3 *137:10 *3015:A1 24.0979 
4 *137:10 *3014:A 26.0036 
*END

*D_NET *138 0.000752643
*CONN
*I *3062:C I *D sky130_fd_sc_hd__and4_4
*I *3060:X O *D sky130_fd_sc_hd__o2111a_2
*CAP
1 *3062:C 9.4994e-05
2 *3060:X 9.4994e-05
3 *3063:A2 *3062:C 6.17437e-06
4 *110:37 *3062:C 0.000215671
5 *110:39 *3062:C 0.000139352
6 *129:28 *3062:C 0.000174996
7 *129:30 *3062:C 2.64616e-05
*RES
1 *3060:X *3062:C 49.9564 
*END

*D_NET *139 0.00137746
*CONN
*I *3063:A1 I *D sky130_fd_sc_hd__a41o_2
*I *3016:A2 I *D sky130_fd_sc_hd__a21o_2
*I *3061:X O *D sky130_fd_sc_hd__and3_2
*CAP
1 *3063:A1 0.00013717
2 *3016:A2 0.000128048
3 *3061:X 0.000409892
4 *139:10 0.000675111
5 *135:57 *3063:A1 0
6 *135:57 *139:10 2.7237e-05
*RES
1 *3061:X *139:10 44.09 
2 *139:10 *3016:A2 40.0507 
3 *139:10 *3063:A1 39.9057 
*END

*D_NET *140 0.00310545
*CONN
*I *3233:A I *D sky130_fd_sc_hd__buf_4
*I *2794:A1 I *D sky130_fd_sc_hd__o22ai_4
*I *2890:A1 I *D sky130_fd_sc_hd__o221ai_2
*I *3062:X O *D sky130_fd_sc_hd__and4_4
*CAP
1 *3233:A 0
2 *2794:A1 0.000119749
3 *2890:A1 0
4 *3062:X 0.000233884
5 *140:22 0.000619067
6 *140:14 0.000733202
7 *2794:A1 *250:30 1.14452e-05
8 *2794:A1 *254:12 0
9 *2794:A1 *396:14 0
10 *140:22 *2944:A1 0.000143655
11 *140:22 *250:30 0.000277714
12 *140:22 *252:14 0
13 *140:22 *396:14 0
14 *140:22 *486:10 3.92407e-05
15 *3063:A2 *140:14 5.84916e-05
16 *3063:A4 *140:14 4.24098e-05
17 *3063:B1 *140:14 0.000316154
18 *3063:B1 *140:22 0.000207719
19 *110:39 *140:14 0.000143655
20 *133:10 *2794:A1 1.37349e-05
21 *133:12 *2794:A1 7.80354e-05
22 *133:14 *2794:A1 1.22803e-05
23 *133:29 *140:22 5.50106e-05
*RES
1 *3062:X *140:14 30.6229 
2 *140:14 *140:22 26.455 
3 *140:22 *2890:A1 38 
4 *140:22 *2794:A1 40.9621 
5 *140:14 *3233:A 23 
*END

*D_NET *141 0.00621033
*CONN
*I *2948:A1 I *D sky130_fd_sc_hd__a31oi_2
*I *2817:C I *D sky130_fd_sc_hd__nand4b_2
*I *2814:A1 I *D sky130_fd_sc_hd__a31oi_2
*I *3063:X O *D sky130_fd_sc_hd__a41o_2
*CAP
1 *2948:A1 0
2 *2817:C 0
3 *2814:A1 0
4 *3063:X 0.000536271
5 *141:30 9.41231e-05
6 *141:24 0.00130531
7 *141:12 0.00195597
8 *141:8 0.00128105
9 *141:8 *498:8 5.86165e-05
10 *141:12 *396:8 5.3304e-05
11 *141:24 *2948:A2 9.5877e-05
12 *141:24 *2948:A3 2.18409e-05
13 *141:24 *269:18 1.37232e-05
14 *141:24 *463:8 0.00056838
15 *141:30 *253:22 5.93381e-05
16 *141:30 *269:28 0.000166522
17 *3241:A *141:8 0
18 *110:43 *141:8 0
*RES
1 *3063:X *141:8 48.3571 
2 *141:8 *141:12 28.485 
3 *141:12 *141:24 24.1943 
4 *141:24 *141:30 32.61 
5 *141:30 *2814:A1 23 
6 *141:24 *2817:C 23 
7 *141:12 *2948:A1 23 
*END

*D_NET *142 0.000791672
*CONN
*I *3066:A1 I *D sky130_fd_sc_hd__o21ba_2
*I *3067:A1 I *D sky130_fd_sc_hd__o21bai_4
*I *3064:Y O *D sky130_fd_sc_hd__nor2_2
*CAP
1 *3066:A1 4.24511e-05
2 *3067:A1 0.000115989
3 *3064:Y 9.35624e-05
4 *142:8 0.000252003
5 *3067:A1 *143:14 7.66188e-05
6 *3067:A1 *146:8 0
7 *3067:A1 *504:19 6.07611e-06
8 *3067:A1 *504:32 0.000119828
9 *142:8 *144:10 0
10 *142:8 *146:8 0
11 *142:8 *504:32 8.51432e-05
*RES
1 *3064:Y *142:8 40.2579 
2 *142:8 *3067:A1 41.3143 
3 *142:8 *3066:A1 38.6214 
*END

*D_NET *143 0.00138984
*CONN
*I *3067:A2 I *D sky130_fd_sc_hd__o21bai_4
*I *3066:A2 I *D sky130_fd_sc_hd__o21ba_2
*I *3065:X O *D sky130_fd_sc_hd__and2_4
*CAP
1 *3067:A2 2.34823e-05
2 *3066:A2 0
3 *3065:X 0.000314137
4 *143:14 0.000134261
5 *143:6 0.000471881
6 *3067:A2 *145:8 0
7 *143:6 *3065:A 0.00014196
8 *143:14 *146:8 0.000227497
9 *3067:A1 *143:14 7.66188e-05
*RES
1 *3065:X *143:6 28.8621 
2 *143:6 *143:14 34.06 
3 *143:14 *3066:A2 23 
4 *143:6 *3067:A2 23.4971 
*END

*D_NET *144 0.000562542
*CONN
*I *2782:A2 I *D sky130_fd_sc_hd__o21ai_2
*I *3066:X O *D sky130_fd_sc_hd__o21ba_2
*CAP
1 *2782:A2 0
2 *3066:X 0.000258843
3 *144:10 0.000258843
4 *144:10 *3070:B 4.48568e-05
5 *144:10 *146:8 0
6 *142:8 *144:10 0
*RES
1 *3066:X *144:10 41.9564 
2 *144:10 *2782:A2 38 
*END

*D_NET *145 0.00208657
*CONN
*I *3070:A I *D sky130_fd_sc_hd__nand2_2
*I *3079:A I *D sky130_fd_sc_hd__nand4_4
*I *3078:A I *D sky130_fd_sc_hd__and4_2
*I *3067:Y O *D sky130_fd_sc_hd__o21bai_4
*CAP
1 *3070:A 2.34823e-05
2 *3079:A 0.000295809
3 *3078:A 0
4 *3067:Y 0.000167796
5 *145:14 0.000545075
6 *145:8 0.000440544
7 *3079:A *3070:B 3.20914e-05
8 *3079:A *3079:B 9.3813e-05
9 *3079:A *3079:C 3.3123e-05
10 *3079:A *153:25 9.03054e-05
11 *145:8 *3067:B1_N 0.00010018
12 *145:8 *3070:B 5.3304e-05
13 *145:14 *3070:B 0.000192681
14 *145:14 *153:25 1.83667e-05
15 *145:14 *475:38 0
16 *3067:A2 *145:8 0
*RES
1 *3067:Y *145:8 26.5007 
2 *145:8 *145:14 20.6964 
3 *145:14 *3078:A 38 
4 *145:14 *3079:A 44.3386 
5 *145:8 *3070:A 23.4971 
*END

*D_NET *146 0.00120577
*CONN
*I *3069:B1 I *D sky130_fd_sc_hd__o21ai_2
*I *3068:Y O *D sky130_fd_sc_hd__a21boi_2
*CAP
1 *3069:B1 0.000140685
2 *3068:Y 0.00027568
3 *146:8 0.000416365
4 *3069:B1 *2782:A1 0
5 *3069:B1 *147:6 2.30292e-05
6 *146:8 *3066:B1_N 7.66188e-05
7 *146:8 *3070:B 0
8 *146:8 *3184:A 0
9 *146:8 *504:19 0
10 *146:8 *536:19 4.58924e-05
11 *3067:A1 *146:8 0
12 *142:8 *146:8 0
13 *143:14 *146:8 0.000227497
14 *144:10 *146:8 0
*RES
1 *3068:Y *146:8 44.8357 
2 *146:8 *3069:B1 40.0714 
*END

*D_NET *147 0.00237327
*CONN
*I *3079:B I *D sky130_fd_sc_hd__nand4_4
*I *3070:B I *D sky130_fd_sc_hd__nand2_2
*I *2782:B1 I *D sky130_fd_sc_hd__o21ai_2
*I *3078:B I *D sky130_fd_sc_hd__and4_2
*I *3069:Y O *D sky130_fd_sc_hd__o21ai_2
*CAP
1 *3079:B 8.27059e-05
2 *3070:B 0.000287716
3 *2782:B1 0
4 *3078:B 7.92539e-05
5 *3069:Y 0.000181354
6 *147:24 0.000370422
7 *147:10 0.000133552
8 *147:6 0.000235653
9 *3070:B *3184:A 0.000249909
10 *3070:B *475:38 0
11 *3078:B *2782:A1 7.44354e-05
12 *3078:B *3078:C 6.17437e-06
13 *3079:B *3079:C 0
14 *3079:B *242:10 0.000196549
15 *147:6 *2782:A1 1.5769e-05
16 *147:10 *2782:A1 2.00026e-05
17 *3069:B1 *147:6 2.30292e-05
18 *3079:A *3070:B 3.20914e-05
19 *3079:A *3079:B 9.3813e-05
20 *144:10 *3070:B 4.48568e-05
21 *145:8 *3070:B 5.3304e-05
22 *145:14 *3070:B 0.000192681
23 *146:8 *3070:B 0
*RES
1 *3069:Y *147:6 26.48 
2 *147:6 *147:10 1.11857 
3 *147:10 *3078:B 24.5743 
4 *147:10 *2782:B1 23 
5 *147:6 *147:24 15 
6 *147:24 *3070:B 44.7529 
7 *147:24 *3079:B 40.9621 
*END

*D_NET *148 0.000579735
*CONN
*I *3005:A I *D sky130_fd_sc_hd__xnor2_2
*I *3070:Y O *D sky130_fd_sc_hd__nand2_2
*CAP
1 *3005:A 0.000141817
2 *3070:Y 0.000105293
3 *148:8 0.00024711
4 *3005:A *475:36 2.93747e-05
5 *148:8 *3184:A 5.33753e-05
6 *148:8 *466:10 2.76611e-06
7 *148:8 *475:38 0
*RES
1 *3070:Y *148:8 40.2579 
2 *148:8 *3005:A 40.5271 
*END

*D_NET *149 0.00192152
*CONN
*I *3075:B I *D sky130_fd_sc_hd__nand2_4
*I *3004:A2 I *D sky130_fd_sc_hd__a22o_4
*I *3071:Y O *D sky130_fd_sc_hd__nand2_2
*CAP
1 *3075:B 0
2 *3004:A2 0
3 *3071:Y 0.000502736
4 *149:28 0.000361902
5 *149:10 0.000140834
6 *149:10 *3073:B 0.000166504
7 *149:10 *468:12 9.58714e-05
8 *149:10 *569:10 0.000166504
9 *149:28 *153:12 9.48318e-05
10 *149:28 *155:10 0.000125802
11 *149:28 *438:41 0.000169683
12 *149:28 *467:10 0
13 *149:28 *468:12 9.68547e-05
*RES
1 *3071:Y *149:10 41.3557 
2 *149:10 *3004:A2 38 
3 *3071:Y *149:28 46.4307 
4 *149:28 *3075:B 38 
*END

*D_NET *150 0.00142946
*CONN
*I *3076:B I *D sky130_fd_sc_hd__nand3b_2
*I *3072:Y O *D sky130_fd_sc_hd__nand2_2
*CAP
1 *3076:B 0
2 *3072:Y 0.000356037
3 *150:10 0.000356037
4 *150:10 *3072:A 0.000310641
5 *150:10 *3074:A1 0.000169665
6 *150:10 *468:12 5.3304e-05
7 *150:10 *570:34 0.000169665
8 *94:8 *150:10 1.41129e-05
*RES
1 *3072:Y *150:10 44.6907 
2 *150:10 *3076:B 38 
*END

*D_NET *151 0.000640199
*CONN
*I *3076:C I *D sky130_fd_sc_hd__nand3b_2
*I *3073:Y O *D sky130_fd_sc_hd__nand2b_4
*CAP
1 *3076:C 0
2 *3073:Y 0.000151691
3 *151:8 0.000151691
4 *151:8 *3073:B 0
5 *151:8 *535:27 0.000117121
6 *151:8 *570:23 0.000117331
7 *151:8 *570:34 0.000102365
*RES
1 *3073:Y *151:8 42.7229 
2 *151:8 *3076:C 38 
*END

*D_NET *152 0.00183003
*CONN
*I *3075:A I *D sky130_fd_sc_hd__nand2_4
*I *3004:A1 I *D sky130_fd_sc_hd__a22o_4
*I *3074:X O *D sky130_fd_sc_hd__o21a_4
*CAP
1 *3075:A 0.000309347
2 *3004:A1 4.47995e-05
3 *3074:X 9.81433e-05
4 *152:8 0.00045229
5 *3004:A1 *154:6 1.59094e-05
6 *3075:A *155:10 8.93326e-05
7 *3075:A *438:41 0
8 *3075:A *569:10 0.000660181
9 *3075:A *569:21 1.01436e-05
10 *152:8 *3073:B 1.02387e-05
11 *152:8 *569:10 0.000139647
*RES
1 *3074:X *152:8 40.2579 
2 *152:8 *3004:A1 38.6214 
3 *152:8 *3075:A 46.9486 
*END

*D_NET *153 0.00278354
*CONN
*I *3079:C I *D sky130_fd_sc_hd__nand4_4
*I *2782:A1 I *D sky130_fd_sc_hd__o21ai_2
*I *3078:C I *D sky130_fd_sc_hd__and4_2
*I *3077:A I *D sky130_fd_sc_hd__nand2_2
*I *3075:Y O *D sky130_fd_sc_hd__nand2_4
*CAP
1 *3079:C 2.55851e-05
2 *2782:A1 0.000215213
3 *3078:C 4.86216e-05
4 *3077:A 0
5 *3075:Y 0
6 *153:25 0.000357325
7 *153:21 0.000600331
8 *153:12 0.000196736
9 *153:4 0.000677992
10 *3078:C *156:10 1.56662e-06
11 *3079:C *156:10 8.24662e-05
12 *153:12 *155:10 5.19151e-05
13 *153:12 *467:10 0
14 *153:12 *569:21 0
15 *153:21 *3079:D 1.94812e-05
16 *153:25 *156:10 8.4047e-05
17 *153:25 *475:38 6.92524e-05
18 *3069:B1 *2782:A1 0
19 *3078:B *2782:A1 7.44354e-05
20 *3078:B *3078:C 6.17437e-06
21 *3079:A *3079:C 3.3123e-05
22 *3079:A *153:25 9.03054e-05
23 *3079:B *3079:C 0
24 *145:14 *153:25 1.83667e-05
25 *147:6 *2782:A1 1.5769e-05
26 *147:10 *2782:A1 2.00026e-05
27 *149:28 *153:12 9.48318e-05
*RES
1 *3075:Y *153:4 23 
2 *153:4 *153:12 34.2879 
3 *153:12 *3077:A 23 
4 *153:4 *153:21 20.8621 
5 *153:21 *153:25 17.9621 
6 *153:25 *3078:C 23.6214 
7 *153:25 *2782:A1 26.3764 
8 *153:21 *3079:C 39.2014 
*END

*D_NET *154 0.00376508
*CONN
*I *3077:B I *D sky130_fd_sc_hd__nand2_2
*I *3079:D I *D sky130_fd_sc_hd__nand4_4
*I *3078:D I *D sky130_fd_sc_hd__and4_2
*I *3004:B2 I *D sky130_fd_sc_hd__a22o_4
*I *3076:Y O *D sky130_fd_sc_hd__nand3b_2
*CAP
1 *3077:B 0.000181586
2 *3079:D 3.42813e-05
3 *3078:D 0.000140871
4 *3004:B2 4.01155e-05
5 *3076:Y 0.000448793
6 *154:30 0.000358293
7 *154:19 0.000701432
8 *154:6 0.000907043
9 *3077:B *3006:A1 9.91798e-05
10 *3077:B *157:8 6.38947e-05
11 *3077:B *467:10 9.3813e-05
12 *3078:D *156:10 2.72257e-05
13 *3078:D *606:10 5.3304e-05
14 *154:6 *3004:B1 1.94693e-05
15 *154:19 *438:41 0
16 *154:19 *439:10 1.55622e-05
17 *154:19 *467:10 9.88575e-05
18 *154:19 *606:10 0.000296947
19 *154:30 *157:8 1.19692e-05
20 *154:30 *467:10 0.00013705
21 *154:30 *475:38 0
22 *3004:A1 *154:6 1.59094e-05
23 *153:21 *3079:D 1.94812e-05
*RES
1 *3076:Y *154:6 28.3857 
2 *154:6 *3004:B2 23.8493 
3 *154:6 *154:19 22.8507 
4 *154:19 *3078:D 40.5271 
5 *154:19 *154:30 3.66643 
6 *154:30 *3079:D 38.6214 
7 *154:30 *3077:B 42.6607 
*END

*D_NET *155 0.000725269
*CONN
*I *3003:A I *D sky130_fd_sc_hd__xnor2_2
*I *3077:Y O *D sky130_fd_sc_hd__nand2_2
*CAP
1 *3003:A 0
2 *3077:Y 0.000213647
3 *155:10 0.000213647
4 *155:10 *3006:A1 1.94812e-05
5 *155:10 *438:41 1.14452e-05
6 *155:10 *569:21 0
7 *3075:A *155:10 8.93326e-05
8 *149:28 *155:10 0.000125802
9 *153:12 *155:10 5.19151e-05
*RES
1 *3077:Y *155:10 44.0486 
2 *155:10 *3003:A 38 
*END

*D_NET *156 0.0010856
*CONN
*I *3006:A2 I *D sky130_fd_sc_hd__a21oi_4
*I *3078:X O *D sky130_fd_sc_hd__and4_2
*CAP
1 *3006:A2 0
2 *3078:X 0.000267765
3 *156:10 0.000267765
4 *156:10 *242:10 0
5 *156:10 *242:25 0
6 *156:10 *475:38 0.000354769
7 *3078:C *156:10 1.56662e-06
8 *3078:D *156:10 2.72257e-05
9 *3079:C *156:10 8.24662e-05
10 *153:25 *156:10 8.4047e-05
*RES
1 *3078:X *156:10 44.2971 
2 *156:10 *3006:A2 38 
*END

*D_NET *157 0.00103938
*CONN
*I *3095:B I *D sky130_fd_sc_hd__nor2_4
*I *3079:Y O *D sky130_fd_sc_hd__nand4_4
*CAP
1 *3095:B 0
2 *3079:Y 0.000313899
3 *157:8 0.000313899
4 *157:8 *467:10 0
5 *157:8 *475:38 0.000335715
6 *3077:B *157:8 6.38947e-05
7 *154:30 *157:8 1.19692e-05
*RES
1 *3079:Y *157:8 46.5964 
2 *157:8 *3095:B 38 
*END

*D_NET *158 0.000284058
*CONN
*I *3083:C I *D sky130_fd_sc_hd__nand3b_4
*I *3080:Y O *D sky130_fd_sc_hd__nand2b_2
*CAP
1 *3083:C 0
2 *3080:Y 9.99731e-05
3 *158:8 9.99731e-05
4 *158:8 *159:8 8.41115e-05
5 *34:15 *158:8 0
*RES
1 *3080:Y *158:8 40.2579 
2 *158:8 *3083:C 38 
*END

*D_NET *159 0.00122116
*CONN
*I *3083:B I *D sky130_fd_sc_hd__nand3b_4
*I *3081:Y O *D sky130_fd_sc_hd__nand2_4
*CAP
1 *3083:B 0
2 *3081:Y 0.000246679
3 *159:8 0.000246679
4 *159:8 *3080:A_N 0.000179831
5 *159:8 *3081:B 0.000169674
6 *159:8 *3083:A_N 0.000223808
7 *159:8 *518:10 7.03766e-05
8 *34:15 *159:8 0
9 *158:8 *159:8 8.41115e-05
*RES
1 *3081:Y *159:8 45.8921 
2 *159:8 *3083:B 38 
*END

*D_NET *160 0.00105178
*CONN
*I *2783:A1 I *D sky130_fd_sc_hd__a31o_2
*I *3085:B I *D sky130_fd_sc_hd__nand2_4
*I *3082:Y O *D sky130_fd_sc_hd__nand2_2
*CAP
1 *2783:A1 0
2 *3085:B 0.000380131
3 *3082:Y 4.56652e-05
4 *160:20 0.000334466
5 *3085:B *162:8 9.84794e-05
6 *160:20 *2783:A2 5.3304e-05
7 *160:20 *2783:A3 9.0102e-05
8 *160:20 *162:8 4.96364e-05
*RES
1 *3082:Y *3085:B 47.0979 
2 *3085:B *160:20 27.8057 
3 *160:20 *2783:A1 23 
*END

*D_NET *161 0.00580128
*CONN
*I *3094:D1 I *D sky130_fd_sc_hd__o2111ai_4
*I *3093:C1 I *D sky130_fd_sc_hd__o2111a_2
*I *3240:A I *D sky130_fd_sc_hd__buf_2
*I *3083:Y O *D sky130_fd_sc_hd__nand3b_4
*CAP
1 *3094:D1 0
2 *3093:C1 5.77742e-05
3 *3240:A 0.000348168
4 *3083:Y 0.000186114
5 *161:44 0.000188571
6 *161:27 0.000694464
7 *161:10 0.00109466
8 *161:8 0.000484486
9 *3093:C1 *3093:D1 3.7122e-06
10 *3093:C1 *3243:A 8.06804e-06
11 *3240:A *3088:A1 8.94487e-05
12 *3240:A *3088:A2 6.25829e-05
13 *3240:A *163:8 0
14 *3240:A *166:51 0.00022638
15 *3240:A *497:10 7.24484e-05
16 *161:10 *3088:A1 0.000377172
17 *161:10 *3088:A2 0.000129504
18 *161:10 *469:28 0.000339242
19 *161:10 *533:10 7.20415e-05
20 *161:10 *539:36 0.000429621
21 *161:27 *3088:A2 2.64616e-05
22 *161:27 *3093:B1 2.79543e-05
23 *161:27 *3243:A 7.44161e-06
24 *161:27 *166:12 0.00026202
25 *161:27 *166:16 2.18506e-05
26 *161:44 *3092:A1 4.6318e-06
27 *161:44 *3094:C1 0.000247097
28 *161:44 *165:8 2.70366e-05
29 *161:44 *165:10 0.000106527
30 *161:44 *169:12 9.03784e-05
31 *3:17 *161:8 0.000115422
*RES
1 *3083:Y *161:8 40.5271 
2 *161:8 *161:10 9.65286 
3 *161:10 *3240:A 46.12 
4 *161:10 *161:27 21.3386 
5 *161:27 *3093:C1 23.6214 
6 *161:27 *161:44 35.2614 
7 *161:44 *3094:D1 23 
*END

*D_NET *162 0.00154678
*CONN
*I *3085:A I *D sky130_fd_sc_hd__nand2_4
*I *2783:A3 I *D sky130_fd_sc_hd__a31o_2
*I *3084:X O *D sky130_fd_sc_hd__o21a_4
*CAP
1 *3085:A 0
2 *2783:A3 0.00017214
3 *3084:X 0.000372216
4 *162:8 0.000544355
5 *2783:A3 *2783:A2 9.58714e-05
6 *162:8 *3082:A 5.3304e-05
7 *162:8 *469:50 1.56762e-05
8 *162:8 *538:17 5.50049e-05
9 *3085:B *162:8 9.84794e-05
10 *160:20 *2783:A3 9.0102e-05
11 *160:20 *162:8 4.96364e-05
*RES
1 *3084:X *162:8 29.8357 
2 *162:8 *2783:A3 26.48 
3 *162:8 *3085:A 23 
*END

*D_NET *163 0.00305265
*CONN
*I *3093:B1 I *D sky130_fd_sc_hd__o2111a_2
*I *3094:B1 I *D sky130_fd_sc_hd__o2111ai_4
*I *3086:B I *D sky130_fd_sc_hd__nand2_2
*I *3008:B1 I *D sky130_fd_sc_hd__o21ai_2
*I *3085:Y O *D sky130_fd_sc_hd__nand2_4
*CAP
1 *3093:B1 6.69011e-05
2 *3094:B1 0
3 *3086:B 7.55302e-05
4 *3008:B1 0
5 *3085:Y 0.000302574
6 *163:22 0.000207554
7 *163:16 0.000486868
8 *163:10 0.00030442
9 *163:8 0.000470111
10 *3086:B *170:8 4.79641e-05
11 *3093:B1 *3243:A 0.000180218
12 *3093:B1 *166:12 2.18409e-05
13 *3093:B1 *166:16 5.50106e-05
14 *163:8 *3088:A2 0
15 *163:8 *3088:B1 0
16 *163:8 *3089:B1 0.000212712
17 *163:8 *3092:A2 1.12487e-05
18 *163:10 *3092:A2 0.000101564
19 *163:10 *166:51 0
20 *163:10 *500:8 0.000168754
21 *163:16 *3092:A2 8.76088e-05
22 *163:16 *170:8 5.41288e-05
23 *163:16 *500:8 0.000169683
24 *163:22 *3092:A2 0
25 *163:22 *164:8 0
26 *163:22 *497:10 0
27 *163:22 *500:8 0
28 *3240:A *163:8 0
29 *161:27 *3093:B1 2.79543e-05
*RES
1 *3085:Y *163:8 44.1314 
2 *163:8 *163:10 2.96214 
3 *163:10 *163:16 19.785 
4 *163:16 *163:22 33.6664 
5 *163:22 *3008:B1 23 
6 *163:16 *3086:B 24.595 
7 *163:10 *3094:B1 38 
8 *163:8 *3093:B1 40.0507 
*END

*D_NET *164 0.000592661
*CONN
*I *3007:A I *D sky130_fd_sc_hd__xor2_2
*I *3008:A1 I *D sky130_fd_sc_hd__o21ai_2
*I *3086:Y O *D sky130_fd_sc_hd__nand2_2
*CAP
1 *3007:A 4.1159e-05
2 *3008:A1 0
3 *3086:Y 0.000168832
4 *164:10 4.1159e-05
5 *164:8 0.000168832
6 *3007:A *3007:B 6.27496e-05
7 *3007:A *3008:A2 0
8 *3007:A *441:10 9.84851e-05
9 *164:8 *441:10 0
10 *164:8 *497:10 1.14452e-05
11 *163:22 *164:8 0
*RES
1 *3086:Y *164:8 40.9621 
2 *164:8 *164:10 15 
3 *164:10 *3008:A1 23 
4 *164:10 *3007:A 24.595 
*END

*D_NET *165 0.0021853
*CONN
*I *3093:A2 I *D sky130_fd_sc_hd__o2111a_2
*I *3094:A2 I *D sky130_fd_sc_hd__o2111ai_4
*I *3092:A1 I *D sky130_fd_sc_hd__o21a_2
*I *3087:X O *D sky130_fd_sc_hd__and2_4
*CAP
1 *3093:A2 0
2 *3094:A2 0.000286795
3 *3092:A1 0.000153588
4 *3087:X 9.96918e-05
5 *165:10 0.000520412
6 *165:8 0.00017972
7 *3092:A1 *3092:A2 0.000229218
8 *3092:A1 *3094:C1 6.7177e-06
9 *3092:A1 *242:25 0
10 *165:8 *3089:B1 0.00026533
11 *165:8 *3092:A2 1.14452e-05
12 *165:8 *169:12 6.50802e-05
13 *165:8 *449:88 1.01436e-05
14 *165:10 *3092:A2 0.000218962
15 *161:44 *3092:A1 4.6318e-06
16 *161:44 *165:8 2.70366e-05
17 *161:44 *165:10 0.000106527
*RES
1 *3087:X *165:8 41.6664 
2 *165:8 *165:10 2.96214 
3 *165:10 *3092:A1 41.5836 
4 *165:10 *3094:A2 42.4536 
5 *165:8 *3093:A2 38 
*END

*D_NET *166 0.00458621
*CONN
*I *3094:A1 I *D sky130_fd_sc_hd__o2111ai_4
*I *3093:A1 I *D sky130_fd_sc_hd__o2111a_2
*I *3089:B1 I *D sky130_fd_sc_hd__a21oi_2
*I *3092:A2 I *D sky130_fd_sc_hd__o21a_2
*I *3088:Y O *D sky130_fd_sc_hd__o21ai_2
*CAP
1 *3094:A1 0
2 *3093:A1 0
3 *3089:B1 0.000482046
4 *3092:A2 0.000242544
5 *3088:Y 0
6 *166:51 0.000173493
7 *166:16 0.000742227
8 *166:12 0.000208031
9 *166:4 0.000363886
10 *3089:B1 *3088:B1 0
11 *3089:B1 *3089:A2 0.000139764
12 *3089:B1 *169:10 0.000181125
13 *3089:B1 *449:88 0.000166288
14 *3089:B1 *449:105 7.75329e-06
15 *3089:B1 *539:8 0
16 *3092:A2 *242:25 0
17 *3092:A2 *500:8 7.76364e-06
18 *166:12 *3088:A2 6.17437e-06
19 *166:12 *3243:A 0.000139926
20 *166:51 *500:8 0
21 *3092:A1 *3092:A2 0.000229218
22 *3093:B1 *166:12 2.18409e-05
23 *3093:B1 *166:16 5.50106e-05
24 *3240:A *166:51 0.00022638
25 *161:27 *166:12 0.00026202
26 *161:27 *166:16 2.18506e-05
27 *163:8 *3089:B1 0.000212712
28 *163:8 *3092:A2 1.12487e-05
29 *163:10 *3092:A2 0.000101564
30 *163:10 *166:51 0
31 *163:16 *3092:A2 8.76088e-05
32 *163:22 *3092:A2 0
33 *165:8 *3089:B1 0.00026533
34 *165:8 *3092:A2 1.14452e-05
35 *165:10 *3092:A2 0.000218962
*RES
1 *3088:Y *166:4 23 
2 *166:4 *166:12 5.8 
3 *166:12 *166:16 15.6214 
4 *166:16 *3092:A2 45.105 
5 *166:16 *3089:B1 49.6 
6 *166:12 *3093:A1 23 
7 *166:4 *166:51 33.7079 
8 *166:51 *3094:A1 23 
*END

*D_NET *167 0.000819028
*CONN
*I *2783:B1 I *D sky130_fd_sc_hd__a31o_2
*I *3089:Y O *D sky130_fd_sc_hd__a21oi_2
*CAP
1 *2783:B1 0
2 *3089:Y 0.000204539
3 *167:10 0.000204539
4 *167:10 *3089:A2 0.000180212
5 *167:10 *169:10 0.000108681
6 *167:10 *169:12 1.01436e-05
7 *167:10 *449:88 0.000110913
*RES
1 *3089:Y *167:10 41.6043 
2 *167:10 *2783:B1 38 
*END

*D_NET *168 0.000406541
*CONN
*I *3091:B1 I *D sky130_fd_sc_hd__o21ai_4
*I *3090:Y O *D sky130_fd_sc_hd__a21oi_4
*CAP
1 *3091:B1 9.58062e-05
2 *3090:Y 9.58062e-05
3 *3091:B1 *3090:A2 1.98404e-05
4 *3091:B1 *3091:A2 0
5 *3091:B1 *449:105 0.000102093
6 *3091:B1 *539:32 9.29957e-05
*RES
1 *3090:Y *3091:B1 49.045 
*END

*D_NET *169 0.00431708
*CONN
*I *2783:A2 I *D sky130_fd_sc_hd__a31o_2
*I *3243:A I *D sky130_fd_sc_hd__buf_2
*I *3093:D1 I *D sky130_fd_sc_hd__o2111a_2
*I *3094:C1 I *D sky130_fd_sc_hd__o2111ai_4
*I *3091:Y O *D sky130_fd_sc_hd__o21ai_4
*CAP
1 *2783:A2 6.99346e-05
2 *3243:A 0.000283079
3 *3093:D1 3.61021e-05
4 *3094:C1 0.000223151
5 *3091:Y 0.000209264
6 *169:25 0.000319181
7 *169:12 0.00043571
8 *169:10 0.000491758
9 *3094:C1 *242:25 0
10 *169:10 *3089:A2 1.5769e-05
11 *169:10 *449:88 1.89075e-05
12 *169:10 *449:105 0.0003758
13 *169:10 *467:25 0.000202487
14 *169:10 *539:12 5.47808e-05
15 *169:10 *539:32 3.7122e-06
16 *169:12 *171:8 4.58924e-05
17 *169:12 *242:25 0
18 *169:12 *449:88 8.92738e-05
19 *169:12 *467:25 0.000244517
20 *2783:A3 *2783:A2 9.58714e-05
21 *3089:B1 *169:10 0.000181125
22 *3092:A1 *3094:C1 6.7177e-06
23 *3093:B1 *3243:A 0.000180218
24 *3093:C1 *3093:D1 3.7122e-06
25 *3093:C1 *3243:A 8.06804e-06
26 *160:20 *2783:A2 5.3304e-05
27 *161:27 *3243:A 7.44161e-06
28 *161:44 *3094:C1 0.000247097
29 *161:44 *169:12 9.03784e-05
30 *165:8 *169:12 6.50802e-05
31 *166:12 *3243:A 0.000139926
32 *167:10 *169:10 0.000108681
33 *167:10 *169:12 1.01436e-05
*RES
1 *3091:Y *169:10 44.9186 
2 *169:10 *169:12 6.48357 
3 *169:12 *3094:C1 42.06 
4 *169:12 *169:25 15 
5 *169:25 *3093:D1 23.6214 
6 *169:25 *3243:A 28.9243 
7 *169:10 *2783:A2 39.595 
*END

*D_NET *170 0.000664312
*CONN
*I *3009:A I *D sky130_fd_sc_hd__xor2_2
*I *3092:X O *D sky130_fd_sc_hd__o21a_2
*CAP
1 *3009:A 0
2 *3092:X 0.00028111
3 *170:8 0.00028111
4 *3086:B *170:8 4.79641e-05
5 *163:16 *170:8 5.41288e-05
*RES
1 *3092:X *170:8 28.4064 
2 *170:8 *3009:A 23 
*END

*D_NET *171 0.000362916
*CONN
*I *2784:A2 I *D sky130_fd_sc_hd__a21oi_4
*I *3093:X O *D sky130_fd_sc_hd__o2111a_2
*CAP
1 *2784:A2 2.95294e-05
2 *3093:X 6.62916e-05
3 *171:8 9.5821e-05
4 *2784:A2 *467:19 5.50049e-05
5 *171:8 *242:25 7.03766e-05
6 *169:12 *171:8 4.58924e-05
*RES
1 *3093:X *171:8 39.9057 
2 *171:8 *2784:A2 38.6214 
*END

*D_NET *172 0.000299615
*CONN
*I *3095:A I *D sky130_fd_sc_hd__nor2_4
*I *3094:Y O *D sky130_fd_sc_hd__o2111ai_4
*CAP
1 *3095:A 0.000149807
2 *3094:Y 0.000149807
*RES
1 *3094:Y *3095:A 48.5271 
*END

*D_NET *173 0.00512943
*CONN
*I *3225:A I *D sky130_fd_sc_hd__buf_2
*I *2780:D I *D sky130_fd_sc_hd__nand4_4
*I *2781:B I *D sky130_fd_sc_hd__nand3_4
*I *2790:C I *D sky130_fd_sc_hd__nand3_4
*I *3095:Y O *D sky130_fd_sc_hd__nor2_4
*CAP
1 *3225:A 0.000105133
2 *2780:D 3.41136e-05
3 *2781:B 0.000231981
4 *2790:C 9.19831e-05
5 *3095:Y 0.000353565
6 *173:36 0.000565418
7 *173:28 0.000496439
8 *173:12 0.000902561
9 *173:8 0.00125613
10 *2780:D *2790:A 5.12254e-05
11 *2780:D *2790:B 9.67842e-05
12 *2781:B *241:8 0.000222193
13 *2781:B *250:8 3.70094e-05
14 *2781:B *485:35 0
15 *3225:A *250:8 0
16 *3225:A *496:12 0
17 *173:8 *243:10 2.60152e-05
18 *173:8 *244:8 0.000194309
19 *173:8 *467:10 0.000143733
20 *173:8 *475:38 0
21 *173:28 *250:8 0
22 *173:28 *496:12 0
23 *173:36 *2790:B 0.0002263
24 *173:36 *241:8 2.49836e-05
25 *173:36 *250:8 5.94125e-05
26 *133:20 *3225:A 1.01436e-05
*RES
1 *3095:Y *173:8 46.5964 
2 *173:8 *173:12 31.3436 
3 *173:12 *2790:C 23 
4 *2790:C *173:28 39.4707 
5 *173:28 *173:36 34.8057 
6 *173:36 *2781:B 43.7793 
7 *173:36 *2780:D 39.0979 
8 *173:28 *3225:A 39.9057 
*END

*D_NET *174 0.000561863
*CONN
*I *3099:B I *D sky130_fd_sc_hd__nand3b_4
*I *3096:Y O *D sky130_fd_sc_hd__nand2b_4
*CAP
1 *3099:B 4.28222e-05
2 *3096:Y 9.8182e-05
3 *174:8 0.000141004
4 *3099:B *3099:C 0.000155677
5 *3099:B *532:8 0
6 *174:8 *532:16 4.23817e-05
7 *29:11 *3099:B 8.1796e-05
8 *61:9 *174:8 0
*RES
1 *3096:Y *174:8 39.9057 
2 *174:8 *3099:B 40.0714 
*END

*D_NET *175 0.00199125
*CONN
*I *3099:C I *D sky130_fd_sc_hd__nand3b_4
*I *3097:Y O *D sky130_fd_sc_hd__nand2_2
*CAP
1 *3099:C 0.000560734
2 *3097:Y 6.90544e-05
3 *175:8 0.000629789
4 *3099:C *532:8 0.000400204
5 S[7] *175:8 0.000114092
6 *3099:B *3099:C 0.000155677
7 *29:11 *3099:C 6.17014e-05
8 *30:9 *175:8 0
*RES
1 *3097:Y *175:8 39.5536 
2 *175:8 *3099:C 49.4757 
*END

*D_NET *176 0.00523651
*CONN
*I *2777:A1 I *D sky130_fd_sc_hd__o21ai_2
*I *2730:A1 I *D sky130_fd_sc_hd__o2111ai_4
*I *2720:A1 I *D sky130_fd_sc_hd__o21ai_2
*I *3098:X O *D sky130_fd_sc_hd__and2_2
*CAP
1 *2777:A1 0.000178539
2 *2730:A1 0
3 *2720:A1 0
4 *3098:X 0.000611502
5 *176:27 0.000216208
6 *176:18 0.000938746
7 *176:10 0.00158792
8 *2777:A1 *2777:A2 0
9 *2777:A1 *464:31 1.14452e-05
10 *176:10 *3097:B 4.95081e-05
11 *176:10 *178:16 0
12 *176:10 *178:30 0
13 *176:10 *464:31 0.000164291
14 *176:10 *475:8 5.80963e-05
15 *176:10 *568:19 0.000141954
16 *176:10 *568:25 4.06408e-05
17 *176:10 *568:34 0.000394994
18 *176:18 *2730:B1 0.000563675
19 *176:18 *177:26 0.000163352
20 *176:18 *186:43 2.30292e-05
21 *176:18 *603:10 0
22 *176:27 *2777:A2 0
23 *176:27 *178:30 0
24 *176:27 *464:31 9.26098e-05
*RES
1 *3098:X *176:10 48.8336 
2 *176:10 *176:18 43.8371 
3 *176:18 *2720:A1 38 
4 *176:10 *176:27 1.20143 
5 *176:27 *2730:A1 38 
6 *176:27 *2777:A1 41.2314 
*END

*D_NET *177 0.00639351
*CONN
*I *2776:C I *D sky130_fd_sc_hd__nand4_2
*I *2778:B1 I *D sky130_fd_sc_hd__a2bb2oi_2
*I *3000:A1_N I *D sky130_fd_sc_hd__o2bb2a_4
*I *2730:D1 I *D sky130_fd_sc_hd__o2111ai_4
*I *2720:B1 I *D sky130_fd_sc_hd__o21ai_2
*I *3099:Y O *D sky130_fd_sc_hd__nand3b_4
*CAP
1 *2776:C 0.000170954
2 *2778:B1 0
3 *3000:A1_N 2.34823e-05
4 *2730:D1 2.34823e-05
5 *2720:B1 0
6 *3099:Y 0.000668414
7 *177:59 0.000264593
8 *177:44 0.000361433
9 *177:40 0.000404034
10 *177:26 0.000393461
11 *177:14 0.000476714
12 *177:10 0.000887907
13 *2730:D1 *2730:B1 0
14 *2776:C *179:8 0.000130433
15 *2776:C *190:21 0.000139657
16 *2776:C *236:8 4.9662e-05
17 *177:10 *178:16 0
18 *177:10 *178:30 0
19 *177:10 *179:8 0.000135547
20 *177:10 *188:12 2.35393e-05
21 *177:10 *464:10 0
22 *177:10 *568:52 0
23 *177:10 *602:12 0
24 *177:14 *2730:B1 0.000123506
25 *177:14 *190:10 6.99492e-05
26 *177:26 *2730:B1 0.000313255
27 *177:26 *2998:B1 1.01436e-05
28 *177:26 *180:8 1.83667e-05
29 *177:26 *188:6 4.93341e-05
30 *177:26 *190:10 8.1796e-05
31 *177:26 *602:12 8.05268e-05
32 *177:26 *603:10 0
33 *177:40 *178:30 0
34 *177:40 *179:8 0.000477318
35 *177:40 *186:43 0
36 *177:40 *190:10 0.000408147
37 *177:40 *190:21 2.46345e-05
38 *177:44 *3000:B1 5.3304e-05
39 *177:59 *2778:B2 0.000183733
40 *177:59 *3000:A2_N 0.000182826
41 *177:59 *237:8 0
42 *61:9 *177:10 0
43 *176:18 *177:26 0.000163352
*RES
1 *3099:Y *177:10 49.2479 
2 *177:10 *177:14 16.5743 
3 *177:14 *177:26 39.2179 
4 *177:26 *2720:B1 23 
5 *177:14 *2730:D1 23.4971 
6 *177:10 *177:40 6.48357 
7 *177:40 *177:44 16.0979 
8 *177:44 *3000:A1_N 23.4971 
9 *177:44 *177:59 35.2821 
10 *177:59 *2778:B1 23 
11 *177:40 *2776:C 41.9771 
*END

*D_NET *178 0.00287903
*CONN
*I *2777:A2 I *D sky130_fd_sc_hd__o21ai_2
*I *2730:A2 I *D sky130_fd_sc_hd__o2111ai_4
*I *2719:B1 I *D sky130_fd_sc_hd__a21o_2
*I *2720:A2 I *D sky130_fd_sc_hd__o21ai_2
*I *3100:Y O *D sky130_fd_sc_hd__o21ai_2
*CAP
1 *2777:A2 0.000155554
2 *2730:A2 0
3 *2719:B1 0
4 *2720:A2 9.78292e-05
5 *3100:Y 0.000199279
6 *178:30 0.000318254
7 *178:16 0.000360851
8 *178:8 0.000625001
9 *2720:A2 *2719:A1 4.95081e-05
10 *2720:A2 *188:6 0.000271476
11 *2777:A2 *186:43 5.33753e-05
12 *2777:A2 *190:10 0
13 *178:8 *464:23 0.000108418
14 *178:16 *2719:A1 0.000400198
15 *178:16 *3113:A 6.51763e-05
16 *178:16 *188:6 2.4754e-05
17 *178:16 *464:23 0.00014196
18 *178:16 *475:8 4.6318e-06
19 *178:30 *186:43 2.76611e-06
20 *2777:A1 *2777:A2 0
21 *176:10 *178:16 0
22 *176:10 *178:30 0
23 *176:27 *2777:A2 0
24 *176:27 *178:30 0
25 *177:10 *178:16 0
26 *177:10 *178:30 0
27 *177:40 *178:30 0
*RES
1 *3100:Y *178:8 41.48 
2 *178:8 *178:16 22.5607 
3 *178:16 *2720:A2 26.0036 
4 *178:16 *2719:B1 23 
5 *178:8 *178:30 2.61 
6 *178:30 *2730:A2 38 
7 *178:30 *2777:A2 41.2314 
*END

*D_NET *179 0.00170351
*CONN
*I *2776:D I *D sky130_fd_sc_hd__nand4_2
*I *2719:X O *D sky130_fd_sc_hd__a21o_2
*CAP
1 *2776:D 0
2 *2719:X 0.000392028
3 *179:8 0.000392028
4 *179:8 *188:12 0.000162422
5 *179:8 *190:21 1.37349e-05
6 *179:8 *195:12 0
7 *179:8 *602:12 0
8 *2776:C *179:8 0.000130433
9 *177:10 *179:8 0.000135547
10 *177:40 *179:8 0.000477318
*RES
1 *2719:X *179:8 48.3571 
2 *179:8 *2776:D 38 
*END

*D_NET *180 0.00052641
*CONN
*I *2999:A I *D sky130_fd_sc_hd__xnor2_2
*I *2720:Y O *D sky130_fd_sc_hd__o21ai_2
*CAP
1 *2999:A 0.000114744
2 *2720:Y 0.000139278
3 *180:8 0.000254022
4 *180:8 *602:12 0
5 *180:8 *603:10 0
6 *177:26 *180:8 1.83667e-05
*RES
1 *2720:Y *180:8 40.2579 
2 *180:8 *2999:A 40.0507 
*END

*D_NET *181 0.00240213
*CONN
*I *2998:A1 I *D sky130_fd_sc_hd__a22oi_2
*I *2729:B2 I *D sky130_fd_sc_hd__a22oi_4
*I *2728:B I *D sky130_fd_sc_hd__nand3_2
*I *2721:Y O *D sky130_fd_sc_hd__nand2b_4
*CAP
1 *2998:A1 0.000121434
2 *2729:B2 8.26932e-05
3 *2728:B 8.94254e-05
4 *2721:Y 4.86266e-05
5 *181:8 0.000172119
6 *181:6 0.000170061
7 *2728:B *185:14 0.000218952
8 *2728:B *531:21 0
9 *2729:B2 *2998:A2 0.000192087
10 *2729:B2 *185:14 0.000218952
11 *2729:B2 *187:10 1.01436e-05
12 *2729:B2 *531:21 0
13 *2998:A1 *2722:A_N 0.000332132
14 *2998:A1 *2998:A2 0.000180218
15 *2998:A1 *567:82 4.2062e-05
16 *181:6 *2722:A_N 0.000272377
17 *181:6 *2998:A2 5.50049e-05
18 *181:6 *3023:A 8.1796e-05
19 *181:6 *567:82 2.9938e-05
20 *101:8 *2728:B 8.41115e-05
*RES
1 *2721:Y *181:6 26.0036 
2 *181:6 *181:8 15 
3 *181:8 *2728:B 40.9621 
4 *181:8 *2729:B2 40.9621 
5 *181:6 *2998:A1 26.9771 
*END

*D_NET *182 0.00176131
*CONN
*I *2728:C I *D sky130_fd_sc_hd__nand3_2
*I *2722:Y O *D sky130_fd_sc_hd__nand2b_2
*CAP
1 *2728:C 0
2 *2722:Y 0.000510985
3 *182:10 0.000510985
4 *182:10 *2722:A_N 0.000239694
5 *182:10 *2730:B1 0.000187129
6 *182:10 *2998:B1 2.18506e-05
7 *182:10 *436:10 5.3304e-05
8 *182:10 *456:19 1.94685e-05
9 *182:10 *521:14 4.08537e-05
10 *182:10 *560:14 0.000165593
11 *22:13 *182:10 1.14452e-05
*RES
1 *2722:Y *182:10 46.5964 
2 *182:10 *2728:C 38 
*END

*D_NET *183 0.000528681
*CONN
*I *2729:A1 I *D sky130_fd_sc_hd__a22oi_4
*I *2723:Y O *D sky130_fd_sc_hd__nand2_2
*CAP
1 *2729:A1 0.000201275
2 *2723:Y 0.000201275
3 *2729:A1 *223:33 2.98648e-05
4 *2729:A1 *457:95 9.62666e-05
*RES
1 *2723:Y *2729:A1 49.5007 
*END

*D_NET *184 0.000881222
*CONN
*I *2729:A2 I *D sky130_fd_sc_hd__a22oi_4
*I *2724:X O *D sky130_fd_sc_hd__o21a_2
*CAP
1 *2729:A2 0
2 *2724:X 0.000266895
3 *184:10 0.000266895
4 *184:10 *2724:B1 4.95081e-05
5 *184:10 *2727:A1 8.62876e-05
6 *184:10 *2750:A 8.62783e-05
7 *184:10 *531:40 0.000103984
8 *184:10 *567:70 2.13733e-05
*RES
1 *2724:X *184:10 42.785 
2 *184:10 *2729:A2 38 
*END

*D_NET *185 0.00302724
*CONN
*I *2726:B1 I *D sky130_fd_sc_hd__o21ai_4
*I *2725:Y O *D sky130_fd_sc_hd__a21boi_2
*CAP
1 *2726:B1 0
2 *2725:Y 4.11808e-05
3 *185:14 0.00052772
4 *185:8 0.000568901
5 *185:8 *456:6 7.53384e-06
6 *185:8 *456:19 3.22879e-05
7 *185:14 *187:10 0.000103642
8 *185:14 *456:25 0.000164291
9 *185:14 *456:38 3.70187e-05
10 *185:14 *530:28 0.000137651
11 *185:14 *549:33 0
12 *185:14 *560:14 0.000969109
13 *2728:B *185:14 0.000218952
14 *2729:B2 *185:14 0.000218952
15 *28:15 *185:14 0
*RES
1 *2725:Y *185:8 38.6214 
2 *185:8 *185:14 29.7486 
3 *185:14 *2726:B1 23 
*END

*D_NET *186 0.00433561
*CONN
*I *2777:B1 I *D sky130_fd_sc_hd__o21ai_2
*I *2998:B2 I *D sky130_fd_sc_hd__a22oi_2
*I *2730:B1 I *D sky130_fd_sc_hd__o2111ai_4
*I *2726:Y O *D sky130_fd_sc_hd__o21ai_4
*CAP
1 *2777:B1 0
2 *2998:B2 0
3 *2730:B1 0.000444795
4 *2726:Y 0.000555292
5 *186:43 0.000131396
6 *186:12 0.000868691
7 *2730:B1 *2998:B1 0.000315857
8 *2730:B1 *190:10 1.5769e-05
9 *2730:B1 *603:10 6.38845e-05
10 *186:12 *2998:B1 0
11 *186:12 *194:10 2.80924e-06
12 *186:12 *435:8 0
13 *186:12 *435:10 0
14 *186:12 *457:101 0.000374011
15 *186:12 *530:28 2.30292e-05
16 *186:12 *565:16 0.000149238
17 *186:12 *603:10 0.000124102
18 *186:43 *190:10 0
19 *2730:D1 *2730:B1 0
20 *2777:A2 *186:43 5.33753e-05
21 *176:18 *2730:B1 0.000563675
22 *176:18 *186:43 2.30292e-05
23 *177:14 *2730:B1 0.000123506
24 *177:26 *2730:B1 0.000313255
25 *177:40 *186:43 0
26 *178:30 *186:43 2.76611e-06
27 *182:10 *2730:B1 0.000187129
*RES
1 *2726:Y *186:12 48.5643 
2 *186:12 *2730:B1 49.3721 
3 *186:12 *2998:B2 38 
4 *2730:B1 *186:43 40.8793 
5 *186:43 *2777:B1 38 
*END

*D_NET *187 0.0023444
*CONN
*I *2729:B1 I *D sky130_fd_sc_hd__a22oi_4
*I *2998:A2 I *D sky130_fd_sc_hd__a22oi_2
*I *2727:Y O *D sky130_fd_sc_hd__a21oi_2
*CAP
1 *2729:B1 4.56652e-05
2 *2998:A2 0.000194319
3 *2727:Y 0.000221485
4 *187:10 0.000461469
5 *2729:B1 *457:95 9.84794e-05
6 *2998:A2 *531:40 0
7 *2998:A2 *567:82 0.000160893
8 *187:10 *2724:A2 4.6595e-05
9 *187:10 *2724:B1 0.000184527
10 *187:10 *456:25 1.01436e-05
11 *187:10 *522:36 6.9805e-05
12 *187:10 *531:40 5.67058e-05
13 *187:10 *567:70 0.000185428
14 *187:10 *567:72 1.62015e-05
15 *187:10 *567:82 5.15908e-05
16 *2729:B2 *2998:A2 0.000192087
17 *2729:B2 *187:10 1.01436e-05
18 *2998:A1 *2998:A2 0.000180218
19 *181:6 *2998:A2 5.50049e-05
20 *185:14 *187:10 0.000103642
*RES
1 *2727:Y *187:10 44.7943 
2 *187:10 *2998:A2 43.1371 
3 *187:10 *2729:B1 39.0979 
*END

*D_NET *188 0.00286807
*CONN
*I *2730:C1 I *D sky130_fd_sc_hd__o2111ai_4
*I *2728:Y O *D sky130_fd_sc_hd__nand3_2
*CAP
1 *2730:C1 0
2 *2728:Y 0.000391599
3 *188:12 0.000168619
4 *188:6 0.000560217
5 *188:6 *3113:A 0.00111933
6 *188:12 *602:12 0
7 *2720:A2 *188:6 0.000271476
8 *22:13 *188:6 9.67842e-05
9 *177:10 *188:12 2.35393e-05
10 *177:26 *188:6 4.93341e-05
11 *178:16 *188:6 2.4754e-05
12 *179:8 *188:12 0.000162422
*RES
1 *2728:Y *188:6 35.5321 
2 *188:6 *188:12 32.9621 
3 *188:12 *2730:C1 23 
*END

*D_NET *189 0.00259264
*CONN
*I *2776:A I *D sky130_fd_sc_hd__nand4_2
*I *2997:A I *D sky130_fd_sc_hd__xnor2_2
*I *2729:Y O *D sky130_fd_sc_hd__a22oi_4
*CAP
1 *2776:A 0
2 *2997:A 0
3 *2729:Y 0.000243259
4 *189:21 0.000251854
5 *189:8 0.000495114
6 *189:8 *223:33 0.000694105
7 *189:8 *457:95 0.000393293
8 *189:21 *2998:B1 1.83667e-05
9 *189:21 *223:33 6.68919e-05
10 *189:21 *435:8 9.98995e-05
11 *189:21 *435:10 0.000111148
12 *189:21 *602:12 0.000218706
*RES
1 *2729:Y *189:8 31.265 
2 *189:8 *2997:A 23 
3 *189:8 *189:21 37.3536 
4 *189:21 *2776:A 23 
*END

*D_NET *190 0.00407333
*CONN
*I *2747:B I *D sky130_fd_sc_hd__nor2_4
*I *2748:A I *D sky130_fd_sc_hd__or2_4
*I *3000:B1 I *D sky130_fd_sc_hd__o2bb2a_4
*I *2730:Y O *D sky130_fd_sc_hd__o2111ai_4
*CAP
1 *2747:B 0.000270484
2 *2748:A 4.9927e-05
3 *3000:B1 0.000106599
4 *2730:Y 0.000379622
5 *190:21 0.000810429
6 *190:10 0.000976239
7 *2747:B *2747:A 5.50106e-05
8 *2747:B *3253:A 0
9 *2747:B *223:37 5.3656e-05
10 *2747:B *249:21 5.50106e-05
11 *2747:B *434:10 0
12 *2748:A *449:40 5.41385e-05
13 *190:10 *223:37 6.38947e-05
14 *190:21 *195:12 0
15 *190:21 *208:8 0.000168754
16 *190:21 *223:37 0.000222577
17 *190:21 *434:10 0
18 *190:21 *602:12 0
19 *2730:B1 *190:10 1.5769e-05
20 *2776:C *190:21 0.000139657
21 *2777:A2 *190:10 0
22 *177:14 *190:10 6.99492e-05
23 *177:26 *190:10 8.1796e-05
24 *177:40 *190:10 0.000408147
25 *177:40 *190:21 2.46345e-05
26 *177:44 *3000:B1 5.3304e-05
27 *179:8 *190:21 1.37349e-05
28 *186:43 *190:10 0
*RES
1 *2730:Y *190:10 46.9071 
2 *190:10 *3000:B1 39.5743 
3 *190:10 *190:21 11.4136 
4 *190:21 *2748:A 39.0979 
5 *190:21 *2747:B 43.4271 
*END

*D_NET *191 0.00137077
*CONN
*I *2738:A1 I *D sky130_fd_sc_hd__o21a_2
*I *2996:A1 I *D sky130_fd_sc_hd__o22a_4
*I *2731:X O *D sky130_fd_sc_hd__and2_2
*CAP
1 *2738:A1 0
2 *2996:A1 0
3 *2731:X 4.28388e-05
4 *191:16 0.000207588
5 *191:6 0.000250426
6 *191:6 *235:10 3.16665e-05
7 *191:6 *249:10 9.58714e-05
8 *191:16 *2733:A_N 0
9 *191:16 *2738:A2 0.000131077
10 *191:16 *2996:B1 1.21972e-05
11 *191:16 *192:8 0.000138727
12 *191:16 *193:10 6.17437e-06
13 *191:16 *521:14 0.000400905
14 *191:16 *565:42 5.3304e-05
*RES
1 *2731:X *191:6 24.0979 
2 *191:6 *191:16 36.5457 
3 *191:16 *2996:A1 23 
4 *191:6 *2738:A1 23 
*END

*D_NET *192 0.00191317
*CONN
*I *2737:B I *D sky130_fd_sc_hd__nand3b_2
*I *2736:B I *D sky130_fd_sc_hd__and3b_2
*I *2732:Y O *D sky130_fd_sc_hd__nand2_2
*CAP
1 *2737:B 4.15693e-05
2 *2736:B 0.000272293
3 *2732:Y 0.000151342
4 *192:10 0.000313862
5 *192:8 0.000151342
6 *2736:B *2735:B1 0
7 *2736:B *2736:C 2.71844e-05
8 *2736:B *2737:A_N 0.000278909
9 *2737:B *2735:B1 3.7122e-06
10 *192:8 *2738:A2 0.000154147
11 *192:8 *193:10 0.000163352
12 *192:8 *194:29 0.000194318
13 *192:8 *521:14 2.24151e-05
14 *191:16 *192:8 0.000138727
*RES
1 *2732:Y *192:8 42.7229 
2 *192:8 *192:10 15 
3 *192:10 *2736:B 28.3029 
4 *192:10 *2737:B 23.6214 
*END

*D_NET *193 0.00170247
*CONN
*I *2736:C I *D sky130_fd_sc_hd__and3b_2
*I *2737:C I *D sky130_fd_sc_hd__nand3b_2
*I *2733:Y O *D sky130_fd_sc_hd__nand2b_2
*CAP
1 *2736:C 0.000233971
2 *2737:C 0
3 *2733:Y 0.000252856
4 *193:12 0.000233971
5 *193:10 0.000252856
6 *2736:C *2737:A_N 0.000134326
7 *193:10 *2733:B 6.17437e-06
8 *193:10 *2996:B1 0.000175903
9 *193:10 *521:14 0.000163352
10 *193:10 *565:42 5.23488e-05
11 *2736:B *2736:C 2.71844e-05
12 *191:16 *193:10 6.17437e-06
13 *192:8 *193:10 0.000163352
*RES
1 *2733:Y *193:10 43.2614 
2 *193:10 *193:12 15 
3 *193:12 *2737:C 23 
4 *193:12 *2736:C 26.7389 
*END

*D_NET *194 0.003275
*CONN
*I *2738:A2 I *D sky130_fd_sc_hd__o21a_2
*I *2996:A2 I *D sky130_fd_sc_hd__o22a_4
*I *2735:B1 I *D sky130_fd_sc_hd__a21oi_2
*I *2734:Y O *D sky130_fd_sc_hd__o21ai_2
*CAP
1 *2738:A2 0.000182205
2 *2996:A2 3.21736e-05
3 *2735:B1 0.000399609
4 *2734:Y 0.000103954
5 *194:29 0.000334331
6 *194:10 0.000623516
7 *2735:B1 *2735:A1 9.21555e-05
8 *2735:B1 *195:6 5.50049e-05
9 *2735:B1 *197:24 5.73332e-05
10 *2738:A2 *197:8 0.000426478
11 *2738:A2 *235:10 1.94693e-05
12 *2738:A2 *249:10 5.50049e-05
13 *2996:A2 *2996:B1 2.64616e-05
14 *2996:A2 *565:42 2.64616e-05
15 *194:10 *2735:A1 3.83778e-05
16 *194:10 *521:14 2.79004e-05
17 *194:10 *530:28 7.53384e-06
18 *194:10 *565:16 2.45549e-06
19 *194:29 *2735:A1 1.22906e-05
20 *194:29 *197:8 0.000246748
21 *194:29 *521:14 1.94685e-05
22 *2736:B *2735:B1 0
23 *2737:B *2735:B1 3.7122e-06
24 *186:12 *194:10 2.80924e-06
25 *191:16 *2738:A2 0.000131077
26 *192:8 *2738:A2 0.000154147
27 *192:8 *194:29 0.000194318
*RES
1 *2734:Y *194:10 39.8229 
2 *194:10 *2735:B1 44.67 
3 *194:10 *194:29 3.66643 
4 *194:29 *2996:A2 38.6214 
5 *194:29 *2738:A2 44.4007 
*END

*D_NET *195 0.00157133
*CONN
*I *2746:A_N I *D sky130_fd_sc_hd__nand4b_4
*I *2776:B I *D sky130_fd_sc_hd__nand4_2
*I *2735:Y O *D sky130_fd_sc_hd__a21oi_2
*CAP
1 *2746:A_N 0.000123577
2 *2776:B 0
3 *2735:Y 0.000129966
4 *195:12 0.000127968
5 *195:6 0.00038151
6 *2746:A_N *197:24 0.000313255
7 *195:6 *197:24 0.000310647
8 *195:12 *602:12 0.000129402
9 *2735:B1 *195:6 5.50049e-05
10 *179:8 *195:12 0
11 *190:21 *195:12 0
*RES
1 *2735:Y *195:6 26.48 
2 *195:6 *195:12 33.3143 
3 *195:12 *2776:B 23 
4 *195:6 *2746:A_N 26.48 
*END

*D_NET *196 0.00150167
*CONN
*I *2996:B1 I *D sky130_fd_sc_hd__o22a_4
*I *2736:X O *D sky130_fd_sc_hd__and3b_2
*CAP
1 *2996:B1 0.000459489
2 *2736:X 6.07939e-05
3 *196:8 0.000520283
4 *2996:B1 *565:40 2.13733e-05
5 *2996:B1 *565:42 1.71001e-05
6 *196:8 *456:38 6.93553e-05
7 *196:8 *560:14 0.000138718
8 *2996:A2 *2996:B1 2.64616e-05
9 *191:16 *2996:B1 1.21972e-05
10 *193:10 *2996:B1 0.000175903
*RES
1 *2736:X *196:8 39.9057 
2 *196:8 *2996:B1 44.1107 
*END

*D_NET *197 0.00409463
*CONN
*I *2746:C I *D sky130_fd_sc_hd__nand4b_4
*I *2738:B1 I *D sky130_fd_sc_hd__o21a_2
*I *2737:Y O *D sky130_fd_sc_hd__nand3b_2
*CAP
1 *2746:C 0
2 *2738:B1 0
3 *2737:Y 0.00104999
4 *197:24 0.000805369
5 *197:8 0.000244625
6 *197:8 *2735:A1 6.70363e-05
7 *197:8 *457:101 0.000203459
8 *197:8 *565:68 0.000192096
9 *197:24 *2735:A1 0.000141052
10 *197:24 *2746:B 3.65406e-05
11 *197:24 *2746:D 0
12 *2735:B1 *197:24 5.73332e-05
13 *2738:A2 *197:8 0.000426478
14 *2746:A_N *197:24 0.000313255
15 *194:29 *197:8 0.000246748
16 *195:6 *197:24 0.000310647
*RES
1 *2737:Y *197:8 46.9486 
2 *197:8 *2738:B1 38 
3 *2737:Y *197:24 38.4114 
4 *197:24 *2746:C 23 
*END

*D_NET *198 0.000452483
*CONN
*I *2995:A I *D sky130_fd_sc_hd__xnor2_2
*I *2738:X O *D sky130_fd_sc_hd__o21a_2
*CAP
1 *2995:A 0
2 *2738:X 0.000128655
3 *198:10 0.000128655
4 *198:10 *249:10 5.3304e-05
5 *198:10 *457:101 0.000141869
6 *198:10 *514:8 0
*RES
1 *2738:X *198:10 40.5271 
2 *198:10 *2995:A 38 
*END

*D_NET *199 0.00275594
*CONN
*I *2741:A2 I *D sky130_fd_sc_hd__o21bai_4
*I *2745:A1 I *D sky130_fd_sc_hd__o21ai_2
*I *2778:A2_N I *D sky130_fd_sc_hd__a2bb2oi_2
*I *2739:Y O *D sky130_fd_sc_hd__nor2_2
*CAP
1 *2741:A2 0.000263011
2 *2745:A1 6.2628e-05
3 *2778:A2_N 0.0002274
4 *2739:Y 0.000129053
5 *199:23 0.000475507
6 *199:6 0.000506321
7 *2741:A2 *2746:D 6.99589e-05
8 *2741:A2 *201:6 8.56254e-05
9 *2745:A1 *2745:B1 5.50106e-05
10 *2745:A1 *2746:B 4.9662e-05
11 *2745:A1 *2746:D 4.50413e-05
12 *2745:A1 *201:6 2.64616e-05
13 *2778:A2_N *201:23 5.50106e-05
14 *2778:A2_N *437:10 1.39317e-05
15 *199:6 *2739:A 2.93845e-05
16 *199:23 *201:23 0.000292856
17 *199:23 *465:38 8.62876e-05
18 *199:23 *465:53 7.48331e-05
19 *199:23 *465:66 0.000181943
20 *199:23 *485:8 2.60152e-05
*RES
1 *2739:Y *199:6 24.5743 
2 *199:6 *2778:A2_N 26.9979 
3 *199:6 *199:23 34.7229 
4 *199:23 *2745:A1 24.5743 
5 *199:23 *2741:A2 27.93 
*END

*D_NET *200 0.000365802
*CONN
*I *2741:A1 I *D sky130_fd_sc_hd__o21bai_4
*I *2740:X O *D sky130_fd_sc_hd__and2_4
*CAP
1 *2741:A1 0
2 *2740:X 0.000155399
3 *200:10 0.000155399
4 *200:10 *438:10 0
5 *200:10 *449:12 0
6 *200:10 *569:47 5.50049e-05
*RES
1 *2740:X *200:10 40.8793 
2 *200:10 *2741:A1 38 
*END

*D_NET *201 0.002926
*CONN
*I *3229:A I *D sky130_fd_sc_hd__buf_2
*I *2746:B I *D sky130_fd_sc_hd__nand4b_4
*I *2741:Y O *D sky130_fd_sc_hd__o21bai_4
*CAP
1 *3229:A 0
2 *2746:B 0.000627101
3 *2741:Y 0.000198632
4 *201:23 0.000169493
5 *201:6 0.000995227
6 *2746:B *2746:D 5.60292e-05
7 *201:23 *205:8 1.69668e-05
8 *201:23 *465:27 4.6318e-06
9 *201:23 *465:38 1.89075e-05
10 *201:23 *485:8 0.000292856
11 *2741:A2 *201:6 8.56254e-05
12 *2745:A1 *2746:B 4.9662e-05
13 *2745:A1 *201:6 2.64616e-05
14 *2778:A2_N *201:23 5.50106e-05
15 *197:24 *2746:B 3.65406e-05
16 *199:23 *201:23 0.000292856
*RES
1 *2741:Y *201:6 25.5271 
2 *201:6 *2746:B 31.9693 
3 *201:6 *201:23 35.3443 
4 *201:23 *3229:A 23 
*END

*D_NET *202 0.000928146
*CONN
*I *2744:B1 I *D sky130_fd_sc_hd__o21ai_2
*I *2742:Y O *D sky130_fd_sc_hd__a21boi_2
*CAP
1 *2744:B1 0
2 *2742:Y 0.000207732
3 *202:10 0.000207732
4 *202:10 *2741:B1_N 9.28945e-05
5 *202:10 *2743:A2 9.84851e-05
6 *202:10 *204:8 0.000141888
7 *202:10 *449:12 0.000174427
8 *202:10 *465:66 4.98718e-06
*RES
1 *2742:Y *202:10 43.8207 
2 *202:10 *2744:B1 38 
*END

*D_NET *203 0.000841829
*CONN
*I *2745:A2 I *D sky130_fd_sc_hd__o21ai_2
*I *2778:A1_N I *D sky130_fd_sc_hd__a2bb2oi_2
*I *2743:X O *D sky130_fd_sc_hd__a21bo_2
*CAP
1 *2745:A2 0
2 *2778:A1_N 0
3 *2743:X 0.000321368
4 *203:26 0.000211777
5 *203:8 0.000109591
6 *203:8 *205:8 0
7 *203:8 *238:8 3.81391e-05
8 *203:26 *2743:B1_N 2.95542e-05
9 *203:26 *205:8 0.000110922
10 *203:26 *485:8 2.04774e-05
*RES
1 *2743:X *203:8 40.2579 
2 *203:8 *2778:A1_N 38 
3 *2743:X *203:26 41.8321 
4 *203:26 *2745:A2 38 
*END

*D_NET *204 0.00120456
*CONN
*I *2746:D I *D sky130_fd_sc_hd__nand4b_4
*I *2744:Y O *D sky130_fd_sc_hd__o21ai_2
*CAP
1 *2746:D 0.000328925
2 *2744:Y 5.42001e-05
3 *204:8 0.000383125
4 *2746:D *2745:B1 5.50106e-05
5 *204:8 *465:66 7.03869e-05
6 *2741:A2 *2746:D 6.99589e-05
7 *2745:A1 *2746:D 4.50413e-05
8 *2746:B *2746:D 5.60292e-05
9 *197:24 *2746:D 0
10 *202:10 *204:8 0.000141888
*RES
1 *2744:Y *204:8 39.9057 
2 *204:8 *2746:D 43.8829 
*END

*D_NET *205 0.00115231
*CONN
*I *3001:A I *D sky130_fd_sc_hd__xor2_2
*I *2745:Y O *D sky130_fd_sc_hd__o21ai_2
*CAP
1 *3001:A 0
2 *2745:Y 0.000361962
3 *205:8 0.000361962
4 *205:8 *238:8 0
5 *205:8 *437:10 0.000141869
6 *205:8 *465:27 0
7 *205:8 *485:8 0.000158629
8 *201:23 *205:8 1.69668e-05
9 *203:8 *205:8 0
10 *203:26 *205:8 0.000110922
*RES
1 *2745:Y *205:8 45.8921 
2 *205:8 *3001:A 38 
*END

*D_NET *206 0.00169466
*CONN
*I *2747:A I *D sky130_fd_sc_hd__nor2_4
*I *2748:B I *D sky130_fd_sc_hd__or2_4
*I *2746:Y O *D sky130_fd_sc_hd__nand4b_4
*CAP
1 *2747:A 0.000221581
2 *2748:B 0
3 *2746:Y 0.000211464
4 *206:8 0.000433046
5 *2747:A *2781:A 4.21594e-06
6 *2747:A *223:37 0.00016046
7 *2747:A *241:8 0
8 *206:8 *2781:A 7.03421e-05
9 *206:8 *223:37 0.000458727
10 *206:8 *239:8 7.98155e-05
11 *2747:B *2747:A 5.50106e-05
*RES
1 *2746:Y *206:8 44.1314 
2 *206:8 *2748:B 38 
3 *206:8 *2747:A 42.8057 
*END

*D_NET *207 0.00210161
*CONN
*I *3224:A I *D sky130_fd_sc_hd__buf_2
*I *2790:B I *D sky130_fd_sc_hd__nand3_4
*I *2780:B I *D sky130_fd_sc_hd__nand4_4
*I *2747:Y O *D sky130_fd_sc_hd__nor2_4
*CAP
1 *3224:A 0.000128894
2 *2790:B 0.000289095
3 *2780:B 9.13459e-05
4 *2747:Y 0.000124997
5 *207:10 0.000380441
6 *207:8 0.000253892
7 *2780:B *2790:A 3.16665e-05
8 *2790:B *2790:A 0.000134203
9 *3224:A *2791:A3 0.000109405
10 *3224:A *240:8 0
11 *207:8 *2791:A3 1.02387e-05
12 *207:8 *223:37 0.000224345
13 *207:8 *240:8 0
14 *207:8 *241:8 0
15 *2780:D *2790:B 9.67842e-05
16 *173:36 *2790:B 0.0002263
*RES
1 *2747:Y *207:8 41.3143 
2 *207:8 *207:10 15 
3 *207:10 *2780:B 24.595 
4 *207:10 *2790:B 29.8357 
5 *207:8 *3224:A 40.8793 
*END

*D_NET *208 0.00057926
*CONN
*I *3002:B1 I *D sky130_fd_sc_hd__o2bb2ai_4
*I *2748:X O *D sky130_fd_sc_hd__or2_4
*CAP
1 *3002:B1 4.97825e-05
2 *2748:X 6.6261e-05
3 *208:8 0.000116043
4 *3002:B1 *3002:B2 9.67842e-05
5 *208:8 *223:37 8.16356e-05
6 *190:21 *208:8 0.000168754
*RES
1 *2748:X *208:8 40.2579 
2 *208:8 *3002:B1 39.0979 
*END

*D_NET *209 0.000877679
*CONN
*I *2755:B I *D sky130_fd_sc_hd__nand3b_4
*I *2749:Y O *D sky130_fd_sc_hd__nand2b_4
*CAP
1 *2755:B 0
2 *2749:Y 0.000262519
3 *209:10 0.000262519
4 *209:10 *473:10 0.000196889
5 *209:10 *549:12 1.12487e-05
6 *209:10 *549:16 0.000126847
7 *12:11 *209:10 1.76557e-05
*RES
1 *2749:Y *209:10 43.7379 
2 *209:10 *2755:B 38 
*END

*D_NET *210 0.00143725
*CONN
*I *2755:C I *D sky130_fd_sc_hd__nand3b_4
*I *2750:Y O *D sky130_fd_sc_hd__nand2_4
*CAP
1 *2755:C 0.000178418
2 *2750:Y 9.43082e-05
3 *210:8 0.000272726
4 *2755:C *212:6 6.07175e-05
5 *2755:C *454:23 0.000137651
6 *2755:C *473:29 0.000184527
7 *2755:C *531:8 0.000139754
8 *210:8 *567:18 6.07611e-06
9 *210:8 *567:31 0.000116321
10 *26:9 *210:8 0.000246748
*RES
1 *2750:Y *210:8 41.3143 
2 *210:8 *2755:C 42.9093 
*END

*D_NET *211 0.000478918
*CONN
*I *2753:A I *D sky130_fd_sc_hd__nand2_2
*I *2751:Y O *D sky130_fd_sc_hd__nand2_2
*CAP
1 *2753:A 1.97605e-05
2 *2751:Y 7.17751e-05
3 *211:8 9.15356e-05
4 *2753:A *213:6 5.50106e-05
5 *2753:A *457:61 1.94812e-05
6 *211:8 *473:29 0.000168744
7 *211:8 *529:10 5.26101e-05
*RES
1 *2751:Y *211:8 40.2579 
2 *211:8 *2753:A 38.6214 
*END

*D_NET *212 0.00544378
*CONN
*I *2786:A1 I *D sky130_fd_sc_hd__o22ai_2
*I *2754:A I *D sky130_fd_sc_hd__nor2_2
*I *2756:A1 I *D sky130_fd_sc_hd__o21ai_4
*I *2752:Y O *D sky130_fd_sc_hd__nor2_2
*CAP
1 *2786:A1 0.000200268
2 *2754:A 8.14469e-05
3 *2756:A1 4.57278e-05
4 *2752:Y 0.000306239
5 *212:21 0.000492833
6 *212:10 0.000362772
7 *212:6 0.000412165
8 *2754:A *2754:B 5.90675e-06
9 *2754:A *213:6 4.5051e-05
10 *2754:A *213:10 2.64616e-05
11 *2754:A *214:10 5.3304e-05
12 *2754:A *457:61 4.5051e-05
13 *2756:A1 *223:14 0.000139346
14 *2786:A1 *2787:A1 1.61013e-05
15 *2786:A1 *3259:A 5.67058e-05
16 *2786:A1 *215:29 1.17049e-05
17 *2786:A1 *522:8 8.72173e-05
18 *2786:A1 *525:10 0.000133316
19 *2786:A1 *564:10 3.09649e-05
20 *212:6 *2752:A 4.5051e-05
21 *212:6 *454:23 0.000517599
22 *212:6 *473:29 0.0002263
23 *212:6 *549:33 2.93845e-05
24 *212:6 *572:20 0.00106975
25 *212:10 *2751:B 8.72173e-05
26 *212:10 *522:8 1.01436e-05
27 *212:10 *549:12 0.000108681
28 *212:10 *564:10 5.40866e-05
29 *212:21 *2751:B 0.000126343
30 *212:21 *215:29 7.87963e-05
31 *212:21 *522:8 0.000392333
32 *2755:C *212:6 6.07175e-05
33 *28:15 *212:6 1.03836e-05
34 *44:19 *2756:A1 7.4416e-05
*RES
1 *2752:Y *212:6 35.0557 
2 *212:6 *212:10 17.61 
3 *212:10 *2756:A1 39.5743 
4 *212:10 *212:21 5.42714 
5 *212:21 *2754:A 40.0714 
6 *212:21 *2786:A1 42.35 
*END

*D_NET *213 0.00303075
*CONN
*I *2754:B I *D sky130_fd_sc_hd__nor2_2
*I *2786:A2 I *D sky130_fd_sc_hd__o22ai_2
*I *2756:A2 I *D sky130_fd_sc_hd__o21ai_4
*I *2753:Y O *D sky130_fd_sc_hd__nand2_2
*CAP
1 *2754:B 2.14194e-05
2 *2786:A2 6.43051e-05
3 *2756:A2 0.000267209
4 *2753:Y 0.00010812
5 *213:10 0.000421664
6 *213:6 0.00021969
7 *2756:A2 *2751:B 3.81658e-05
8 *2756:A2 *2787:A2 3.3123e-05
9 *2756:A2 *214:10 0.000161121
10 *2756:A2 *215:23 0
11 *2756:A2 *215:29 0.000320661
12 *2756:A2 *220:12 1.22803e-05
13 *2756:A2 *223:14 0.000141954
14 *2756:A2 *522:20 1.02387e-05
15 *2756:A2 *597:10 0
16 *2786:A2 *2787:A1 2.77955e-05
17 *2786:A2 *2787:A2 7.80251e-05
18 *2786:A2 *215:29 0.000138718
19 *213:6 *457:61 5.01656e-05
20 *213:6 *522:14 1.24376e-05
21 *213:6 *522:36 0.000342591
22 *213:10 *2989:A1 9.67842e-05
23 *213:10 *2989:A2 2.02872e-05
24 *213:10 *214:10 1.03836e-05
25 *213:10 *522:14 0.000219383
26 *2753:A *213:6 5.50106e-05
27 *2754:A *2754:B 5.90675e-06
28 *2754:A *213:6 4.5051e-05
29 *2754:A *213:10 2.64616e-05
30 *44:19 *2756:A2 8.1796e-05
*RES
1 *2753:Y *213:6 26.9564 
2 *213:6 *213:10 17.5271 
3 *213:10 *2756:A2 45.7057 
4 *213:10 *2786:A2 40.2579 
5 *213:6 *2754:B 23.4971 
*END

*D_NET *214 0.00125277
*CONN
*I *2988:B1 I *D sky130_fd_sc_hd__a211o_4
*I *2754:Y O *D sky130_fd_sc_hd__nor2_2
*CAP
1 *2988:B1 1.25102e-05
2 *2754:Y 0.000176064
3 *214:10 0.000188574
4 *2988:B1 *2988:A1 4.17736e-05
5 *2988:B1 *215:23 3.22879e-05
6 *2988:B1 *220:6 1.32314e-05
7 *214:10 *2989:A1 2.4754e-05
8 *214:10 *2989:A2 0.000136743
9 *214:10 *220:12 0.000113153
10 *214:10 *457:61 0.000262858
11 *214:10 *522:20 2.60152e-05
12 *2754:A *214:10 5.3304e-05
13 *2756:A2 *214:10 0.000161121
14 *213:10 *214:10 1.03836e-05
*RES
1 *2754:Y *214:10 43.2614 
2 *214:10 *2988:B1 38.6214 
*END

*D_NET *215 0.00373154
*CONN
*I *3258:A I *D sky130_fd_sc_hd__buf_2
*I *2787:A1 I *D sky130_fd_sc_hd__a21oi_2
*I *3259:A I *D sky130_fd_sc_hd__buf_2
*I *2756:B1 I *D sky130_fd_sc_hd__o21ai_4
*I *2755:Y O *D sky130_fd_sc_hd__nand3b_4
*CAP
1 *3258:A 8.28092e-05
2 *2787:A1 0.000179787
3 *3259:A 0.000114274
4 *2756:B1 3.08984e-05
5 *2755:Y 0.00014288
6 *215:29 0.000617578
7 *215:23 0.000705832
8 *215:8 0.000473285
9 *2756:B1 *223:14 0.000141954
10 *2787:A1 *2772:A2 0
11 *2787:A1 *2787:A2 0.000123887
12 *2787:A1 *247:8 2.93747e-05
13 *3258:A *2751:B 6.70272e-05
14 *3258:A *2988:A1 7.71478e-06
15 *3258:A *2988:A2 5.41288e-05
16 *3259:A *227:18 0
17 *3259:A *525:10 5.3304e-05
18 *215:8 *2751:B 0
19 *215:8 *549:12 0
20 *215:8 *597:10 0
21 *215:23 *2988:A1 2.62931e-05
22 *215:23 *220:6 4.94192e-05
23 *215:23 *223:10 0
24 *215:23 *597:10 0
25 *215:29 *2751:B 6.07611e-06
26 *215:29 *525:10 6.33614e-05
27 *2756:A2 *215:23 0
28 *2756:A2 *215:29 0.000320661
29 *2786:A1 *2787:A1 1.61013e-05
30 *2786:A1 *3259:A 5.67058e-05
31 *2786:A1 *215:29 1.17049e-05
32 *2786:A2 *2787:A1 2.77955e-05
33 *2786:A2 *215:29 0.000138718
34 *2988:B1 *215:23 3.22879e-05
35 *44:19 *2756:B1 7.88828e-05
36 *212:21 *215:29 7.87963e-05
*RES
1 *2755:Y *215:8 40.2579 
2 *215:8 *2756:B1 39.5743 
3 *215:8 *215:23 20.2614 
4 *215:23 *215:29 21.6286 
5 *215:29 *3259:A 40.0714 
6 *215:29 *2787:A1 42.2879 
7 *215:23 *3258:A 25.0714 
*END

*D_NET *216 0.00107865
*CONN
*I *2763:A I *D sky130_fd_sc_hd__nor2_4
*I *3257:A I *D sky130_fd_sc_hd__buf_6
*I *2756:Y O *D sky130_fd_sc_hd__o21ai_4
*CAP
1 *2763:A 8.29919e-05
2 *3257:A 0.000223033
3 *2756:Y 0
4 *216:6 0.000306025
5 *2763:A *222:10 0
6 *2763:A *597:10 0.000168744
7 *3257:A *222:10 0
8 *3257:A *572:20 2.64616e-05
9 *3257:A *585:8 0
10 *3257:A *597:10 0.000271392
*RES
1 *2756:Y *216:6 38 
2 *216:6 *3257:A 42.2879 
3 *216:6 *2763:A 40.2579 
*END

*D_NET *217 0.000367455
*CONN
*I *2761:A1 I *D sky130_fd_sc_hd__o21bai_2
*I *2757:X O *D sky130_fd_sc_hd__and2_4
*CAP
1 *2761:A1 0
2 *2757:X 0.000152353
3 *217:10 0.000152353
4 *217:10 *3101:A 0
5 *217:10 *218:10 5.58975e-06
6 *217:10 *457:10 1.83327e-05
7 *217:10 *572:35 3.88262e-05
*RES
1 *2757:X *217:10 40.8793 
2 *217:10 *2761:A1 38 
*END

*D_NET *218 0.00155676
*CONN
*I *2761:A2 I *D sky130_fd_sc_hd__o21bai_2
*I *2758:Y O *D sky130_fd_sc_hd__nor2_2
*CAP
1 *2761:A2 0
2 *2758:Y 0.000384773
3 *218:10 0.000384773
4 *218:10 *2758:B 0.000584148
5 *218:10 *572:10 1.01436e-05
6 *218:10 *572:35 0.000187335
7 *217:10 *218:10 5.58975e-06
*RES
1 *2758:Y *218:10 47.425 
2 *218:10 *2761:A2 38 
*END

*D_NET *219 0.00132979
*CONN
*I *2760:B1 I *D sky130_fd_sc_hd__a21oi_2
*I *2762:A2 I *D sky130_fd_sc_hd__o211ai_2
*I *2759:Y O *D sky130_fd_sc_hd__o21ai_2
*CAP
1 *2760:B1 2.14044e-05
2 *2762:A2 0.000184607
3 *2759:Y 7.73137e-05
4 *219:8 0.000283325
5 *2760:B1 *2760:A2 9.84851e-05
6 *2760:B1 *457:55 5.50106e-05
7 *2760:B1 *572:50 2.4754e-05
8 *2762:A2 *2759:B1 0.000105082
9 *2762:A2 *2762:A1 0.00010018
10 *2762:A2 *2762:B1 9.84851e-05
11 *2762:A2 *450:30 4.6318e-06
12 *2762:A2 *537:76 1.14452e-05
13 *219:8 *457:55 0.000110922
14 *219:8 *537:76 0.000154138
15 *219:8 *572:52 0
*RES
1 *2759:Y *219:8 40.2579 
2 *219:8 *2762:A2 42.06 
3 *219:8 *2760:B1 39.0979 
*END

*D_NET *220 0.00403276
*CONN
*I *2988:A1 I *D sky130_fd_sc_hd__a211o_4
*I *2787:A2 I *D sky130_fd_sc_hd__a21oi_2
*I *2989:A2 I *D sky130_fd_sc_hd__a211o_4
*I *2760:Y O *D sky130_fd_sc_hd__a21oi_2
*CAP
1 *2988:A1 0.000141116
2 *2787:A2 0.000347315
3 *2989:A2 7.63126e-05
4 *2760:Y 0.000525204
5 *220:12 0.000508812
6 *220:6 0.000751504
7 *2787:A2 *2787:B1 9.98995e-05
8 *2787:A2 *2989:B1 0.000105062
9 *2787:A2 *247:8 1.5769e-05
10 *2787:A2 *522:20 2.77955e-05
11 *2988:A1 *2988:A2 0
12 *2989:A2 *2989:A1 5.50106e-05
13 *2989:A2 *457:61 2.02872e-05
14 *2989:A2 *522:14 2.98648e-05
15 *220:6 *2760:A2 0.000190561
16 *220:6 *223:10 5.66557e-05
17 *220:6 *430:10 0.000228001
18 *220:6 *572:50 5.67058e-05
19 *220:12 *522:20 0.000140949
20 *2756:A2 *2787:A2 3.3123e-05
21 *2756:A2 *220:12 1.22803e-05
22 *2786:A2 *2787:A2 7.80251e-05
23 *2787:A1 *2787:A2 0.000123887
24 *2988:B1 *2988:A1 4.17736e-05
25 *2988:B1 *220:6 1.32314e-05
26 *3258:A *2988:A1 7.71478e-06
27 *213:10 *2989:A2 2.02872e-05
28 *214:10 *2989:A2 0.000136743
29 *214:10 *220:12 0.000113153
30 *215:23 *2988:A1 2.62931e-05
31 *215:23 *220:6 4.94192e-05
*RES
1 *2760:Y *220:6 34.1029 
2 *220:6 *220:12 17.4029 
3 *220:12 *2989:A2 40.0507 
4 *220:12 *2787:A2 45.83 
5 *220:6 *2988:A1 25.4236 
*END

*D_NET *221 0.000237098
*CONN
*I *2762:C1 I *D sky130_fd_sc_hd__o211ai_2
*I *2761:Y O *D sky130_fd_sc_hd__o21bai_2
*CAP
1 *2762:C1 6.60445e-05
2 *2761:Y 6.60445e-05
3 *2762:C1 *2761:B1_N 5.56279e-05
4 *2762:C1 *452:8 4.93812e-05
*RES
1 *2761:Y *2762:C1 47.5743 
*END

*D_NET *222 0.000928645
*CONN
*I *2763:B I *D sky130_fd_sc_hd__nor2_4
*I *2762:Y O *D sky130_fd_sc_hd__o211ai_2
*CAP
1 *2763:B 0
2 *2762:Y 0.000355314
3 *222:10 0.000355314
4 *222:10 *2762:A1 0.00010018
5 *222:10 *2762:B1 1.76557e-05
6 *222:10 *453:10 0
7 *222:10 *549:8 0.00010018
8 *2763:A *222:10 0
9 *3257:A *222:10 0
*RES
1 *2762:Y *222:10 45.2707 
2 *222:10 *2763:B 38 
*END

*D_NET *223 0.0105229
*CONN
*I *2780:C I *D sky130_fd_sc_hd__nand4_4
*I *3256:A I *D sky130_fd_sc_hd__buf_6
*I *2763:Y O *D sky130_fd_sc_hd__nor2_4
*CAP
1 *2780:C 0
2 *3256:A 2.34823e-05
3 *2763:Y 0.000269762
4 *223:37 0.000719306
5 *223:33 0.00194763
6 *223:29 0.0014926
7 *223:14 0.000736237
8 *223:10 0.000718237
9 *223:10 *597:10 0.000114074
10 *223:29 *529:8 9.58714e-05
11 *223:29 *529:10 0.000114656
12 *223:29 *567:44 8.51432e-05
13 *223:29 *567:59 2.70366e-05
14 *223:33 *2723:B 2.93747e-05
15 *223:33 *449:52 0.000648028
16 *223:33 *457:95 0.000576093
17 *223:37 *2791:A3 3.3123e-05
18 *223:37 *3253:A 0
19 *223:37 *237:8 5.61311e-05
20 *223:37 *239:8 0
21 *223:37 *241:8 0
22 *223:37 *249:21 9.74235e-05
23 *2729:A1 *223:33 2.98648e-05
24 *2747:A *223:37 0.00016046
25 *2747:B *223:37 5.3656e-05
26 *2756:A1 *223:14 0.000139346
27 *2756:A2 *223:14 0.000141954
28 *2756:B1 *223:14 0.000141954
29 *26:9 *223:29 5.50106e-05
30 *44:19 *223:14 0.000135375
31 *44:19 *223:29 1.21972e-05
32 *189:8 *223:33 0.000694105
33 *189:21 *223:33 6.68919e-05
34 *190:10 *223:37 6.38947e-05
35 *190:21 *223:37 0.000222577
36 *206:8 *223:37 0.000458727
37 *207:8 *223:37 0.000224345
38 *208:8 *223:37 8.16356e-05
39 *215:23 *223:10 0
40 *220:6 *223:10 5.66557e-05
*RES
1 *2763:Y *223:10 42.0807 
2 *223:10 *223:14 23.7207 
3 *223:14 *3256:A 23.4971 
4 *223:14 *223:29 35.9657 
5 *223:29 *223:33 39.9193 
6 *223:33 *223:37 34.5129 
7 *223:37 *2780:C 23 
*END

*D_NET *224 0.000947157
*CONN
*I *2766:A1 I *D sky130_fd_sc_hd__o21bai_4
*I *2764:Y O *D sky130_fd_sc_hd__nor2_2
*CAP
1 *2766:A1 0
2 *2764:Y 0.00034045
3 *224:10 0.00034045
4 *224:10 *432:10 3.56537e-05
5 *224:10 *433:8 0
6 *224:10 *601:6 0.000230604
*RES
1 *2764:Y *224:10 44.4629 
2 *224:10 *2766:A1 38 
*END

*D_NET *225 0.00451646
*CONN
*I *2775:A2 I *D sky130_fd_sc_hd__o2111a_2
*I *2766:A2 I *D sky130_fd_sc_hd__o21bai_4
*I *2786:B1 I *D sky130_fd_sc_hd__o22ai_2
*I *2768:A1 I *D sky130_fd_sc_hd__o21a_2
*I *2765:X O *D sky130_fd_sc_hd__and2_4
*CAP
1 *2775:A2 0.000256473
2 *2766:A2 2.34823e-05
3 *2786:B1 0
4 *2768:A1 0
5 *2765:X 0
6 *225:40 0.000527582
7 *225:29 0.000516167
8 *225:10 0.000574201
9 *225:6 0.000305661
10 *2775:A2 *3255:A 0
11 *2775:A2 *226:6 0.000218483
12 *2775:A2 *226:15 0.000122226
13 *2775:A2 *516:10 0.000300812
14 *225:10 *227:10 0.000225275
15 *225:10 *453:36 0.000225265
16 *225:29 *2768:B1 0.00019231
17 *225:29 *227:18 0.00018152
18 *225:29 *431:10 0.000195248
19 *225:40 *2765:B 0.000122304
20 *225:40 *2775:A1 0.000161276
21 *225:40 *226:6 3.22879e-05
22 *225:40 *227:10 0.000253061
23 *225:40 *516:10 1.24376e-05
24 *225:40 *561:12 7.03869e-05
*RES
1 *2765:X *225:6 38 
2 *225:6 *225:10 17.9621 
3 *225:10 *2768:A1 23 
4 *225:10 *225:29 41.0407 
5 *225:29 *2786:B1 23 
6 *225:6 *225:40 22.1257 
7 *225:40 *2766:A2 23.4971 
8 *225:40 *2775:A2 30.3121 
*END

*D_NET *226 0.0021238
*CONN
*I *2775:B1 I *D sky130_fd_sc_hd__o2111a_2
*I *2788:A I *D sky130_fd_sc_hd__nand2_2
*I *3255:A I *D sky130_fd_sc_hd__buf_2
*I *2766:Y O *D sky130_fd_sc_hd__o21bai_4
*CAP
1 *2775:B1 0
2 *2788:A 0
3 *3255:A 2.34823e-05
4 *2766:Y 0.000106661
5 *226:25 0.000241309
6 *226:15 0.000334269
7 *226:6 0.000223103
8 *226:6 *2775:A1 0.000441065
9 *226:15 *2775:A1 0.000137707
10 *226:25 *233:21 6.03737e-05
11 *226:25 *234:10 0.000182832
12 *226:25 *432:10 0
13 *2775:A2 *3255:A 0
14 *2775:A2 *226:6 0.000218483
15 *2775:A2 *226:15 0.000122226
16 *225:40 *226:6 3.22879e-05
*RES
1 *2766:Y *226:6 27.9093 
2 *226:6 *3255:A 23.4971 
3 *226:6 *226:15 3.00357 
4 *226:15 *226:25 35.1579 
5 *226:25 *2788:A 23 
6 *226:15 *2775:B1 23 
*END

*D_NET *227 0.00505448
*CONN
*I *2775:A1 I *D sky130_fd_sc_hd__o2111a_2
*I *2768:A2 I *D sky130_fd_sc_hd__o21a_2
*I *2786:B2 I *D sky130_fd_sc_hd__o22ai_2
*I *2767:Y O *D sky130_fd_sc_hd__o21ai_4
*CAP
1 *2775:A1 0.00044608
2 *2768:A2 4.8319e-05
3 *2786:B2 0
4 *2767:Y 5.39135e-05
5 *227:18 0.000776428
6 *227:10 0.00101167
7 *227:8 0.000686914
8 *2768:A2 *2768:B1 9.67842e-05
9 *2768:A2 *228:10 5.3304e-05
10 *2775:A1 *433:8 0
11 *2775:A1 *516:10 3.5664e-05
12 *2775:A1 *561:12 3.07161e-05
13 *227:10 *2768:B1 8.33365e-05
14 *227:10 *453:36 1.89075e-05
15 *227:10 *516:10 7.75329e-06
16 *227:10 *516:12 7.4878e-05
17 *227:18 *228:10 0.000169665
18 *227:18 *246:8 1.94812e-05
19 *227:18 *430:10 0
20 *227:18 *431:10 0
21 *227:18 *453:36 4.07612e-05
22 *3259:A *227:18 0
23 *225:10 *227:10 0.000225275
24 *225:29 *227:18 0.00018152
25 *225:40 *2775:A1 0.000161276
26 *225:40 *227:10 0.000253061
27 *226:6 *2775:A1 0.000441065
28 *226:15 *2775:A1 0.000137707
*RES
1 *2767:Y *227:8 38.6214 
2 *227:8 *227:10 6.83571 
3 *227:10 *227:18 27.4079 
4 *227:18 *2786:B2 23 
5 *227:10 *2768:A2 39.0979 
6 *227:8 *2775:A1 48.207 
*END

*D_NET *228 0.000929071
*CONN
*I *2990:A I *D sky130_fd_sc_hd__xor2_2
*I *2768:X O *D sky130_fd_sc_hd__o21a_2
*CAP
1 *2990:A 0
2 *2768:X 0.000245693
3 *228:10 0.000245693
4 *228:10 *2768:B1 4.5051e-05
5 *228:10 *453:36 0.000169665
6 *2768:A2 *228:10 5.3304e-05
7 *227:18 *228:10 0.000169665
*RES
1 *2768:X *228:10 42.785 
2 *228:10 *2990:A 38 
*END

*D_NET *229 0.00278653
*CONN
*I *2789:A1 I *D sky130_fd_sc_hd__o22ai_4
*I *2774:A1 I *D sky130_fd_sc_hd__o21ai_2
*I *2773:A1 I *D sky130_fd_sc_hd__o21bai_4
*I *2769:X O *D sky130_fd_sc_hd__and2_4
*CAP
1 *2789:A1 6.27936e-05
2 *2774:A1 0
3 *2773:A1 7.52156e-05
4 *2769:X 0.000253425
5 *229:31 0.000213559
6 *229:23 0.000397451
7 *229:10 0.000449738
8 *2773:A1 *2772:B1 1.59094e-05
9 *2789:A1 *235:10 9.5877e-05
10 *2789:A1 *249:10 3.08966e-05
11 *229:10 *2773:B1_N 0.000105165
12 *229:10 *230:8 9.21347e-06
13 *229:10 *231:10 0.000111852
14 *229:10 *231:25 8.02348e-05
15 *229:10 *455:70 4.07715e-05
16 *229:10 *455:81 1.22803e-05
17 *229:10 *529:10 9.3813e-05
18 *229:10 *564:29 0.000106288
19 *229:10 *564:37 0.000197479
20 *229:23 *2774:A2 5.33597e-05
21 *229:23 *2789:B2 0
22 *229:23 *231:25 0.000197479
23 *229:31 *2774:A2 0
24 *229:31 *235:10 0.000183733
25 *229:31 *248:8 0
*RES
1 *2769:X *229:10 45.4571 
2 *229:10 *2773:A1 39.0979 
3 *229:10 *229:23 18.3143 
4 *229:23 *229:31 34.3086 
5 *229:31 *2774:A1 23 
6 *229:23 *2789:A1 24.595 
*END

*D_NET *230 0.00149818
*CONN
*I *2773:A2 I *D sky130_fd_sc_hd__o21bai_4
*I *2770:Y O *D sky130_fd_sc_hd__nor2_2
*CAP
1 *2773:A2 0
2 *2770:Y 0.000244725
3 *230:8 0.000244725
4 *230:8 *2772:A2 0
5 *230:8 *2773:B1_N 0.000207507
6 *230:8 *2789:B2 0.000376261
7 *230:8 *529:10 0.000415752
8 *229:10 *230:8 9.21347e-06
*RES
1 *2770:Y *230:8 46.5964 
2 *230:8 *2773:A2 38 
*END

*D_NET *231 0.00368273
*CONN
*I *2789:A2 I *D sky130_fd_sc_hd__o22ai_4
*I *2774:A2 I *D sky130_fd_sc_hd__o21ai_2
*I *2772:B1 I *D sky130_fd_sc_hd__a21o_2
*I *2771:Y O *D sky130_fd_sc_hd__o21ai_4
*CAP
1 *2789:A2 6.27977e-05
2 *2774:A2 0.000409364
3 *2772:B1 0.000629514
4 *2771:Y 0.000112849
5 *231:25 0.000624669
6 *231:10 0.00089487
7 *2772:B1 *2773:B1_N 0.000190985
8 *2772:B1 *232:10 5.67058e-05
9 *2772:B1 *233:10 0.000187129
10 *231:10 *455:91 5.50106e-05
11 *2773:A1 *2772:B1 1.59094e-05
12 *229:10 *231:10 0.000111852
13 *229:10 *231:25 8.02348e-05
14 *229:23 *2774:A2 5.33597e-05
15 *229:23 *231:25 0.000197479
16 *229:31 *2774:A2 0
*RES
1 *2771:Y *231:10 40.175 
2 *231:10 *2772:B1 47.5907 
3 *231:10 *231:25 3.66643 
4 *231:25 *2774:A2 44.7943 
5 *231:25 *2789:A2 39.0979 
*END

*D_NET *232 0.00072236
*CONN
*I *2775:D1 I *D sky130_fd_sc_hd__o2111a_2
*I *2772:X O *D sky130_fd_sc_hd__a21o_2
*CAP
1 *2775:D1 4.11597e-05
2 *2772:X 0.000196291
3 *232:10 0.000237451
4 *2775:D1 *2775:C1 2.64616e-05
5 *232:10 *233:10 0.000111852
6 *232:10 *233:21 5.24393e-05
7 *232:10 *234:10 0
8 *2772:B1 *232:10 5.67058e-05
*RES
1 *2772:X *232:10 41.8321 
2 *232:10 *2775:D1 38.6214 
*END

*D_NET *233 0.00176076
*CONN
*I *3254:A I *D sky130_fd_sc_hd__buf_2
*I *2788:B I *D sky130_fd_sc_hd__nand2_2
*I *2775:C1 I *D sky130_fd_sc_hd__o2111a_2
*I *2773:Y O *D sky130_fd_sc_hd__o21bai_4
*CAP
1 *3254:A 0.000131342
2 *2788:B 0
3 *2775:C1 5.43738e-05
4 *2773:Y 0.000197577
5 *233:21 0.000314008
6 *233:10 0.000434617
7 *3254:A *515:10 0
8 *233:10 *2772:A2 1.76557e-05
9 *233:10 *2773:B1_N 0.00010018
10 *233:10 *2991:B1 0
11 *233:10 *455:91 9.8971e-06
12 *233:21 *2789:B2 0
13 *233:21 *234:10 0
14 *233:21 *248:8 6.28488e-05
15 *233:21 *432:10 0
16 *2772:B1 *233:10 0.000187129
17 *2775:D1 *2775:C1 2.64616e-05
18 *226:25 *233:21 6.03737e-05
19 *232:10 *233:10 0.000111852
20 *232:10 *233:21 5.24393e-05
*RES
1 *2773:Y *233:10 42.6607 
2 *233:10 *2775:C1 38.6214 
3 *233:10 *233:21 4.01857 
4 *233:21 *2788:B 38 
5 *233:21 *3254:A 40.61 
*END

*D_NET *234 0.00305212
*CONN
*I *2992:B I *D sky130_fd_sc_hd__nand3_2
*I *2991:B1 I *D sky130_fd_sc_hd__a21oi_2
*I *2774:Y O *D sky130_fd_sc_hd__o21ai_2
*CAP
1 *2992:B 0.000215676
2 *2991:B1 0.000227292
3 *2774:Y 0.000642198
4 *234:10 0.00108517
5 *2991:B1 *432:10 0.00030562
6 *2992:B *2992:C 5.50106e-05
7 *234:10 *432:10 0.000338331
8 *226:25 *234:10 0.000182832
9 *232:10 *234:10 0
10 *233:10 *2991:B1 0
11 *233:21 *234:10 0
*RES
1 *2774:Y *234:10 49.5379 
2 *234:10 *2991:B1 43.365 
3 *234:10 *2992:B 41.5007 
*END

*D_NET *235 0.00493694
*CONN
*I *2780:A I *D sky130_fd_sc_hd__nand4_4
*I *2994:A2 I *D sky130_fd_sc_hd__a21oi_4
*I *2775:X O *D sky130_fd_sc_hd__o2111a_2
*CAP
1 *2780:A 0
2 *2994:A2 0
3 *2775:X 0.00151209
4 *235:25 0.000387581
5 *235:10 0.00189967
6 *235:10 *2789:B1 0.000153155
7 *235:10 *249:10 0.000376949
8 *235:25 *3253:A 0.000183733
9 *235:25 *249:10 9.30054e-05
10 *235:25 *457:101 0
11 *235:25 *514:8 0
12 *2738:A2 *235:10 1.94693e-05
13 *2789:A1 *235:10 9.5877e-05
14 *191:6 *235:10 3.16665e-05
15 *229:31 *235:10 0.000183733
*RES
1 *2775:X *235:10 46.055 
2 *235:10 *2994:A2 23 
3 *235:10 *235:25 37.54 
4 *235:25 *2780:A 23 
*END

*D_NET *236 0.000572624
*CONN
*I *2779:A I *D sky130_fd_sc_hd__nand2_2
*I *2776:Y O *D sky130_fd_sc_hd__nand4_2
*CAP
1 *2779:A 0
2 *2776:Y 0.000261481
3 *236:8 0.000261481
4 *2776:C *236:8 4.9662e-05
*RES
1 *2776:Y *236:8 27.4536 
2 *236:8 *2779:A 23 
*END

*D_NET *237 0.0010601
*CONN
*I *2778:B2 I *D sky130_fd_sc_hd__a2bb2oi_2
*I *3000:A2_N I *D sky130_fd_sc_hd__o2bb2a_4
*I *2777:Y O *D sky130_fd_sc_hd__o21ai_2
*CAP
1 *2778:B2 8.47107e-05
2 *3000:A2_N 8.54085e-05
3 *2777:Y 0.000101759
4 *237:10 0.000170119
5 *237:8 0.000101759
6 *2778:B2 *437:10 9.36522e-05
7 *177:59 *2778:B2 0.000183733
8 *177:59 *3000:A2_N 0.000182826
9 *177:59 *237:8 0
10 *223:37 *237:8 5.61311e-05
*RES
1 *2777:Y *237:8 40.2579 
2 *237:8 *237:10 15 
3 *237:10 *3000:A2_N 25.0507 
4 *237:10 *2778:B2 26.0036 
*END

*D_NET *238 0.000619134
*CONN
*I *2779:B I *D sky130_fd_sc_hd__nand2_2
*I *2778:Y O *D sky130_fd_sc_hd__a2bb2oi_2
*CAP
1 *2779:B 0.000196331
2 *2778:Y 9.4166e-05
3 *238:8 0.000290497
4 *203:8 *238:8 3.81391e-05
5 *205:8 *238:8 0
*RES
1 *2778:Y *238:8 39.9057 
2 *238:8 *2779:B 41.48 
*END

*D_NET *239 0.00214421
*CONN
*I *2781:A I *D sky130_fd_sc_hd__nand3_4
*I *3002:A2_N I *D sky130_fd_sc_hd__o2bb2ai_4
*I *2779:Y O *D sky130_fd_sc_hd__nand2_2
*CAP
1 *2781:A 0.000126312
2 *3002:A2_N 0.000219973
3 *2779:Y 0.000270788
4 *239:8 0.000617073
5 *2781:A *241:8 1.44546e-05
6 *3002:A2_N *3002:B2 5.50106e-05
7 *3002:A2_N *438:6 0.000575797
8 *3002:A2_N *485:27 5.54148e-05
9 *3002:A2_N *485:35 5.50106e-05
10 *2747:A *2781:A 4.21594e-06
11 *206:8 *2781:A 7.03421e-05
12 *206:8 *239:8 7.98155e-05
13 *223:37 *239:8 0
*RES
1 *2779:Y *239:8 43.075 
2 *239:8 *3002:A2_N 45.3121 
3 *239:8 *2781:A 40.9621 
*END

*D_NET *240 0.00233487
*CONN
*I *3252:A I *D sky130_fd_sc_hd__buf_6
*I *2785:C I *D sky130_fd_sc_hd__nand3_4
*I *2780:Y O *D sky130_fd_sc_hd__nand4_4
*CAP
1 *3252:A 0.000236891
2 *2785:C 0
3 *2780:Y 0.000397029
4 *240:8 0.00063392
5 *3252:A *2939:A 0.000139352
6 *3252:A *3010:B 3.81927e-05
7 *3252:A *241:17 6.07611e-06
8 *3252:A *245:8 0.000354778
9 *3252:A *253:12 0.000147271
10 *240:8 *2791:A3 0
11 *240:8 *241:8 0.000232431
12 *240:8 *241:17 9.27917e-05
13 *240:8 *253:12 5.61414e-05
14 *3224:A *240:8 0
15 *207:8 *240:8 0
*RES
1 *2780:Y *240:8 46.5964 
2 *240:8 *2785:C 38 
3 *240:8 *3252:A 45.3536 
*END

*D_NET *241 0.00241394
*CONN
*I *3010:B I *D sky130_fd_sc_hd__nand4_4
*I *2785:B I *D sky130_fd_sc_hd__nand3_4
*I *2793:B I *D sky130_fd_sc_hd__nand4_2
*I *2781:Y O *D sky130_fd_sc_hd__nand3_4
*CAP
1 *3010:B 7.72716e-05
2 *2785:B 6.80678e-05
3 *2793:B 0
4 *2781:Y 0.000440611
5 *241:17 0.000225349
6 *241:8 0.000520621
7 *3010:B *245:8 0.000171906
8 *3010:B *250:8 8.68575e-05
9 *241:8 *250:8 0.000125768
10 *241:8 *485:35 0
11 *241:17 *250:8 6.63698e-05
12 *2747:A *241:8 0
13 *2781:A *241:8 1.44546e-05
14 *2781:B *241:8 0.000222193
15 *3252:A *3010:B 3.81927e-05
16 *3252:A *241:17 6.07611e-06
17 *173:36 *241:8 2.49836e-05
18 *207:8 *241:8 0
19 *223:37 *241:8 0
20 *240:8 *241:8 0.000232431
21 *240:8 *241:17 9.27917e-05
*RES
1 *2781:Y *241:8 49.7657 
2 *241:8 *2793:B 38 
3 *241:8 *241:17 2.61 
4 *241:17 *2785:B 39.0979 
5 *241:17 *3010:B 41.3143 
*END

*D_NET *242 0.00247047
*CONN
*I *2784:A1 I *D sky130_fd_sc_hd__a21oi_4
*I *3006:B1 I *D sky130_fd_sc_hd__a21oi_4
*I *2782:Y O *D sky130_fd_sc_hd__o21ai_2
*CAP
1 *2784:A1 0
2 *3006:B1 0.000151499
3 *2782:Y 0.000266857
4 *242:25 0.000630411
5 *242:10 0.00104877
6 *3006:B1 *440:8 7.53384e-06
7 *242:25 *467:19 9.84794e-05
8 *242:25 *475:38 0
9 *3079:B *242:10 0.000196549
10 *3092:A1 *242:25 0
11 *3092:A2 *242:25 0
12 *3094:C1 *242:25 0
13 *156:10 *242:10 0
14 *156:10 *242:25 0
15 *169:12 *242:25 0
16 *171:8 *242:25 7.03766e-05
*RES
1 *2782:Y *242:10 43.6964 
2 *242:10 *3006:B1 40.5271 
3 *242:10 *242:25 27.5114 
4 *242:25 *2784:A1 23 
*END

*D_NET *243 0.000933738
*CONN
*I *2784:B1 I *D sky130_fd_sc_hd__a21oi_4
*I *2783:X O *D sky130_fd_sc_hd__a31o_2
*CAP
1 *2784:B1 0
2 *2783:X 0.000336945
3 *243:10 0.000336945
4 *243:10 *244:8 0.000140949
5 *243:10 *475:38 9.28842e-05
6 *173:8 *243:10 2.60152e-05
*RES
1 *2783:X *243:10 44.5664 
2 *243:10 *2784:B1 38 
*END

*D_NET *244 0.00412541
*CONN
*I *3231:A I *D sky130_fd_sc_hd__buf_2
*I *3010:D I *D sky130_fd_sc_hd__nand4_4
*I *2785:A I *D sky130_fd_sc_hd__nand3_4
*I *2784:Y O *D sky130_fd_sc_hd__a21oi_4
*CAP
1 *3231:A 0
2 *3010:D 0
3 *2785:A 3.5601e-05
4 *2784:Y 0.000380107
5 *244:27 0.000122195
6 *244:14 0.000265207
7 *244:12 0.00100585
8 *244:8 0.00127854
9 *2785:A *487:10 2.93845e-05
10 *244:8 *475:38 0.000176256
11 *244:8 *475:50 0.000169674
12 *244:14 *487:10 7.42621e-05
13 *244:27 *496:12 0
14 *133:20 *244:27 0.00025307
15 *173:8 *244:8 0.000194309
16 *243:10 *244:8 0.000140949
*RES
1 *2784:Y *244:8 48.7093 
2 *244:8 *244:12 31.3436 
3 *244:12 *244:14 2.52714 
4 *244:14 *2785:A 23.6214 
5 *244:14 *244:27 33.3143 
6 *244:27 *3010:D 23 
7 *244:12 *3231:A 23 
*END

*D_NET *245 0.00471576
*CONN
*I *2890:B2 I *D sky130_fd_sc_hd__o221ai_2
*I *2794:B1 I *D sky130_fd_sc_hd__o22ai_4
*I *3230:A I *D sky130_fd_sc_hd__buf_4
*I *2785:Y O *D sky130_fd_sc_hd__nand3_4
*CAP
1 *2890:B2 4.31211e-05
2 *2794:B1 0
3 *3230:A 0.000158776
4 *2785:Y 0
5 *245:31 6.20107e-05
6 *245:25 0.00033481
7 *245:8 0.00104759
8 *245:6 0.000659136
9 *245:8 *2793:C 0
10 *245:8 *2939:C_N 0.000192077
11 *245:8 *2949:B1 8.33365e-05
12 *245:8 *2958:B1_N 5.58667e-05
13 *245:8 *250:30 0
14 *245:8 *253:12 0
15 *245:8 *383:17 6.7177e-06
16 *245:8 *385:8 0.000169674
17 *245:8 *386:8 0
18 *245:8 *388:8 0.00013318
19 *245:8 *396:14 0.000126936
20 *245:8 *404:12 6.63801e-05
21 *245:8 *512:8 0
22 *245:8 *520:22 0.000215131
23 *245:25 *2944:C1 0.000225265
24 *245:25 *252:8 4.00259e-06
25 *245:25 *253:12 0
26 *245:25 *342:8 1.32314e-05
27 *245:25 *396:14 0.000210945
28 *245:31 *2944:C1 1.37246e-05
29 *245:31 *342:10 0.000169683
30 *245:31 *396:14 0.000197479
31 *2890:A2 *245:25 0
32 *3010:B *245:8 0.000171906
33 *3252:A *245:8 0.000354778
*RES
1 *2785:Y *245:6 38 
2 *245:6 *245:8 19.1607 
3 *245:8 *3230:A 40.5271 
4 *245:8 *245:25 21.5457 
5 *245:25 *245:31 32.61 
6 *245:31 *2794:B1 23 
7 *245:25 *2890:B2 23.6214 
*END

*D_NET *246 0.000901325
*CONN
*I *2787:B1 I *D sky130_fd_sc_hd__a21oi_2
*I *2989:B1 I *D sky130_fd_sc_hd__a211o_4
*I *2786:Y O *D sky130_fd_sc_hd__o22ai_2
*CAP
1 *2787:B1 0.000105428
2 *2989:B1 0.000144466
3 *2786:Y 6.89269e-05
4 *246:8 0.000318821
5 *2787:B1 *431:10 0
6 *2989:B1 *431:10 0
7 *2989:B1 *522:20 3.92407e-05
8 *2989:B1 *597:10 0
9 *2787:A2 *2787:B1 9.98995e-05
10 *2787:A2 *2989:B1 0.000105062
11 *227:18 *246:8 1.94812e-05
*RES
1 *2786:Y *246:8 39.0979 
2 *246:8 *2989:B1 41.3143 
3 *246:8 *2787:B1 40.61 
*END

*D_NET *247 0.00211134
*CONN
*I *2789:B2 I *D sky130_fd_sc_hd__o22ai_4
*I *2787:Y O *D sky130_fd_sc_hd__a21oi_2
*CAP
1 *2789:B2 0.000298286
2 *2787:Y 0.00041052
3 *247:8 0.000708805
4 *2789:B2 *2772:A2 0
5 *2789:B2 *455:91 0.000272321
6 *2787:A1 *247:8 2.93747e-05
7 *2787:A2 *247:8 1.5769e-05
8 *229:23 *2789:B2 0
9 *230:8 *2789:B2 0.000376261
10 *233:21 *2789:B2 0
*RES
1 *2787:Y *247:8 43.3857 
2 *247:8 *2789:B2 45.54 
*END

*D_NET *248 0.000686653
*CONN
*I *2789:B1 I *D sky130_fd_sc_hd__o22ai_4
*I *2788:Y O *D sky130_fd_sc_hd__nand2_2
*CAP
1 *2789:B1 0.000105981
2 *2788:Y 0.000129344
3 *248:8 0.000235325
4 *229:31 *248:8 0
5 *233:21 *248:8 6.28488e-05
6 *235:10 *2789:B1 0.000153155
*RES
1 *2788:Y *248:8 40.61 
2 *248:8 *2789:B1 41.0036 
*END

*D_NET *249 0.00560293
*CONN
*I *2791:A3 I *D sky130_fd_sc_hd__a31oi_2
*I *2790:A I *D sky130_fd_sc_hd__nand3_4
*I *2994:B1 I *D sky130_fd_sc_hd__a21oi_4
*I *2789:Y O *D sky130_fd_sc_hd__o22ai_4
*CAP
1 *2791:A3 0.000304672
2 *2790:A 0.00039187
3 *2994:B1 0
4 *2789:Y 0.00108473
5 *249:21 0.00105298
6 *249:10 0.00144117
7 *2791:A3 *2791:A2 0.00010018
8 *2791:A3 *3253:A 0
9 *249:21 *3253:A 0
10 *2738:A2 *249:10 5.50049e-05
11 *2747:B *249:21 5.50106e-05
12 *2780:B *2790:A 3.16665e-05
13 *2780:D *2790:A 5.12254e-05
14 *2789:A1 *249:10 3.08966e-05
15 *2790:B *2790:A 0.000134203
16 *3224:A *2791:A3 0.000109405
17 *191:6 *249:10 9.58714e-05
18 *198:10 *249:10 5.3304e-05
19 *207:8 *2791:A3 1.02387e-05
20 *223:37 *2791:A3 3.3123e-05
21 *223:37 *249:21 9.74235e-05
22 *235:10 *249:10 0.000376949
23 *235:25 *249:10 9.30054e-05
24 *240:8 *2791:A3 0
*RES
1 *2789:Y *249:10 43.5486 
2 *249:10 *2994:B1 23 
3 *249:10 *249:21 22.0429 
4 *249:21 *2790:A 45.1879 
5 *249:21 *2791:A3 44.67 
*END

*D_NET *250 0.0055889
*CONN
*I *2792:B I *D sky130_fd_sc_hd__nand2_4
*I *3010:C I *D sky130_fd_sc_hd__nand4_4
*I *2790:Y O *D sky130_fd_sc_hd__nand3_4
*CAP
1 *2792:B 0
2 *3010:C 6.57042e-05
3 *2790:Y 0.000430693
4 *250:30 0.000654902
5 *250:26 0.000692706
6 *250:8 0.000458594
7 *3010:C *3010:A 5.50106e-05
8 *250:8 *2793:C 0.000210934
9 *250:8 *251:8 8.51329e-05
10 *250:8 *487:10 1.02387e-05
11 *250:30 *2793:C 1.19692e-05
12 *250:30 *2938:B 3.39231e-05
13 *250:30 *2939:B 1.69668e-05
14 *250:30 *383:17 0
15 *250:30 *386:8 0.00012838
16 *250:30 *396:14 0
17 *250:30 *404:12 0
18 *250:30 *405:10 4.90891e-05
19 *250:30 *486:10 6.43108e-05
20 *250:30 *512:8 4.59027e-05
21 *250:30 *559:20 0.000197479
22 *2781:B *250:8 3.70094e-05
23 *2794:A1 *250:30 1.14452e-05
24 *3010:B *250:8 8.68575e-05
25 *3225:A *250:8 0
26 *133:14 *250:30 0.000240695
27 *133:20 *250:8 0
28 *133:20 *250:30 0.00147169
29 *140:22 *250:30 0.000277714
30 *173:28 *250:8 0
31 *173:36 *250:8 5.94125e-05
32 *241:8 *250:8 0.000125768
33 *241:17 *250:8 6.63698e-05
34 *245:8 *250:30 0
*RES
1 *2790:Y *250:8 49.7657 
2 *250:8 *3010:C 38.6214 
3 *3010:C *250:26 38.6214 
4 *250:26 *250:30 37.6821 
5 *250:30 *2792:B 23 
*END

*D_NET *251 0.00087782
*CONN
*I *2793:A I *D sky130_fd_sc_hd__nand4_2
*I *2791:Y O *D sky130_fd_sc_hd__a31oi_2
*CAP
1 *2793:A 0.00026452
2 *2791:Y 9.67411e-05
3 *251:8 0.000361261
4 *2793:A *2793:C 2.93747e-05
5 *2793:A *253:10 4.07902e-05
6 *133:20 *251:8 0
7 *250:8 *251:8 8.51329e-05
*RES
1 *2791:Y *251:8 40.2579 
2 *251:8 *2793:A 42.4536 
*END

*D_NET *252 0.00170723
*CONN
*I *2794:B2 I *D sky130_fd_sc_hd__o22ai_4
*I *2890:B1 I *D sky130_fd_sc_hd__o221ai_2
*I *2944:B1 I *D sky130_fd_sc_hd__o221ai_4
*I *2792:Y O *D sky130_fd_sc_hd__nand2_4
*CAP
1 *2794:B2 0
2 *2890:B1 9.8333e-05
3 *2944:B1 0
4 *2792:Y 0.000245324
5 *252:35 9.8333e-05
6 *252:14 0.000131926
7 *252:8 0.00037725
8 *252:14 *396:14 0.000227497
9 *252:14 *486:10 0
10 *252:35 *2944:C1 0.000222123
11 *252:35 *253:12 1.47563e-05
12 *252:35 *340:12 0.000199701
13 *252:35 *342:8 2.64616e-05
14 *2890:A2 *252:8 6.15195e-05
15 *140:22 *252:14 0
16 *245:25 *252:8 4.00259e-06
*RES
1 *2792:Y *252:8 26.9771 
2 *252:8 *252:14 32.9621 
3 *252:14 *2944:B1 23 
4 *252:8 *2890:B1 23 
5 *2890:B1 *252:35 41.5836 
6 *252:35 *2794:B2 38 
*END

*D_NET *253 0.00817082
*CONN
*I *2948:A2 I *D sky130_fd_sc_hd__a31oi_2
*I *2814:A2 I *D sky130_fd_sc_hd__a31oi_2
*I *2817:D I *D sky130_fd_sc_hd__nand4b_2
*I *2793:Y O *D sky130_fd_sc_hd__nand4_2
*CAP
1 *2948:A2 0.000158632
2 *2814:A2 0
3 *2817:D 0
4 *2793:Y 0.000116221
5 *253:22 0.000188119
6 *253:16 0.00121366
7 *253:12 0.00248544
8 *253:10 0.00141748
9 *2948:A2 *2948:A3 5.50106e-05
10 *2948:A2 *340:12 0.000219882
11 *2948:A2 *393:10 0
12 *253:10 *2793:C 0
13 *253:12 *2944:C1 7.13673e-05
14 *253:12 *2947:B 2.95125e-05
15 *253:12 *2949:B1 0.000240695
16 *253:12 *340:12 0.000413521
17 *253:12 *385:8 5.26101e-05
18 *253:12 *387:12 0.000191639
19 *253:12 *388:8 0.000406279
20 *253:12 *392:10 0.000114645
21 *253:12 *393:10 0
22 *253:12 *397:10 0.000352538
23 *253:12 *398:10 0
24 *253:16 *269:28 2.93845e-05
25 *2793:A *253:10 4.07902e-05
26 *3252:A *253:12 0.000147271
27 *141:24 *2948:A2 9.5877e-05
28 *141:30 *253:22 5.93381e-05
29 *240:8 *253:12 5.61414e-05
30 *245:8 *253:12 0
31 *245:25 *253:12 0
32 *252:35 *253:12 1.47563e-05
*RES
1 *2793:Y *253:10 40.0714 
2 *253:10 *253:12 33.2464 
3 *253:12 *253:16 33.7257 
4 *253:16 *253:22 32.9621 
5 *253:22 *2817:D 23 
6 *253:16 *2814:A2 23 
7 *253:12 *2948:A2 42.06 
*END

*D_NET *254 0.0107492
*CONN
*I *3227:A I *D sky130_fd_sc_hd__buf_2
*I *3249:A I *D sky130_fd_sc_hd__buf_2
*I *3228:A I *D sky130_fd_sc_hd__buf_2
*I *2840:B1 I *D sky130_fd_sc_hd__o22ai_4
*I *2794:Y O *D sky130_fd_sc_hd__o22ai_4
*CAP
1 *3227:A 0
2 *3249:A 0.000103112
3 *3228:A 0
4 *2840:B1 0.000767121
5 *2794:Y 0
6 *254:41 0.000870232
7 *254:20 0.0021874
8 *254:12 0.00281262
9 *254:6 0.000625219
10 *3249:A *482:10 2.8914e-05
11 *254:12 *2946:A2 0
12 *254:12 *2948:B1 0.000309699
13 *254:12 *342:10 0.000294652
14 *254:12 *396:14 0.000385726
15 *254:12 *483:10 3.71251e-05
16 *254:12 *609:12 0
17 *254:20 *2820:A 5.70419e-05
18 *254:20 *2821:A 1.37232e-05
19 *254:20 *2823:A2 4.94192e-05
20 *254:20 *2889:B 2.93845e-05
21 *254:20 *277:10 4.7312e-05
22 *254:20 *277:21 0.000493676
23 *254:20 *280:10 0.000530627
24 *254:20 *290:31 2.93845e-05
25 *254:20 *341:8 0.000177899
26 *254:41 *2850:A1 9.14823e-05
27 *254:41 *2850:A2 0.000143655
28 *254:41 *2850:B1 5.67058e-05
29 *254:41 *2850:C1 0.000271476
30 *254:41 *277:21 6.70017e-05
31 *254:41 *277:42 2.07242e-05
32 *254:41 *296:8 0.000238617
33 *254:41 *305:10 9.24795e-06
34 *2794:A1 *254:12 0
35 *133:10 *254:12 0
*RES
1 *2794:Y *254:6 38 
2 *254:6 *254:12 32.7936 
3 *254:12 *254:20 34.7379 
4 *254:20 *2840:B1 23 
5 *254:12 *3228:A 23 
6 *2840:B1 *254:41 39.385 
7 *254:41 *3249:A 25.0507 
8 *254:41 *3227:A 23 
*END

*D_NET *255 0.00044984
*CONN
*I *2799:A_N I *D sky130_fd_sc_hd__nand3b_4
*I *2800:A1 I *D sky130_fd_sc_hd__o21bai_4
*I *2796:Y O *D sky130_fd_sc_hd__nor2_4
*CAP
1 *2799:A_N 7.28673e-05
2 *2800:A1 0
3 *2796:Y 0.000154441
4 *255:8 8.15735e-05
5 *255:8 *2796:A 0.000140958
6 *255:8 *256:8 0
*RES
1 *2796:Y *255:8 39.9057 
2 *255:8 *2800:A1 38 
3 *2796:Y *2799:A_N 47.0979 
*END

*D_NET *256 0.000606619
*CONN
*I *2800:A2 I *D sky130_fd_sc_hd__o21bai_4
*I *2797:X O *D sky130_fd_sc_hd__and2_4
*CAP
1 *2800:A2 0
2 *2797:X 0.00030331
3 *256:8 0.00030331
4 *256:8 *2796:A 0
5 *256:8 *2796:B 0
6 *256:8 *458:23 0
7 *255:8 *256:8 0
*RES
1 *2797:X *256:8 43.4271 
2 *256:8 *2800:A2 38 
*END

*D_NET *257 0.000569711
*CONN
*I *2799:B I *D sky130_fd_sc_hd__nand3b_4
*I *2798:Y O *D sky130_fd_sc_hd__nand2_2
*CAP
1 *2799:B 0
2 *2798:Y 0.000136561
3 *257:10 0.000136561
4 *257:10 *458:23 5.86165e-05
5 *257:10 *547:6 1.32939e-05
6 *257:10 *599:10 0.000224679
*RES
1 *2798:Y *257:10 41.3557 
2 *257:10 *2799:B 38 
*END

*D_NET *258 0.00264247
*CONN
*I *2812:B I *D sky130_fd_sc_hd__nand2_2
*I *2811:C I *D sky130_fd_sc_hd__and4_2
*I *2801:A I *D sky130_fd_sc_hd__nand2_4
*I *2799:Y O *D sky130_fd_sc_hd__nand3b_4
*CAP
1 *2812:B 8.31004e-05
2 *2811:C 0
3 *2801:A 0
4 *2799:Y 0.000427051
5 *258:21 0.000388736
6 *258:8 0.000732686
7 *2812:B *2813:A 0.000103478
8 *258:8 *2800:B1_N 0.000194309
9 *258:8 *259:10 0
10 *258:8 *458:23 0
11 *258:8 *582:8 0
12 *258:8 *599:10 3.92407e-05
13 *258:21 *259:10 0
14 *258:21 *259:30 0
15 *258:21 *260:10 0.000117121
16 *258:21 *260:25 1.22803e-05
17 *258:21 *261:8 3.92407e-05
18 *258:21 *582:8 0
19 *2811:B *258:21 0.000269718
20 *2812:A *2812:B 0.000208459
21 *106:10 *258:21 2.70469e-05
*RES
1 *2799:Y *258:8 46.5964 
2 *258:8 *2801:A 38 
3 *258:8 *258:21 22.1464 
4 *258:21 *2811:C 23 
5 *258:21 *2812:B 26.0243 
*END

*D_NET *259 0.00335643
*CONN
*I *2811:D I *D sky130_fd_sc_hd__and4_2
*I *2813:A I *D sky130_fd_sc_hd__and2_2
*I *2838:B2 I *D sky130_fd_sc_hd__a22oi_2
*I *2801:B I *D sky130_fd_sc_hd__nand2_4
*I *2800:Y O *D sky130_fd_sc_hd__o21bai_4
*CAP
1 *2811:D 0
2 *2813:A 0.000219456
3 *2838:B2 0.00024426
4 *2801:B 4.23615e-05
5 *2800:Y 0.000716159
6 *259:30 0.000410326
7 *259:12 0.000286621
8 *259:10 0.000907029
9 *2813:A *270:6 5.67058e-05
10 *2838:B2 *269:18 0.00013674
11 *259:10 *2800:B1_N 3.71251e-05
12 *259:10 *451:6 0.000121018
13 *259:30 *269:8 4.334e-05
14 *2812:A *2813:A 3.18142e-05
15 *2812:B *2813:A 0.000103478
16 *258:8 *259:10 0
17 *258:21 *259:10 0
18 *258:21 *259:30 0
*RES
1 *2800:Y *259:10 49.0614 
2 *259:10 *259:12 15 
3 *259:12 *2801:B 23.6214 
4 *259:12 *2838:B2 27.9093 
5 *259:10 *259:30 18.3143 
6 *259:30 *2813:A 27.93 
7 *259:30 *2811:D 23 
*END

*D_NET *260 0.00353197
*CONN
*I *2834:B I *D sky130_fd_sc_hd__nor4_4
*I *2803:A I *D sky130_fd_sc_hd__xor2_2
*I *2801:Y O *D sky130_fd_sc_hd__nand2_4
*CAP
1 *2834:B 0
2 *2803:A 0
3 *2801:Y 0.000150032
4 *260:25 0.00123232
5 *260:10 0.00138235
6 *260:25 *2834:C 3.08966e-05
7 *260:25 *261:8 3.04021e-05
8 *2834:D *260:25 0.000275371
9 *105:38 *260:25 0.000100543
10 *105:44 *260:10 5.58975e-06
11 *105:44 *260:25 5.84705e-05
12 *107:8 *260:25 0.000136594
13 *258:21 *260:10 0.000117121
14 *258:21 *260:25 1.22803e-05
*RES
1 *2801:Y *260:10 41.5836 
2 *260:10 *2803:A 38 
3 *260:10 *260:25 33.6221 
4 *260:25 *2834:B 23 
*END

*D_NET *261 0.000839453
*CONN
*I *2803:B I *D sky130_fd_sc_hd__xor2_2
*I *2802:X O *D sky130_fd_sc_hd__a21bo_2
*CAP
1 *2803:B 0
2 *2802:X 0.000185055
3 *261:8 0.000185055
4 *2802:B1_N *261:8 0.000195248
5 *105:21 *261:8 0
6 *105:44 *261:8 0
7 *106:10 *261:8 6.48049e-05
8 *106:21 *261:8 0.000139647
9 *258:21 *261:8 3.92407e-05
10 *260:25 *261:8 3.04021e-05
*RES
1 *2802:X *261:8 43.075 
2 *261:8 *2803:B 15 
*END

*D_NET *262 0.00134576
*CONN
*I *2807:A I *D sky130_fd_sc_hd__nor2_2
*I *2809:A1 I *D sky130_fd_sc_hd__o21bai_4
*I *2808:A_N I *D sky130_fd_sc_hd__nand3b_2
*I *2804:Y O *D sky130_fd_sc_hd__nor2_4
*CAP
1 *2807:A 0.000193939
2 *2809:A1 0
3 *2808:A_N 0
4 *2804:Y 0.000132197
5 *262:19 0.000319122
6 *262:10 0.00025738
7 *2807:A *2807:B 0
8 *2807:A *3260:A 1.14452e-05
9 *2807:A *263:10 0
10 *2807:A *451:10 0
11 *2807:A *461:23 0.000191166
12 *262:10 *2805:B 0.00010018
13 *262:10 *264:8 8.16459e-05
14 *262:10 *572:60 5.26101e-05
15 *262:19 *263:10 0
16 *262:19 *264:8 6.07611e-06
17 *262:19 *451:10 0
*RES
1 *2804:Y *262:10 41.3557 
2 *262:10 *2808:A_N 38 
3 *262:10 *262:19 2.25786 
4 *262:19 *2809:A1 38 
5 *262:19 *2807:A 41.6664 
*END

*D_NET *263 0.00126829
*CONN
*I *2807:B I *D sky130_fd_sc_hd__nor2_2
*I *2809:A2 I *D sky130_fd_sc_hd__o21bai_4
*I *2805:X O *D sky130_fd_sc_hd__and2_4
*CAP
1 *2807:B 0.000178795
2 *2809:A2 0
3 *2805:X 0.000326655
4 *263:10 0.00050545
5 *2807:B *3260:A 9.84794e-05
6 *2807:B *267:8 0
7 *2807:B *267:21 4.30096e-06
8 *2807:B *294:8 9.84794e-05
9 *263:10 *264:8 5.61311e-05
10 *263:10 *266:10 0
11 *263:10 *267:8 0
12 *2807:A *2807:B 0
13 *2807:A *263:10 0
14 *262:19 *263:10 0
*RES
1 *2805:X *263:10 44.0486 
2 *263:10 *2809:A2 38 
3 *263:10 *2807:B 41.7079 
*END

*D_NET *264 0.000816437
*CONN
*I *2808:B I *D sky130_fd_sc_hd__nand3b_2
*I *2806:Y O *D sky130_fd_sc_hd__nand2_2
*CAP
1 *2808:B 2.95011e-05
2 *2806:Y 0.000229341
3 *264:8 0.000258842
4 *2808:B *3248:A 5.50106e-05
5 *264:8 *458:61 9.98891e-05
6 *264:8 *572:60 0
7 *262:10 *264:8 8.16459e-05
8 *262:19 *264:8 6.07611e-06
9 *263:10 *264:8 5.61311e-05
*RES
1 *2806:Y *264:8 43.4271 
2 *264:8 *2808:B 38.6214 
*END

*D_NET *265 0.000310152
*CONN
*I *2838:A2 I *D sky130_fd_sc_hd__a22oi_2
*I *2807:Y O *D sky130_fd_sc_hd__nor2_2
*CAP
1 *2838:A2 0.000117151
2 *2807:Y 0.000117151
3 *2838:A2 *3260:A 3.89917e-05
4 *2838:A2 *294:8 3.68571e-05
*RES
1 *2807:Y *2838:A2 48.2371 
*END

*D_NET *266 0.00155227
*CONN
*I *2816:B1_N I *D sky130_fd_sc_hd__a21boi_4
*I *2810:A I *D sky130_fd_sc_hd__nand2_2
*I *2808:Y O *D sky130_fd_sc_hd__nand3b_2
*CAP
1 *2816:B1_N 0.000123874
2 *2810:A 0
3 *2808:Y 0.000326929
4 *266:10 0.000450803
5 *2816:B1_N *2839:A2 0.000192087
6 *2816:B1_N *267:21 1.99849e-05
7 *2816:B1_N *268:8 0.00014411
8 *2816:B1_N *271:6 5.3304e-05
9 *2816:B1_N *271:14 0
10 *266:10 *3248:A 3.22879e-05
11 *266:10 *267:8 0.000193398
12 *266:10 *267:21 1.14452e-05
13 *266:10 *271:14 0
14 *266:10 *505:8 4.04598e-06
15 *263:10 *266:10 0
*RES
1 *2808:Y *266:10 44.6493 
2 *266:10 *2810:A 38 
3 *266:10 *2816:B1_N 41.5836 
*END

*D_NET *267 0.00327094
*CONN
*I *2837:B1 I *D sky130_fd_sc_hd__o21ai_2
*I *2816:A2 I *D sky130_fd_sc_hd__a21boi_4
*I *2810:B I *D sky130_fd_sc_hd__nand2_2
*I *2809:Y O *D sky130_fd_sc_hd__o21bai_4
*CAP
1 *2837:B1 0.000290372
2 *2816:A2 0.000177125
3 *2810:B 0
4 *2809:Y 0.000112518
5 *267:21 0.000730259
6 *267:8 0.000375281
7 *2816:A2 *268:16 0.000574102
8 *2816:A2 *271:6 0.000526324
9 *2816:A2 *273:10 5.10805e-05
10 *2837:B1 *2834:C 7.55491e-05
11 *2837:B1 *2839:A2 0
12 *2837:B1 *268:8 1.83667e-05
13 *2837:B1 *461:27 0
14 *2837:B1 *462:40 1.44546e-05
15 *267:21 *3260:A 0
16 *267:21 *268:8 9.63815e-05
17 *267:21 *461:27 0
18 *2807:B *267:8 0
19 *2807:B *267:21 4.30096e-06
20 *2816:B1_N *267:21 1.99849e-05
21 *263:10 *267:8 0
22 *266:10 *267:8 0.000193398
23 *266:10 *267:21 1.14452e-05
*RES
1 *2809:Y *267:8 40.61 
2 *267:8 *2810:B 38 
3 *267:8 *267:21 4.90929 
4 *267:21 *2816:A2 45.7886 
5 *267:21 *2837:B1 43.4271 
*END

*D_NET *268 0.00441001
*CONN
*I *2834:C I *D sky130_fd_sc_hd__nor4_4
*I *2815:A I *D sky130_fd_sc_hd__xor2_2
*I *2817:A_N I *D sky130_fd_sc_hd__nand4b_2
*I *2810:Y O *D sky130_fd_sc_hd__nand2_2
*CAP
1 *2834:C 0.000194444
2 *2815:A 6.22175e-05
3 *2817:A_N 0
4 *2810:Y 9.4781e-05
5 *268:24 0.000146093
6 *268:16 0.00117013
7 *268:8 0.00125105
8 *2834:C *2839:A2 8.26569e-05
9 *268:8 *2839:A2 3.47776e-05
10 *268:16 *273:10 7.85045e-05
11 *268:24 *269:18 5.41288e-05
12 *268:24 *272:8 7.73301e-05
13 *268:24 *274:10 0.000167443
14 *268:24 *463:8 5.70419e-05
15 *268:24 *505:14 0
16 *2816:A2 *268:16 0.000574102
17 *2816:B1_N *268:8 0.00014411
18 *2837:B1 *2834:C 7.55491e-05
19 *2837:B1 *268:8 1.83667e-05
20 *260:25 *2834:C 3.08966e-05
21 *267:21 *268:8 9.63815e-05
*RES
1 *2810:Y *268:8 40.9621 
2 *268:8 *268:16 31.385 
3 *268:16 *268:24 34.4121 
4 *268:24 *2817:A_N 23 
5 *268:16 *2815:A 24.0979 
6 *268:8 *2834:C 41.8529 
*END

*D_NET *269 0.00560378
*CONN
*I *2817:B I *D sky130_fd_sc_hd__nand4b_2
*I *2814:A3 I *D sky130_fd_sc_hd__a31oi_2
*I *2811:X O *D sky130_fd_sc_hd__and4_2
*CAP
1 *2817:B 0
2 *2814:A3 0
3 *2811:X 6.18013e-05
4 *269:28 0.000248084
5 *269:18 0.00195197
6 *269:8 0.00176569
7 *269:18 *3260:A 5.29672e-05
8 *269:18 *274:10 9.75779e-05
9 *269:18 *294:8 0.000521187
10 *269:18 *463:8 0.000291912
11 *269:28 *272:8 0.000168744
12 *2838:B2 *269:18 0.00013674
13 *141:24 *269:18 1.37232e-05
14 *141:30 *269:28 0.000166522
15 *253:16 *269:28 2.93845e-05
16 *259:30 *269:8 4.334e-05
17 *268:24 *269:18 5.41288e-05
*RES
1 *2811:X *269:8 39.2014 
2 *269:8 *269:18 46.175 
3 *269:18 *269:28 35.2821 
4 *269:28 *2814:A3 23 
5 *269:18 *2817:B 23 
*END

*D_NET *270 0.00058572
*CONN
*I *2813:B I *D sky130_fd_sc_hd__and2_2
*I *2838:B1 I *D sky130_fd_sc_hd__a22oi_2
*I *2812:Y O *D sky130_fd_sc_hd__nand2_2
*CAP
1 *2813:B 0
2 *2838:B1 0
3 *2812:Y 8.1339e-05
4 *270:12 0.000183168
5 *270:6 0.000264507
6 *270:12 *2838:A1 0
7 *270:12 *461:23 0
8 *270:12 *461:27 0
9 *2813:A *270:6 5.67058e-05
*RES
1 *2812:Y *270:6 24.5743 
2 *270:6 *270:12 33.3143 
3 *270:12 *2838:B1 23 
4 *270:6 *2813:B 23 
*END

*D_NET *271 0.00366416
*CONN
*I *2816:A1 I *D sky130_fd_sc_hd__a21boi_4
*I *2814:B1 I *D sky130_fd_sc_hd__a31oi_2
*I *2813:X O *D sky130_fd_sc_hd__and2_2
*CAP
1 *2816:A1 0
2 *2814:B1 0
3 *2813:X 0.000544331
4 *271:14 0.000958495
5 *271:6 0.00150283
6 *271:6 *273:10 7.88828e-05
7 *271:14 *2839:A2 0
8 *271:14 *273:10 0
9 *2816:A2 *271:6 0.000526324
10 *2816:B1_N *271:6 5.3304e-05
11 *2816:B1_N *271:14 0
12 *266:10 *271:14 0
*RES
1 *2813:X *271:6 35.0557 
2 *271:6 *271:14 46.8821 
3 *271:14 *2814:B1 23 
4 *271:6 *2816:A1 23 
*END

*D_NET *272 0.000774335
*CONN
*I *2815:B I *D sky130_fd_sc_hd__xor2_2
*I *2814:Y O *D sky130_fd_sc_hd__a31oi_2
*CAP
1 *2815:B 0
2 *2814:Y 0.00026413
3 *272:8 0.00026413
4 *268:24 *272:8 7.73301e-05
5 *269:28 *272:8 0.000168744
*RES
1 *2814:Y *272:8 43.4271 
2 *272:8 *2815:B 15 
*END

*D_NET *273 0.00342588
*CONN
*I *2826:D I *D sky130_fd_sc_hd__nand4_2
*I *2836:A I *D sky130_fd_sc_hd__and2_4
*I *2825:B2 I *D sky130_fd_sc_hd__a22o_2
*I *2816:Y O *D sky130_fd_sc_hd__a21boi_4
*CAP
1 *2826:D 0.000160256
2 *2836:A 0
3 *2825:B2 9.198e-05
4 *2816:Y 0.000496609
5 *273:23 0.000347276
6 *273:10 0.000775608
7 *2825:B2 *2824:A 0.000484551
8 *2825:B2 *2824:B 0.000441076
9 *2825:B2 *2825:A2 4.34745e-05
10 *2826:D *278:47 0.000193749
11 *2826:D *290:16 0.000182832
12 *273:10 *505:14 0
13 *273:23 *3232:A 0
14 *273:23 *290:10 0
15 *2816:A2 *273:10 5.10805e-05
16 *268:16 *273:10 7.85045e-05
17 *271:6 *273:10 7.88828e-05
18 *271:14 *273:10 0
*RES
1 *2816:Y *273:10 46.7 
2 *273:10 *2825:B2 43.3857 
3 *273:10 *273:23 17.9621 
4 *273:23 *2836:A 23 
5 *273:23 *2826:D 27.4536 
*END

*D_NET *274 0.00171812
*CONN
*I *2826:A I *D sky130_fd_sc_hd__nand4_2
*I *2825:B1 I *D sky130_fd_sc_hd__a22o_2
*I *2817:Y O *D sky130_fd_sc_hd__nand4b_2
*CAP
1 *2826:A 0.000251134
2 *2825:B1 0
3 *2817:Y 0.000292833
4 *274:10 0.000543968
5 *2826:A *2827:B 0.00010018
6 *2826:A *278:14 0.000228781
7 *2826:A *278:36 1.14452e-05
8 *2826:A *282:10 0
9 *2826:A *290:16 2.4754e-05
10 *274:10 *505:14 0
11 *268:24 *274:10 0.000167443
12 *269:18 *274:10 9.75779e-05
*RES
1 *2817:Y *274:10 43.4686 
2 *274:10 *2825:B1 38 
3 *274:10 *2826:A 44.0071 
*END

*D_NET *275 0.000615233
*CONN
*I *2820:A I *D sky130_fd_sc_hd__nor2_2
*I *2823:A1 I *D sky130_fd_sc_hd__o21bai_2
*I *2818:Y O *D sky130_fd_sc_hd__nor2_2
*CAP
1 *2820:A 1.89204e-05
2 *2823:A1 0
3 *2818:Y 0.000114238
4 *275:10 1.89204e-05
5 *275:8 0.000114238
6 *2820:A *2823:A2 9.84851e-05
7 *275:8 *276:8 0
8 *275:8 *463:12 0
9 *275:8 *584:16 0.000193388
10 *254:20 *2820:A 5.70419e-05
*RES
1 *2818:Y *275:8 40.61 
2 *275:8 *275:10 15 
3 *275:10 *2823:A1 23 
4 *275:10 *2820:A 24.0979 
*END

*D_NET *276 0.000876724
*CONN
*I *2823:A2 I *D sky130_fd_sc_hd__o21bai_2
*I *2820:B I *D sky130_fd_sc_hd__nor2_2
*I *2819:X O *D sky130_fd_sc_hd__and2_2
*CAP
1 *2823:A2 9.38759e-05
2 *2820:B 0
3 *2819:X 0.000158234
4 *276:10 9.38759e-05
5 *276:8 0.000158234
6 *2823:A2 *277:10 0.0002246
7 *276:8 *463:12 0
8 *2820:A *2823:A2 9.84851e-05
9 *254:20 *2823:A2 4.94192e-05
10 *275:8 *276:8 0
*RES
1 *2819:X *276:8 40.2579 
2 *276:8 *276:10 15 
3 *276:10 *2820:B 23 
4 *276:10 *2823:A2 26.5214 
*END

*D_NET *277 0.00477823
*CONN
*I *2837:A2 I *D sky130_fd_sc_hd__o21ai_2
*I *2822:B I *D sky130_fd_sc_hd__nor2_2
*I *2821:A I *D sky130_fd_sc_hd__nand2_2
*I *2820:Y O *D sky130_fd_sc_hd__nor2_2
*CAP
1 *2837:A2 0
2 *2822:B 0
3 *2821:A 1.54013e-05
4 *2820:Y 0.00045762
5 *277:42 0.000363049
6 *277:27 0.000137306
7 *277:21 0.00104141
8 *277:10 0.00101408
9 *277:10 *2823:B1_N 0.000134664
10 *277:10 *280:10 9.80182e-05
11 *277:21 *280:10 3.17634e-05
12 *277:27 *279:8 0.000140949
13 *277:27 *295:8 7.91493e-05
14 *277:27 *462:40 0
15 *277:27 *488:10 0
16 *277:42 *2839:A2 1.14452e-05
17 *277:42 *279:8 0
18 *277:42 *292:10 0
19 *277:42 *295:8 0
20 *277:42 *296:8 0.000109553
21 *277:42 *462:40 0.000276784
22 *2823:A2 *277:10 0.0002246
23 *254:20 *2821:A 1.37232e-05
24 *254:20 *277:10 4.7312e-05
25 *254:20 *277:21 0.000493676
26 *254:41 *277:21 6.70017e-05
27 *254:41 *277:42 2.07242e-05
*RES
1 *2820:Y *277:10 32.8393 
2 *277:10 *2821:A 23.4971 
3 *277:10 *277:21 11.1236 
4 *277:21 *277:27 32.61 
5 *277:27 *2822:B 23 
6 *277:21 *277:42 37.1671 
7 *277:42 *2837:A2 23 
*END

*D_NET *278 0.00427446
*CONN
*I *2836:B I *D sky130_fd_sc_hd__and2_4
*I *2839:B1 I *D sky130_fd_sc_hd__o21ai_2
*I *2826:B I *D sky130_fd_sc_hd__nand4_2
*I *2825:A1 I *D sky130_fd_sc_hd__a22o_2
*I *2824:A I *D sky130_fd_sc_hd__nand2_2
*I *2821:Y O *D sky130_fd_sc_hd__nand2_2
*CAP
1 *2836:B 0
2 *2839:B1 0.000144048
3 *2826:B 0
4 *2825:A1 5.01683e-05
5 *2824:A 0.000287641
6 *2821:Y 0.000188172
7 *278:47 0.000529342
8 *278:36 0.000393558
9 *278:14 0.000492986
10 *278:8 0.000351613
11 *2824:A *2824:B 2.91071e-05
12 *2824:A *2825:A2 2.12228e-05
13 *2824:A *290:10 0.000313249
14 *2825:A1 *2825:A2 9.5877e-05
15 *2839:B1 *292:10 5.67058e-05
16 *278:8 *280:10 4.04787e-05
17 *278:8 *462:14 6.38845e-05
18 *278:8 *505:14 0
19 *278:14 *280:10 1.27321e-05
20 *278:14 *280:14 0.000111158
21 *278:47 *2827:B 0
22 *278:47 *290:16 7.38136e-05
23 *278:47 *488:10 0.00010018
24 *2825:B2 *2824:A 0.000484551
25 *2826:A *278:14 0.000228781
26 *2826:A *278:36 1.14452e-05
27 *2826:D *278:47 0.000193749
*RES
1 *2821:Y *278:8 41.1382 
2 *278:8 *278:14 19.1118 
3 *278:14 *2824:A 31.2857 
4 *278:14 *2825:A1 24.0979 
5 *278:8 *278:36 15.3211 
6 *278:36 *2826:B 23 
7 *278:36 *278:47 7.80929 
8 *278:47 *2839:B1 26.0036 
9 *278:47 *2836:B 23 
*END

*D_NET *279 0.00035324
*CONN
*I *2840:A1 I *D sky130_fd_sc_hd__o22ai_4
*I *2822:Y O *D sky130_fd_sc_hd__nor2_2
*CAP
1 *2840:A1 0
2 *2822:Y 0.000101026
3 *279:8 0.000101026
4 *279:8 *295:8 1.02387e-05
5 *279:8 *462:40 0
6 *277:27 *279:8 0.000140949
7 *277:42 *279:8 0
*RES
1 *2822:Y *279:8 40.2579 
2 *279:8 *2840:A1 38 
*END

*D_NET *280 0.00319981
*CONN
*I *2826:C I *D sky130_fd_sc_hd__nand4_2
*I *2825:A2 I *D sky130_fd_sc_hd__a22o_2
*I *2824:B I *D sky130_fd_sc_hd__nand2_2
*I *2823:Y O *D sky130_fd_sc_hd__o21bai_2
*CAP
1 *2826:C 0
2 *2825:A2 0.000147654
3 *2824:B 0.000249115
4 *2823:Y 0.000223271
5 *280:14 0.000533563
6 *280:10 0.000360065
7 *280:10 *2823:B1_N 0.000230604
8 *280:10 *505:14 0
9 *280:14 *505:14 0
10 *2824:A *2824:B 2.91071e-05
11 *2824:A *2825:A2 2.12228e-05
12 *2825:A1 *2825:A2 9.5877e-05
13 *2825:B2 *2824:B 0.000441076
14 *2825:B2 *2825:A2 4.34745e-05
15 *254:20 *280:10 0.000530627
16 *277:10 *280:10 9.80182e-05
17 *277:21 *280:10 3.17634e-05
18 *278:8 *280:10 4.04787e-05
19 *278:14 *280:10 1.27321e-05
20 *278:14 *280:14 0.000111158
*RES
1 *2823:Y *280:10 46.12 
2 *280:10 *280:14 17.9621 
3 *280:14 *2824:B 28.8829 
4 *280:14 *2825:A2 26.1952 
5 *280:10 *2826:C 38 
*END

*D_NET *281 0.000356976
*CONN
*I *2834:A I *D sky130_fd_sc_hd__nor4_4
*I *2824:Y O *D sky130_fd_sc_hd__nand2_2
*CAP
1 *2834:A 0.000100459
2 *2824:Y 0.000100459
3 *2834:A *290:10 0.000156058
*RES
1 *2824:Y *2834:A 49.0036 
*END

*D_NET *282 0.000514284
*CONN
*I *2827:A I *D sky130_fd_sc_hd__nand2_2
*I *2825:X O *D sky130_fd_sc_hd__a22o_2
*CAP
1 *2827:A 0
2 *2825:X 0.000257142
3 *282:10 0.000257142
4 *2826:A *282:10 0
*RES
1 *2825:X *282:10 41.8321 
2 *282:10 *2827:A 38 
*END

*D_NET *283 0.000346606
*CONN
*I *2827:B I *D sky130_fd_sc_hd__nand2_2
*I *2826:Y O *D sky130_fd_sc_hd__nand4_2
*CAP
1 *2827:B 5.13856e-05
2 *2826:Y 5.13856e-05
3 *2827:B *290:16 0.000143655
4 *2826:A *2827:B 0.00010018
5 *278:47 *2827:B 0
*RES
1 *2826:Y *2827:B 48.0714 
*END

*D_NET *284 0.00327249
*CONN
*I *2854:B2 I *D sky130_fd_sc_hd__o22a_2
*I *2849:B1 I *D sky130_fd_sc_hd__o2bb2ai_2
*I *2832:A1 I *D sky130_fd_sc_hd__o21ba_2
*I *2828:X O *D sky130_fd_sc_hd__and2_4
*CAP
1 *2854:B2 0.000423279
2 *2849:B1 0.000115928
3 *2832:A1 0.000272682
4 *2828:X 0
5 *284:10 0.000573973
6 *284:4 0.000608641
7 *2832:A1 *2829:A 6.28384e-05
8 *2832:A1 *2832:B1_N 0
9 *2832:A1 *285:10 0.000133316
10 *2832:A1 *286:10 6.68793e-05
11 *2832:A1 *484:10 0
12 *2849:B1 *286:23 0.000393551
13 *2849:B1 *287:8 0.000485452
14 *2849:B1 *287:23 1.24376e-05
15 *2854:B2 *2848:A2 1.11037e-05
16 *2854:B2 *308:8 3.30379e-05
17 *284:10 *2829:A 1.62015e-05
18 *284:10 *286:10 1.22803e-05
19 *284:10 *460:41 5.08899e-05
20 *284:10 *550:48 0
*RES
1 *2828:X *284:4 23 
2 *284:4 *284:10 18.5836 
3 *284:10 *2832:A1 43.075 
4 *284:10 *2849:B1 43.8829 
5 *284:4 *2854:B2 30.3121 
*END

*D_NET *285 0.000591675
*CONN
*I *2832:A2 I *D sky130_fd_sc_hd__o21ba_2
*I *2829:Y O *D sky130_fd_sc_hd__nor2_2
*CAP
1 *2832:A2 2.32824e-05
2 *2829:Y 0.000151742
3 *285:10 0.000175025
4 *2832:A2 *3200:A 5.50049e-05
5 *285:10 *2829:B 5.3304e-05
6 *285:10 *2832:B1_N 0
7 *2832:A1 *285:10 0.000133316
*RES
1 *2829:Y *285:10 40.5271 
2 *285:10 *2832:A2 38.6214 
*END

*D_NET *286 0.00215365
*CONN
*I *2854:B1 I *D sky130_fd_sc_hd__o22a_2
*I *2849:B2 I *D sky130_fd_sc_hd__o2bb2ai_2
*I *2831:B1 I *D sky130_fd_sc_hd__a21oi_2
*I *2830:Y O *D sky130_fd_sc_hd__o21ai_4
*CAP
1 *2854:B1 0
2 *2849:B2 0
3 *2831:B1 0
4 *2830:Y 0.000152425
5 *286:36 0.000181707
6 *286:23 0.000367389
7 *286:12 0.000185682
8 *286:10 0.000152425
9 *286:10 *2829:B 4.06849e-05
10 *286:10 *484:10 5.3365e-05
11 *286:10 *550:48 4.6318e-06
12 *286:23 *3106:A 0.000198363
13 *286:23 *287:8 4.5051e-05
14 *286:23 *287:23 3.05395e-05
15 *286:23 *460:6 0.000224605
16 *286:36 *3106:A 2.93335e-05
17 *286:36 *287:23 1.47394e-05
18 *2832:A1 *286:10 6.68793e-05
19 *2849:B1 *286:23 0.000393551
20 *284:10 *286:10 1.22803e-05
*RES
1 *2830:Y *286:10 41.3557 
2 *286:10 *286:12 15 
3 *286:12 *2831:B1 23 
4 *286:12 *286:23 7.93357 
5 *286:23 *2849:B2 23 
6 *286:23 *286:36 33.2314 
7 *286:36 *2854:B1 23 
*END

*D_NET *287 0.00709661
*CONN
*I *2878:A1 I *D sky130_fd_sc_hd__o211ai_2
*I *2855:A1 I *D sky130_fd_sc_hd__o21ai_2
*I *2885:A I *D sky130_fd_sc_hd__nor4_4
*I *2850:B1 I *D sky130_fd_sc_hd__a211o_2
*I *2833:A I *D sky130_fd_sc_hd__nor2_2
*I *2831:Y O *D sky130_fd_sc_hd__a21oi_2
*CAP
1 *2878:A1 4.32838e-05
2 *2855:A1 0.000233884
3 *2885:A 0.000500605
4 *2850:B1 0.000298902
5 *2833:A 0
6 *2831:Y 0.000457693
7 *287:25 0.000871387
8 *287:23 0.00101085
9 *287:14 0.000124435
10 *287:8 0.00133049
11 *2850:B1 *2850:A1 5.50106e-05
12 *2850:B1 *289:39 0
13 *2850:B1 *305:10 0.000407218
14 *2850:B1 *461:27 0
15 *2855:A1 *289:59 0
16 *2855:A1 *296:49 0
17 *2855:A1 *305:10 8.24662e-05
18 *2855:A1 *461:27 0
19 *2878:A1 *2855:A2 0
20 *2878:A1 *2878:A2 0.000157378
21 *2878:A1 *2878:C1 3.22879e-05
22 *2878:A1 *300:40 5.70419e-05
23 *2885:A *2885:C 2.32101e-05
24 *2885:A *296:27 0.000439375
25 *287:8 *460:6 1.57571e-05
26 *287:14 *2829:A 0
27 *287:14 *288:10 4.21594e-06
28 *287:14 *289:12 0
29 *287:14 *289:25 0
30 *287:23 *3106:A 3.72768e-05
31 *287:23 *289:59 0.000131073
32 *287:23 *304:10 3.52158e-05
33 *287:25 *305:10 0.000102629
34 *287:25 *461:27 0
35 *2849:B1 *287:8 0.000485452
36 *2849:B1 *287:23 1.24376e-05
37 *254:41 *2850:B1 5.67058e-05
38 *286:23 *287:8 4.5051e-05
39 *286:23 *287:23 3.05395e-05
40 *286:36 *287:23 1.47394e-05
*RES
1 *2831:Y *287:8 30.3121 
2 *287:8 *287:14 32.2579 
3 *287:14 *2833:A 23 
4 *287:8 *287:23 25.15 
5 *287:23 *287:25 1.55357 
6 *287:25 *2850:B1 45.105 
7 *287:25 *2885:A 47.57 
8 *287:23 *2855:A1 41.6664 
9 *2855:A1 *2878:A1 48.0714 
*END

*D_NET *288 0.00418263
*CONN
*I *2885:D I *D sky130_fd_sc_hd__nor4_4
*I *2833:B I *D sky130_fd_sc_hd__nor2_2
*I *2832:X O *D sky130_fd_sc_hd__o21ba_2
*CAP
1 *2885:D 0.000584028
2 *2833:B 0
3 *2832:X 0.000680927
4 *288:12 0.000584028
5 *288:10 0.000680927
6 *2885:D *3221:A 0.000365484
7 *2885:D *289:6 5.56279e-05
8 *2885:D *289:25 0.000130478
9 *2885:D *296:27 0.000209405
10 *2885:D *476:10 5.50049e-05
11 *2885:D *478:10 3.06991e-05
12 *288:10 *3200:A 0.000739255
13 *288:10 *289:12 6.25525e-05
14 *287:14 *288:10 4.21594e-06
*RES
1 *2832:X *288:10 49.1029 
2 *288:10 *288:12 15 
3 *288:12 *2833:B 23 
4 *288:12 *2885:D 35.7186 
*END

*D_NET *289 0.00483898
*CONN
*I *2853:C1 I *D sky130_fd_sc_hd__o211a_2
*I *2850:A2 I *D sky130_fd_sc_hd__a211o_2
*I *2849:A1_N I *D sky130_fd_sc_hd__o2bb2ai_2
*I *2841:A I *D sky130_fd_sc_hd__xor2_4
*I *2833:Y O *D sky130_fd_sc_hd__nor2_2
*CAP
1 *2853:C1 1.55776e-05
2 *2850:A2 3.61544e-05
3 *2849:A1_N 0.000352605
4 *2841:A 0.000177714
5 *2833:Y 2.98451e-05
6 *289:67 0.000465051
7 *289:59 0.000802079
8 *289:39 0.000213869
9 *289:25 0.000167119
10 *289:12 0.000124337
11 *289:6 0.000321301
12 *2850:A2 *305:10 4.06849e-05
13 *2853:C1 *2846:B1 5.56356e-05
14 *2853:C1 *2853:A2 5.56356e-05
15 *289:12 *476:10 4.68911e-05
16 *289:25 *478:10 0.000194318
17 *289:39 *305:10 0
18 *289:39 *476:10 0
19 *289:59 *3106:A 8.37098e-05
20 *289:59 *298:36 0.000136403
21 *289:59 *300:36 0.000487443
22 *289:59 *305:10 0
23 *289:59 *306:10 0.0003731
24 *289:67 *2847:B1 7.53384e-06
25 *289:67 *298:36 0
26 *289:67 *300:12 4.6318e-06
27 *289:67 *301:10 0.000114074
28 *289:67 *302:10 9.88574e-06
29 *2850:B1 *289:39 0
30 *2855:A1 *289:59 0
31 *2885:D *289:6 5.56279e-05
32 *2885:D *289:25 0.000130478
33 *254:41 *2850:A2 0.000143655
34 *287:14 *289:12 0
35 *287:14 *289:25 0
36 *287:23 *289:59 0.000131073
37 *288:10 *289:12 6.25525e-05
*RES
1 *2833:Y *289:6 23.6214 
2 *289:6 *289:12 32.9621 
3 *289:12 *2841:A 23 
4 *289:6 *289:25 34.1843 
5 *289:25 *2849:A1_N 23 
6 *2841:A *289:39 41.3143 
7 *289:39 *2850:A2 39.5743 
8 *2849:A1_N *289:59 49.8279 
9 *289:59 *289:67 36.5664 
10 *289:67 *2853:C1 38.6214 
*END

*D_NET *290 0.00555093
*CONN
*I *3232:A I *D sky130_fd_sc_hd__buf_2
*I *2889:A I *D sky130_fd_sc_hd__nand2_2
*I *2888:A I *D sky130_fd_sc_hd__and2_2
*I *2834:Y O *D sky130_fd_sc_hd__nor4_4
*CAP
1 *3232:A 3.7262e-05
2 *2889:A 0
3 *2888:A 0
4 *2834:Y 0.000656218
5 *290:31 0.000212418
6 *290:16 0.00142877
7 *290:10 0.00190984
8 *3232:A *505:14 2.96154e-05
9 *290:10 *505:14 0.000116413
10 *290:16 *2888:B 2.4754e-05
11 *290:16 *584:8 5.83407e-05
12 *290:31 *2888:B 0.000148921
13 *290:31 *2943:A 0
14 *290:31 *337:23 4.6318e-06
15 *290:31 *393:10 0
16 *2824:A *290:10 0.000313249
17 *2826:A *290:16 2.4754e-05
18 *2826:D *290:16 0.000182832
19 *2827:B *290:16 0.000143655
20 *2834:A *290:10 0.000156058
21 *254:20 *290:31 2.93845e-05
22 *273:23 *3232:A 0
23 *273:23 *290:10 0
24 *278:47 *290:16 7.38136e-05
*RES
1 *2834:Y *290:10 49.0821 
2 *290:10 *290:16 36.605 
3 *290:16 *2888:A 23 
4 *290:16 *290:31 34.205 
5 *290:31 *2889:A 23 
6 *290:10 *3232:A 38.8493 
*END

*D_NET *291 0.000417789
*CONN
*I *2840:B2 I *D sky130_fd_sc_hd__o22ai_4
*I *2835:Y O *D sky130_fd_sc_hd__inv_2
*CAP
1 *2840:B2 0
2 *2835:Y 0.000153839
3 *291:10 0.000153839
4 *291:10 *295:8 5.51058e-05
5 *291:10 *462:32 5.50049e-05
6 *291:10 *488:10 0
*RES
1 *2835:Y *291:10 40.8793 
2 *291:10 *2840:B2 38 
*END

*D_NET *292 0.000582607
*CONN
*I *2840:A2 I *D sky130_fd_sc_hd__o22ai_4
*I *2836:X O *D sky130_fd_sc_hd__and2_4
*CAP
1 *2840:A2 0
2 *2836:X 0.000222127
3 *292:10 0.000222127
4 *292:10 *295:8 8.16459e-05
5 *2839:B1 *292:10 5.67058e-05
6 *277:42 *292:10 0
*RES
1 *2836:X *292:10 42.3086 
2 *292:10 *2840:A2 38 
*END

*D_NET *293 0.000311154
*CONN
*I *2839:A1 I *D sky130_fd_sc_hd__o21ai_2
*I *2837:Y O *D sky130_fd_sc_hd__o21ai_2
*CAP
1 *2839:A1 0.000106334
2 *2837:Y 0.000106334
3 *2839:A1 *2839:A2 9.84851e-05
*RES
1 *2837:Y *2839:A1 48.0714 
*END

*D_NET *294 0.0028953
*CONN
*I *2839:A2 I *D sky130_fd_sc_hd__o21ai_2
*I *2838:Y O *D sky130_fd_sc_hd__a22oi_2
*CAP
1 *2839:A2 0.000562216
2 *2838:Y 0.000246284
3 *294:8 0.0008085
4 *2839:A2 *462:40 1.47563e-05
5 *294:8 *3260:A 0.000187564
6 *2807:B *294:8 9.84794e-05
7 *2816:B1_N *2839:A2 0.000192087
8 *2834:C *2839:A2 8.26569e-05
9 *2837:B1 *2839:A2 0
10 *2838:A2 *294:8 3.68571e-05
11 *2839:A1 *2839:A2 9.84851e-05
12 *268:8 *2839:A2 3.47776e-05
13 *269:18 *294:8 0.000521187
14 *271:14 *2839:A2 0
15 *277:42 *2839:A2 1.14452e-05
*RES
1 *2838:Y *294:8 46.2443 
2 *294:8 *2839:A2 49.4136 
*END

*D_NET *295 0.0014085
*CONN
*I *2887:A2 I *D sky130_fd_sc_hd__a21oi_2
*I *2839:Y O *D sky130_fd_sc_hd__o21ai_2
*CAP
1 *2887:A2 7.5058e-05
2 *2839:Y 0.000264628
3 *295:8 0.000339686
4 *2887:A2 *2835:A 0.000187129
5 *2887:A2 *462:32 0.000315857
6 *295:8 *488:10 0
7 *277:27 *295:8 7.91493e-05
8 *277:42 *295:8 0
9 *279:8 *295:8 1.02387e-05
10 *291:10 *295:8 5.51058e-05
11 *292:10 *295:8 8.16459e-05
*RES
1 *2839:Y *295:8 43.4271 
2 *295:8 *2887:A2 41.48 
*END

*D_NET *296 0.00897918
*CONN
*I *2877:B I *D sky130_fd_sc_hd__nand2_2
*I *2881:A1 I *D sky130_fd_sc_hd__a211oi_2
*I *3222:A I *D sky130_fd_sc_hd__buf_6
*I *3226:A I *D sky130_fd_sc_hd__buf_2
*I *3223:A I *D sky130_fd_sc_hd__buf_6
*I *3221:A I *D sky130_fd_sc_hd__buf_4
*I *2850:A1 I *D sky130_fd_sc_hd__a211o_2
*I *2840:Y O *D sky130_fd_sc_hd__o22ai_4
*CAP
1 *2877:B 9.72041e-05
2 *2881:A1 1.62567e-05
3 *3222:A 0.000147629
4 *3226:A 0
5 *3223:A 0
6 *3221:A 9.99139e-05
7 *2850:A1 0.000246454
8 *2840:Y 0.000193445
9 *296:64 0.000372848
10 *296:58 0.000479488
11 *296:49 0.00116346
12 *296:27 0.000317763
13 *296:21 0.00145349
14 *296:8 0.000685396
15 *2850:A1 *2850:C1 0.000269775
16 *2850:A1 *305:10 7.53384e-06
17 *2877:B *2879:A1 0.000139352
18 *2877:B *2880:B1 0.000141052
19 *2877:B *317:12 2.18506e-05
20 *2877:B *333:8 2.18409e-05
21 *2881:A1 *2881:A2 5.67058e-05
22 *3221:A *478:10 0.000102389
23 *3222:A *2881:A2 3.58091e-05
24 *296:21 *2850:C1 0.000208469
25 *296:21 *303:12 1.58805e-05
26 *296:21 *462:40 0
27 *296:27 *2885:C 9.67842e-05
28 *296:49 *2864:A 0.00012377
29 *296:49 *2866:A 0
30 *296:49 *303:12 0.000167309
31 *296:49 *308:10 0
32 *296:49 *309:10 0.000223034
33 *296:49 *317:12 0.000141879
34 *296:49 *317:27 3.53115e-05
35 *296:49 *317:35 5.78379e-05
36 *296:49 *318:10 5.50049e-05
37 *296:49 *336:10 0
38 *296:49 *587:12 0
39 *296:58 *2866:A 0
40 *296:58 *317:12 0.00019654
41 *296:58 *332:8 2.04774e-05
42 *296:64 *307:19 0
43 *296:64 *332:8 5.83025e-05
44 *2850:B1 *2850:A1 5.50106e-05
45 *2855:A1 *296:49 0
46 *2885:A *296:27 0.000439375
47 *2885:D *3221:A 0.000365484
48 *2885:D *296:27 0.000209405
49 *254:41 *2850:A1 9.14823e-05
50 *254:41 *296:8 0.000238617
51 *277:42 *296:8 0.000109553
*RES
1 *2840:Y *296:8 28.4064 
2 *296:8 *2850:A1 28.8829 
3 *296:8 *296:21 20.7793 
4 *296:21 *296:27 21.8357 
5 *296:27 *3221:A 26.9564 
6 *296:27 *3223:A 23 
7 *296:21 *296:49 47.545 
8 *296:49 *3226:A 38 
9 *296:49 *296:58 3.31429 
10 *296:58 *296:64 18.2314 
11 *296:64 *3222:A 26.045 
12 *296:64 *2881:A1 23.6214 
13 *296:58 *2877:B 40.6721 
*END

*D_NET *297 0.000581357
*CONN
*I *2844:A1 I *D sky130_fd_sc_hd__o21ba_2
*I *2845:A1 I *D sky130_fd_sc_hd__o21bai_4
*I *2842:Y O *D sky130_fd_sc_hd__nor2_2
*CAP
1 *2844:A1 8.16889e-05
2 *2845:A1 0.000145604
3 *2842:Y 3.32723e-05
4 *297:20 0.00019402
5 *2844:A1 *298:6 5.40241e-05
6 *297:20 *298:19 5.19151e-05
7 *297:20 *300:12 2.08324e-05
*RES
1 *2842:Y *2845:A1 46.6214 
2 *2845:A1 *297:20 40.61 
3 *297:20 *2844:A1 39.595 
*END

*D_NET *298 0.00358368
*CONN
*I *2853:A1 I *D sky130_fd_sc_hd__o211a_2
*I *2848:A1 I *D sky130_fd_sc_hd__o21ai_2
*I *2854:A2 I *D sky130_fd_sc_hd__o22a_2
*I *2845:A2 I *D sky130_fd_sc_hd__o21bai_4
*I *2844:A2 I *D sky130_fd_sc_hd__o21ba_2
*I *2843:X O *D sky130_fd_sc_hd__and2_4
*CAP
1 *2853:A1 2.79567e-05
2 *2848:A1 0
3 *2854:A2 0.000105729
4 *2845:A2 0
5 *2844:A2 0
6 *2843:X 7.31747e-05
7 *298:36 0.000551641
8 *298:30 0.000752532
9 *298:19 0.000516809
10 *298:6 0.000311321
11 *2853:A1 *2846:B1 5.51449e-05
12 *2854:A2 *2848:A2 0.000267983
13 *2854:A2 *302:16 0.000191255
14 *2854:A2 *308:8 5.9408e-05
15 *298:19 *299:10 6.17437e-06
16 *298:19 *300:12 3.8696e-05
17 *298:30 *300:36 4.84619e-05
18 *298:36 *2848:A2 4.44329e-05
19 *298:36 *300:36 4.89369e-05
20 *298:36 *301:10 0
21 *298:36 *301:14 0
22 *298:36 *302:16 5.56279e-05
23 *298:36 *306:10 0.000186054
24 *2844:A1 *298:6 5.40241e-05
25 *289:59 *298:36 0.000136403
26 *289:67 *298:36 0
27 *297:20 *298:19 5.19151e-05
*RES
1 *2843:X *298:6 24.5743 
2 *298:6 *2844:A2 23 
3 *298:6 *298:19 34.8886 
4 *298:19 *2845:A2 23 
5 *298:19 *298:30 19.6607 
6 *298:30 *298:36 24.57 
7 *298:36 *2854:A2 27.1221 
8 *298:36 *2848:A1 23 
9 *298:30 *2853:A1 38.6162 
*END

*D_NET *299 0.00540518
*CONN
*I *2857:B1 I *D sky130_fd_sc_hd__o2bb2ai_2
*I *2880:A1 I *D sky130_fd_sc_hd__o31a_2
*I *2851:A1 I *D sky130_fd_sc_hd__o21ai_2
*I *2844:X O *D sky130_fd_sc_hd__o21ba_2
*CAP
1 *2857:B1 9.4075e-05
2 *2880:A1 7.47002e-05
3 *2851:A1 0.000387554
4 *2844:X 0.000396176
5 *299:31 0.000550372
6 *299:12 0.000922448
7 *299:10 0.000549473
8 *2851:A1 *2846:B1 3.47781e-05
9 *2851:A1 *300:36 0.000490613
10 *2851:A1 *306:10 2.64616e-05
11 *2851:A1 *308:10 0
12 *2857:B1 *2845:B1_N 5.3304e-05
13 *2880:A1 *2866:A 0.00026626
14 *2880:A1 *2880:A2 0.000264564
15 *299:10 *2844:B1_N 0.000177667
16 *299:10 *300:36 2.55642e-05
17 *299:10 *495:8 5.24393e-05
18 *299:10 *495:10 0.000223043
19 *299:12 *2846:B1 0.000139647
20 *299:12 *300:36 0.000157309
21 *299:12 *495:10 2.46345e-05
22 *299:31 *2846:B1 5.3304e-05
23 *299:31 *2880:A2 0.000352421
24 *299:31 *307:8 4.7312e-05
25 *299:31 *319:8 1.62015e-05
26 *299:31 *320:8 1.86869e-05
27 *298:19 *299:10 6.17437e-06
*RES
1 *2844:X *299:10 45.6229 
2 *299:10 *299:12 2.25786 
3 *299:12 *2851:A1 46.5343 
4 *299:12 *299:31 37.1879 
5 *299:31 *2880:A1 41.0036 
6 *299:10 *2857:B1 39.5743 
*END

*D_NET *300 0.00444866
*CONN
*I *2848:B1 I *D sky130_fd_sc_hd__o21ai_2
*I *2878:C1 I *D sky130_fd_sc_hd__o211ai_2
*I *2855:B1 I *D sky130_fd_sc_hd__o21ai_2
*I *2853:B1 I *D sky130_fd_sc_hd__o211a_2
*I *2845:Y O *D sky130_fd_sc_hd__o21bai_4
*CAP
1 *2848:B1 0
2 *2878:C1 0.000260514
3 *2855:B1 0
4 *2853:B1 1.17588e-05
5 *2845:Y 0.000267077
6 *300:40 0.000350771
7 *300:36 0.000508977
8 *300:30 0.000489437
9 *300:12 0.000208119
10 *2853:B1 *2846:B1 5.56356e-05
11 *2853:B1 *2853:A2 5.79559e-05
12 *2878:C1 *2878:A2 4.94073e-05
13 *2878:C1 *303:12 8.52481e-05
14 *2878:C1 *309:10 1.14876e-05
15 *2878:C1 *331:8 5.67058e-05
16 *300:30 *2845:B1_N 6.17437e-06
17 *300:36 *302:16 9.84851e-05
18 *300:36 *303:12 2.4754e-05
19 *300:36 *308:10 0
20 *300:40 *2848:A2 0
21 *300:40 *2855:A2 0
22 *300:40 *2878:A2 2.9938e-05
23 *300:40 *302:16 9.45591e-05
24 *300:40 *303:12 0.00036984
25 *2851:A1 *300:36 0.000490613
26 *2878:A1 *2878:C1 3.22879e-05
27 *2878:A1 *300:40 5.70419e-05
28 *289:59 *300:36 0.000487443
29 *289:67 *300:12 4.6318e-06
30 *297:20 *300:12 2.08324e-05
31 *298:19 *300:12 3.8696e-05
32 *298:30 *300:36 4.84619e-05
33 *298:36 *300:36 4.89369e-05
34 *299:10 *300:36 2.55642e-05
35 *299:12 *300:36 0.000157309
*RES
1 *2845:Y *300:12 41.7286 
2 *300:12 *2853:B1 38.6214 
3 *2845:Y *300:30 39.0979 
4 *300:30 *300:36 28.2157 
5 *300:36 *300:40 4.45357 
6 *300:40 *2855:B1 23 
7 *300:40 *2878:C1 28.5514 
8 *300:36 *2848:B1 23 
*END

*D_NET *301 0.00279545
*CONN
*I *2853:A2 I *D sky130_fd_sc_hd__o211a_2
*I *2847:B1 I *D sky130_fd_sc_hd__a21oi_2
*I *2854:A1 I *D sky130_fd_sc_hd__o22a_2
*I *2848:A2 I *D sky130_fd_sc_hd__o21ai_2
*I *2846:Y O *D sky130_fd_sc_hd__o21ai_2
*CAP
1 *2853:A2 0.000164735
2 *2847:B1 2.84247e-05
3 *2854:A1 0
4 *2848:A2 0.000254189
5 *2846:Y 8.51194e-05
6 *301:14 0.000511628
7 *301:10 0.00039272
8 *301:6 0.00035671
9 *2847:B1 *302:10 2.93845e-05
10 *2848:A2 *302:16 2.1819e-05
11 *2848:A2 *303:12 4.00259e-06
12 *2853:A2 *2846:B1 6.50671e-05
13 *301:6 *2846:B1 9.65932e-06
14 *301:10 *460:45 0
15 *301:14 *302:10 6.42902e-05
16 *301:14 *304:10 0.000248979
17 *2853:B1 *2853:A2 5.79559e-05
18 *2853:C1 *2853:A2 5.56356e-05
19 *2854:A2 *2848:A2 0.000267983
20 *2854:B2 *2848:A2 1.11037e-05
21 *289:67 *2847:B1 7.53384e-06
22 *289:67 *301:10 0.000114074
23 *298:36 *2848:A2 4.44329e-05
24 *298:36 *301:10 0
25 *298:36 *301:14 0
26 *300:40 *2848:A2 0
*RES
1 *2846:Y *301:6 24.0979 
2 *301:6 *301:10 17.2579 
3 *301:10 *301:14 20.7793 
4 *301:14 *2848:A2 27.9507 
5 *301:14 *2854:A1 23 
6 *301:10 *2847:B1 38.6214 
7 *301:6 *2853:A2 26.8736 
*END

*D_NET *302 0.00311763
*CONN
*I *2851:A2 I *D sky130_fd_sc_hd__o21ai_2
*I *2878:A2 I *D sky130_fd_sc_hd__o211ai_2
*I *2855:A2 I *D sky130_fd_sc_hd__o21ai_2
*I *2847:Y O *D sky130_fd_sc_hd__a21oi_2
*CAP
1 *2851:A2 9.10938e-05
2 *2878:A2 0.000156774
3 *2855:A2 2.34823e-05
4 *2847:Y 0.000174505
5 *302:16 0.00049355
6 *302:10 0.000578893
7 *2851:A2 *306:10 7.51453e-06
8 *2878:A2 *308:8 1.32314e-05
9 *2878:A2 *309:10 0.000228903
10 *302:16 *304:10 0.000222113
11 *302:16 *308:8 0.000325542
12 *2847:B1 *302:10 2.93845e-05
13 *2848:A2 *302:16 2.1819e-05
14 *2854:A2 *302:16 0.000191255
15 *2878:A1 *2855:A2 0
16 *2878:A1 *2878:A2 0.000157378
17 *2878:C1 *2878:A2 4.94073e-05
18 *289:67 *302:10 9.88574e-06
19 *298:36 *302:16 5.56279e-05
20 *300:36 *302:16 9.84851e-05
21 *300:40 *2855:A2 0
22 *300:40 *2878:A2 2.9938e-05
23 *300:40 *302:16 9.45591e-05
24 *301:14 *302:10 6.42902e-05
*RES
1 *2847:Y *302:10 41.0036 
2 *302:10 *302:16 24.7771 
3 *302:16 *2855:A2 23.4971 
4 *302:16 *2878:A2 28.3029 
5 *302:10 *2851:A2 39.5743 
*END

*D_NET *303 0.00345384
*CONN
*I *2885:C I *D sky130_fd_sc_hd__nor4_4
*I *2850:C1 I *D sky130_fd_sc_hd__a211o_2
*I *2848:Y O *D sky130_fd_sc_hd__o21ai_2
*CAP
1 *2885:C 7.67504e-05
2 *2850:C1 0.000296774
3 *2848:Y 0.000585024
4 *303:12 0.000958548
5 *2850:C1 *461:27 0
6 *303:12 *461:27 0
7 *2848:A2 *303:12 4.00259e-06
8 *2850:A1 *2850:C1 0.000269775
9 *2878:C1 *303:12 8.52481e-05
10 *2885:A *2885:C 2.32101e-05
11 *254:41 *2850:C1 0.000271476
12 *296:21 *2850:C1 0.000208469
13 *296:21 *303:12 1.58805e-05
14 *296:27 *2885:C 9.67842e-05
15 *296:49 *303:12 0.000167309
16 *300:36 *303:12 2.4754e-05
17 *300:40 *303:12 0.00036984
*RES
1 *2848:Y *303:12 48.9579 
2 *303:12 *2850:C1 46.7829 
3 *303:12 *2885:C 39.5743 
*END

*D_NET *304 0.00124271
*CONN
*I *2851:B1 I *D sky130_fd_sc_hd__o21ai_2
*I *2849:Y O *D sky130_fd_sc_hd__o2bb2ai_2
*CAP
1 *2851:B1 0
2 *2849:Y 0.000296432
3 *304:10 0.000296432
4 *304:10 *3106:A 0.000143535
5 *304:10 *306:10 0
6 *287:23 *304:10 3.52158e-05
7 *301:14 *304:10 0.000248979
8 *302:16 *304:10 0.000222113
*RES
1 *2849:Y *304:10 45.0014 
2 *304:10 *2851:B1 38 
*END

*D_NET *305 0.00148875
*CONN
*I *2852:B I *D sky130_fd_sc_hd__nand2_4
*I *2850:X O *D sky130_fd_sc_hd__a211o_2
*CAP
1 *2852:B 0
2 *2850:X 0.000419486
3 *305:10 0.000419486
4 *2850:A1 *305:10 7.53384e-06
5 *2850:A2 *305:10 4.06849e-05
6 *2850:B1 *305:10 0.000407218
7 *2855:A1 *305:10 8.24662e-05
8 *254:41 *305:10 9.24795e-06
9 *287:25 *305:10 0.000102629
10 *289:39 *305:10 0
11 *289:59 *305:10 0
*RES
1 *2850:X *305:10 47.4664 
2 *305:10 *2852:B 38 
*END

*D_NET *306 0.00123803
*CONN
*I *2852:A I *D sky130_fd_sc_hd__nand2_4
*I *2851:Y O *D sky130_fd_sc_hd__o21ai_2
*CAP
1 *2852:A 0
2 *2851:Y 0.000322451
3 *306:10 0.000322451
4 *2851:A1 *306:10 2.64616e-05
5 *2851:A2 *306:10 7.51453e-06
6 *289:59 *306:10 0.0003731
7 *298:36 *306:10 0.000186054
8 *304:10 *306:10 0
*RES
1 *2851:Y *306:10 44.6493 
2 *306:10 *2852:A 38 
*END

*D_NET *307 0.00418951
*CONN
*I *2876:A I *D sky130_fd_sc_hd__and3_2
*I *2857:A1_N I *D sky130_fd_sc_hd__o2bb2ai_2
*I *2865:A2 I *D sky130_fd_sc_hd__a211o_2
*I *2853:X O *D sky130_fd_sc_hd__o211a_2
*CAP
1 *2876:A 0.000430952
2 *2857:A1_N 0.000130389
3 *2865:A2 0.000121046
4 *2853:X 0.000451989
5 *307:19 0.000736568
6 *307:8 0.000748262
7 *2857:A1_N *2857:A2_N 0.00018282
8 *2865:A2 *2866:A 0
9 *2865:A2 *318:10 0
10 *2865:A2 *587:12 0.000188916
11 *2876:A *587:12 0.000211979
12 *2876:A *589:8 0
13 *307:8 *2846:B1 4.74355e-05
14 *307:8 *2866:A 0.000267161
15 *307:8 *2879:A2 0.000178517
16 *307:8 *2880:A2 0.000114595
17 *307:19 *587:12 0.000252676
18 *78:8 *2876:A 7.88926e-05
19 *296:64 *307:19 0
20 *299:31 *307:8 4.7312e-05
*RES
1 *2853:X *307:8 47.6736 
2 *307:8 *2865:A2 40.61 
3 *307:8 *307:19 3.66643 
4 *307:19 *2857:A1_N 40.5271 
5 *307:19 *2876:A 46.7 
*END

*D_NET *308 0.00459218
*CONN
*I *2857:B2 I *D sky130_fd_sc_hd__o2bb2ai_2
*I *2880:A2 I *D sky130_fd_sc_hd__o31a_2
*I *2854:X O *D sky130_fd_sc_hd__o22a_2
*CAP
1 *2857:B2 0.000139907
2 *2880:A2 0.000242489
3 *2854:X 0.000767199
4 *308:10 0.00083349
5 *308:8 0.00121829
6 *2857:B2 *2846:B1 0
7 *2857:B2 *311:10 0
8 *2857:B2 *320:8 0
9 *2880:A2 *2866:A 4.95081e-05
10 *2880:A2 *2880:A3 3.91386e-05
11 *2880:A2 *333:8 0.000139352
12 *308:10 *2879:A2 0
13 *308:10 *309:10 0
14 *308:10 *311:10 0
15 *308:10 *320:8 0
16 *2851:A1 *308:10 0
17 *2854:A2 *308:8 5.9408e-05
18 *2854:B2 *308:8 3.30379e-05
19 *2878:A2 *308:8 1.32314e-05
20 *2880:A1 *2880:A2 0.000264564
21 *296:49 *308:10 0
22 *299:31 *2880:A2 0.000352421
23 *300:36 *308:10 0
24 *302:16 *308:8 0.000325542
25 *307:8 *2880:A2 0.000114595
*RES
1 *2854:X *308:8 48.6264 
2 *308:8 *308:10 8.24429 
3 *308:10 *2880:A2 45.7886 
4 *308:10 *2857:B2 40.2579 
*END

*D_NET *309 0.00305525
*CONN
*I *2879:A2 I *D sky130_fd_sc_hd__o21ai_2
*I *2856:A I *D sky130_fd_sc_hd__inv_2
*I *2855:Y O *D sky130_fd_sc_hd__o21ai_2
*CAP
1 *2879:A2 0.000560849
2 *2856:A 5.51761e-05
3 *2855:Y 0.000350685
4 *309:10 0.00096671
5 *2856:A *310:16 5.50049e-05
6 *2879:A2 *2866:A 9.45591e-05
7 *2879:A2 *2880:B1 0.000116462
8 *2879:A2 *319:8 6.79006e-05
9 *2879:A2 *320:8 0
10 *2879:A2 *587:12 6.7177e-06
11 *309:10 *317:35 7.03766e-05
12 *309:10 *587:12 6.88715e-05
13 *2878:A2 *309:10 0.000228903
14 *2878:C1 *309:10 1.14876e-05
15 *296:49 *309:10 0.000223034
16 *307:8 *2879:A2 0.000178517
17 *308:10 *2879:A2 0
18 *308:10 *309:10 0
*RES
1 *2855:Y *309:10 45.7264 
2 *309:10 *2856:A 39.0979 
3 *309:10 *2879:A2 47.3214 
*END

*D_NET *310 0.00064121
*CONN
*I *2865:B1 I *D sky130_fd_sc_hd__a211o_2
*I *2856:Y O *D sky130_fd_sc_hd__inv_2
*CAP
1 *2865:B1 0
2 *2856:Y 0.000258675
3 *310:16 0.000258675
4 *310:16 *2865:A1 6.88554e-05
5 *2856:A *310:16 5.50049e-05
*RES
1 *2856:Y *310:16 28.7379 
2 *310:16 *2865:B1 23 
*END

*D_NET *311 0.000472832
*CONN
*I *2866:B I *D sky130_fd_sc_hd__nand2_2
*I *2857:Y O *D sky130_fd_sc_hd__o2bb2ai_2
*CAP
1 *2866:B 0
2 *2857:Y 0.00015474
3 *311:10 0.00015474
4 *311:10 *320:8 0.000163352
5 *2857:B2 *311:10 0
6 *308:10 *311:10 0
*RES
1 *2857:Y *311:10 40.8793 
2 *311:10 *2866:B 38 
*END

*D_NET *312 0.0016887
*CONN
*I *2861:A_N I *D sky130_fd_sc_hd__nand3b_4
*I *2863:A1 I *D sky130_fd_sc_hd__o21bai_4
*I *2862:A1 I *D sky130_fd_sc_hd__o21ba_2
*I *2858:Y O *D sky130_fd_sc_hd__nor2_4
*CAP
1 *2861:A_N 5.82958e-05
2 *2863:A1 0.000127042
3 *2862:A1 0.000171531
4 *2858:Y 5.05113e-05
5 *312:17 0.000310497
6 *312:6 0.000347202
7 *2861:A_N *315:8 9.84851e-05
8 *2861:A_N *506:10 0.000183733
9 *2862:A1 *2858:A 5.50049e-05
10 *2863:A1 *553:8 0
11 *2863:A1 *584:16 9.63815e-05
12 *312:6 *2858:A 2.28331e-05
13 *312:6 *2858:B 5.50049e-05
14 *312:17 *553:8 0
15 *312:17 *584:16 0.00011218
*RES
1 *2858:Y *312:6 24.0979 
2 *312:6 *2862:A1 26.0036 
3 *312:6 *312:17 17.9621 
4 *312:17 *2863:A1 40.61 
5 *312:17 *2861:A_N 40.0507 
*END

*D_NET *313 0.00172756
*CONN
*I *2863:A2 I *D sky130_fd_sc_hd__o21bai_4
*I *2862:A2 I *D sky130_fd_sc_hd__o21ba_2
*I *2859:X O *D sky130_fd_sc_hd__and2_4
*CAP
1 *2863:A2 0
2 *2862:A2 0
3 *2859:X 0.000221688
4 *313:16 0.000419702
5 *313:8 0.000641391
6 *313:16 *317:6 7.53384e-06
7 *313:16 *462:10 0.000437244
8 *313:16 *553:8 0
*RES
1 *2859:X *313:8 26.9771 
2 *313:8 *313:16 39.2593 
3 *313:16 *2862:A2 23 
4 *313:8 *2863:A2 23 
*END

*D_NET *314 0.00119868
*CONN
*I *2861:B I *D sky130_fd_sc_hd__nand3b_4
*I *2860:Y O *D sky130_fd_sc_hd__nand2_2
*CAP
1 *2861:B 0
2 *2860:Y 0.000367734
3 *314:10 0.000367734
4 *314:10 *2858:B 0.000137685
5 *314:10 *552:14 6.82514e-05
6 *314:10 *584:16 8.76088e-05
7 *15:11 *314:10 0.000169665
*RES
1 *2860:Y *314:10 44.6907 
2 *314:10 *2861:B 38 
*END

*D_NET *315 0.00371121
*CONN
*I *3235:A I *D sky130_fd_sc_hd__buf_2
*I *2884:B1 I *D sky130_fd_sc_hd__o2111ai_4
*I *2861:Y O *D sky130_fd_sc_hd__nand3b_4
*CAP
1 *3235:A 0
2 *2884:B1 0
3 *2861:Y 0.000545313
4 *315:20 0.000303817
5 *315:14 0.000630427
6 *315:8 0.000871923
7 *315:8 *2882:A2 5.3304e-05
8 *315:8 *506:10 0.000135134
9 *315:14 *316:10 0.000244517
10 *315:14 *327:10 0.000131087
11 *315:14 *329:8 1.02387e-05
12 *315:14 *330:8 0.000166513
13 *315:14 *507:12 0
14 *315:20 *2884:A2 0
15 *315:20 *2886:A3 5.61311e-05
16 *315:20 *322:48 0
17 *315:20 *324:25 0
18 *315:20 *325:25 0
19 *315:20 *327:10 0.000139647
20 *315:20 *491:8 7.03869e-05
21 *315:20 *491:16 0.000218696
22 *315:20 *491:32 3.55887e-05
23 *315:20 *493:10 0
24 *2861:A_N *315:8 9.84851e-05
*RES
1 *2861:Y *315:8 47.6736 
2 *315:8 *315:14 22.7057 
3 *315:14 *315:20 38.2443 
4 *315:20 *2884:B1 23 
5 *315:14 *3235:A 23 
*END

*D_NET *316 0.0031125
*CONN
*I *2880:A3 I *D sky130_fd_sc_hd__o31a_2
*I *2879:A1 I *D sky130_fd_sc_hd__o21ai_2
*I *2862:X O *D sky130_fd_sc_hd__o21ba_2
*CAP
1 *2880:A3 3.23733e-05
2 *2879:A1 0.000175659
3 *2862:X 0.000633425
4 *316:10 0.000776711
5 *2879:A1 *317:6 0.000223704
6 *2879:A1 *317:12 0.000180218
7 *2879:A1 *333:8 8.41241e-05
8 *2880:A3 *2866:A 2.4754e-05
9 *2880:A3 *2880:B1 0.000137921
10 *2880:A3 *333:8 0.000143655
11 *316:10 *2862:B1_N 2.30292e-05
12 *316:10 *2882:A1 4.3407e-05
13 *316:10 *2883:B 9.91701e-05
14 *316:10 *317:55 0
15 *316:10 *329:8 0
16 *316:10 *334:10 9.98995e-05
17 *316:10 *507:12 0
18 *316:10 *590:8 1.14452e-05
19 *2877:B *2879:A1 0.000139352
20 *2880:A2 *2880:A3 3.91386e-05
21 *315:14 *316:10 0.000244517
*RES
1 *2862:X *316:10 49.745 
2 *316:10 *2879:A1 42.4329 
3 *2879:A1 *2880:A3 48.5686 
*END

*D_NET *317 0.00593232
*CONN
*I *2876:C I *D sky130_fd_sc_hd__and3_2
*I *2864:B I *D sky130_fd_sc_hd__nand2_2
*I *2878:B1 I *D sky130_fd_sc_hd__o211ai_2
*I *2884:D1 I *D sky130_fd_sc_hd__o2111ai_4
*I *2863:Y O *D sky130_fd_sc_hd__o21bai_4
*CAP
1 *2876:C 0
2 *2864:B 2.34823e-05
3 *2878:B1 0
4 *2884:D1 0.000305424
5 *2863:Y 0.000504446
6 *317:55 0.000253121
7 *317:35 0.000146855
8 *317:27 0.000329101
9 *317:12 0.000820961
10 *317:6 0.00111434
11 *2884:D1 *324:14 8.33469e-05
12 *2884:D1 *491:16 0
13 *2884:D1 *587:12 0
14 *317:6 *333:8 3.98818e-05
15 *317:12 *332:8 1.83564e-05
16 *317:12 *491:8 0
17 *317:12 *491:32 0
18 *317:12 *587:12 0
19 *317:27 *2864:A 0.000315852
20 *317:35 *587:12 0.000225265
21 *317:55 *2876:B 0.000336148
22 *317:55 *2877:A 0.000166513
23 *317:55 *327:10 2.35393e-05
24 *317:55 *329:8 0.000187335
25 *317:55 *334:10 3.07161e-05
26 *317:55 *491:32 7.23898e-05
27 *2877:B *317:12 2.18506e-05
28 *2879:A1 *317:6 0.000223704
29 *2879:A1 *317:12 0.000180218
30 *296:49 *317:12 0.000141879
31 *296:49 *317:27 3.53115e-05
32 *296:49 *317:35 5.78379e-05
33 *296:58 *317:12 0.00019654
34 *309:10 *317:35 7.03766e-05
35 *313:16 *317:6 7.53384e-06
36 *316:10 *317:55 0
*RES
1 *2863:Y *317:6 31.7207 
2 *317:6 *317:12 22.9543 
3 *317:12 *2884:D1 44.0486 
4 *317:12 *317:27 19.4329 
5 *317:27 *317:35 34.06 
6 *317:35 *2878:B1 23 
7 *317:27 *2864:B 23.4971 
8 *317:6 *317:55 37.4571 
9 *317:55 *2876:C 23 
*END

*D_NET *318 0.0017934
*CONN
*I *2866:A I *D sky130_fd_sc_hd__nand2_2
*I *2865:C1 I *D sky130_fd_sc_hd__a211o_2
*I *2864:Y O *D sky130_fd_sc_hd__nand2_2
*CAP
1 *2866:A 0.000318467
2 *2865:C1 0
3 *2864:Y 0.000152794
4 *318:10 0.000471261
5 *2866:A *2880:B1 2.46468e-05
6 *2866:A *333:8 1.22822e-05
7 *318:10 *2864:A 5.67058e-05
8 *318:10 *587:12 0
9 *2865:A2 *2866:A 0
10 *2865:A2 *318:10 0
11 *2879:A2 *2866:A 9.45591e-05
12 *2880:A1 *2866:A 0.00026626
13 *2880:A2 *2866:A 4.95081e-05
14 *2880:A3 *2866:A 2.4754e-05
15 *296:49 *2866:A 0
16 *296:49 *318:10 5.50049e-05
17 *296:58 *2866:A 0
18 *307:8 *2866:A 0.000267161
*RES
1 *2864:Y *318:10 40.8793 
2 *318:10 *2865:C1 38 
3 *318:10 *2866:A 46.5136 
*END

*D_NET *319 0.00137991
*CONN
*I *2867:B I *D sky130_fd_sc_hd__nand2_4
*I *2865:X O *D sky130_fd_sc_hd__a211o_2
*CAP
1 *2867:B 0
2 *2865:X 0.000330741
3 *319:8 0.000330741
4 *319:8 *320:8 0
5 *319:8 *587:12 0.000634329
6 *319:8 *589:8 0
7 S[21] *319:8 0
8 *2879:A2 *319:8 6.79006e-05
9 *299:31 *319:8 1.62015e-05
*RES
1 *2865:X *319:8 46.5964 
2 *319:8 *2867:B 38 
*END

*D_NET *320 0.000889722
*CONN
*I *2867:A I *D sky130_fd_sc_hd__nand2_4
*I *2866:Y O *D sky130_fd_sc_hd__nand2_2
*CAP
1 *2867:A 0
2 *2866:Y 0.000334221
3 *320:8 0.000334221
4 *320:8 *495:10 0
5 S[21] *320:8 3.92407e-05
6 *2857:B2 *320:8 0
7 *2879:A2 *320:8 0
8 *299:31 *320:8 1.86869e-05
9 *308:10 *320:8 0
10 *311:10 *320:8 0.000163352
11 *319:8 *320:8 0
*RES
1 *2866:Y *320:8 44.8357 
2 *320:8 *2867:A 38 
*END

*D_NET *321 0.00101682
*CONN
*I *2871:A2 I *D sky130_fd_sc_hd__o21bai_4
*I *2870:A1 I *D sky130_fd_sc_hd__o21ba_2
*I *2868:Y O *D sky130_fd_sc_hd__nor2_2
*CAP
1 *2871:A2 0
2 *2870:A1 0
3 *2868:Y 0.000120303
4 *321:16 0.000143036
5 *321:8 0.000263339
6 *321:8 *2868:B 0.000272383
7 *321:16 *2868:B 2.02872e-05
8 *321:16 *323:8 0
9 *321:16 *462:10 0
10 *321:16 *463:53 0
11 *321:16 *507:34 0
12 *321:16 *584:16 0.00019747
*RES
1 *2868:Y *321:8 26.5007 
2 *321:8 *321:16 33.2314 
3 *321:16 *2870:A1 23 
4 *321:8 *2871:A2 23 
*END

*D_NET *322 0.00390611
*CONN
*I *2870:A2 I *D sky130_fd_sc_hd__o21ba_2
*I *2884:A1 I *D sky130_fd_sc_hd__o2111ai_4
*I *2874:A1 I *D sky130_fd_sc_hd__o21a_2
*I *2871:A1 I *D sky130_fd_sc_hd__o21bai_4
*I *2875:A1 I *D sky130_fd_sc_hd__o21ai_2
*I *2869:X O *D sky130_fd_sc_hd__and2_4
*CAP
1 *2870:A2 0
2 *2884:A1 0.000401069
3 *2874:A1 6.26163e-05
4 *2871:A1 0
5 *2875:A1 0.000462497
6 *2869:X 0
7 *322:60 0.000401069
8 *322:48 0.000180022
9 *322:33 0.000267824
10 *322:21 0.000246506
11 *322:4 0.000683818
12 *2874:A1 *2874:A2 5.50049e-05
13 *2874:A1 *2874:B1 3.62905e-05
14 *2874:A1 *2875:A2 5.3304e-05
15 *2875:A1 *2869:B 9.84851e-05
16 *2875:A1 *2875:A2 4.00259e-06
17 *2875:A1 *328:10 1.94693e-05
18 *2875:A1 *463:45 0.000119313
19 *2875:A1 *463:53 9.45591e-05
20 *322:21 *463:41 0
21 *322:21 *463:45 9.6103e-05
22 *322:21 *463:71 0
23 *322:21 *584:16 0
24 *322:33 *2875:A2 4.2573e-05
25 *322:48 *2884:A2 0.000195248
26 *322:48 *324:25 5.0135e-05
27 *322:48 *325:25 0.000192096
28 *322:48 *505:14 0.00014411
29 *322:48 *507:12 0
30 *322:48 *553:26 0
31 *315:20 *322:48 0
*RES
1 *2869:X *322:4 23 
2 *322:4 *2875:A1 31.265 
3 *322:4 *322:21 34.6607 
4 *322:21 *2871:A1 23 
5 *2875:A1 *322:33 23.6214 
6 *322:33 *2874:A1 24.595 
7 *322:33 *322:48 35.4271 
8 *322:48 *2884:A1 23 
9 *2884:A1 *322:60 29.815 
10 *322:60 *2870:A2 23 
*END

*D_NET *323 0.000987152
*CONN
*I *2886:B1 I *D sky130_fd_sc_hd__a31oi_2
*I *2870:X O *D sky130_fd_sc_hd__o21ba_2
*CAP
1 *2886:B1 0.0001904
2 *2870:X 0.000177922
3 *323:8 0.000368322
4 *2886:B1 *337:23 0.000158828
5 *323:8 *462:10 0
6 *323:8 *507:34 9.168e-05
7 *323:8 *584:16 0
8 *321:16 *323:8 0
*RES
1 *2870:X *323:8 41.6664 
2 *323:8 *2886:B1 42.4329 
*END

*D_NET *324 0.00313987
*CONN
*I *3237:A I *D sky130_fd_sc_hd__buf_2
*I *2884:C1 I *D sky130_fd_sc_hd__o2111ai_4
*I *2871:Y O *D sky130_fd_sc_hd__o21bai_4
*CAP
1 *3237:A 0
2 *2884:C1 0
3 *2871:Y 0.000248451
4 *324:25 0.000204573
5 *324:14 0.000478106
6 *324:6 0.00093113
7 *324:6 *325:6 4.5051e-05
8 *324:6 *507:19 4.56951e-05
9 *324:6 *553:16 0.000225393
10 *324:14 *325:6 7.88926e-05
11 *324:14 *325:10 2.64616e-05
12 *324:14 *331:8 9.32948e-05
13 *324:14 *491:16 0.000249909
14 *324:25 *327:10 0
15 *324:25 *493:10 0
16 *324:25 *507:12 0.000379431
17 *2884:D1 *324:14 8.33469e-05
18 *315:20 *324:25 0
19 *322:48 *324:25 5.0135e-05
*RES
1 *2871:Y *324:6 27.9093 
2 *324:6 *324:14 39.6529 
3 *324:14 *2884:C1 23 
4 *324:6 *324:25 35.075 
5 *324:25 *3237:A 23 
*END

*D_NET *325 0.00209444
*CONN
*I *2873:B1 I *D sky130_fd_sc_hd__a21o_2
*I *2875:A2 I *D sky130_fd_sc_hd__o21ai_2
*I *2874:A2 I *D sky130_fd_sc_hd__o21a_2
*I *2884:A2 I *D sky130_fd_sc_hd__o2111ai_4
*I *2872:Y O *D sky130_fd_sc_hd__o21ai_2
*CAP
1 *2873:B1 0
2 *2875:A2 0.000157664
3 *2874:A2 5.3675e-05
4 *2884:A2 0.000111659
5 *2872:Y 7.97072e-05
6 *325:25 0.000315742
7 *325:10 0.000258525
8 *325:6 0.000122171
9 *2874:A2 *2874:B1 1.76557e-05
10 *2875:A2 *328:10 6.17437e-06
11 *2884:A2 *326:8 0.000169683
12 *325:6 *505:14 2.93845e-05
13 *325:6 *507:19 5.50106e-05
14 *325:6 *553:26 2.4754e-05
15 *2874:A1 *2874:A2 5.50049e-05
16 *2874:A1 *2875:A2 5.3304e-05
17 *2875:A1 *2875:A2 4.00259e-06
18 *315:20 *2884:A2 0
19 *315:20 *325:25 0
20 *322:33 *2875:A2 4.2573e-05
21 *322:48 *2884:A2 0.000195248
22 *322:48 *325:25 0.000192096
23 *324:6 *325:6 4.5051e-05
24 *324:14 *325:6 7.88926e-05
25 *324:14 *325:10 2.64616e-05
*RES
1 *2872:Y *325:6 25.5271 
2 *325:6 *325:10 15.6214 
3 *325:10 *2884:A2 41.2314 
4 *325:10 *325:25 17.61 
5 *325:25 *2874:A2 24.0979 
6 *325:25 *2875:A2 26.045 
7 *325:6 *2873:B1 23 
*END

*D_NET *326 0.000725013
*CONN
*I *2886:A2 I *D sky130_fd_sc_hd__a31oi_2
*I *2873:X O *D sky130_fd_sc_hd__a21o_2
*CAP
1 *2886:A2 0
2 *2873:X 0.000146159
3 *326:8 0.000146159
4 *326:8 *2886:A3 0.000192681
5 *326:8 *505:14 7.03317e-05
6 *2884:A2 *326:8 0.000169683
*RES
1 *2873:X *326:8 43.075 
2 *326:8 *2886:A2 38 
*END

*D_NET *327 0.00134299
*CONN
*I *2881:C1 I *D sky130_fd_sc_hd__a211oi_2
*I *2874:X O *D sky130_fd_sc_hd__o21a_2
*CAP
1 *2881:C1 0
2 *2874:X 0.000308524
3 *327:10 0.000308524
4 *327:10 *2877:A 0.000166513
5 *327:10 *329:8 3.70187e-05
6 *327:10 *330:8 0.000168744
7 *327:10 *491:32 5.93877e-05
8 *327:10 *493:10 0
9 *315:14 *327:10 0.000131087
10 *315:20 *327:10 0.000139647
11 *317:55 *327:10 2.35393e-05
12 *324:25 *327:10 0
*RES
1 *2874:X *327:10 46.1614 
2 *327:10 *2881:C1 38 
*END

*D_NET *328 0.00138556
*CONN
*I *2882:B1 I *D sky130_fd_sc_hd__a21oi_4
*I *2875:Y O *D sky130_fd_sc_hd__o21ai_2
*CAP
1 *2882:B1 0
2 *2875:Y 0.000374403
3 *328:10 0.000374403
4 *328:10 *2862:B1_N 1.47563e-05
5 *328:10 *2863:B1_N 8.76088e-05
6 *328:10 *462:10 0.000160737
7 *328:10 *507:12 0.000348005
8 *2875:A1 *328:10 1.94693e-05
9 *2875:A2 *328:10 6.17437e-06
*RES
1 *2875:Y *328:10 48.5229 
2 *328:10 *2882:B1 38 
*END

*D_NET *329 0.00155336
*CONN
*I *2881:A2 I *D sky130_fd_sc_hd__a211oi_2
*I *2877:A I *D sky130_fd_sc_hd__nand2_2
*I *2876:X O *D sky130_fd_sc_hd__and3_2
*CAP
1 *2881:A2 0.000240595
2 *2877:A 6.00217e-05
3 *2876:X 6.79308e-05
4 *329:8 0.000368548
5 *2881:A2 *2881:B1 9.67842e-05
6 *2881:A2 *334:10 3.7122e-06
7 *329:8 *334:10 5.56306e-05
8 *2881:A1 *2881:A2 5.67058e-05
9 *3222:A *2881:A2 3.58091e-05
10 *315:14 *329:8 1.02387e-05
11 *316:10 *329:8 0
12 *317:55 *2877:A 0.000166513
13 *317:55 *329:8 0.000187335
14 *327:10 *2877:A 0.000166513
15 *327:10 *329:8 3.70187e-05
*RES
1 *2876:X *329:8 40.61 
2 *329:8 *2877:A 40.2579 
3 *329:8 *2881:A2 41.9771 
*END

*D_NET *330 0.000658721
*CONN
*I *2882:A2 I *D sky130_fd_sc_hd__a21oi_4
*I *2877:Y O *D sky130_fd_sc_hd__nand2_2
*CAP
1 *2882:A2 7.53604e-05
2 *2877:Y 5.66322e-05
3 *330:8 0.000131993
4 *2882:A2 *334:10 6.17437e-06
5 *315:8 *2882:A2 5.3304e-05
6 *315:14 *330:8 0.000166513
7 *327:10 *330:8 0.000168744
*RES
1 *2877:Y *330:8 40.2579 
2 *330:8 *2882:A2 39.0979 
*END

*D_NET *331 0.00182179
*CONN
*I *2886:A3 I *D sky130_fd_sc_hd__a31oi_2
*I *2878:Y O *D sky130_fd_sc_hd__o211ai_2
*CAP
1 *2886:A3 0.000188776
2 *2878:Y 0.000522711
3 *331:8 0.000711487
4 *2886:A3 *491:16 0
5 *2878:C1 *331:8 5.67058e-05
6 *315:20 *2886:A3 5.61311e-05
7 *324:14 *331:8 9.32948e-05
8 *326:8 *2886:A3 0.000192681
*RES
1 *2878:Y *331:8 46.7207 
2 *331:8 *2886:A3 43.075 
*END

*D_NET *332 0.000732578
*CONN
*I *2881:B1 I *D sky130_fd_sc_hd__a211oi_2
*I *2879:Y O *D sky130_fd_sc_hd__o21ai_2
*CAP
1 *2881:B1 5.13614e-05
2 *2879:Y 0.000150309
3 *332:8 0.00020167
4 *332:8 *2876:B 7.10099e-05
5 *332:8 *491:32 4.18463e-05
6 *332:8 *491:38 2.24608e-05
7 *2881:A2 *2881:B1 9.67842e-05
8 *296:58 *332:8 2.04774e-05
9 *296:64 *332:8 5.83025e-05
10 *317:12 *332:8 1.83564e-05
*RES
1 *2879:Y *332:8 41.6664 
2 *332:8 *2881:B1 39.0979 
*END

*D_NET *333 0.00247102
*CONN
*I *2882:A1 I *D sky130_fd_sc_hd__a21oi_4
*I *2880:X O *D sky130_fd_sc_hd__o31a_2
*CAP
1 *2882:A1 9.53581e-05
2 *2880:X 0.000779894
3 *333:8 0.000875252
4 *2882:A1 *507:12 0
5 *333:8 *2880:B1 0.000235975
6 *2866:A *333:8 1.22822e-05
7 *2877:B *333:8 2.18409e-05
8 *2879:A1 *333:8 8.41241e-05
9 *2880:A2 *333:8 0.000139352
10 *2880:A3 *333:8 0.000143655
11 *316:10 *2882:A1 4.3407e-05
12 *317:6 *333:8 3.98818e-05
*RES
1 *2880:X *333:8 49.1029 
2 *333:8 *2882:A1 39.9057 
*END

*D_NET *334 0.000515965
*CONN
*I *2883:A I *D sky130_fd_sc_hd__nor2_4
*I *2881:Y O *D sky130_fd_sc_hd__a211oi_2
*CAP
1 *2883:A 0
2 *2881:Y 0.000159916
3 *334:10 0.000159916
4 *2881:A2 *334:10 3.7122e-06
5 *2882:A2 *334:10 6.17437e-06
6 *316:10 *334:10 9.98995e-05
7 *317:55 *334:10 3.07161e-05
8 *329:8 *334:10 5.56306e-05
*RES
1 *2881:Y *334:10 41.7079 
2 *334:10 *2883:A 38 
*END

*D_NET *335 0.000688944
*CONN
*I *2883:B I *D sky130_fd_sc_hd__nor2_4
*I *2882:Y O *D sky130_fd_sc_hd__a21oi_4
*CAP
1 *2883:B 9.43977e-05
2 *2882:Y 7.24463e-05
3 *335:8 0.000166844
4 *335:8 *2862:B1_N 5.86165e-05
5 *335:8 *462:10 0
6 *335:8 *507:12 0.00019747
7 *316:10 *2883:B 9.91701e-05
*RES
1 *2882:Y *335:8 40.61 
2 *335:8 *2883:B 40.0507 
*END

*D_NET *336 0.000615807
*CONN
*I *2885:B I *D sky130_fd_sc_hd__nor4_4
*I *2884:Y O *D sky130_fd_sc_hd__o2111ai_4
*CAP
1 *2885:B 0
2 *2884:Y 0.000307904
3 *336:10 0.000307904
4 *296:49 *336:10 0
*RES
1 *2884:Y *336:10 42.3086 
2 *336:10 *2885:B 38 
*END

*D_NET *337 0.00613378
*CONN
*I *2889:B I *D sky130_fd_sc_hd__nand2_2
*I *2888:B I *D sky130_fd_sc_hd__and2_2
*I *2887:A1 I *D sky130_fd_sc_hd__a21oi_2
*I *2885:Y O *D sky130_fd_sc_hd__nor4_4
*CAP
1 *2889:B 3.09382e-05
2 *2888:B 0.00020526
3 *2887:A1 0
4 *2885:Y 0.000452158
5 *337:23 0.0021129
6 *337:12 0.00011042
7 *337:6 0.00243928
8 *337:6 *491:16 6.71074e-05
9 *337:12 *338:10 0
10 *337:12 *488:10 1.01436e-05
11 *337:23 *338:10 0.000139352
12 *337:23 *339:12 0.000111852
13 *337:23 *491:16 4.79612e-05
14 *337:23 *548:12 3.98859e-05
15 *2886:B1 *337:23 0.000158828
16 *254:20 *2889:B 2.93845e-05
17 *290:16 *2888:B 2.4754e-05
18 *290:31 *2888:B 0.000148921
19 *290:31 *337:23 4.6318e-06
*RES
1 *2885:Y *337:6 29.3386 
2 *337:6 *337:12 31.9057 
3 *337:12 *2887:A1 23 
4 *337:6 *337:23 42.1357 
5 *337:23 *2888:B 42.1843 
6 *337:23 *2889:B 38.6214 
*END

*D_NET *338 0.000647709
*CONN
*I *2887:B1 I *D sky130_fd_sc_hd__a21oi_2
*I *2886:Y O *D sky130_fd_sc_hd__a31oi_2
*CAP
1 *2887:B1 0
2 *2886:Y 0.000170647
3 *338:10 0.000170647
4 *338:10 *491:16 3.7122e-06
5 *338:10 *505:14 0.000163352
6 *337:12 *338:10 0
7 *337:23 *338:10 0.000139352
*RES
1 *2886:Y *338:10 41.8321 
2 *338:10 *2887:B1 38 
*END

*D_NET *339 0.0038835
*CONN
*I *3234:A I *D sky130_fd_sc_hd__buf_2
*I *3187:A I *D sky130_fd_sc_hd__buf_6
*I *2887:Y O *D sky130_fd_sc_hd__a21oi_2
*CAP
1 *3234:A 0.000170927
2 *3187:A 0
3 *2887:Y 0.00107549
4 *339:12 0.00010478
5 *339:6 0.0013512
6 *339:6 *2818:A 9.4223e-05
7 *339:6 *2818:B 0.000274078
8 *339:6 *462:32 0.000172924
9 *339:6 *548:12 0.000528019
10 *339:12 *490:8 0
11 *339:12 *548:12 0
12 *337:23 *339:12 0.000111852
*RES
1 *2887:Y *339:6 44.1079 
2 *339:6 *339:12 32.2579 
3 *339:12 *3187:A 23 
4 *339:6 *3234:A 26.0243 
*END

*D_NET *340 0.00313223
*CONN
*I *2890:C1 I *D sky130_fd_sc_hd__o221ai_2
*I *2888:X O *D sky130_fd_sc_hd__and2_2
*CAP
1 *2890:C1 0
2 *2888:X 0.000359065
3 *340:12 0.000501658
4 *340:8 0.000860723
5 *340:8 *2943:B 3.7122e-06
6 *340:8 *393:8 6.12551e-05
7 *340:12 *2944:C1 0.000227356
8 *340:12 *391:8 0.000285359
9 *340:12 *393:10 0
10 *2948:A2 *340:12 0.000219882
11 *252:35 *340:12 0.000199701
12 *253:12 *340:12 0.000413521
*RES
1 *2888:X *340:8 42.9093 
2 *340:8 *340:12 30.9914 
3 *340:12 *2890:C1 23 
*END

*D_NET *341 0.00129353
*CONN
*I *3238:A I *D sky130_fd_sc_hd__buf_2
*I *2943:A I *D sky130_fd_sc_hd__nor2_4
*I *2889:Y O *D sky130_fd_sc_hd__nand2_2
*CAP
1 *3238:A 0.000268069
2 *2943:A 0.000153989
3 *2889:Y 0.000126582
4 *341:8 0.000548639
5 *2943:A *342:10 0
6 *2943:A *393:10 1.83564e-05
7 *3238:A *342:10 0
8 *254:20 *341:8 0.000177899
9 *290:31 *2943:A 0
*RES
1 *2889:Y *341:8 41.48 
2 *341:8 *2943:A 40.61 
3 *341:8 *3238:A 42.8886 
*END

*D_NET *342 0.00628231
*CONN
*I *2912:A1 I *D sky130_fd_sc_hd__a21boi_2
*I *2899:A1 I *D sky130_fd_sc_hd__a21o_2
*I *2898:A1 I *D sky130_fd_sc_hd__a21oi_2
*I *2929:A1 I *D sky130_fd_sc_hd__a21oi_4
*I *2890:Y O *D sky130_fd_sc_hd__o221ai_2
*CAP
1 *2912:A1 0
2 *2899:A1 0.000314941
3 *2898:A1 4.43732e-05
4 *2929:A1 0.000197694
5 *2890:Y 8.1786e-05
6 *342:48 0.000165091
7 *342:21 0.000459815
8 *342:10 0.00115857
9 *342:8 0.000777066
10 *2898:A1 *2898:A2 5.50049e-05
11 *2898:A1 *2911:A 0.000141954
12 *2899:A1 *2911:B 0
13 *2899:A1 *349:16 0
14 *2929:A1 *2929:A2 5.67058e-05
15 *342:10 *2944:C1 0.000624199
16 *342:10 *391:8 0.000629582
17 *342:10 *393:10 0
18 *342:10 *396:14 0.000204858
19 *342:10 *483:10 0.000169674
20 *342:10 *609:12 0
21 *342:21 *2898:A2 0
22 *342:21 *2900:B1 0
23 *342:21 *483:10 0.000169683
24 *342:21 *494:10 7.03766e-05
25 *342:21 *609:10 0
26 *342:21 *609:47 0
27 *342:48 *2899:A2 0.000401899
28 *342:48 *2912:A2 5.50106e-05
29 *2943:A *342:10 0
30 *3238:A *342:10 0
31 *245:25 *342:8 1.32314e-05
32 *245:31 *342:10 0.000169683
33 *252:35 *342:8 2.64616e-05
34 *254:12 *342:10 0.000294652
*RES
1 *2890:Y *342:8 39.0979 
2 *342:8 *342:10 22.33 
3 *342:10 *2929:A1 41.48 
4 *342:10 *342:21 5.77929 
5 *342:21 *2898:A1 39.5743 
6 *342:21 *2899:A1 40.5271 
7 *2899:A1 *342:48 27.9093 
8 *342:48 *2912:A1 23 
*END

*D_NET *343 0.00113562
*CONN
*I *2896:A1 I *D sky130_fd_sc_hd__o21bai_2
*I *2894:A_N I *D sky130_fd_sc_hd__and3b_2
*I *2895:A_N I *D sky130_fd_sc_hd__nand3b_2
*I *2891:Y O *D sky130_fd_sc_hd__nor2_2
*CAP
1 *2896:A1 0
2 *2894:A_N 0.000134948
3 *2895:A_N 0
4 *2891:Y 4.22598e-05
5 *343:10 0.000212046
6 *343:6 0.000119357
7 *2894:A_N *344:10 0.000182423
8 *2894:A_N *509:18 4.07715e-05
9 *2894:A_N *554:14 4.21594e-06
10 *2894:A_N *554:16 8.1606e-05
11 *343:6 *474:40 5.41288e-05
12 *343:10 *2891:B 6.53342e-05
13 *343:10 *344:10 0.000194318
14 *343:10 *554:16 4.21594e-06
*RES
1 *2891:Y *343:6 24.0979 
2 *343:6 *343:10 17.61 
3 *343:10 *2895:A_N 38 
4 *343:10 *2894:A_N 41.9357 
5 *343:6 *2896:A1 23 
*END

*D_NET *344 0.00116097
*CONN
*I *2896:A2 I *D sky130_fd_sc_hd__o21bai_2
*I *2892:X O *D sky130_fd_sc_hd__and2_2
*CAP
1 *2896:A2 0
2 *2892:X 0.00021631
3 *344:10 0.00021631
4 *344:10 *2896:B1_N 0.00019654
5 *344:10 *509:18 0.000155068
6 *2894:A_N *344:10 0.000182423
7 *343:10 *344:10 0.000194318
*RES
1 *2892:X *344:10 43.8207 
2 *344:10 *2896:A2 38 
*END

*D_NET *345 0.000879456
*CONN
*I *2894:B I *D sky130_fd_sc_hd__and3b_2
*I *2895:B I *D sky130_fd_sc_hd__nand3b_2
*I *2893:Y O *D sky130_fd_sc_hd__nand2_2
*CAP
1 *2894:B 0
2 *2895:B 2.00578e-05
3 *2893:Y 0.000235502
4 *345:23 0.000126024
5 *345:8 0.000381583
6 *345:23 *346:8 7.03869e-05
7 *345:23 *509:18 4.59027e-05
*RES
1 *2893:Y *345:8 26.5007 
2 *345:8 *2895:B 23.4971 
3 *345:8 *345:23 33.0036 
4 *345:23 *2894:B 23 
*END

*D_NET *346 0.00131182
*CONN
*I *2909:A1 I *D sky130_fd_sc_hd__o21ai_2
*I *2894:X O *D sky130_fd_sc_hd__and3b_2
*CAP
1 *2909:A1 4.44052e-05
2 *2894:X 0.000249287
3 *346:8 0.000293692
4 *2909:A1 *349:10 5.70419e-05
5 *346:8 *2896:B1_N 0
6 *346:8 *2897:A 0.00019747
7 *346:8 *347:10 0.000188926
8 *346:8 *359:8 8.06039e-05
9 *346:8 *509:18 0
10 *346:8 *591:14 0.000130011
11 *345:23 *346:8 7.03869e-05
*RES
1 *2894:X *346:8 45.54 
2 *346:8 *2909:A1 39.0979 
*END

*D_NET *347 0.00275805
*CONN
*I *2913:A1 I *D sky130_fd_sc_hd__a21oi_2
*I *2908:C I *D sky130_fd_sc_hd__nand3b_2
*I *2897:A I *D sky130_fd_sc_hd__nand2_2
*I *2895:Y O *D sky130_fd_sc_hd__nand3b_2
*CAP
1 *2913:A1 0.000536917
2 *2908:C 0.000237516
3 *2897:A 7.54439e-05
4 *2895:Y 0
5 *347:10 0.000481147
6 *347:4 0.000705104
7 *2897:A *348:8 7.90939e-05
8 *2897:A *591:14 0
9 *2908:C *2896:B1_N 5.3304e-05
10 *2908:C *474:40 0.00010725
11 *2913:A1 *2910:A 9.5877e-05
12 *347:10 *2896:B1_N 0
13 *347:10 *548:12 0
14 *346:8 *2897:A 0.00019747
15 *346:8 *347:10 0.000188926
*RES
1 *2895:Y *347:4 23 
2 *347:4 *347:10 18.2314 
3 *347:10 *2897:A 40.9621 
4 *347:10 *2908:C 42.4536 
5 *347:4 *2913:A1 31.7414 
*END

*D_NET *348 0.000310267
*CONN
*I *2897:B I *D sky130_fd_sc_hd__nand2_2
*I *2896:Y O *D sky130_fd_sc_hd__o21bai_2
*CAP
1 *2897:B 0
2 *2896:Y 0.000115586
3 *348:8 0.000115586
4 *348:8 *548:12 0
5 *2897:A *348:8 7.90939e-05
*RES
1 *2896:Y *348:8 40.9621 
2 *348:8 *2897:B 38 
*END

*D_NET *349 0.00348521
*CONN
*I *2928:A I *D sky130_fd_sc_hd__or3b_4
*I *2899:B1 I *D sky130_fd_sc_hd__a21o_2
*I *2911:A I *D sky130_fd_sc_hd__nor2_4
*I *2898:B1 I *D sky130_fd_sc_hd__a21oi_2
*I *2900:B1 I *D sky130_fd_sc_hd__o211ai_2
*I *2897:Y O *D sky130_fd_sc_hd__nand2_2
*CAP
1 *2928:A 0.000338303
2 *2899:B1 0
3 *2911:A 0.000182946
4 *2898:B1 8.89473e-05
5 *2900:B1 0.000222215
6 *2897:Y 0.00034405
7 *349:29 0.000271894
8 *349:16 0.000383618
9 *349:12 0.000281594
10 *349:10 0.000802543
11 *2900:B1 *352:10 0
12 *2900:B1 *494:10 4.6318e-06
13 *2900:B1 *609:8 5.50049e-05
14 *2911:A *2898:A2 4.79641e-05
15 *349:10 *351:20 9.3813e-05
16 *349:12 *350:8 2.29895e-05
17 *349:12 *351:20 7.28526e-05
18 *349:16 *350:8 7.28526e-05
19 *349:16 *352:10 0
20 *2898:A1 *2911:A 0.000141954
21 *2899:A1 *349:16 0
22 *2909:A1 *349:10 5.70419e-05
23 *342:21 *2900:B1 0
*RES
1 *2897:Y *349:10 44.09 
2 *349:10 *349:12 2.96214 
3 *349:12 *349:16 3.23143 
4 *349:16 *2900:B1 41.9357 
5 *349:16 *349:29 15 
6 *349:29 *2898:B1 24.5743 
7 *349:29 *2911:A 26.9979 
8 *349:12 *2899:B1 38 
9 *349:10 *2928:A 43.8621 
*END

*D_NET *350 0.00125671
*CONN
*I *2909:A2 I *D sky130_fd_sc_hd__o21ai_2
*I *2898:Y O *D sky130_fd_sc_hd__a21oi_2
*CAP
1 *2909:A2 0
2 *2898:Y 0.000224542
3 *350:8 0.000224542
4 *350:8 *351:20 0.00035701
5 *350:8 *352:10 0
6 *350:8 *591:14 0.000354778
7 *349:12 *350:8 2.29895e-05
8 *349:16 *350:8 7.28526e-05
*RES
1 *2898:Y *350:8 45.54 
2 *350:8 *2909:A2 38 
*END

*D_NET *351 0.00148397
*CONN
*I *2908:B I *D sky130_fd_sc_hd__nand3b_2
*I *2901:A I *D sky130_fd_sc_hd__and2_2
*I *2899:X O *D sky130_fd_sc_hd__a21o_2
*CAP
1 *2908:B 0
2 *2901:A 0.000117716
3 *2899:X 0.00033604
4 *351:20 0.000218324
5 *2901:A *591:8 8.1796e-05
6 *351:20 *360:8 8.41115e-05
7 *351:20 *591:14 0.000122304
8 *349:10 *351:20 9.3813e-05
9 *349:12 *351:20 7.28526e-05
10 *350:8 *351:20 0.00035701
*RES
1 *2899:X *2901:A 48.5271 
2 *2899:X *351:20 45.8921 
3 *351:20 *2908:B 38 
*END

*D_NET *352 0.000952413
*CONN
*I *2901:B I *D sky130_fd_sc_hd__and2_2
*I *2900:Y O *D sky130_fd_sc_hd__o211ai_2
*CAP
1 *2901:B 3.43162e-05
2 *2900:Y 0.000378881
3 *352:10 0.000413197
4 *2901:B *591:8 1.94693e-05
5 *352:10 *548:12 0
6 *352:10 *609:8 0.00010655
7 *2900:B1 *352:10 0
8 *349:16 *352:10 0
9 *350:8 *352:10 0
*RES
1 *2900:Y *352:10 44.7736 
2 *352:10 *2901:B 38.6214 
*END

*D_NET *353 0.000682543
*CONN
*I *2904:A1 I *D sky130_fd_sc_hd__o21ba_2
*I *2902:Y O *D sky130_fd_sc_hd__nor2_2
*CAP
1 *2904:A1 0
2 *2902:Y 0.000233204
3 *353:6 0.000233204
4 *353:6 *2902:B 5.50049e-05
5 *353:6 *354:18 5.50049e-05
6 *353:6 *556:20 4.94192e-05
7 *50:9 *353:6 5.67058e-05
*RES
1 *2902:Y *353:6 27.9093 
2 *353:6 *2904:A1 23 
*END

*D_NET *354 0.00075558
*CONN
*I *2907:A1 I *D sky130_fd_sc_hd__o21bai_2
*I *2904:A2 I *D sky130_fd_sc_hd__o21ba_2
*I *2903:X O *D sky130_fd_sc_hd__and2_4
*CAP
1 *2907:A1 0
2 *2904:A2 0
3 *2903:X 6.37307e-05
4 *354:18 0.000250021
5 *354:6 0.000313752
6 *354:18 *2906:B1 4.21594e-06
7 *354:18 *356:8 6.88552e-05
8 *354:18 *556:22 0
9 *353:6 *354:18 5.50049e-05
*RES
1 *2903:X *354:6 24.0979 
2 *354:6 *354:18 35.1786 
3 *354:18 *2904:A2 23 
4 *354:6 *2907:A1 23 
*END

*D_NET *355 0.000640117
*CONN
*I *2907:B1_N I *D sky130_fd_sc_hd__o21bai_2
*I *2913:B1 I *D sky130_fd_sc_hd__a21oi_2
*I *2904:X O *D sky130_fd_sc_hd__o21ba_2
*CAP
1 *2907:B1_N 0
2 *2913:B1 1.91513e-05
3 *2904:X 0.00014062
4 *355:12 4.21628e-05
5 *355:8 0.000163631
6 *2913:B1 *358:10 5.67058e-05
7 *355:8 *2906:B1 2.76611e-06
8 *355:8 *356:8 0.000104569
9 *355:8 *357:10 0
10 *355:8 *513:12 6.70363e-05
11 *355:12 *358:10 4.34745e-05
*RES
1 *2904:X *355:8 42.0186 
2 *355:8 *355:12 15.6214 
3 *355:12 *2913:B1 23.6214 
4 *355:12 *2907:B1_N 23 
*END

*D_NET *356 0.00130989
*CONN
*I *2907:A2 I *D sky130_fd_sc_hd__o21bai_2
*I *2906:B1 I *D sky130_fd_sc_hd__a21o_2
*I *2905:Y O *D sky130_fd_sc_hd__o21ai_2
*CAP
1 *2907:A2 0
2 *2906:B1 0.000210412
3 *2905:Y 0.000276916
4 *356:8 0.000487327
5 *2906:B1 *2906:A2 0
6 *2906:B1 *358:10 0
7 *2906:B1 *363:8 0
8 *2906:B1 *474:40 3.22879e-05
9 *356:8 *513:12 0
10 *356:8 *556:22 0
11 *18:9 *356:8 6.38845e-05
12 *50:9 *356:8 5.86535e-05
13 *354:18 *2906:B1 4.21594e-06
14 *354:18 *356:8 6.88552e-05
15 *355:8 *2906:B1 2.76611e-06
16 *355:8 *356:8 0.000104569
*RES
1 *2905:Y *356:8 44.4836 
2 *356:8 *2906:B1 41.8529 
3 *356:8 *2907:A2 38 
*END

*D_NET *357 0.000951344
*CONN
*I *2913:A2 I *D sky130_fd_sc_hd__a21oi_2
*I *2906:X O *D sky130_fd_sc_hd__a21o_2
*CAP
1 *2913:A2 0
2 *2906:X 0.000229426
3 *357:10 0.000229426
4 *357:10 *2908:A_N 0.000141954
5 *357:10 *358:10 3.98859e-05
6 *357:10 *360:8 0
7 *357:10 *474:40 0.000310653
8 *355:8 *357:10 0
*RES
1 *2906:X *357:10 43.7379 
2 *357:10 *2913:A2 38 
*END

*D_NET *358 0.00337333
*CONN
*I *2908:A_N I *D sky130_fd_sc_hd__nand3b_2
*I *2909:B1 I *D sky130_fd_sc_hd__o21ai_2
*I *2928:B I *D sky130_fd_sc_hd__or3b_4
*I *2911:B I *D sky130_fd_sc_hd__nor2_4
*I *2907:Y O *D sky130_fd_sc_hd__o21bai_2
*CAP
1 *2908:A_N 0.000152904
2 *2909:B1 0.000273272
3 *2928:B 0
4 *2911:B 0.000310239
5 *2907:Y 0.000310416
6 *358:14 0.000451893
7 *358:12 0.000555016
8 *358:10 0.000603411
9 *2908:A_N *474:40 0.000148524
10 *2911:B *2912:A2 2.24973e-05
11 *2911:B *377:10 0
12 *2911:B *609:62 8.51329e-05
13 *358:10 *363:8 6.33614e-05
14 *358:12 *363:8 0.000114645
15 *358:12 *363:18 0
16 *358:14 *363:18 0
17 *2899:A1 *2911:B 0
18 *2906:B1 *358:10 0
19 *2913:B1 *358:10 5.67058e-05
20 *355:12 *358:10 4.34745e-05
21 *357:10 *2908:A_N 0.000141954
22 *357:10 *358:10 3.98859e-05
*RES
1 *2907:Y *358:10 43.7379 
2 *358:10 *358:12 3.31429 
3 *358:12 *358:14 2.61 
4 *358:14 *2911:B 43.7793 
5 *358:14 *2928:B 38 
6 *358:12 *2909:B1 42.9093 
7 *358:10 *2908:A_N 42.4329 
*END

*D_NET *359 0.000604408
*CONN
*I *2910:A I *D sky130_fd_sc_hd__nand2_2
*I *2908:Y O *D sky130_fd_sc_hd__nand3b_2
*CAP
1 *2910:A 5.60432e-05
2 *2908:Y 7.62442e-05
3 *359:8 0.000132287
4 *359:8 *591:14 0.000163352
5 *2913:A1 *2910:A 9.5877e-05
6 *346:8 *359:8 8.06039e-05
*RES
1 *2908:Y *359:8 40.2579 
2 *359:8 *2910:A 39.0979 
*END

*D_NET *360 0.00064947
*CONN
*I *2910:B I *D sky130_fd_sc_hd__nand2_2
*I *2909:Y O *D sky130_fd_sc_hd__o21ai_2
*CAP
1 *2910:B 0
2 *2909:Y 0.000282679
3 *360:8 0.000282679
4 *360:8 *591:14 0
5 *351:20 *360:8 8.41115e-05
6 *357:10 *360:8 0
*RES
1 *2909:Y *360:8 42.7229 
2 *360:8 *2910:B 38 
*END

*D_NET *361 0.00140055
*CONN
*I *2912:B1_N I *D sky130_fd_sc_hd__a21boi_2
*I *2941:A I *D sky130_fd_sc_hd__nand3_4
*I *2911:Y O *D sky130_fd_sc_hd__nor2_4
*CAP
1 *2912:B1_N 0.000153972
2 *2941:A 8.00243e-05
3 *2911:Y 7.70667e-05
4 *361:8 0.000311063
5 *2912:B1_N *2912:A2 4.6318e-06
6 *2912:B1_N *362:8 0.000139352
7 *2912:B1_N *377:10 0.000195248
8 *2912:B1_N *609:62 9.27917e-05
9 *2941:A *377:10 0.000225265
10 *2941:A *609:10 1.83564e-05
11 *2941:A *609:47 9.17992e-05
12 *2941:A *609:62 1.09783e-05
*RES
1 *2911:Y *361:8 39.0979 
2 *361:8 *2941:A 40.9621 
3 *361:8 *2912:B1_N 42.1843 
*END

*D_NET *362 0.00110551
*CONN
*I *2921:A_N I *D sky130_fd_sc_hd__nand3b_2
*I *2920:A1 I *D sky130_fd_sc_hd__o21bai_2
*I *2912:Y O *D sky130_fd_sc_hd__a21boi_2
*CAP
1 *2921:A_N 0
2 *2920:A1 0
3 *2912:Y 0.000210725
4 *362:14 0.000114354
5 *362:8 0.000325079
6 *362:8 *2921:C 9.84851e-05
7 *362:14 *364:10 2.8241e-05
8 *362:14 *369:19 0.000108672
9 *362:14 *371:10 8.06039e-05
10 *2912:B1_N *362:8 0.000139352
*RES
1 *2912:Y *362:8 27.4536 
2 *362:8 *362:14 33.3143 
3 *362:14 *2920:A1 23 
4 *362:8 *2921:A_N 23 
*END

*D_NET *363 0.00276984
*CONN
*I *2930:A1 I *D sky130_fd_sc_hd__a21boi_2
*I *2920:A2 I *D sky130_fd_sc_hd__o21bai_2
*I *2914:A I *D sky130_fd_sc_hd__inv_2
*I *2913:Y O *D sky130_fd_sc_hd__a21oi_2
*CAP
1 *2930:A1 0.000326363
2 *2920:A2 0.000121996
3 *2914:A 8.30695e-05
4 *2913:Y 0.000216703
5 *363:18 0.000359046
6 *363:12 0.000706658
7 *363:8 0.000443018
8 *2914:A *2928:C_N 5.41288e-05
9 *2914:A *369:8 6.17437e-06
10 *2920:A2 *2920:B1_N 0
11 *2920:A2 *369:8 9.0102e-05
12 *2930:A1 *2930:A2 5.67058e-05
13 *2930:A1 *379:8 2.93845e-05
14 *2930:A1 *593:8 9.84794e-05
15 *363:18 *371:10 0
16 *363:18 *593:14 0
17 *2906:B1 *363:8 0
18 *358:10 *363:8 6.33614e-05
19 *358:12 *363:8 0.000114645
20 *358:12 *363:18 0
21 *358:14 *363:18 0
*RES
1 *2913:Y *363:8 42.7229 
2 *363:8 *363:12 18.9564 
3 *363:12 *363:18 32.61 
4 *363:18 *2914:A 24.595 
5 *363:18 *2920:A2 25.5479 
6 *363:12 *2930:A1 29.5043 
*END

*D_NET *364 0.000916803
*CONN
*I *2921:B I *D sky130_fd_sc_hd__nand3b_2
*I *2914:Y O *D sky130_fd_sc_hd__inv_2
*CAP
1 *2921:B 0
2 *2914:Y 0.000332375
3 *364:10 0.000332375
4 *364:10 *2928:C_N 2.93747e-05
5 *364:10 *369:8 0.000110389
6 *364:10 *371:10 8.4047e-05
7 *364:10 *379:10 0
8 *362:14 *364:10 2.8241e-05
*RES
1 *2914:Y *364:10 43.2614 
2 *364:10 *2921:B 38 
*END

*D_NET *365 0.000973959
*CONN
*I *2917:A I *D sky130_fd_sc_hd__or3b_4
*I *2918:A1 I *D sky130_fd_sc_hd__o21bai_2
*I *2915:Y O *D sky130_fd_sc_hd__nor2_2
*CAP
1 *2917:A 4.24211e-05
2 *2918:A1 0.000216144
3 *2915:Y 0.000115461
4 *365:8 0.000374026
5 *2918:A1 *2918:A2 9.74235e-05
6 *2918:A1 *2918:B1_N 0
7 *2918:A1 *367:8 5.80963e-05
8 *2918:A1 *517:10 0
9 *365:8 *2918:A2 4.6318e-06
10 *365:8 *366:8 6.57551e-05
11 *365:8 *517:10 0
*RES
1 *2915:Y *365:8 40.61 
2 *365:8 *2918:A1 42.6814 
3 *365:8 *2917:A 38.6214 
*END

*D_NET *366 0.000589896
*CONN
*I *2917:B I *D sky130_fd_sc_hd__or3b_4
*I *2918:A2 I *D sky130_fd_sc_hd__o21bai_2
*I *2916:X O *D sky130_fd_sc_hd__and2_2
*CAP
1 *2917:B 0
2 *2918:A2 0.000131896
3 *2916:X 7.91471e-05
4 *366:8 0.000211043
5 *2918:A2 *367:8 0
6 *2918:A1 *2918:A2 9.74235e-05
7 *365:8 *2918:A2 4.6318e-06
8 *365:8 *366:8 6.57551e-05
*RES
1 *2916:X *366:8 39.9057 
2 *366:8 *2918:A2 40.9621 
3 *366:8 *2917:B 38 
*END

*D_NET *367 0.00125032
*CONN
*I *2930:B1_N I *D sky130_fd_sc_hd__a21boi_2
*I *2919:A I *D sky130_fd_sc_hd__and2_2
*I *2917:X O *D sky130_fd_sc_hd__or3b_4
*CAP
1 *2930:B1_N 0
2 *2919:A 0.000168642
3 *2917:X 0.000167445
4 *367:8 0.000336087
5 *2919:A *2919:B 0.000251954
6 *2919:A *368:10 1.01436e-05
7 *2919:A *379:10 0
8 *367:8 *2918:B1_N 7.28526e-05
9 *367:8 *368:10 0.000185104
10 *367:8 *593:14 0
11 *2918:A1 *367:8 5.80963e-05
12 *2918:A2 *367:8 0
*RES
1 *2917:X *367:8 42.7229 
2 *367:8 *2919:A 42.06 
3 *367:8 *2930:B1_N 38 
*END

*D_NET *368 0.00154733
*CONN
*I *2930:A2 I *D sky130_fd_sc_hd__a21boi_2
*I *2919:B I *D sky130_fd_sc_hd__and2_2
*I *2918:Y O *D sky130_fd_sc_hd__o21bai_2
*CAP
1 *2930:A2 0.000158279
2 *2919:B 0.000217407
3 *2918:Y 0.000146025
4 *368:10 0.000521711
5 *2919:B *2920:B1_N 0
6 *2919:B *370:8 0
7 *2919:B *379:10 0
8 *2919:B *593:14 0
9 *368:10 *593:14 0
10 *2919:A *2919:B 0.000251954
11 *2919:A *368:10 1.01436e-05
12 *2930:A1 *2930:A2 5.67058e-05
13 *367:8 *368:10 0.000185104
*RES
1 *2918:Y *368:10 41.2314 
2 *368:10 *2919:B 42.6814 
3 *368:10 *2930:A2 41.0036 
*END

*D_NET *369 0.00239215
*CONN
*I *2920:B1_N I *D sky130_fd_sc_hd__o21bai_2
*I *2921:C I *D sky130_fd_sc_hd__nand3b_2
*I *2941:B I *D sky130_fd_sc_hd__nand3_4
*I *2928:C_N I *D sky130_fd_sc_hd__or3b_4
*I *2919:X O *D sky130_fd_sc_hd__and2_2
*CAP
1 *2920:B1_N 2.34823e-05
2 *2921:C 0.000102682
3 *2941:B 0.000285246
4 *2928:C_N 8.97744e-05
5 *2919:X 6.87434e-05
6 *369:19 0.000539611
7 *369:8 0.000467256
8 *369:6 0.000318023
9 *2941:B *376:26 0
10 *2941:B *377:10 0
11 *369:19 *377:10 0
12 *2914:A *2928:C_N 5.41288e-05
13 *2914:A *369:8 6.17437e-06
14 *2919:B *2920:B1_N 0
15 *2920:A2 *2920:B1_N 0
16 *2920:A2 *369:8 9.0102e-05
17 *362:8 *2921:C 9.84851e-05
18 *362:14 *369:19 0.000108672
19 *364:10 *2928:C_N 2.93747e-05
20 *364:10 *369:8 0.000110389
*RES
1 *2919:X *369:6 24.0979 
2 *369:6 *369:8 4.90929 
3 *369:8 *2928:C_N 25.0507 
4 *369:8 *369:19 18.3143 
5 *369:19 *2941:B 43.4271 
6 *369:19 *2921:C 40.0714 
7 *369:6 *2920:B1_N 23.4971 
*END

*D_NET *370 0.000254431
*CONN
*I *2922:A I *D sky130_fd_sc_hd__nand2_2
*I *2920:Y O *D sky130_fd_sc_hd__o21bai_2
*CAP
1 *2922:A 0
2 *2920:Y 9.19175e-05
3 *370:8 9.19175e-05
4 *370:8 *371:10 5.61414e-05
5 *370:8 *379:10 0
6 *370:8 *593:14 1.44546e-05
7 *2919:B *370:8 0
*RES
1 *2920:Y *370:8 40.2579 
2 *370:8 *2922:A 38 
*END

*D_NET *371 0.000772973
*CONN
*I *2922:B I *D sky130_fd_sc_hd__nand2_2
*I *2921:Y O *D sky130_fd_sc_hd__nand3b_2
*CAP
1 *2922:B 0
2 *2921:Y 0.00027609
3 *371:10 0.00027609
4 *371:10 *379:10 0
5 *362:14 *371:10 8.06039e-05
6 *363:18 *371:10 0
7 *364:10 *371:10 8.4047e-05
8 *370:8 *371:10 5.61414e-05
*RES
1 *2921:Y *371:10 43.3443 
2 *371:10 *2922:B 38 
*END

*D_NET *372 0.000809038
*CONN
*I *2925:A1 I *D sky130_fd_sc_hd__o21ba_2
*I *2926:A I *D sky130_fd_sc_hd__or3b_4
*I *2923:Y O *D sky130_fd_sc_hd__nor2_2
*CAP
1 *2925:A1 0
2 *2926:A 0.000163594
3 *2923:Y 0.000101885
4 *372:8 0.000265479
5 *2926:A *2923:A 4.99753e-06
6 *2926:A *2926:C_N 0
7 *2926:A *373:21 0.000182906
8 *2926:A *519:10 0
9 *2926:A *558:14 6.07611e-06
10 *372:8 *519:10 0
11 *372:8 *558:14 8.41012e-05
*RES
1 *2923:Y *372:8 40.2579 
2 *372:8 *2926:A 41.7286 
3 *372:8 *2925:A1 38 
*END

*D_NET *373 0.000915342
*CONN
*I *2926:B I *D sky130_fd_sc_hd__or3b_4
*I *2925:A2 I *D sky130_fd_sc_hd__o21ba_2
*I *2924:X O *D sky130_fd_sc_hd__and2_4
*CAP
1 *2926:B 0
2 *2925:A2 0.000131025
3 *2924:X 0
4 *373:21 0.000127018
5 *373:4 0.000258043
6 *373:21 *2923:A 1.88713e-05
7 *373:21 *2926:C_N 0
8 *373:21 *471:47 0.000197479
9 *2926:A *373:21 0.000182906
*RES
1 *2924:X *373:4 23 
2 *373:4 *2925:A2 25.0714 
3 *373:4 *373:21 33.5836 
4 *373:21 *2926:B 23 
*END

*D_NET *374 0.00159257
*CONN
*I *2927:A I *D sky130_fd_sc_hd__nor2b_4
*I *2942:A1 I *D sky130_fd_sc_hd__o21a_2
*I *2925:X O *D sky130_fd_sc_hd__o21ba_2
*CAP
1 *2927:A 0
2 *2942:A1 5.55574e-05
3 *2925:X 0.00061949
4 *374:12 5.55574e-05
5 *374:10 0.00061949
6 *2942:A1 *2942:B1 0.000185428
7 *2942:A1 *376:10 5.70419e-05
8 *374:10 *375:10 0
9 *374:10 *376:10 0
*RES
1 *2925:X *374:10 46.2443 
2 *374:10 *374:12 15 
3 *374:12 *2942:A1 25.0507 
4 *374:12 *2927:A 23 
*END

*D_NET *375 0.00203461
*CONN
*I *2942:B1 I *D sky130_fd_sc_hd__o21a_2
*I *2927:B_N I *D sky130_fd_sc_hd__nor2b_4
*I *2926:X O *D sky130_fd_sc_hd__or3b_4
*CAP
1 *2942:B1 0.000318626
2 *2927:B_N 0
3 *2926:X 0.000506195
4 *375:12 0.000318626
5 *375:10 0.000506195
6 *2942:B1 *2942:A2 0.000185434
7 *2942:B1 *376:10 1.41077e-05
8 *375:10 *2926:C_N 0
9 *375:10 *519:10 0
10 *2942:A1 *2942:B1 0.000185428
11 *374:10 *375:10 0
*RES
1 *2926:X *375:10 46.9071 
2 *375:10 *375:12 15 
3 *375:12 *2927:B_N 23 
4 *375:12 *2942:B1 30.3121 
*END

*D_NET *376 0.00184535
*CONN
*I *2933:B I *D sky130_fd_sc_hd__nand2_2
*I *2932:B1_N I *D sky130_fd_sc_hd__o21bai_2
*I *2941:C I *D sky130_fd_sc_hd__nand3_4
*I *2927:Y O *D sky130_fd_sc_hd__nor2b_4
*CAP
1 *2933:B 0
2 *2932:B1_N 0
3 *2941:C 0.000119391
4 *2927:Y 0.00030247
5 *376:26 0.000244533
6 *376:20 0.000316693
7 *376:10 0.000494021
8 *376:10 *2942:A2 0
9 *376:20 *2934:A2 0.000150778
10 *376:20 *378:10 4.99329e-05
11 *376:20 *594:10 0
12 *376:26 *2933:A 6.93449e-05
13 *376:26 *379:10 2.70366e-05
14 *2941:B *376:26 0
15 *2942:A1 *376:10 5.70419e-05
16 *2942:B1 *376:10 1.41077e-05
17 *374:10 *376:10 0
*RES
1 *2927:Y *376:10 42.8886 
2 *376:10 *376:20 19.6193 
3 *376:20 *376:26 32.61 
4 *376:26 *2941:C 25.0507 
5 *376:26 *2932:B1_N 23 
6 *376:20 *2933:B 23 
*END

*D_NET *377 0.00159053
*CONN
*I *2929:B1 I *D sky130_fd_sc_hd__a21oi_4
*I *2928:X O *D sky130_fd_sc_hd__or3b_4
*CAP
1 *2929:B1 0
2 *2928:X 0.000529709
3 *377:10 0.000529709
4 *377:10 *2912:A2 1.69668e-05
5 *377:10 *389:8 8.76088e-05
6 *377:10 *609:10 6.02277e-06
7 *2911:B *377:10 0
8 *2912:B1_N *377:10 0.000195248
9 *2941:A *377:10 0.000225265
10 *2941:B *377:10 0
11 *369:19 *377:10 0
*RES
1 *2928:X *377:10 49.6829 
2 *377:10 *2929:B1 38 
*END

*D_NET *378 0.00232856
*CONN
*I *2934:A1 I *D sky130_fd_sc_hd__o21ai_2
*I *2932:A1 I *D sky130_fd_sc_hd__o21bai_2
*I *2929:Y O *D sky130_fd_sc_hd__a21oi_4
*CAP
1 *2934:A1 4.29818e-05
2 *2932:A1 0
3 *2929:Y 0.000681022
4 *378:16 0.000117241
5 *378:10 0.000841245
6 *2934:A1 *2934:A2 4.34745e-05
7 *2934:A1 *380:10 0.00014196
8 *2934:A1 *594:10 4.95081e-05
9 *378:10 *2934:A2 0.000112463
10 *378:10 *2934:B1 5.50106e-05
11 *378:10 *380:10 5.50049e-05
12 *378:16 *380:10 0.000138718
13 *376:20 *378:10 4.99329e-05
*RES
1 *2929:Y *378:10 33.3157 
2 *378:10 *378:16 32.2579 
3 *378:16 *2932:A1 23 
4 *378:10 *2934:A1 25.0714 
*END

*D_NET *379 0.00342437
*CONN
*I *2931:A I *D sky130_fd_sc_hd__inv_2
*I *2942:A2 I *D sky130_fd_sc_hd__o21a_2
*I *2933:A I *D sky130_fd_sc_hd__nand2_2
*I *2930:Y O *D sky130_fd_sc_hd__a21boi_2
*CAP
1 *2931:A 0
2 *2942:A2 0.000250204
3 *2933:A 6.75742e-05
4 *2930:Y 4.55235e-05
5 *379:27 0.000761962
6 *379:10 0.00118689
7 *379:8 0.000653082
8 *2933:A *381:8 0.000110913
9 *379:10 *380:10 0
10 *379:10 *381:8 3.70187e-05
11 *2919:A *379:10 0
12 *2919:B *379:10 0
13 *2930:A1 *379:8 2.93845e-05
14 *2942:B1 *2942:A2 0.000185434
15 *364:10 *379:10 0
16 *370:8 *379:10 0
17 *371:10 *379:10 0
18 *376:10 *2942:A2 0
19 *376:26 *2933:A 6.93449e-05
20 *376:26 *379:10 2.70366e-05
*RES
1 *2930:Y *379:8 38.6214 
2 *379:8 *379:10 11.4136 
3 *379:10 *2933:A 39.9057 
4 *379:10 *379:27 36.3386 
5 *379:27 *2942:A2 42.6607 
6 *379:27 *2931:A 38 
*END

*D_NET *380 0.00096827
*CONN
*I *2932:A2 I *D sky130_fd_sc_hd__o21bai_2
*I *2931:Y O *D sky130_fd_sc_hd__inv_2
*CAP
1 *2932:A2 0
2 *2931:Y 0.000285295
3 *380:10 0.000285295
4 *380:10 *381:8 3.21327e-05
5 *380:10 *594:10 2.98648e-05
6 *2934:A1 *380:10 0.00014196
7 *378:10 *380:10 5.50049e-05
8 *378:16 *380:10 0.000138718
9 *379:10 *380:10 0
*RES
1 *2931:Y *380:10 42.9093 
2 *380:10 *2932:A2 38 
*END

*D_NET *381 0.000459623
*CONN
*I *2934:B1 I *D sky130_fd_sc_hd__o21ai_2
*I *2932:Y O *D sky130_fd_sc_hd__o21bai_2
*CAP
1 *2934:B1 1.24964e-05
2 *2932:Y 8.36337e-05
3 *381:8 9.61302e-05
4 *2934:B1 *2934:A2 3.22879e-05
5 *2933:A *381:8 0.000110913
6 *378:10 *2934:B1 5.50106e-05
7 *379:10 *381:8 3.70187e-05
8 *380:10 *381:8 3.21327e-05
*RES
1 *2932:Y *381:8 39.9057 
2 *381:8 *2934:B1 38.6214 
*END

*D_NET *382 0.000493106
*CONN
*I *2934:A2 I *D sky130_fd_sc_hd__o21ai_2
*I *2933:Y O *D sky130_fd_sc_hd__nand2_2
*CAP
1 *2934:A2 6.84348e-05
2 *2933:Y 6.84348e-05
3 *2934:A2 *594:10 1.72339e-05
4 *2934:A1 *2934:A2 4.34745e-05
5 *2934:B1 *2934:A2 3.22879e-05
6 *376:20 *2934:A2 0.000150778
7 *378:10 *2934:A2 0.000112463
*RES
1 *2933:Y *2934:A2 49.1693 
*END

*D_NET *383 0.00184161
*CONN
*I *2938:A I *D sky130_fd_sc_hd__nor3b_2
*I *2937:A1 I *D sky130_fd_sc_hd__o21bai_2
*I *2939:A I *D sky130_fd_sc_hd__or3b_2
*I *2935:Y O *D sky130_fd_sc_hd__nor2_2
*CAP
1 *2938:A 0.000125996
2 *2937:A1 0
3 *2939:A 7.375e-05
4 *2935:Y 0.000161165
5 *383:17 0.000247751
6 *383:6 0.000356671
7 *2938:A *2938:B 4.16764e-05
8 *2938:A *2939:B 2.11827e-05
9 *2938:A *520:22 0.000150273
10 *2939:A *2939:B 4.6595e-05
11 *2939:A *2939:C_N 0.000141052
12 *383:6 *2939:B 7.88926e-05
13 *383:6 *559:20 9.58714e-05
14 *383:17 *2939:B 5.61311e-05
15 *383:17 *2939:C_N 9.39056e-05
16 *383:17 *520:22 4.6318e-06
17 *383:17 *559:20 0
18 *3252:A *2939:A 0.000139352
19 *245:8 *383:17 6.7177e-06
20 *250:30 *383:17 0
*RES
1 *2935:Y *383:6 26.48 
2 *383:6 *2939:A 25.5271 
3 *383:6 *383:17 17.9621 
4 *383:17 *2937:A1 38 
5 *383:17 *2938:A 41.2314 
*END

*D_NET *384 0.00164721
*CONN
*I *2938:B I *D sky130_fd_sc_hd__nor3b_2
*I *2939:B I *D sky130_fd_sc_hd__or3b_2
*I *2937:A2 I *D sky130_fd_sc_hd__o21bai_2
*I *2936:X O *D sky130_fd_sc_hd__and2_2
*CAP
1 *2938:B 6.28339e-05
2 *2939:B 0.000339012
3 *2937:A2 0.000185234
4 *2936:X 0
5 *384:17 0.000401846
6 *384:4 0.000185234
7 *2938:B *386:8 3.92407e-05
8 *2939:B *2939:C_N 5.3304e-05
9 *2939:B *559:20 8.51329e-05
10 *2938:A *2938:B 4.16764e-05
11 *2938:A *2939:B 2.11827e-05
12 *2939:A *2939:B 4.6595e-05
13 *250:30 *2938:B 3.39231e-05
14 *250:30 *2939:B 1.69668e-05
15 *383:6 *2939:B 7.88926e-05
16 *383:17 *2939:B 5.61311e-05
*RES
1 *2936:X *384:4 23 
2 *384:4 *2937:A2 26.045 
3 *384:4 *384:17 15 
4 *384:17 *2939:B 43.9657 
5 *384:17 *2938:B 39.9057 
*END

*D_NET *385 0.00278869
*CONN
*I *2967:A I *D sky130_fd_sc_hd__and4_2
*I *2940:A I *D sky130_fd_sc_hd__nand2_2
*I *2950:A1 I *D sky130_fd_sc_hd__a21o_2
*I *2937:Y O *D sky130_fd_sc_hd__o21bai_2
*CAP
1 *2967:A 0
2 *2940:A 0
3 *2950:A1 0.000549995
4 *2937:Y 7.03628e-05
5 *385:37 7.99966e-05
6 *385:12 0.000542927
7 *385:8 0.000143292
8 *2950:A1 *387:18 0.00059695
9 *2950:A1 *404:8 1.89178e-05
10 *385:12 *404:8 7.59794e-05
11 *385:37 *2957:A 6.09235e-05
12 *385:37 *2957:B 5.67058e-05
13 *385:37 *387:18 5.67058e-05
14 *385:37 *387:22 8.65444e-05
15 *385:37 *395:27 0.00013389
16 *385:37 *404:8 9.32114e-05
17 *245:8 *385:8 0.000169674
18 *253:12 *385:8 5.26101e-05
*RES
1 *2937:Y *385:8 40.2579 
2 *385:8 *385:12 16.5743 
3 *385:12 *2950:A1 31.1407 
4 *385:12 *2940:A 23 
5 *2950:A1 *385:37 27.5986 
6 *385:37 *2967:A 23 
*END

*D_NET *386 0.000645092
*CONN
*I *2959:A1 I *D sky130_fd_sc_hd__o21ai_2
*I *2960:A1 I *D sky130_fd_sc_hd__o21ai_2
*I *2938:Y O *D sky130_fd_sc_hd__nor3b_2
*CAP
1 *2959:A1 7.34747e-05
2 *2960:A1 7.34747e-05
3 *2938:Y 0.00013014
4 *386:8 0.00013014
5 *2959:A1 *406:10 5.25848e-05
6 *2959:A1 *595:6 1.76557e-05
7 *386:8 *404:12 0
8 *386:8 *520:22 0
9 *2938:B *386:8 3.92407e-05
10 *245:8 *386:8 0
11 *250:30 *386:8 0.00012838
*RES
1 *2938:Y *386:8 41.3143 
2 *386:8 *2960:A1 38 
3 *2960:A1 *2959:A1 47.5743 
*END

*D_NET *387 0.00545514
*CONN
*I *2940:B I *D sky130_fd_sc_hd__nand2_2
*I *2950:A2 I *D sky130_fd_sc_hd__a21o_2
*I *2967:B I *D sky130_fd_sc_hd__and4_2
*I *2970:A2 I *D sky130_fd_sc_hd__o21a_2
*I *2978:A2 I *D sky130_fd_sc_hd__o211a_2
*I *2939:X O *D sky130_fd_sc_hd__or3b_2
*CAP
1 *2940:B 0
2 *2950:A2 0
3 *2967:B 0
4 *2970:A2 0
5 *2978:A2 6.14982e-05
6 *2939:X 0.000311177
7 *387:43 0.000121046
8 *387:28 0.000456819
9 *387:22 0.000545967
10 *387:18 0.000408808
11 *387:14 0.000137115
12 *387:12 0.000311177
13 *2978:A2 *395:27 1.57571e-05
14 *2978:A2 *401:34 3.7877e-05
15 *2978:A2 *413:10 9.58714e-05
16 *387:12 *2939:C_N 0.000100653
17 *387:18 *404:8 0.000225965
18 *387:22 *2957:A 0.000230604
19 *387:28 *2957:A 5.50106e-05
20 *387:28 *2957:B 2.02872e-05
21 *387:28 *401:34 0.000460587
22 *387:28 *413:10 0.000738165
23 *387:43 *401:42 0.000188916
24 *2950:A1 *387:18 0.00059695
25 *253:12 *387:12 0.000191639
26 *385:37 *387:18 5.67058e-05
27 *385:37 *387:22 8.65444e-05
*RES
1 *2939:X *387:12 44.5354 
2 *387:12 *387:14 15 
3 *387:14 *387:18 7.31214 
4 *387:18 *387:22 4.93 
5 *387:22 *387:28 10.7921 
6 *387:28 *2978:A2 24.595 
7 *387:28 *387:43 32.61 
8 *387:43 *2970:A2 23 
9 *387:22 *2967:B 23 
10 *387:18 *2950:A2 23 
11 *387:14 *2940:B 23 
*END

*D_NET *388 0.00144151
*CONN
*I *2949:B1 I *D sky130_fd_sc_hd__a21oi_2
*I *2958:A1 I *D sky130_fd_sc_hd__o21bai_2
*I *2940:Y O *D sky130_fd_sc_hd__nand2_2
*CAP
1 *2949:B1 0.000126852
2 *2958:A1 0
3 *2940:Y 0.000159072
4 *388:8 0.000285924
5 *2949:B1 *397:10 6.17437e-06
6 *245:8 *2949:B1 8.33365e-05
7 *245:8 *388:8 0.00013318
8 *253:12 *2949:B1 0.000240695
9 *253:12 *388:8 0.000406279
*RES
1 *2940:Y *388:8 43.4271 
2 *388:8 *2958:A1 38 
3 *388:8 *2949:B1 41.9357 
*END

*D_NET *389 0.00254215
*CONN
*I *2946:A1 I *D sky130_fd_sc_hd__o21ai_2
*I *2945:A1 I *D sky130_fd_sc_hd__o21a_4
*I *2943:B I *D sky130_fd_sc_hd__nor2_4
*I *2941:Y O *D sky130_fd_sc_hd__nand3_4
*CAP
1 *2946:A1 1.13283e-05
2 *2945:A1 0
3 *2943:B 0.000304263
4 *2941:Y 0.000274396
5 *389:10 0.000315591
6 *389:8 0.000274396
7 *2943:B *2945:A2 5.50049e-05
8 *2943:B *2945:B1 0.000101354
9 *2943:B *393:8 0.000141954
10 *2943:B *394:8 0.000272383
11 *2946:A1 *2945:B1 5.50106e-05
12 *2946:A1 *394:8 2.4754e-05
13 *389:8 *2946:A2 1.47754e-05
14 *389:8 *390:10 0
15 *389:8 *609:10 0.000197479
16 *389:8 *609:12 0.000408138
17 *340:8 *2943:B 3.7122e-06
18 *377:10 *389:8 8.76088e-05
*RES
1 *2941:Y *389:8 45.8921 
2 *389:8 *389:10 15 
3 *389:10 *2943:B 30.9543 
4 *389:10 *2945:A1 23 
5 *389:10 *2946:A1 23.6214 
*END

*D_NET *390 0.00202003
*CONN
*I *2946:B1 I *D sky130_fd_sc_hd__o21ai_2
*I *2945:B1 I *D sky130_fd_sc_hd__o21a_4
*I *2942:X O *D sky130_fd_sc_hd__o21a_2
*CAP
1 *2946:B1 0
2 *2945:B1 0.000325886
3 *2942:X 0.0005448
4 *390:12 0.000325886
5 *390:10 0.0005448
6 *2945:B1 *2945:A2 5.50049e-05
7 *2945:B1 *2946:A2 5.50106e-05
8 *2945:B1 *394:8 1.22822e-05
9 *2943:B *2945:B1 0.000101354
10 *2946:A1 *2945:B1 5.50106e-05
11 *389:8 *390:10 0
*RES
1 *2942:X *390:10 45.4157 
2 *390:10 *390:12 15 
3 *390:12 *2945:B1 29.3593 
4 *390:12 *2946:B1 23 
*END

*D_NET *391 0.0034709
*CONN
*I *2948:A3 I *D sky130_fd_sc_hd__a31oi_2
*I *2944:C1 I *D sky130_fd_sc_hd__o221ai_4
*I *2943:Y O *D sky130_fd_sc_hd__nor2_4
*CAP
1 *2948:A3 5.67811e-05
2 *2944:C1 0.000295675
3 *2943:Y 0.00019258
4 *391:8 0.000545036
5 *2944:C1 *396:14 4.99753e-06
6 *391:8 *393:10 0
7 *2948:A2 *2948:A3 5.50106e-05
8 *141:24 *2948:A3 2.18409e-05
9 *245:25 *2944:C1 0.000225265
10 *245:31 *2944:C1 1.37246e-05
11 *252:35 *2944:C1 0.000222123
12 *253:12 *2944:C1 7.13673e-05
13 *340:12 *2944:C1 0.000227356
14 *340:12 *391:8 0.000285359
15 *342:10 *2944:C1 0.000624199
16 *342:10 *391:8 0.000629582
*RES
1 *2943:Y *391:8 46.2443 
2 *391:8 *2944:C1 49.7657 
3 *391:8 *2948:A3 39.0979 
*END

*D_NET *392 0.00244146
*CONN
*I *2968:A1 I *D sky130_fd_sc_hd__a21boi_2
*I *2949:A1 I *D sky130_fd_sc_hd__a21oi_2
*I *2947:B I *D sky130_fd_sc_hd__nand2_4
*I *2944:Y O *D sky130_fd_sc_hd__o221ai_4
*CAP
1 *2968:A1 0
2 *2949:A1 0
3 *2947:B 0.000477047
4 *2944:Y 0.000205791
5 *392:39 0.000219373
6 *392:10 0.000463465
7 *2947:B *393:10 6.07611e-06
8 *2947:B *393:16 0.000432208
9 *2947:B *397:10 0.000197479
10 *392:10 *393:10 0.000111045
11 *392:39 *2947:A 4.00259e-06
12 *392:39 *2968:A2 0.00010655
13 *392:39 *393:16 7.42621e-05
14 *253:12 *2947:B 2.95125e-05
15 *253:12 *392:10 0.000114645
*RES
1 *2944:Y *392:10 43.0129 
2 *392:10 *2947:B 45.7471 
3 *392:10 *2949:A1 38 
4 *2947:B *392:39 27.9507 
5 *392:39 *2968:A1 23 
*END

*D_NET *393 0.00466995
*CONN
*I *2949:A2 I *D sky130_fd_sc_hd__a21oi_2
*I *2947:A I *D sky130_fd_sc_hd__nand2_4
*I *2968:A2 I *D sky130_fd_sc_hd__a21boi_2
*I *2945:X O *D sky130_fd_sc_hd__o21a_4
*CAP
1 *2949:A2 0
2 *2947:A 2.1727e-05
3 *2968:A2 7.48441e-05
4 *2945:X 0.0001987
5 *393:16 0.000464564
6 *393:10 0.00153435
7 *393:8 0.00136505
8 *393:16 *395:10 5.50106e-05
9 *2943:A *393:10 1.83564e-05
10 *2943:B *393:8 0.000141954
11 *2947:B *393:10 6.07611e-06
12 *2947:B *393:16 0.000432208
13 *2948:A2 *393:10 0
14 *253:12 *393:10 0
15 *290:31 *393:10 0
16 *340:8 *393:8 6.12551e-05
17 *340:12 *393:10 0
18 *342:10 *393:10 0
19 *391:8 *393:10 0
20 *392:10 *393:10 0.000111045
21 *392:39 *2947:A 4.00259e-06
22 *392:39 *2968:A2 0.00010655
23 *392:39 *393:16 7.42621e-05
*RES
1 *2945:X *393:8 41.9564 
2 *393:8 *393:10 23.0343 
3 *393:10 *393:16 24.3007 
4 *393:16 *2968:A2 25.0507 
5 *393:16 *2947:A 23.4971 
6 *393:10 *2949:A2 38 
*END

*D_NET *394 0.00163309
*CONN
*I *2948:B1 I *D sky130_fd_sc_hd__a31oi_2
*I *2946:Y O *D sky130_fd_sc_hd__o21ai_2
*CAP
1 *2948:B1 0.00030335
2 *2946:Y 0.00018749
3 *394:8 0.00049084
4 *394:8 *2946:A2 3.22879e-05
5 *2943:B *394:8 0.000272383
6 *2945:B1 *394:8 1.22822e-05
7 *2946:A1 *394:8 2.4754e-05
8 *254:12 *2948:B1 0.000309699
*RES
1 *2946:Y *394:8 42.4329 
2 *394:8 *2948:B1 45.8921 
*END

*D_NET *395 0.00784368
*CONN
*I *2973:A1 I *D sky130_fd_sc_hd__a21o_2
*I *2969:A I *D sky130_fd_sc_hd__nand2_2
*I *2975:A I *D sky130_fd_sc_hd__nand4_4
*I *2980:A1 I *D sky130_fd_sc_hd__a21boi_2
*I *2950:B1 I *D sky130_fd_sc_hd__a21o_2
*I *2947:Y O *D sky130_fd_sc_hd__nand2_4
*CAP
1 *2973:A1 0
2 *2969:A 0
3 *2975:A 0
4 *2980:A1 2.72632e-05
5 *2950:B1 6.98733e-05
6 *2947:Y 0.000350546
7 *395:54 0.000168279
8 *395:41 0.000257875
9 *395:39 0.000249436
10 *395:31 0.000262202
11 *395:27 0.000991335
12 *395:10 0.00133666
13 *2980:A1 *2979:A2 3.04516e-05
14 *2980:A1 *2980:A2 0.000143655
15 *2980:A1 *415:8 0.000185428
16 *395:10 *398:10 0
17 *395:27 *2957:B 6.51843e-05
18 *395:27 *2975:D 5.3304e-05
19 *395:27 *401:34 0.000921892
20 *395:27 *402:18 6.39489e-06
21 *395:27 *404:8 0.000228903
22 *395:27 *409:44 0.0010967
23 *395:27 *413:10 4.1372e-05
24 *395:27 *413:63 5.67058e-05
25 *395:27 *423:10 0.000419275
26 *395:31 *2975:D 5.01986e-05
27 *395:31 *413:20 1.14452e-05
28 *395:31 *416:29 0
29 *395:39 *2980:A2 4.7881e-05
30 *395:39 *413:20 0.000198594
31 *395:39 *416:29 0
32 *395:41 *2980:A2 0.00021477
33 *395:41 *415:8 0.00014196
34 *395:54 *409:23 0
35 *395:54 *412:18 1.14452e-05
36 *395:54 *416:29 0
37 *395:54 *423:22 0
38 *2978:A2 *395:27 1.57571e-05
39 *385:37 *395:27 0.00013389
40 *393:16 *395:10 5.50106e-05
*RES
1 *2947:Y *395:10 44.0486 
2 *395:10 *2950:B1 39.2014 
3 *395:10 *395:27 42.9436 
4 *395:27 *395:31 16.2014 
5 *395:31 *395:39 18.9771 
6 *395:39 *395:41 2.52714 
7 *395:41 *2980:A1 25.0507 
8 *395:41 *395:54 32.61 
9 *395:54 *2975:A 23 
10 *395:39 *2969:A 23 
11 *395:31 *2973:A1 38 
*END

*D_NET *396 0.00272223
*CONN
*I *2958:A2 I *D sky130_fd_sc_hd__o21bai_2
*I *2948:Y O *D sky130_fd_sc_hd__a31oi_2
*CAP
1 *2958:A2 0
2 *2948:Y 4.09526e-05
3 *396:14 0.000580865
4 *396:8 0.000621818
5 *396:14 *2958:B1_N 1.01436e-05
6 *396:14 *405:10 5.67058e-05
7 *396:14 *486:10 0
8 *2794:A1 *396:14 0
9 *2944:C1 *396:14 4.99753e-06
10 *140:22 *396:14 0
11 *141:12 *396:8 5.3304e-05
12 *245:8 *396:14 0.000126936
13 *245:25 *396:14 0.000210945
14 *245:31 *396:14 0.000197479
15 *250:30 *396:14 0
16 *252:14 *396:14 0.000227497
17 *254:12 *396:14 0.000385726
18 *342:10 *396:14 0.000204858
*RES
1 *2948:Y *396:8 38.6214 
2 *396:8 *396:14 32.7936 
3 *396:14 *2958:A2 23 
*END

*D_NET *397 0.00145088
*CONN
*I *2959:A2 I *D sky130_fd_sc_hd__o21ai_2
*I *2951:A_N I *D sky130_fd_sc_hd__and2b_4
*I *2949:Y O *D sky130_fd_sc_hd__a21oi_2
*CAP
1 *2959:A2 0.000115534
2 *2951:A_N 0
3 *2949:Y 0.0002417
4 *397:12 0.000115534
5 *397:10 0.0002417
6 *2959:A2 *595:6 0.000180218
7 *2947:B *397:10 0.000197479
8 *2949:B1 *397:10 6.17437e-06
9 *253:12 *397:10 0.000352538
*RES
1 *2949:Y *397:10 43.8207 
2 *397:10 *397:12 15 
3 *397:12 *2951:A_N 23 
4 *397:12 *2959:A2 25.5479 
*END

*D_NET *398 0.000785607
*CONN
*I *2951:B I *D sky130_fd_sc_hd__and2b_4
*I *2950:X O *D sky130_fd_sc_hd__a21o_2
*CAP
1 *2951:B 0
2 *2950:X 0.000277501
3 *398:10 0.000277501
4 *398:10 *404:8 0.000230604
5 *253:12 *398:10 0
6 *395:10 *398:10 0
*RES
1 *2950:X *398:10 42.785 
2 *398:10 *2951:B 38 
*END

*D_NET *399 0.00124016
*CONN
*I *2956:A1 I *D sky130_fd_sc_hd__o21bai_2
*I *2955:A1 I *D sky130_fd_sc_hd__o21ba_2
*I *2954:A I *D sky130_fd_sc_hd__or3b_2
*I *2952:Y O *D sky130_fd_sc_hd__nor2_2
*CAP
1 *2956:A1 0
2 *2955:A1 2.53514e-05
3 *2954:A 1.97948e-05
4 *2952:Y 8.88516e-05
5 *399:21 0.000175006
6 *399:8 0.000258301
7 *2954:A *2953:B 5.50049e-05
8 *2954:A *2954:B 1.94693e-05
9 *2955:A1 *2955:A2 0.000141954
10 *2955:A1 *2955:B1_N 0.000141954
11 *399:8 *2953:B 7.03766e-05
12 *399:8 *521:14 5.26101e-05
13 *399:21 *400:19 0.000164282
14 *399:21 *521:14 2.76611e-06
15 *399:21 *521:25 2.44393e-05
*RES
1 *2952:Y *399:8 40.2579 
2 *399:8 *2954:A 38.6214 
3 *399:8 *399:21 18.3143 
4 *399:21 *2955:A1 24.5743 
5 *399:21 *2956:A1 23 
*END

*D_NET *400 0.00176009
*CONN
*I *2955:A2 I *D sky130_fd_sc_hd__o21ba_2
*I *2956:A2 I *D sky130_fd_sc_hd__o21bai_2
*I *2954:B I *D sky130_fd_sc_hd__or3b_2
*I *2953:X O *D sky130_fd_sc_hd__and2_2
*CAP
1 *2955:A2 0.000162053
2 *2956:A2 0
3 *2954:B 8.54316e-05
4 *2953:X 0.000248296
5 *400:19 0.000239594
6 *400:6 0.000411268
7 *2954:B *2953:B 1.11986e-05
8 *2954:B *401:10 5.38131e-07
9 *2955:A2 *2955:B1_N 7.57021e-05
10 *2955:A2 *402:8 1.37232e-05
11 *400:6 *2953:B 1.32939e-05
12 *400:6 *401:10 9.16459e-05
13 *400:19 *521:25 8.16356e-05
14 *2954:A *2954:B 1.94693e-05
15 *2955:A1 *2955:A2 0.000141954
16 *399:21 *400:19 0.000164282
*RES
1 *2953:X *400:6 26.48 
2 *400:6 *2954:B 24.0979 
3 *400:6 *400:19 32.2579 
4 *400:19 *2956:A2 23 
5 *400:19 *2955:A2 26.9979 
*END

*D_NET *401 0.0043368
*CONN
*I *2978:B1 I *D sky130_fd_sc_hd__o211a_2
*I *2970:B1 I *D sky130_fd_sc_hd__o21a_2
*I *2957:A I *D sky130_fd_sc_hd__nand2_2
*I *2967:C I *D sky130_fd_sc_hd__and4_2
*I *2954:X O *D sky130_fd_sc_hd__or3b_2
*CAP
1 *2978:B1 0
2 *2970:B1 0
3 *2957:A 6.51256e-05
4 *2967:C 0
5 *2954:X 0.000301569
6 *401:42 0.00015424
7 *401:34 0.000399687
8 *401:12 6.51256e-05
9 *401:10 0.000547015
10 *2957:A *2957:B 0.000185434
11 *401:10 *2953:B 9.06304e-05
12 *401:10 *403:8 0.000140949
13 *401:10 *521:25 0.000105165
14 *401:34 *2957:B 5.3304e-05
15 *401:34 *403:8 2.55642e-05
16 *401:42 *2978:C1 6.07611e-06
17 *401:42 *402:18 0.000148921
18 *2954:B *401:10 5.38131e-07
19 *2978:A2 *401:34 3.7877e-05
20 *385:37 *2957:A 6.09235e-05
21 *387:22 *2957:A 0.000230604
22 *387:28 *2957:A 5.50106e-05
23 *387:28 *401:34 0.000460587
24 *387:43 *401:42 0.000188916
25 *395:27 *401:34 0.000921892
26 *400:6 *401:10 9.16459e-05
*RES
1 *2954:X *401:10 44.9911 
2 *401:10 *401:12 15 
3 *401:12 *2967:C 23 
4 *401:12 *2957:A 26.5007 
5 *401:10 *401:34 26.4964 
6 *401:34 *401:42 33.5836 
7 *401:42 *2970:B1 23 
8 *401:34 *2978:B1 23 
*END

*D_NET *402 0.00109876
*CONN
*I *2970:A1 I *D sky130_fd_sc_hd__o21a_2
*I *2978:A1 I *D sky130_fd_sc_hd__o211a_2
*I *2955:X O *D sky130_fd_sc_hd__o21ba_2
*CAP
1 *2970:A1 0
2 *2978:A1 0
3 *2955:X 0.000179696
4 *402:18 0.000253613
5 *402:8 0.000433309
6 *402:8 *2955:B1_N 5.67058e-05
7 *402:18 *413:10 6.39489e-06
8 *2955:A2 *402:8 1.37232e-05
9 *395:27 *402:18 6.39489e-06
10 *401:42 *402:18 0.000148921
*RES
1 *2955:X *402:8 26.8529 
2 *402:8 *402:18 34.8109 
3 *402:18 *2978:A1 23 
4 *402:8 *2970:A1 23 
*END

*D_NET *403 0.000891458
*CONN
*I *2957:B I *D sky130_fd_sc_hd__nand2_2
*I *2967:D I *D sky130_fd_sc_hd__and4_2
*I *2956:Y O *D sky130_fd_sc_hd__o21bai_2
*CAP
1 *2957:B 5.58714e-05
2 *2967:D 0
3 *2956:Y 0.000116143
4 *403:10 5.58714e-05
5 *403:8 0.000116143
6 *2957:A *2957:B 0.000185434
7 *385:37 *2957:B 5.67058e-05
8 *387:28 *2957:B 2.02872e-05
9 *395:27 *2957:B 6.51843e-05
10 *401:10 *403:8 0.000140949
11 *401:34 *2957:B 5.3304e-05
12 *401:34 *403:8 2.55642e-05
*RES
1 *2956:Y *403:8 40.2579 
2 *403:8 *403:10 15 
3 *403:10 *2967:D 23 
4 *403:10 *2957:B 25.5271 
*END

*D_NET *404 0.00267663
*CONN
*I *2958:B1_N I *D sky130_fd_sc_hd__o21bai_2
*I *2959:B1 I *D sky130_fd_sc_hd__o21ai_2
*I *2957:Y O *D sky130_fd_sc_hd__nand2_2
*CAP
1 *2958:B1_N 0.000138146
2 *2959:B1 0
3 *2957:Y 0.000477847
4 *404:12 0.000254082
5 *404:8 0.000593783
6 *2958:B1_N *405:10 0.0001041
7 *404:8 *520:22 9.84851e-05
8 *404:12 *405:10 4.21594e-06
9 *2950:A1 *404:8 1.89178e-05
10 *245:8 *2958:B1_N 5.58667e-05
11 *245:8 *404:12 6.63801e-05
12 *250:30 *404:12 0
13 *385:12 *404:8 7.59794e-05
14 *385:37 *404:8 9.32114e-05
15 *386:8 *404:12 0
16 *387:18 *404:8 0.000225965
17 *395:27 *404:8 0.000228903
18 *396:14 *2958:B1_N 1.01436e-05
19 *398:10 *404:8 0.000230604
*RES
1 *2957:Y *404:8 35.5529 
2 *404:8 *404:12 17.61 
3 *404:12 *2959:B1 38 
4 *404:12 *2958:B1_N 41.2314 
*END

*D_NET *405 0.000750426
*CONN
*I *2960:A2 I *D sky130_fd_sc_hd__o21ai_2
*I *2958:Y O *D sky130_fd_sc_hd__o21bai_2
*CAP
1 *2960:A2 0
2 *2958:Y 0.000268158
3 *405:10 0.000268158
4 *2958:B1_N *405:10 0.0001041
5 *250:30 *405:10 4.90891e-05
6 *396:14 *405:10 5.67058e-05
7 *404:12 *405:10 4.21594e-06
*RES
1 *2958:Y *405:10 42.785 
2 *405:10 *2960:A2 38 
*END

*D_NET *406 0.000729544
*CONN
*I *2960:B1 I *D sky130_fd_sc_hd__o21ai_2
*I *2959:Y O *D sky130_fd_sc_hd__o21ai_2
*CAP
1 *2960:B1 0
2 *2959:Y 0.000178918
3 *406:10 0.000178918
4 *406:10 *595:6 0.00026582
5 *406:10 *596:8 5.3304e-05
6 *2959:A1 *406:10 5.25848e-05
*RES
1 *2959:Y *406:10 27.5986 
2 *406:10 *2960:B1 23 
*END

*D_NET *407 0.00135003
*CONN
*I *2963:A I *D sky130_fd_sc_hd__or3b_2
*I *2965:A1 I *D sky130_fd_sc_hd__o21bai_2
*I *2964:A1 I *D sky130_fd_sc_hd__o21ba_2
*I *2961:Y O *D sky130_fd_sc_hd__nor2_2
*CAP
1 *2963:A 1.95342e-05
2 *2965:A1 0
3 *2964:A1 1.39194e-05
4 *2961:Y 0.000117613
5 *407:27 0.000153398
6 *407:19 0.00025149
7 *407:10 9.24775e-05
8 *407:8 0.000117613
9 *2963:A *2963:B 2.93431e-05
10 *2963:A *409:6 1.46286e-05
11 *2964:A1 *2963:C_N 5.67058e-05
12 *2964:A1 *408:23 2.93747e-05
13 *407:8 *2964:A2 1.97329e-05
14 *407:8 *408:10 4.58924e-05
15 *407:8 *408:29 3.0647e-05
16 *407:19 *2963:B 4.5051e-05
17 *407:19 *2963:C_N 4.34745e-05
18 *407:19 *408:23 5.12254e-05
19 *407:19 *409:6 1.94693e-05
20 *407:27 *408:29 0.000111138
21 *407:27 *411:8 2.93431e-05
22 *407:27 *422:24 5.79559e-05
*RES
1 *2961:Y *407:8 40.61 
2 *407:8 *407:10 15 
3 *407:10 *2964:A1 23.6214 
4 *407:10 *407:19 2.05071 
5 *407:19 *407:27 33.5836 
6 *407:27 *2965:A1 23 
7 *407:19 *2963:A 23.6214 
*END

*D_NET *408 0.00213846
*CONN
*I *2963:B I *D sky130_fd_sc_hd__or3b_2
*I *2965:A2 I *D sky130_fd_sc_hd__o21bai_2
*I *2964:A2 I *D sky130_fd_sc_hd__o21ba_2
*I *2962:X O *D sky130_fd_sc_hd__and2_2
*CAP
1 *2963:B 0.000112315
2 *2965:A2 0
3 *2964:A2 4.99696e-05
4 *2962:X 0.000177167
5 *408:29 0.000146783
6 *408:23 0.000447201
7 *408:10 0.00041524
8 *2964:A2 *457:42 4.68476e-05
9 *2964:A2 *527:27 1.14452e-05
10 *408:10 *457:42 0.000148309
11 *408:10 *562:20 4.08537e-05
12 *408:10 *598:10 5.50106e-05
13 *408:23 *2963:C_N 1.03955e-05
14 *408:23 *527:21 2.93845e-05
15 *408:29 *457:23 8.51329e-05
16 *2963:A *2963:B 2.93431e-05
17 *2964:A1 *408:23 2.93747e-05
18 *407:8 *2964:A2 1.97329e-05
19 *407:8 *408:10 4.58924e-05
20 *407:8 *408:29 3.0647e-05
21 *407:19 *2963:B 4.5051e-05
22 *407:19 *408:23 5.12254e-05
23 *407:27 *408:29 0.000111138
*RES
1 *2962:X *408:10 42.64 
2 *408:10 *2964:A2 39.2014 
3 *408:10 *408:23 17.5271 
4 *408:23 *408:29 33.6664 
5 *408:29 *2965:A2 23 
6 *408:23 *2963:B 24.5743 
*END

*D_NET *409 0.00761235
*CONN
*I *2966:A I *D sky130_fd_sc_hd__nand2_2
*I *2978:C1 I *D sky130_fd_sc_hd__o211a_2
*I *2975:B I *D sky130_fd_sc_hd__nand4_4
*I *2979:C1 I *D sky130_fd_sc_hd__o211a_2
*I *2963:X O *D sky130_fd_sc_hd__or3b_2
*CAP
1 *2966:A 0.000167079
2 *2978:C1 8.42092e-05
3 *2975:B 2.48675e-05
4 *2979:C1 0
5 *2963:X 0.000199141
6 *409:44 0.0010404
7 *409:34 0.00117452
8 *409:23 0.00104168
9 *409:12 0.000105972
10 *409:6 0.00127066
11 *2966:A *2966:B 5.46254e-05
12 *2966:A *412:18 0
13 *2966:A *419:10 0
14 *2966:A *423:22 0
15 *2975:B *2975:D 5.50106e-05
16 *2975:B *423:10 6.17437e-06
17 *409:12 *427:10 6.16484e-05
18 *409:23 *2966:B 0
19 *409:23 *2975:D 9.85891e-05
20 *409:23 *2984:A2 3.71369e-05
21 *409:23 *2984:B1 0.000311066
22 *409:23 *411:12 0
23 *409:23 *423:22 1.01436e-05
24 *409:34 *2966:B 0
25 *409:44 *2975:D 0.000506251
26 *409:44 *419:10 0.0002263
27 *2963:A *409:6 1.46286e-05
28 *395:27 *409:44 0.0010967
29 *395:54 *409:23 0
30 *401:42 *2978:C1 6.07611e-06
31 *407:19 *409:6 1.94693e-05
*RES
1 *2963:X *409:6 25.5271 
2 *409:6 *409:12 31.9057 
3 *409:12 *2979:C1 23 
4 *409:6 *409:23 28.3814 
5 *409:23 *2975:B 38.6214 
6 *409:23 *409:34 0.849286 
7 *409:34 *409:44 48.8914 
8 *409:44 *2978:C1 39.2014 
9 *409:34 *2966:A 41.8529 
*END

*D_NET *410 0.00276546
*CONN
*I *2979:A1 I *D sky130_fd_sc_hd__o211a_2
*I *2982:A I *D sky130_fd_sc_hd__nor2_2
*I *2983:A I *D sky130_fd_sc_hd__or2_2
*I *2964:X O *D sky130_fd_sc_hd__o21ba_2
*CAP
1 *2979:A1 0
2 *2982:A 2.13751e-05
3 *2983:A 7.76533e-05
4 *2964:X 0.000273311
5 *410:40 0.000315376
6 *410:23 0.000521203
7 *410:10 0.000535417
8 *2982:A *2982:B 5.47983e-06
9 *2982:A *422:14 0
10 *2983:A *3021:A1_N 0
11 *2983:A *457:23 0
12 *410:10 *2976:A 5.67058e-05
13 *410:10 *3021:A1_N 0
14 *410:10 *428:8 0.000168754
15 *410:10 *457:23 0
16 *410:10 *457:27 4.17736e-05
17 *410:10 *527:27 7.03663e-05
18 *410:10 *608:8 0
19 *410:23 *2982:B 2.93431e-05
20 *410:23 *422:10 9.84851e-05
21 *410:23 *422:14 0.0001164
22 *410:40 *2979:A2 1.28818e-05
23 *410:40 *2982:B 4.93812e-05
24 *410:40 *411:8 6.39489e-06
25 *410:40 *427:10 0.000146195
26 *410:40 *600:8 0.000218962
*RES
1 *2964:X *410:10 43.8207 
2 *410:10 *2983:A 38.8493 
3 *410:10 *410:23 18.9564 
4 *410:23 *2982:A 23.4971 
5 *410:23 *410:40 37.0687 
6 *410:40 *2979:A1 23 
*END

*D_NET *411 0.00325363
*CONN
*I *2966:B I *D sky130_fd_sc_hd__nand2_2
*I *2975:C I *D sky130_fd_sc_hd__nand4_4
*I *2965:Y O *D sky130_fd_sc_hd__o21bai_2
*CAP
1 *2966:B 0.000200805
2 *2975:C 0
3 *2965:Y 0.000964179
4 *411:12 0.000324338
5 *411:8 0.00108771
6 *2966:B *572:52 0
7 *411:8 *2979:A2 0.000178041
8 *411:8 *415:8 0.000187129
9 *411:8 *422:24 9.06193e-05
10 *411:8 *424:10 0.000100061
11 *411:8 *425:8 3.03827e-05
12 *411:12 *572:52 0
13 *2966:A *2966:B 5.46254e-05
14 *407:27 *411:8 2.93431e-05
15 *409:23 *2966:B 0
16 *409:23 *411:12 0
17 *409:34 *2966:B 0
18 *410:40 *411:8 6.39489e-06
*RES
1 *2965:Y *411:8 36.9821 
2 *411:8 *411:12 16.9057 
3 *411:12 *2975:C 38 
4 *411:12 *2966:B 41.9357 
*END

*D_NET *412 0.00137031
*CONN
*I *2972:B1 I *D sky130_fd_sc_hd__o21ai_2
*I *2973:B1 I *D sky130_fd_sc_hd__a21o_2
*I *2966:Y O *D sky130_fd_sc_hd__nand2_2
*CAP
1 *2972:B1 0
2 *2973:B1 0
3 *2966:Y 1.54697e-05
4 *412:18 0.000368177
5 *412:6 0.000383647
6 *412:6 *418:10 5.67058e-05
7 *412:18 *2972:A2 5.50049e-05
8 *412:18 *2975:D 0.000226306
9 *412:18 *414:12 1.01436e-05
10 *412:18 *416:29 2.39071e-05
11 *412:18 *418:10 2.4754e-05
12 *412:18 *419:10 6.79006e-05
13 *412:18 *423:10 0.000126847
14 *2966:A *412:18 0
15 *395:54 *412:18 1.14452e-05
*RES
1 *2966:Y *412:6 23.6214 
2 *412:6 *412:18 38.5136 
3 *412:18 *2973:B1 23 
4 *412:6 *2972:B1 23 
*END

*D_NET *413 0.0077845
*CONN
*I *2968:B1_N I *D sky130_fd_sc_hd__a21boi_2
*I *2973:A2 I *D sky130_fd_sc_hd__a21o_2
*I *2975:D I *D sky130_fd_sc_hd__nand4_4
*I *2969:B I *D sky130_fd_sc_hd__nand2_2
*I *2980:A2 I *D sky130_fd_sc_hd__a21boi_2
*I *2967:X O *D sky130_fd_sc_hd__and4_2
*CAP
1 *2968:B1_N 0
2 *2973:A2 0
3 *2975:D 0.000352041
4 *2969:B 0
5 *2980:A2 9.21901e-05
6 *2967:X 0.0013971
7 *413:63 0.000287459
8 *413:20 0.000224443
9 *413:14 0.000497262
10 *413:10 0.00112261
11 *2975:D *2984:A2 0
12 *2975:D *423:10 0.000183725
13 *2980:A2 *2979:A2 0.000315852
14 *2980:A2 *416:6 0.00014196
15 *413:10 *423:10 0.000558956
16 *413:14 *423:10 1.68796e-05
17 *413:20 *416:6 4.95081e-05
18 *413:20 *416:29 0
19 *2975:B *2975:D 5.50106e-05
20 *2978:A2 *413:10 9.58714e-05
21 *2980:A1 *2980:A2 0.000143655
22 *387:28 *413:10 0.000738165
23 *395:27 *2975:D 5.3304e-05
24 *395:27 *413:10 4.1372e-05
25 *395:27 *413:63 5.67058e-05
26 *395:31 *2975:D 5.01986e-05
27 *395:31 *413:20 1.14452e-05
28 *395:39 *2980:A2 4.7881e-05
29 *395:39 *413:20 0.000198594
30 *395:41 *2980:A2 0.00021477
31 *402:18 *413:10 6.39489e-06
32 *409:23 *2975:D 9.85891e-05
33 *409:44 *2975:D 0.000506251
34 *412:18 *2975:D 0.000226306
*RES
1 *2967:X *413:10 42.7925 
2 *413:10 *413:14 15.1968 
3 *413:14 *413:20 18.3557 
4 *413:20 *2980:A2 28.4064 
5 *413:20 *2969:B 23 
6 *413:14 *2975:D 49.02 
7 *413:10 *2973:A2 23 
8 *2967:X *413:63 42.9921 
9 *413:63 *2968:B1_N 38 
*END

*D_NET *414 0.00401598
*CONN
*I *2972:A1 I *D sky130_fd_sc_hd__o21ai_2
*I *2968:Y O *D sky130_fd_sc_hd__a21boi_2
*CAP
1 *2972:A1 0
2 *2968:Y 0.00184927
3 *414:12 8.5862e-05
4 *414:6 0.00193513
5 *414:6 *2974:A1 2.93747e-05
6 *414:12 *416:29 1.19692e-05
7 *414:12 *417:20 4.08537e-05
8 *414:12 *419:10 5.33753e-05
9 *412:18 *414:12 1.01436e-05
*RES
1 *2968:Y *414:6 47.4429 
2 *414:6 *414:12 32.2579 
3 *414:12 *2972:A1 23 
*END

*D_NET *415 0.00156281
*CONN
*I *2981:A I *D sky130_fd_sc_hd__nand2_2
*I *2969:Y O *D sky130_fd_sc_hd__nand2_2
*CAP
1 *2981:A 0
2 *2969:Y 0.000326243
3 *415:8 0.000326243
4 *415:8 *2979:A2 6.67283e-05
5 *415:8 *2981:B 0.00010018
6 *415:8 *423:22 0.000228903
7 *2980:A1 *415:8 0.000185428
8 *395:41 *415:8 0.00014196
9 *411:8 *415:8 0.000187129
*RES
1 *2969:Y *415:8 31.7414 
2 *415:8 *2981:A 23 
*END

*D_NET *416 0.00527253
*CONN
*I *2971:A I *D sky130_fd_sc_hd__inv_2
*I *2979:A2 I *D sky130_fd_sc_hd__o211a_2
*I *2970:X O *D sky130_fd_sc_hd__o21a_2
*CAP
1 *2971:A 0
2 *2979:A2 0.0004473
3 *2970:X 0.000627485
4 *416:29 0.000478297
5 *416:6 0.00155308
6 *2979:A2 *2981:B 0.00010018
7 *2979:A2 *422:24 3.91386e-05
8 *2979:A2 *423:22 0.000217372
9 *2979:A2 *424:10 5.68958e-05
10 *2979:A2 *425:8 0.000921477
11 *2980:A1 *2979:A2 3.04516e-05
12 *2980:A2 *2979:A2 0.000315852
13 *2980:A2 *416:6 0.00014196
14 *395:31 *416:29 0
15 *395:39 *416:29 0
16 *395:54 *416:29 0
17 *410:40 *2979:A2 1.28818e-05
18 *411:8 *2979:A2 0.000178041
19 *412:18 *416:29 2.39071e-05
20 *413:20 *416:6 4.95081e-05
21 *413:20 *416:29 0
22 *414:12 *416:29 1.19692e-05
23 *415:8 *2979:A2 6.67283e-05
*RES
1 *2970:X *416:6 34.5793 
2 *416:6 *2979:A2 39.53 
3 *416:6 *416:29 37.25 
4 *416:29 *2971:A 23 
*END

*D_NET *417 0.000612531
*CONN
*I *2974:A1 I *D sky130_fd_sc_hd__o21ai_4
*I *2972:A2 I *D sky130_fd_sc_hd__o21ai_2
*I *2971:Y O *D sky130_fd_sc_hd__inv_2
*CAP
1 *2974:A1 3.09722e-05
2 *2972:A2 0.000111239
3 *2971:Y 0.000212677
4 *417:20 0.00013241
5 *417:20 *419:10 0
6 *412:18 *2972:A2 5.50049e-05
7 *414:6 *2974:A1 2.93747e-05
8 *414:12 *417:20 4.08537e-05
*RES
1 *2971:Y *2972:A2 48.0507 
2 *2971:Y *417:20 39.9057 
3 *417:20 *2974:A1 38.6214 
*END

*D_NET *418 0.000489501
*CONN
*I *2974:B1 I *D sky130_fd_sc_hd__o21ai_4
*I *2972:Y O *D sky130_fd_sc_hd__o21ai_2
*CAP
1 *2974:B1 0
2 *2972:Y 0.00020402
3 *418:10 0.00020402
4 *418:10 *419:10 0
5 *418:10 *572:52 0
6 *412:6 *418:10 5.67058e-05
7 *412:18 *418:10 2.4754e-05
*RES
1 *2972:Y *418:10 41.8321 
2 *418:10 *2974:B1 38 
*END

*D_NET *419 0.00110835
*CONN
*I *2974:A2 I *D sky130_fd_sc_hd__o21ai_4
*I *2973:X O *D sky130_fd_sc_hd__a21o_2
*CAP
1 *2974:A2 0
2 *2973:X 0.000380388
3 *419:10 0.000380388
4 *2966:A *419:10 0
5 *409:44 *419:10 0.0002263
6 *412:18 *419:10 6.79006e-05
7 *414:12 *419:10 5.33753e-05
8 *417:20 *419:10 0
9 *418:10 *419:10 0
*RES
1 *2973:X *419:10 45.25 
2 *419:10 *2974:A2 38 
*END

*D_NET *420 0.000189208
*CONN
*I *2984:A2 I *D sky130_fd_sc_hd__a22oi_4
*I *2975:Y O *D sky130_fd_sc_hd__nand4_4
*CAP
1 *2984:A2 7.60356e-05
2 *2975:Y 7.60356e-05
3 *2975:D *2984:A2 0
4 *409:23 *2984:A2 3.71369e-05
*RES
1 *2975:Y *2984:A2 47.595 
*END

*D_NET *421 0.000719874
*CONN
*I *3021:A2_N I *D sky130_fd_sc_hd__o2bb2ai_4
*I *2977:B I *D sky130_fd_sc_hd__xnor2_2
*I *2976:X O *D sky130_fd_sc_hd__xor2_2
*CAP
1 *3021:A2_N 0
2 *2977:B 0.000190036
3 *2976:X 0.0001699
4 *421:10 0.000359937
5 *2977:B *563:8 0
6 *421:10 *563:8 0
7 *89:10 *2977:B 0
8 *89:10 *421:10 0
*RES
1 *2976:X *421:10 40.8793 
2 *421:10 *2977:B 41.5836 
3 *421:10 *3021:A2_N 38 
*END

*D_NET *422 0.00245298
*CONN
*I *2983:B I *D sky130_fd_sc_hd__or2_2
*I *2982:B I *D sky130_fd_sc_hd__nor2_2
*I *2979:B1 I *D sky130_fd_sc_hd__o211a_2
*I *2977:Y O *D sky130_fd_sc_hd__xnor2_2
*CAP
1 *2983:B 0
2 *2982:B 9.17058e-05
3 *2979:B1 0
4 *2977:Y 0.000242944
5 *422:24 0.000261333
6 *422:14 0.000491033
7 *422:10 0.000380938
8 *422:10 *2977:A 9.84794e-05
9 *422:24 *425:8 0.000319905
10 *422:24 *427:10 0
11 *422:24 *457:23 7.98362e-05
12 *422:24 *600:8 0
13 *2979:A2 *422:24 3.91386e-05
14 *2982:A *2982:B 5.47983e-06
15 *2982:A *422:14 0
16 *407:27 *422:24 5.79559e-05
17 *410:23 *2982:B 2.93431e-05
18 *410:23 *422:10 9.84851e-05
19 *410:23 *422:14 0.0001164
20 *410:40 *2982:B 4.93812e-05
21 *411:8 *422:24 9.06193e-05
*RES
1 *2977:Y *422:10 28.075 
2 *422:10 *422:14 3.02429 
3 *422:14 *422:24 37.2914 
4 *422:24 *2979:B1 23 
5 *422:14 *2982:B 25.0714 
6 *422:10 *2983:B 23 
*END

*D_NET *423 0.00356119
*CONN
*I *2980:B1_N I *D sky130_fd_sc_hd__a21boi_2
*I *2981:B I *D sky130_fd_sc_hd__nand2_2
*I *2978:X O *D sky130_fd_sc_hd__o211a_2
*CAP
1 *2980:B1_N 0
2 *2981:B 1.19175e-05
3 *2978:X 0.000580906
4 *423:22 0.00021537
5 *423:10 0.000784358
6 *423:22 *572:52 0
7 *2966:A *423:22 0
8 *2975:B *423:10 6.17437e-06
9 *2975:D *423:10 0.000183725
10 *2979:A2 *2981:B 0.00010018
11 *2979:A2 *423:22 0.000217372
12 *395:27 *423:10 0.000419275
13 *395:54 *423:22 0
14 *409:23 *423:22 1.01436e-05
15 *412:18 *423:10 0.000126847
16 *413:10 *423:10 0.000558956
17 *413:14 *423:10 1.68796e-05
18 *415:8 *2981:B 0.00010018
19 *415:8 *423:22 0.000228903
*RES
1 *2978:X *423:10 38.4321 
2 *423:10 *423:22 35.1993 
3 *423:22 *2981:B 24.0979 
4 *423:22 *2980:B1_N 23 
*END

*D_NET *424 0.000497621
*CONN
*I *2984:A1 I *D sky130_fd_sc_hd__a22oi_4
*I *2979:X O *D sky130_fd_sc_hd__o211a_2
*CAP
1 *2984:A1 0
2 *2979:X 0.000170332
3 *424:10 0.000170332
4 *424:10 *600:8 0
5 *2979:A2 *424:10 5.68958e-05
6 *411:8 *424:10 0.000100061
*RES
1 *2979:X *424:10 41.3557 
2 *424:10 *2984:A1 38 
*END

*D_NET *425 0.0035057
*CONN
*I *3021:B2 I *D sky130_fd_sc_hd__o2bb2ai_4
*I *2980:Y O *D sky130_fd_sc_hd__a21boi_2
*CAP
1 *3021:B2 0
2 *2980:Y 0.00110723
3 *425:8 0.00110723
4 *425:8 *3021:A1_N 1.94693e-05
5 *2979:A2 *425:8 0.000921477
6 *411:8 *425:8 3.03827e-05
7 *422:24 *425:8 0.000319905
*RES
1 *2980:Y *425:8 44.0043 
2 *425:8 *3021:B2 23 
*END

*D_NET *426 0.00103879
*CONN
*I *2984:B1 I *D sky130_fd_sc_hd__a22oi_4
*I *2981:Y O *D sky130_fd_sc_hd__nand2_2
*CAP
1 *2984:B1 0.000162474
2 *2981:Y 6.58385e-05
3 *426:8 0.000228313
4 *426:8 *453:61 0.000135547
5 *426:8 *572:52 0.000135547
6 *409:23 *2984:B1 0.000311066
*RES
1 *2981:Y *426:8 39.9057 
2 *426:8 *2984:B1 41.9771 
*END

*D_NET *427 0.00118092
*CONN
*I *2984:B2 I *D sky130_fd_sc_hd__a22oi_4
*I *2982:Y O *D sky130_fd_sc_hd__nor2_2
*CAP
1 *2984:B2 0
2 *2982:Y 0.00029999
3 *427:10 0.00029999
4 *427:10 *457:23 0
5 *427:10 *600:8 0.0003731
6 *409:12 *427:10 6.16484e-05
7 *410:40 *427:10 0.000146195
8 *422:24 *427:10 0
*RES
1 *2982:Y *427:10 44.6493 
2 *427:10 *2984:B2 38 
*END

*D_NET *428 0.000351141
*CONN
*I *3021:B1 I *D sky130_fd_sc_hd__o2bb2ai_4
*I *2983:X O *D sky130_fd_sc_hd__or2_2
*CAP
1 *3021:B1 0
2 *2983:X 9.11936e-05
3 *428:8 9.11936e-05
4 *428:8 *3021:A1_N 0
5 *410:10 *428:8 0.000168754
*RES
1 *2983:X *428:8 40.2579 
2 *428:8 *3021:B1 38 
*END

*D_NET *429 0.00155972
*CONN
*I *2987:B I *D sky130_fd_sc_hd__xnor2_2
*I *2986:X O *D sky130_fd_sc_hd__mux2_1
*CAP
1 *2987:B 0
2 *2986:X 0.000434169
3 *429:10 0.000434169
4 *429:10 *523:8 0.000141869
5 *429:10 *572:20 1.55097e-05
6 S[1] *429:10 0.000141869
7 *1:9 *429:10 7.88828e-05
8 *76:8 *429:10 0.000313249
*RES
1 *2986:X *429:10 45.7679 
2 *429:10 *2987:B 38 
*END

*D_NET *430 0.00121051
*CONN
*I *2990:B I *D sky130_fd_sc_hd__xor2_2
*I *2988:X O *D sky130_fd_sc_hd__a211o_4
*CAP
1 *2990:B 0
2 *2988:X 0.000406881
3 *430:10 0.000406881
4 *430:10 *431:10 0.000168744
5 *430:10 *453:10 0
6 *430:10 *453:36 0
7 *430:10 *597:10 0
8 *220:6 *430:10 0.000228001
9 *227:18 *430:10 0
*RES
1 *2988:X *430:10 45.25 
2 *430:10 *2990:B 15 
*END

*D_NET *431 0.00207553
*CONN
*I *2992:C I *D sky130_fd_sc_hd__nand3_2
*I *2991:A1 I *D sky130_fd_sc_hd__a21oi_2
*I *2989:X O *D sky130_fd_sc_hd__a211o_4
*CAP
1 *2992:C 0.000215927
2 *2991:A1 9.13435e-05
3 *2989:X 0.000476457
4 *431:10 0.000783727
5 *2991:A1 *432:10 6.17437e-06
6 *2992:C *2768:B1 0
7 *2992:C *432:10 0
8 *2992:C *516:10 0
9 *2992:C *516:12 0
10 *431:10 *2768:B1 0
11 *431:10 *432:10 0
12 *431:10 *457:61 4.05196e-05
13 *431:10 *597:10 4.23817e-05
14 *2787:B1 *431:10 0
15 *2989:B1 *431:10 0
16 *2992:B *2992:C 5.50106e-05
17 *225:29 *431:10 0.000195248
18 *227:18 *431:10 0
19 *430:10 *431:10 0.000168744
*RES
1 *2989:X *431:10 47.4664 
2 *431:10 *2991:A1 39.5743 
3 *431:10 *2992:C 41.9357 
*END

*D_NET *432 0.00178635
*CONN
*I *2993:A_N I *D sky130_fd_sc_hd__nand2b_4
*I *2991:Y O *D sky130_fd_sc_hd__a21oi_2
*CAP
1 *2993:A_N 0
2 *2991:Y 0.000550285
3 *432:10 0.000550285
4 *432:10 *433:8 0
5 *432:10 *516:10 0
6 *2991:A1 *432:10 6.17437e-06
7 *2991:B1 *432:10 0.00030562
8 *2992:C *432:10 0
9 *224:10 *432:10 3.56537e-05
10 *226:25 *432:10 0
11 *233:21 *432:10 0
12 *234:10 *432:10 0.000338331
13 *431:10 *432:10 0
*RES
1 *2991:Y *432:10 49.7036 
2 *432:10 *2993:A_N 38 
*END

*D_NET *433 0.000750111
*CONN
*I *2993:B I *D sky130_fd_sc_hd__nand2b_4
*I *2992:Y O *D sky130_fd_sc_hd__nand3_2
*CAP
1 *2993:B 0
2 *2992:Y 0.000318019
3 *433:8 0.000318019
4 *433:8 *516:10 0.000114074
5 *433:8 *561:10 0
6 *433:8 *561:12 0
7 *2775:A1 *433:8 0
8 *224:10 *433:8 0
9 *432:10 *433:8 0
*RES
1 *2992:Y *433:8 43.4271 
2 *433:8 *2993:B 38 
*END

*D_NET *434 0.00331485
*CONN
*I *3253:A I *D sky130_fd_sc_hd__buf_4
*I *3002:B2 I *D sky130_fd_sc_hd__o2bb2ai_4
*I *2996:B2 I *D sky130_fd_sc_hd__o22a_4
*I *2994:Y O *D sky130_fd_sc_hd__a21oi_4
*CAP
1 *3253:A 0.000358157
2 *3002:B2 0.000450204
3 *2996:B2 0.000351574
4 *2994:Y 0
5 *434:10 0.00103126
6 *434:6 0.000587642
7 *2996:B2 *565:40 6.17437e-06
8 *3253:A *514:8 0
9 *3253:A *522:36 0
10 *434:10 *522:36 0
11 *434:10 *602:12 0.000194309
12 *2747:B *3253:A 0
13 *2747:B *434:10 0
14 *2791:A3 *3253:A 0
15 *3002:A2_N *3002:B2 5.50106e-05
16 *3002:B1 *3002:B2 9.67842e-05
17 *190:21 *434:10 0
18 *223:37 *3253:A 0
19 *235:25 *3253:A 0.000183733
20 *249:21 *3253:A 0
*RES
1 *2994:Y *434:6 38 
2 *434:6 *434:10 19.7229 
3 *434:10 *2996:B2 28.8829 
4 *434:10 *3002:B2 30.9336 
5 *434:6 *3253:A 44.6907 
*END

*D_NET *435 0.00308111
*CONN
*I *3000:B2 I *D sky130_fd_sc_hd__o2bb2a_4
*I *2997:B I *D sky130_fd_sc_hd__xnor2_2
*I *2998:B1 I *D sky130_fd_sc_hd__a22oi_2
*I *2996:X O *D sky130_fd_sc_hd__o22a_4
*CAP
1 *3000:B2 0.000249485
2 *2997:B 0
3 *2998:B1 0.000311941
4 *2996:X 0.000298233
5 *435:10 0.00043531
6 *435:8 0.000671087
7 *2998:B1 *2722:A_N 0.000169361
8 *2998:B1 *567:82 0.000112463
9 *2998:B1 *602:12 0
10 *435:8 *522:36 0.00025596
11 *435:8 *602:12 0
12 *2730:B1 *2998:B1 0.000315857
13 *177:26 *2998:B1 1.01436e-05
14 *182:10 *2998:B1 2.18506e-05
15 *186:12 *2998:B1 0
16 *186:12 *435:8 0
17 *186:12 *435:10 0
18 *189:21 *2998:B1 1.83667e-05
19 *189:21 *435:8 9.98995e-05
20 *189:21 *435:10 0.000111148
*RES
1 *2996:X *435:8 45.54 
2 *435:8 *435:10 2.96214 
3 *435:10 *2998:B1 45.7679 
4 *435:10 *2997:B 38 
5 *435:8 *3000:B2 41.9564 
*END

*D_NET *436 0.00115847
*CONN
*I *2999:B I *D sky130_fd_sc_hd__xnor2_2
*I *2998:Y O *D sky130_fd_sc_hd__a22oi_2
*CAP
1 *2999:B 0
2 *2998:Y 0.00016628
3 *436:10 0.00016628
4 *436:10 *2722:A_N 2.64616e-05
5 *436:10 *565:16 0.000373072
6 *436:10 *603:10 0.000373072
7 *182:10 *436:10 5.3304e-05
*RES
1 *2998:Y *436:10 43.6964 
2 *436:10 *2999:B 38 
*END

*D_NET *437 0.00146569
*CONN
*I *3001:B I *D sky130_fd_sc_hd__xor2_2
*I *3000:X O *D sky130_fd_sc_hd__o2bb2a_4
*CAP
1 *3001:B 0
2 *3000:X 0.000608119
3 *437:10 0.000608119
4 *437:10 *465:27 0
5 *2778:A2_N *437:10 1.39317e-05
6 *2778:B2 *437:10 9.36522e-05
7 *205:8 *437:10 0.000141869
*RES
1 *3000:X *437:10 47.5493 
2 *437:10 *3001:B 15 
*END

*D_NET *438 0.0071152
*CONN
*I *3004:B1 I *D sky130_fd_sc_hd__a22o_4
*I *3006:A1 I *D sky130_fd_sc_hd__a21oi_4
*I *3003:B I *D sky130_fd_sc_hd__xnor2_2
*I *3002:Y O *D sky130_fd_sc_hd__o2bb2ai_4
*CAP
1 *3004:B1 2.99646e-05
2 *3006:A1 0.000726733
3 *3003:B 0.000618665
4 *3002:Y 0.000763086
5 *438:41 0.000356524
6 *438:10 0.00125355
7 *438:6 0.000997792
8 *3003:B *449:12 0
9 *3003:B *569:10 0.000250839
10 *3003:B *569:21 0.0002129
11 *3003:B *569:47 2.46345e-05
12 *3006:A1 *569:25 5.3304e-05
13 *438:6 *2744:A2 4.50413e-05
14 *438:6 *465:73 0.000183733
15 *438:6 *485:27 7.06229e-05
16 *438:6 *569:47 0.000249258
17 *438:10 *449:12 0
18 *438:10 *569:47 0.000383503
19 *438:41 *467:10 0
20 *438:41 *606:10 0
21 *3002:A2_N *438:6 0.000575797
22 *3075:A *438:41 0
23 *3077:B *3006:A1 9.91798e-05
24 *149:28 *438:41 0.000169683
25 *154:6 *3004:B1 1.94693e-05
26 *154:19 *438:41 0
27 *155:10 *3006:A1 1.94812e-05
28 *155:10 *438:41 1.14452e-05
29 *200:10 *438:10 0
*RES
1 *3002:Y *438:6 39.82 
2 *438:6 *438:10 20.7793 
3 *438:10 *3003:B 45.105 
4 *438:10 *3006:A1 49.9521 
5 *3003:B *438:41 43.7793 
6 *438:41 *3004:B1 38.6214 
*END

*D_NET *439 0.000552092
*CONN
*I *3005:B I *D sky130_fd_sc_hd__xnor2_2
*I *3004:X O *D sky130_fd_sc_hd__a22o_4
*CAP
1 *3005:B 0
2 *3004:X 0.00019733
3 *439:10 0.00019733
4 S[8] *439:10 0.000141869
5 *154:19 *439:10 1.55622e-05
*RES
1 *3004:X *439:10 41.48 
2 *439:10 *3005:B 38 
*END

*D_NET *440 0.00152715
*CONN
*I *3007:B I *D sky130_fd_sc_hd__xor2_2
*I *3008:A2 I *D sky130_fd_sc_hd__o21ai_2
*I *3006:Y O *D sky130_fd_sc_hd__a21oi_4
*CAP
1 *3007:B 0.000114584
2 *3008:A2 2.34823e-05
3 *3006:Y 0.000557239
4 *440:8 0.000695305
5 *3007:B *441:10 5.29672e-05
6 *440:8 *441:10 1.32939e-05
7 *3006:B1 *440:8 7.53384e-06
8 *3007:A *3007:B 6.27496e-05
9 *3007:A *3008:A2 0
*RES
1 *3006:Y *440:8 30.7886 
2 *440:8 *3008:A2 23.4971 
3 *440:8 *3007:B 2.95179 
*END

*D_NET *441 0.000813124
*CONN
*I *3009:B I *D sky130_fd_sc_hd__xor2_2
*I *3008:Y O *D sky130_fd_sc_hd__o21ai_2
*CAP
1 *3009:B 0
2 *3008:Y 0.000324189
3 *441:10 0.000324189
4 *441:10 *574:8 0
5 *441:10 *575:8 0
6 *3007:A *441:10 9.84851e-05
7 *3007:B *441:10 5.29672e-05
8 *164:8 *441:10 0
9 *440:8 *441:10 1.32939e-05
*RES
1 *3008:Y *441:10 44.09 
2 *441:10 *3009:B 15 
*END

*D_NET *442 0.00659268
*CONN
*I *3016:A1 I *D sky130_fd_sc_hd__a21o_2
*I *3011:A I *D sky130_fd_sc_hd__nand2_2
*I *3251:A I *D sky130_fd_sc_hd__buf_6
*I *3010:Y O *D sky130_fd_sc_hd__nand4_4
*CAP
1 *3016:A1 0.000461589
2 *3011:A 0
3 *3251:A 0
4 *3010:Y 0.0010325
5 *442:26 0.000148408
6 *442:16 0.000249217
7 *442:10 0.00103422
8 *442:6 0.00150432
9 *442:10 *475:50 0.000155739
10 *442:10 *475:71 4.99753e-06
11 *442:16 *596:8 4.34973e-05
12 *442:26 *475:71 0.000162422
13 *442:26 *499:10 9.84851e-05
14 *3011:B *442:16 9.41704e-05
15 *3015:C1 *442:10 0.000381644
16 *3046:B1 *442:26 1.69887e-05
17 *3049:C1 *3016:A1 0.000397716
18 *3049:C1 *442:10 2.55642e-05
19 *3061:C *442:26 5.50106e-05
20 *118:47 *442:16 0
21 *118:47 *442:26 4.55577e-05
22 *119:37 *442:26 1.32939e-05
23 *125:8 *442:16 0.000136743
24 *127:6 *3016:A1 0.000227208
25 *135:36 *3016:A1 2.55642e-05
26 *135:36 *442:10 6.48142e-05
27 *135:36 *442:16 2.02872e-05
28 *135:49 *3016:A1 0.00015795
29 *135:57 *3016:A1 0
30 *136:14 *3016:A1 3.47776e-05
*RES
1 *3010:Y *442:6 40.2964 
2 *442:6 *442:10 26.7657 
3 *442:10 *442:16 17.5479 
4 *442:16 *442:26 33.8529 
5 *442:26 *3251:A 23 
6 *442:16 *3011:A 23 
7 *442:10 *3016:A1 47.9636 
*END

*D_NET *443 0.000782722
*CONN
*I *3015:A2 I *D sky130_fd_sc_hd__o211ai_2
*I *3011:Y O *D sky130_fd_sc_hd__nand2_2
*CAP
1 *3015:A2 0
2 *3011:Y 0.000218993
3 *443:8 0.000218993
4 *443:8 *3015:B1 0.0001796
5 *443:8 *445:10 8.51432e-05
6 *443:8 *475:71 6.85472e-05
7 *118:47 *443:8 1.14452e-05
8 *137:8 *443:8 0
*RES
1 *3011:Y *443:8 43.4271 
2 *443:8 *3015:A2 38 
*END

*D_NET *444 0.000397266
*CONN
*I *3014:B I *D sky130_fd_sc_hd__xnor2_2
*I *3013:X O *D sky130_fd_sc_hd__a22o_4
*CAP
1 *3014:B 0
2 *3013:X 7.16381e-05
3 *444:8 7.16381e-05
4 *444:8 *3012:B 0.000168754
5 *3044:A *444:8 5.56306e-05
6 *120:8 *444:8 2.96051e-05
*RES
1 *3013:X *444:8 40.2579 
2 *444:8 *3014:B 38 
*END

*D_NET *445 0.000568816
*CONN
*I *3017:B I *D sky130_fd_sc_hd__xor2_2
*I *3015:Y O *D sky130_fd_sc_hd__o211ai_2
*CAP
1 *3017:B 0
2 *3015:Y 0.000125722
3 *445:10 0.000125722
4 *445:10 *3015:B1 5.50106e-05
5 *445:10 *475:56 7.53384e-06
6 *445:10 *475:71 0.000169683
7 *443:8 *445:10 8.51432e-05
*RES
1 *3015:Y *445:10 41.3557 
2 *445:10 *3017:B 15 
*END

*D_NET *446 0.00240039
*CONN
*I *3019:B1 I *D sky130_fd_sc_hd__a22oi_2
*I *3018:D I *D sky130_fd_sc_hd__and4_2
*I *3016:X O *D sky130_fd_sc_hd__a21o_2
*CAP
1 *3019:B1 0
2 *3018:D 7.13446e-05
3 *3016:X 0.000657237
4 *446:34 7.13446e-05
5 *446:20 0.000657237
6 *446:20 *3018:A 0.000147086
7 *446:20 *3018:B 0.000117401
8 *446:20 *3049:A1 0.00010018
9 *446:34 *3019:A1 4.48671e-05
10 *3049:A2 *446:20 4.21378e-05
11 *3049:B1 *446:20 4.56219e-05
12 *122:10 *446:20 0.000100966
13 *124:8 *446:34 7.75329e-06
14 *127:6 *446:20 0.0002263
15 *129:74 *446:34 0.000110913
*RES
1 *3016:X *446:20 38.3079 
2 *446:20 *3018:D 23 
3 *3018:D *446:34 39.9057 
4 *446:34 *3019:B1 38 
*END

*D_NET *447 0.000885476
*CONN
*I *3020:A I *D sky130_fd_sc_hd__nor2_4
*I *3018:X O *D sky130_fd_sc_hd__and4_2
*CAP
1 *3020:A 0
2 *3018:X 0.000331958
3 *447:10 0.000331958
4 *447:10 *3018:A 5.50049e-05
5 *447:10 *470:26 0.000141879
6 *447:10 *541:46 1.32314e-05
7 *3245:A *447:10 0
8 *129:10 *447:10 1.14452e-05
*RES
1 *3018:X *447:10 42.9093 
2 *447:10 *3020:A 38 
*END

*D_NET *448 0.00106215
*CONN
*I *3020:B I *D sky130_fd_sc_hd__nor2_4
*I *3019:Y O *D sky130_fd_sc_hd__a22oi_2
*CAP
1 *3020:B 0
2 *3019:Y 0.000231521
3 *448:8 0.000231521
4 *448:8 *542:6 0.000476726
5 *129:16 *448:8 0.00012238
*RES
1 *3019:Y *448:8 28.8829 
2 *448:8 *3020:B 23 
*END

*D_NET *449 0.0206732
*CONN
*I *3090:A1 I *D sky130_fd_sc_hd__a21oi_4
*I *3081:A I *D sky130_fd_sc_hd__nand2_4
*I *3091:A1 I *D sky130_fd_sc_hd__o21ai_4
*I *2732:A I *D sky130_fd_sc_hd__nand2_2
*I *2727:A1 I *D sky130_fd_sc_hd__a21oi_2
*I *2750:A I *D sky130_fd_sc_hd__nand2_4
*I *3072:A I *D sky130_fd_sc_hd__nand2_2
*I *3097:A I *D sky130_fd_sc_hd__nand2_2
*I *3022:Y O *D sky130_fd_sc_hd__inv_16
*CAP
1 *3090:A1 0
2 *3081:A 0.000242084
3 *3091:A1 0
4 *2732:A 0
5 *2727:A1 7.87831e-05
6 *2750:A 0.000332668
7 *3072:A 0.000139971
8 *3097:A 0.000158612
9 *3022:Y 0.00111515
10 *449:105 0.000912224
11 *449:88 0.000876684
12 *449:84 0.000902069
13 *449:52 0.000902032
14 *449:48 0.000916999
15 *449:40 0.00227276
16 *449:12 0.00103956
17 *449:10 0.00300695
18 *2727:A1 *457:61 7.48331e-05
19 *2727:A1 *530:14 2.61802e-05
20 *2727:A1 *531:40 1.02387e-05
21 *2727:A1 *567:72 0
22 *2750:A *2725:B1_N 3.04021e-05
23 *2750:A *457:61 6.16531e-05
24 *2750:A *457:67 0.000605241
25 *2750:A *457:75 1.83564e-05
26 *2750:A *530:14 1.02387e-05
27 *2750:A *531:21 9.72129e-05
28 *2750:A *531:40 4.6674e-05
29 *3072:A *3072:B 9.29957e-05
30 *3072:A *465:27 4.67269e-05
31 *3081:A *3081:B 0
32 *3081:A *3083:A_N 0
33 *3081:A *518:10 0
34 *3081:A *538:8 3.68907e-05
35 *3097:A *3074:A1 0.000380333
36 *3097:A *475:21 3.22879e-05
37 *449:10 *465:79 5.46706e-05
38 *449:10 *496:12 2.79004e-05
39 *449:12 *2741:B1_N 6.86023e-06
40 *449:12 *3074:A1 1.01436e-05
41 *449:12 *3246:A 0.000233443
42 *449:12 *465:66 0
43 *449:12 *465:79 0.000164291
44 *449:12 *534:8 0.000145205
45 *449:12 *605:8 0.000168754
46 *449:40 *565:68 4.67488e-05
47 *449:40 *602:8 9.84794e-05
48 *449:48 *521:14 0.00100008
49 *449:48 *560:14 0.000731031
50 *449:84 *3087:A 2.64616e-05
51 *449:84 *3087:B 2.30292e-05
52 *449:84 *467:19 0.000412068
53 *449:105 *3083:A_N 0
54 *449:105 *3090:A2 9.62398e-05
55 *449:105 *467:25 1.47563e-05
56 *449:105 *538:8 3.82956e-05
57 *449:105 *539:32 7.44161e-06
58 S[7] *3097:A 0.00019266
59 S[7] *449:12 1.12487e-05
60 *2748:A *449:40 5.41385e-05
61 *3003:B *449:12 0
62 *3089:B1 *449:88 0.000166288
63 *3089:B1 *449:105 7.75329e-06
64 *3091:B1 *449:105 0.000102093
65 *2:11 *3081:A 0.000358812
66 *94:8 *3072:A 9.67842e-05
67 *150:10 *3072:A 0.000310641
68 *165:8 *449:88 1.01436e-05
69 *167:10 *449:88 0.000110913
70 *169:10 *449:88 1.89075e-05
71 *169:10 *449:105 0.0003758
72 *169:12 *449:88 8.92738e-05
73 *184:10 *2727:A1 8.62876e-05
74 *184:10 *2750:A 8.62783e-05
75 *200:10 *449:12 0
76 *202:10 *449:12 0.000174427
77 *223:33 *449:52 0.000648028
78 *438:10 *449:12 0
*RES
1 *3022:Y *449:10 44.5664 
2 *449:10 *449:12 17.0479 
3 *449:12 *3097:A 43.6964 
4 *449:12 *3072:A 42.8057 
5 *449:10 *449:40 44.1036 
6 *449:40 *449:48 44.1479 
7 *449:48 *449:52 22.2914 
8 *449:52 *2750:A 47.3007 
9 *449:52 *2727:A1 40.2579 
10 *449:40 *2732:A 23 
11 *3022:Y *449:84 48.15 
12 *449:84 *449:88 5.34429 
13 *449:88 *3091:A1 38 
14 *449:88 *449:105 40.6471 
15 *449:105 *3081:A 43.7793 
16 *449:105 *3090:A1 38 
*END

*D_NET *450 0.00449227
*CONN
*I *2759:B1 I *D sky130_fd_sc_hd__o21ai_2
*I *2761:B1_N I *D sky130_fd_sc_hd__o21bai_2
*I *2985:A I *D sky130_fd_sc_hd__xor2_2
*I *2986:A1 I *D sky130_fd_sc_hd__mux2_1
*I *3114:X O *D sky130_fd_sc_hd__clkdlybuf4s25_1
*CAP
1 *2759:B1 0.000328398
2 *2761:B1_N 5.50481e-05
3 *2985:A 0.00033267
4 *2986:A1 0
5 *3114:X 0.000110445
6 *450:30 0.000516823
7 *450:15 0.000510218
8 *450:6 0.000154616
9 *2759:B1 *452:12 2.4306e-05
10 *2759:B1 *452:34 0.000186054
11 *2759:B1 *452:42 5.40241e-05
12 *2759:B1 *537:76 0.000218023
13 *2759:B1 *572:41 2.07944e-05
14 *2759:B1 *572:52 0
15 *2761:B1_N *452:8 5.56279e-05
16 *2985:A *2985:B 0.000169674
17 *2985:A *452:12 3.43144e-05
18 *2985:A *573:8 1.15307e-05
19 *450:6 *2758:A 0.000536786
20 *450:6 *2758:B 0.000171366
21 *450:15 *2758:A 4.206e-05
22 *450:30 *2762:A1 0.000156379
23 *450:30 *2985:B 5.94125e-05
24 *450:30 *452:12 0.000252067
25 *2762:A2 *2759:B1 0.000105082
26 *2762:A2 *450:30 4.6318e-06
27 *2762:C1 *2761:B1_N 5.56279e-05
28 *1:9 *2985:A 0
29 *1:9 *450:6 0.000229801
30 *1:9 *450:15 9.64943e-05
*RES
1 *3114:X *450:6 28.8621 
2 *450:6 *2986:A1 23 
3 *450:6 *450:15 16.0979 
4 *450:15 *2985:A 44.4629 
5 *450:15 *450:30 3.66643 
6 *450:30 *2761:B1_N 39.0979 
7 *450:30 *2759:B1 45.2293 
*END

*D_NET *451 0.00530803
*CONN
*I *2808:C I *D sky130_fd_sc_hd__nand3b_2
*I *2838:A1 I *D sky130_fd_sc_hd__a22oi_2
*I *2809:B1_N I *D sky130_fd_sc_hd__o21bai_4
*I *3115:X O *D sky130_fd_sc_hd__clkdlybuf4s25_1
*CAP
1 *2808:C 0.000161637
2 *2838:A1 0.000101725
3 *2809:B1_N 0.000566617
4 *3115:X 0.00125731
5 *451:10 0.000826824
6 *451:6 0.00157743
7 *2808:C *3248:A 7.38076e-05
8 *2808:C *572:60 5.50106e-05
9 *2809:B1_N *461:23 0.000140259
10 *2838:A1 *461:23 5.61414e-05
11 *451:6 *2800:B1_N 9.84794e-05
12 *451:10 *458:51 0
13 *451:10 *461:8 0.000225265
14 *451:10 *461:23 9.48381e-06
15 *451:10 *572:60 3.70187e-05
16 *2807:A *451:10 0
17 *259:10 *451:6 0.000121018
18 *262:19 *451:10 0
19 *270:12 *2838:A1 0
*RES
1 *3115:X *451:6 43.6314 
2 *451:6 *451:10 19.0186 
3 *451:10 *2809:B1_N 47.2179 
4 *451:10 *2838:A1 40.2579 
5 *451:6 *2808:C 26.0243 
*END

*D_NET *452 0.00563874
*CONN
*I *3179:A I *D sky130_fd_sc_hd__buf_6
*I *2757:A I *D sky130_fd_sc_hd__and2_4
*I *2759:A1 I *D sky130_fd_sc_hd__o21ai_2
*I *2986:A0 I *D sky130_fd_sc_hd__mux2_1
*I *2758:A I *D sky130_fd_sc_hd__nor2_2
*I *3101:X O *D sky130_fd_sc_hd__buf_4
*CAP
1 *3179:A 0.000172627
2 *2757:A 0
3 *2759:A1 0.000172627
4 *2986:A0 0
5 *2758:A 0.000537306
6 *3101:X 0.000403613
7 *452:42 0.000287907
8 *452:34 0.000464099
9 *452:12 0.000752024
10 *452:8 0.000794524
11 *2758:A *2758:B 0.000198803
12 *3179:A *453:8 0.000185434
13 *3179:A *457:61 6.32777e-05
14 *452:34 *457:10 0.00018304
15 *452:34 *537:66 0.000109669
16 *452:34 *572:41 3.64246e-05
17 *452:42 *572:35 2.96051e-05
18 *452:42 *572:41 1.31414e-05
19 *2759:B1 *452:12 2.4306e-05
20 *2759:B1 *452:34 0.000186054
21 *2759:B1 *452:42 5.40241e-05
22 *2761:B1_N *452:8 5.56279e-05
23 *2762:C1 *452:8 4.93812e-05
24 *2985:A *452:12 3.43144e-05
25 *450:6 *2758:A 0.000536786
26 *450:15 *2758:A 4.206e-05
27 *450:30 *452:12 0.000252067
*RES
1 *3101:X *452:8 43.8621 
2 *452:8 *452:12 19.3707 
3 *452:12 *2758:A 32.715 
4 *452:12 *2986:A0 23 
5 *452:8 *452:34 19.6607 
6 *452:34 *452:42 35.1371 
7 *452:42 *2759:A1 23 
8 *452:34 *2757:A 23 
9 *2759:A1 *3179:A 49.9564 
*END

*D_NET *453 0.00897545
*CONN
*I *2765:A I *D sky130_fd_sc_hd__and2_4
*I *2764:A I *D sky130_fd_sc_hd__nor2_2
*I *2961:A I *D sky130_fd_sc_hd__nor2_2
*I *2767:A1 I *D sky130_fd_sc_hd__o21ai_4
*I *2760:A1 I *D sky130_fd_sc_hd__a21oi_2
*I *2762:B1 I *D sky130_fd_sc_hd__o211ai_2
*I *3179:X O *D sky130_fd_sc_hd__buf_6
*CAP
1 *2765:A 0
2 *2764:A 2.45968e-05
3 *2961:A 0.000513281
4 *2767:A1 9.36549e-05
5 *2760:A1 0
6 *2762:B1 0.000314792
7 *3179:X 8.50948e-05
8 *453:61 0.00144272
9 *453:57 0.00126162
10 *453:42 0.000601555
11 *453:36 0.000608668
12 *453:10 0.000490122
13 *453:8 0.000668774
14 *2762:B1 *2762:A1 9.90162e-05
15 *2764:A *601:6 4.34745e-05
16 *453:8 *457:61 0.000177909
17 *453:10 *572:52 6.6869e-05
18 *453:36 *2765:B 0.000174124
19 *453:36 *572:52 0.000315526
20 *453:42 *2767:B1 4.6318e-06
21 *453:42 *572:52 0
22 *453:57 *2767:B1 9.98995e-05
23 *453:57 *526:10 9.3813e-05
24 *453:57 *601:6 9.84851e-05
25 *453:61 *572:52 0.00080511
26 *2762:A2 *2762:B1 9.84851e-05
27 *3179:A *453:8 0.000185434
28 *222:10 *2762:B1 1.76557e-05
29 *222:10 *453:10 0
30 *225:10 *453:36 0.000225265
31 *227:10 *453:36 1.89075e-05
32 *227:18 *453:36 4.07612e-05
33 *228:10 *453:36 0.000169665
34 *426:8 *453:61 0.000135547
35 *430:10 *453:10 0
36 *430:10 *453:36 0
*RES
1 *3179:X *453:8 41.48 
2 *453:8 *453:10 2.96214 
3 *453:10 *2762:B1 44.235 
4 *453:10 *2760:A1 38 
5 *453:8 *453:36 26.4757 
6 *453:36 *453:42 18.5836 
7 *453:42 *2767:A1 39.5743 
8 *453:42 *453:57 21.8771 
9 *453:57 *453:61 37.6821 
10 *453:61 *2961:A 46.7207 
11 *453:57 *2764:A 23.6214 
12 *453:36 *2765:A 23 
*END

*D_NET *454 0.00347966
*CONN
*I *2751:A I *D sky130_fd_sc_hd__nand2_2
*I *2752:A I *D sky130_fd_sc_hd__nor2_2
*I *3180:A I *D sky130_fd_sc_hd__buf_6
*I *2749:B I *D sky130_fd_sc_hd__nand2b_4
*I *3102:X O *D sky130_fd_sc_hd__buf_6
*CAP
1 *2751:A 0.000183814
2 *2752:A 2.92191e-05
3 *3180:A 0
4 *2749:B 0
5 *3102:X 0.000123795
6 *454:23 0.000206978
7 *454:17 0.000449937
8 *454:8 0.00021216
9 *2751:A *473:29 7.80954e-05
10 *2751:A *529:10 0.000194318
11 *454:23 *531:8 1.03955e-05
12 *2755:C *454:23 0.000137651
13 *26:9 *2751:A 0.000100522
14 *26:9 *454:8 0.000129106
15 *26:9 *454:17 0.00010763
16 *28:15 *2752:A 9.75779e-05
17 *28:15 *454:23 0.000333159
18 *44:19 *2751:A 7.20415e-05
19 *44:19 *454:8 0.000267292
20 *44:19 *454:17 0.000183314
21 *212:6 *2752:A 4.5051e-05
22 *212:6 *454:23 0.000517599
*RES
1 *3102:X *454:8 41.6664 
2 *454:8 *2749:B 38 
3 *454:8 *454:17 2.96214 
4 *454:17 *454:23 21.3593 
5 *454:23 *3180:A 23 
6 *454:23 *2752:A 24.0979 
7 *454:17 *2751:A 43.4271 
*END

*D_NET *455 0.00865363
*CONN
*I *2771:A1 I *D sky130_fd_sc_hd__o21ai_4
*I *2772:A1 I *D sky130_fd_sc_hd__a21o_2
*I *2769:A I *D sky130_fd_sc_hd__and2_4
*I *2770:A I *D sky130_fd_sc_hd__nor2_2
*I *2723:A I *D sky130_fd_sc_hd__nand2_2
*I *2721:B I *D sky130_fd_sc_hd__nand2b_4
*I *2722:A_N I *D sky130_fd_sc_hd__nand2b_2
*I *3180:X O *D sky130_fd_sc_hd__buf_6
*CAP
1 *2771:A1 0.000129373
2 *2772:A1 0
3 *2769:A 0
4 *2770:A 4.24511e-05
5 *2723:A 0
6 *2721:B 0
7 *2722:A_N 0.000485118
8 *3180:X 0.000171434
9 *455:91 0.000626692
10 *455:81 0.000872287
11 *455:70 0.000209972
12 *455:59 0.000375631
13 *455:46 0.00028462
14 *455:18 0.000778868
15 *455:8 0.000510375
16 *2722:A_N *2721:A_N 0
17 *2722:A_N *3023:A 1.22822e-05
18 *2722:A_N *567:82 0.000255975
19 *2771:A1 *564:37 4.2573e-05
20 *455:8 *530:14 0.00031656
21 *455:8 *567:31 0.000240416
22 *455:8 *567:44 8.94487e-05
23 *455:18 *2721:A_N 3.17027e-05
24 *455:18 *3023:A 5.50106e-05
25 *455:46 *530:14 0.00014411
26 *455:46 *567:44 0.000130433
27 *455:46 *567:59 1.01436e-05
28 *455:59 *529:10 0
29 *455:59 *530:14 0.000342652
30 *455:59 *564:29 2.76611e-06
31 *455:59 *567:59 0.000206587
32 *455:70 *530:14 0.000129412
33 *455:70 *564:29 4.81134e-05
34 *455:70 *564:37 1.01436e-05
35 *455:81 *530:14 6.07611e-06
36 *455:81 *564:37 0.000185104
37 *455:91 *2771:B1 5.50106e-05
38 *455:91 *2772:A2 0.000308718
39 *455:91 *2773:B1_N 4.75206e-05
40 *455:91 *564:37 5.3304e-05
41 *2789:B2 *455:91 0.000272321
42 *2998:A1 *2722:A_N 0.000332132
43 *2998:B1 *2722:A_N 0.000169361
44 *26:9 *455:18 1.24376e-05
45 *181:6 *2722:A_N 0.000272377
46 *182:10 *2722:A_N 0.000239694
47 *229:10 *455:70 4.07715e-05
48 *229:10 *455:81 1.22803e-05
49 *231:10 *455:91 5.50106e-05
50 *233:10 *455:91 9.8971e-06
51 *436:10 *2722:A_N 2.64616e-05
*RES
1 *3180:X *455:8 42.3707 
2 *455:8 *455:18 20.0957 
3 *455:18 *2722:A_N 36.7543 
4 *455:18 *2721:B 23 
5 *455:8 *455:46 1.90571 
6 *455:46 *2723:A 38 
7 *455:46 *455:59 6.54571 
8 *455:59 *2770:A 38.6214 
9 *455:59 *455:70 3.31429 
10 *455:70 *2769:A 38 
11 *455:70 *455:81 17.9621 
12 *455:81 *455:91 41.5793 
13 *455:91 *2772:A1 23 
14 *455:81 *2771:A1 25.5271 
*END

*D_NET *456 0.00746168
*CONN
*I *2735:A1 I *D sky130_fd_sc_hd__a21oi_2
*I *2734:A1 I *D sky130_fd_sc_hd__o21ai_2
*I *2724:A1 I *D sky130_fd_sc_hd__o21a_2
*I *2731:A I *D sky130_fd_sc_hd__and2_2
*I *2733:B I *D sky130_fd_sc_hd__nand2b_2
*I *2726:A1 I *D sky130_fd_sc_hd__o21ai_4
*I *2725:A1 I *D sky130_fd_sc_hd__a21boi_2
*I *3103:X O *D sky130_fd_sc_hd__clkbuf_2
*CAP
1 *2735:A1 0.000209581
2 *2734:A1 0
3 *2724:A1 0
4 *2731:A 0.000224535
5 *2733:B 4.03544e-05
6 *2726:A1 0.000121761
7 *2725:A1 0
8 *3103:X 0.000133836
9 *456:67 0.000393632
10 *456:38 0.000541408
11 *456:25 0.000487776
12 *456:21 0.000268133
13 *456:19 0.000962758
14 *456:6 0.000733906
15 *2726:A1 *530:28 4.9662e-05
16 *2731:A *560:14 7.76364e-06
17 *2731:A *565:55 0.000195157
18 *2735:A1 *457:101 0.0002499
19 *2735:A1 *521:14 0
20 *456:6 *2725:A2 0.000144067
21 *456:6 *2725:B1_N 5.50049e-05
22 *456:6 *549:33 5.50049e-05
23 *456:19 *2725:A2 2.4754e-05
24 *456:19 *521:14 0.000577427
25 *456:19 *565:16 0.000260047
26 *456:21 *522:36 0.000132374
27 *456:25 *2726:A2 9.95346e-05
28 *456:38 *2726:A2 2.68751e-05
29 *456:38 *530:28 9.74235e-05
30 *456:38 *560:14 0.000129016
31 *456:67 *457:101 0.000187996
32 *456:67 *521:14 0
33 *456:67 *522:36 9.62666e-05
34 *456:67 *565:16 0.000161121
35 *2735:B1 *2735:A1 9.21555e-05
36 *22:13 *456:19 9.74235e-05
37 *182:10 *456:19 1.94685e-05
38 *185:8 *456:6 7.53384e-06
39 *185:8 *456:19 3.22879e-05
40 *185:14 *456:25 0.000164291
41 *185:14 *456:38 3.70187e-05
42 *187:10 *456:25 1.01436e-05
43 *193:10 *2733:B 6.17437e-06
44 *194:10 *2735:A1 3.83778e-05
45 *194:29 *2735:A1 1.22906e-05
46 *196:8 *456:38 6.93553e-05
47 *197:8 *2735:A1 6.70363e-05
48 *197:24 *2735:A1 0.000141052
*RES
1 *3103:X *456:6 26.48 
2 *456:6 *2725:A1 23 
3 *456:6 *456:19 44.4171 
4 *456:19 *456:21 3.00357 
5 *456:21 *456:25 17.2579 
6 *456:25 *2726:A1 40.0714 
7 *456:25 *456:38 6.48357 
8 *456:38 *2733:B 38.6214 
9 *456:38 *2731:A 43.4271 
10 *456:21 *2724:A1 23 
11 *456:19 *456:67 19.6607 
12 *456:67 *2734:A1 38 
13 *456:67 *2735:A1 43.8414 
*END

*D_NET *457 0.0230187
*CONN
*I *2952:A I *D sky130_fd_sc_hd__nor2_2
*I *2953:A I *D sky130_fd_sc_hd__and2_2
*I *3103:A I *D sky130_fd_sc_hd__clkbuf_2
*I *3102:A I *D sky130_fd_sc_hd__buf_6
*I *2962:A I *D sky130_fd_sc_hd__and2_2
*I *2976:A I *D sky130_fd_sc_hd__xor2_2
*I *3101:A I *D sky130_fd_sc_hd__buf_4
*I *3104:X O *D sky130_fd_sc_hd__buf_4
*CAP
1 *2952:A 0
2 *2953:A 0
3 *3103:A 0
4 *3102:A 0
5 *2962:A 0
6 *2976:A 0.000189495
7 *3101:A 0.000243047
8 *3104:X 2.0995e-05
9 *457:107 0.000101695
10 *457:101 0.00140995
11 *457:95 0.00176871
12 *457:75 0.000289224
13 *457:67 0.000649586
14 *457:61 0.00260865
15 *457:55 0.00191074
16 *457:42 0.00026647
17 *457:27 0.000574236
18 *457:23 0.00209085
19 *457:10 0.00264773
20 *457:6 0.000576001
21 *2976:A *527:12 5.70419e-05
22 *2976:A *527:21 4.6595e-05
23 *457:6 *537:76 1.14154e-05
24 *457:10 *537:66 3.37867e-05
25 *457:10 *572:35 0.000227476
26 *457:10 *572:50 8.53029e-05
27 *457:23 *527:27 8.51329e-05
28 *457:23 *528:8 0
29 *457:27 *2963:C_N 9.67842e-05
30 *457:27 *527:21 6.9805e-05
31 *457:42 *527:8 0
32 *457:42 *527:27 7.76364e-06
33 *457:42 *562:20 0
34 *457:42 *608:8 0
35 *457:55 *2760:A2 2.32004e-05
36 *457:55 *537:66 2.32101e-05
37 *457:55 *572:50 0.000135037
38 *457:55 *572:52 2.29192e-05
39 *457:61 *522:14 2.92911e-06
40 *457:61 *522:36 1.74848e-05
41 *457:61 *530:14 6.07929e-05
42 *457:61 *567:59 6.99589e-05
43 *457:61 *567:70 9.88574e-06
44 *457:67 *530:14 0.000296426
45 *457:67 *549:33 7.88828e-05
46 *457:75 *2725:B1_N 1.01436e-05
47 *457:75 *530:8 2.32101e-05
48 *457:75 *530:14 0
49 *457:75 *549:33 1.69668e-05
50 *457:75 *565:8 0.000103637
51 *457:95 *603:10 5.12254e-05
52 *457:101 *514:8 0
53 *457:101 *521:14 0.000165114
54 *457:101 *522:36 0
55 *457:101 *565:16 0.000115289
56 *457:101 *565:27 0.000113614
57 *457:101 *565:40 0.000131077
58 *457:101 *565:68 0.000192096
59 *457:107 *521:14 0.000196549
60 *457:107 *521:25 1.14452e-05
61 *2727:A1 *457:61 7.48331e-05
62 *2729:A1 *457:95 9.62666e-05
63 *2729:B1 *457:95 9.84794e-05
64 *2735:A1 *457:101 0.0002499
65 *2750:A *457:61 6.16531e-05
66 *2750:A *457:67 0.000605241
67 *2750:A *457:75 1.83564e-05
68 *2753:A *457:61 1.94812e-05
69 *2754:A *457:61 4.5051e-05
70 *2760:B1 *457:55 5.50106e-05
71 *2964:A2 *457:42 4.68476e-05
72 *2983:A *457:23 0
73 *2989:A2 *457:61 2.02872e-05
74 *3179:A *457:61 6.32777e-05
75 *27:17 *457:75 0.000358425
76 *28:15 *457:75 0
77 *56:11 *457:42 3.52734e-05
78 *60:11 *457:75 9.84794e-05
79 *186:12 *457:101 0.000374011
80 *189:8 *457:95 0.000393293
81 *197:8 *457:101 0.000203459
82 *198:10 *457:101 0.000141869
83 *213:6 *457:61 5.01656e-05
84 *214:10 *457:61 0.000262858
85 *217:10 *3101:A 0
86 *217:10 *457:10 1.83327e-05
87 *219:8 *457:55 0.000110922
88 *223:33 *457:95 0.000576093
89 *235:25 *457:101 0
90 *408:10 *457:42 0.000148309
91 *408:29 *457:23 8.51329e-05
92 *410:10 *2976:A 5.67058e-05
93 *410:10 *457:23 0
94 *410:10 *457:27 4.17736e-05
95 *422:24 *457:23 7.98362e-05
96 *427:10 *457:23 0
97 *431:10 *457:61 4.05196e-05
98 *452:34 *457:10 0.00018304
99 *453:8 *457:61 0.000177909
100 *456:67 *457:101 0.000187996
*RES
1 *3104:X *457:6 23.4971 
2 *457:6 *457:10 23.7207 
3 *457:10 *3101:A 42.4121 
4 *457:10 *457:23 38.5286 
5 *457:23 *457:27 17.5271 
6 *457:27 *2976:A 26.9771 
7 *457:27 *457:42 36.1314 
8 *457:42 *2962:A 23 
9 *457:6 *457:55 33.1279 
10 *457:55 *457:61 39.9193 
11 *457:61 *457:67 24.8186 
12 *457:67 *457:75 37.6229 
13 *457:75 *3102:A 23 
14 *457:67 *3103:A 23 
15 *457:61 *457:95 41.745 
16 *457:95 *457:101 47.5836 
17 *457:101 *457:107 32.61 
18 *457:107 *2953:A 23 
19 *457:101 *2952:A 23 
*END

*D_NET *458 0.00508474
*CONN
*I *2804:A I *D sky130_fd_sc_hd__nor2_4
*I *2805:A I *D sky130_fd_sc_hd__and2_4
*I *2806:A I *D sky130_fd_sc_hd__nand2_2
*I *2798:A I *D sky130_fd_sc_hd__nand2_2
*I *2797:A I *D sky130_fd_sc_hd__and2_4
*I *3181:A I *D sky130_fd_sc_hd__buf_4
*I *3105:X O *D sky130_fd_sc_hd__buf_4
*CAP
1 *2804:A 0
2 *2805:A 0
3 *2806:A 0
4 *2798:A 0
5 *2797:A 0
6 *3181:A 8.92516e-05
7 *3105:X 2.33465e-05
8 *458:61 8.92453e-05
9 *458:55 0.000309973
10 *458:51 0.000494303
11 *458:40 0.000183613
12 *458:23 0.000708183
13 *458:10 0.00128974
14 *458:6 0.000972844
15 *458:6 *3105:A 5.50106e-05
16 *458:10 *3105:A 5.50049e-05
17 *458:23 *2796:B 0
18 *458:23 *2800:B1_N 0
19 *458:23 *599:10 0
20 *458:40 *2798:B 0.000140259
21 *458:40 *547:6 0.000143655
22 *458:51 *461:8 6.63698e-05
23 *458:51 *547:12 4.21594e-06
24 *458:51 *572:60 0
25 *458:55 *2805:B 0.000224605
26 *458:61 *572:60 7.66085e-05
27 *256:8 *458:23 0
28 *257:10 *458:23 5.86165e-05
29 *258:8 *458:23 0
30 *264:8 *458:61 9.98891e-05
31 *451:10 *458:51 0
*RES
1 *3105:X *458:6 23.6214 
2 *458:6 *458:10 12.0764 
3 *458:10 *3181:A 24.5743 
4 *458:10 *458:23 38.9486 
5 *458:23 *2797:A 23 
6 *458:23 *458:40 33.7907 
7 *458:40 *2798:A 23 
8 *458:6 *458:51 35.4271 
9 *458:51 *458:55 4.45357 
10 *458:55 *458:61 32.9621 
11 *458:61 *2806:A 23 
12 *458:55 *2805:A 23 
13 *458:51 *2804:A 23 
*END

*D_NET *459 0.00581031
*CONN
*I *2828:A I *D sky130_fd_sc_hd__and2_4
*I *3026:B I *D sky130_fd_sc_hd__nand2_2
*I *3024:B I *D sky130_fd_sc_hd__nor2_8
*I *3025:B I *D sky130_fd_sc_hd__and2_4
*I *2796:A I *D sky130_fd_sc_hd__nor2_4
*I *3181:X O *D sky130_fd_sc_hd__buf_4
*CAP
1 *2828:A 0
2 *3026:B 0.00031336
3 *3024:B 0
4 *3025:B 0
5 *2796:A 0.000259704
6 *3181:X 0.000126316
7 *459:62 0.000732717
8 *459:41 0.00110383
9 *459:32 0.000301306
10 *459:19 0.000408488
11 *459:8 0.00055096
12 *2796:A *2796:B 4.21594e-06
13 *3026:B *3026:A 4.07902e-05
14 *459:8 *3196:A 0.000315857
15 *459:19 *582:8 0
16 *459:32 *3025:A 1.69668e-05
17 *459:32 *3027:C 6.42505e-05
18 *459:32 *582:8 0
19 *459:32 *588:10 0.000108672
20 *459:41 *3027:C 7.90464e-05
21 *459:62 *2832:B1_N 9.53705e-05
22 *459:62 *3027:C 3.97399e-05
23 *459:62 *460:14 0
24 *459:62 *484:10 0.000234312
25 *459:62 *545:8 2.79004e-05
26 *459:62 *545:10 1.59312e-05
27 *459:62 *550:8 5.61414e-05
28 *459:62 *550:48 1.69668e-05
29 *3027:B *3026:B 0.000277909
30 *3115:A *2796:A 0
31 *13:13 *459:62 0
32 *40:11 *459:62 0
33 *45:11 *459:62 0
34 *72:10 *459:32 7.76035e-05
35 *72:10 *459:41 0.000169665
36 *72:10 *459:62 6.16531e-05
37 *103:8 *459:32 0.000169674
38 *255:8 *2796:A 0.000140958
39 *256:8 *2796:A 0
*RES
1 *3181:X *459:8 41.48 
2 *459:8 *2796:A 43.4271 
3 *459:8 *459:19 2.96214 
4 *459:19 *3025:B 38 
5 *459:19 *459:32 6.54571 
6 *459:32 *3024:B 38 
7 *459:32 *459:41 2.25786 
8 *459:41 *3026:B 43.4479 
9 *459:41 *459:62 31.0329 
10 *459:62 *2828:A 23 
*END

*D_NET *460 0.00512087
*CONN
*I *2847:A1 I *D sky130_fd_sc_hd__a21oi_2
*I *2843:A I *D sky130_fd_sc_hd__and2_4
*I *2842:A I *D sky130_fd_sc_hd__nor2_2
*I *2846:A1 I *D sky130_fd_sc_hd__o21ai_2
*I *2829:A I *D sky130_fd_sc_hd__nor2_2
*I *2831:A1 I *D sky130_fd_sc_hd__a21oi_2
*I *2830:A1 I *D sky130_fd_sc_hd__o21ai_4
*I *3106:X O *D sky130_fd_sc_hd__clkbuf_2
*CAP
1 *2847:A1 0.000100732
2 *2843:A 0.000169668
3 *2842:A 4.24511e-05
4 *2846:A1 0
5 *2829:A 0.000173505
6 *2831:A1 0
7 *2830:A1 0
8 *3106:X 0
9 *460:54 0.000329511
10 *460:45 0.000234086
11 *460:41 0.000858466
12 *460:26 0.000814544
13 *460:14 0.000274301
14 *460:6 0.000485045
15 *460:4 0.000210743
16 *2843:A *2843:B 0.000267905
17 *2843:A *551:23 1.01436e-05
18 *2847:A1 *2847:A2 3.22051e-05
19 *460:6 *550:48 8.264e-05
20 *460:14 *550:8 7.28526e-05
21 *460:14 *550:35 0.00010018
22 *460:14 *550:48 9.75779e-05
23 *460:41 *550:48 0
24 *460:45 *2847:A2 0.000171906
25 *460:54 *2847:A2 3.70094e-05
26 *460:54 *551:23 0.000185104
27 *2832:A1 *2829:A 6.28384e-05
28 *13:13 *460:14 0
29 *284:10 *2829:A 1.62015e-05
30 *284:10 *460:41 5.08899e-05
31 *286:23 *460:6 0.000224605
32 *287:8 *460:6 1.57571e-05
33 *287:14 *2829:A 0
34 *301:10 *460:45 0
35 *459:62 *460:14 0
*RES
1 *3106:X *460:4 23 
2 *460:4 *460:6 4.43286 
3 *460:6 *460:14 35.9657 
4 *460:14 *2830:A1 23 
5 *460:6 *2831:A1 23 
6 *460:4 *460:26 15 
7 *460:26 *2829:A 41.3143 
8 *460:26 *460:41 27.2007 
9 *460:41 *460:45 17.9621 
10 *460:45 *2846:A1 38 
11 *460:45 *460:54 2.96214 
12 *460:54 *2842:A 38.6214 
13 *460:54 *2843:A 42.06 
14 *460:41 *2847:A1 25.0507 
*END

*D_NET *461 0.00788597
*CONN
*I *3260:A I *D sky130_fd_sc_hd__buf_6
*I *3106:A I *D sky130_fd_sc_hd__clkbuf_2
*I *3105:A I *D sky130_fd_sc_hd__buf_4
*I *3107:X O *D sky130_fd_sc_hd__dlymetal6s2s_1
*CAP
1 *3260:A 0.000438427
2 *3106:A 0.00106477
3 *3105:A 0.00010651
4 *3107:X 8.22317e-05
5 *461:27 0.00222319
6 *461:23 0.00182903
7 *461:10 0.000338693
8 *461:8 8.22317e-05
9 *3106:A *587:8 4.05196e-05
10 *3260:A *463:8 0
11 *2807:A *3260:A 1.14452e-05
12 *2807:A *461:23 0.000191166
13 *2807:B *3260:A 9.84794e-05
14 *2809:B1_N *461:23 0.000140259
15 *2837:B1 *461:27 0
16 *2838:A1 *461:23 5.61414e-05
17 *2838:A2 *3260:A 3.89917e-05
18 *2850:B1 *461:27 0
19 *2850:C1 *461:27 0
20 *2855:A1 *461:27 0
21 *267:21 *3260:A 0
22 *267:21 *461:27 0
23 *269:18 *3260:A 5.29672e-05
24 *270:12 *461:23 0
25 *270:12 *461:27 0
26 *286:23 *3106:A 0.000198363
27 *286:36 *3106:A 2.93335e-05
28 *287:23 *3106:A 3.72768e-05
29 *287:25 *461:27 0
30 *289:59 *3106:A 8.37098e-05
31 *294:8 *3260:A 0.000187564
32 *303:12 *461:27 0
33 *304:10 *3106:A 0.000143535
34 *451:10 *461:8 0.000225265
35 *451:10 *461:23 9.48381e-06
36 *458:6 *3105:A 5.50106e-05
37 *458:10 *3105:A 5.50049e-05
38 *458:51 *461:8 6.63698e-05
*RES
1 *3107:X *461:8 40.9621 
2 *461:8 *461:10 15 
3 *461:10 *3105:A 25.0507 
4 *461:10 *461:23 20.1889 
5 *461:23 *461:27 35.3932 
6 *461:27 *3106:A 38.4114 
7 *461:23 *3260:A 47.1039 
*END

*D_NET *462 0.00764163
*CONN
*I *2822:A I *D sky130_fd_sc_hd__nor2_2
*I *2837:A1 I *D sky130_fd_sc_hd__o21ai_2
*I *2823:B1_N I *D sky130_fd_sc_hd__o21bai_2
*I *2821:B I *D sky130_fd_sc_hd__nand2_2
*I *3116:X O *D sky130_fd_sc_hd__clkdlybuf4s25_1
*CAP
1 *2822:A 2.34823e-05
2 *2837:A1 0
3 *2823:B1_N 3.8558e-05
4 *2821:B 0
5 *3116:X 0.000105388
6 *462:40 0.000486374
7 *462:32 0.00107541
8 *462:14 0.000201518
9 *462:10 0.00184014
10 *462:8 0.00121702
11 *462:10 *2862:B1_N 0.000247687
12 *462:10 *2863:B1_N 0.000169674
13 *462:10 *463:53 0.000221184
14 *462:10 *505:14 0
15 *462:10 *507:12 0
16 *462:10 *507:34 0
17 *462:10 *553:8 0
18 *462:10 *553:12 0
19 *462:10 *553:26 6.16531e-05
20 *462:14 *505:14 0
21 *462:32 *2835:A 2.18409e-05
22 *2837:B1 *462:40 1.44546e-05
23 *2839:A2 *462:40 1.47563e-05
24 *2887:A2 *462:32 0.000315857
25 *16:11 *462:8 5.47808e-05
26 *277:10 *2823:B1_N 0.000134664
27 *277:27 *462:40 0
28 *277:42 *462:40 0.000276784
29 *278:8 *462:14 6.38845e-05
30 *279:8 *462:40 0
31 *280:10 *2823:B1_N 0.000230604
32 *291:10 *462:32 5.50049e-05
33 *296:21 *462:40 0
34 *313:16 *462:10 0.000437244
35 *321:16 *462:10 0
36 *323:8 *462:10 0
37 *328:10 *462:10 0.000160737
38 *335:8 *462:10 0
39 *339:6 *462:32 0.000172924
*RES
1 *3116:X *462:8 39.5743 
2 *462:8 *462:10 25.1471 
3 *462:10 *462:14 17.61 
4 *462:14 *2821:B 23 
5 *462:14 *2823:B1_N 25.5271 
6 *462:10 *462:32 26.6 
7 *462:32 *462:40 39.7357 
8 *462:40 *2837:A1 23 
9 *462:32 *2822:A 23.4971 
*END

*D_NET *463 0.0126965
*CONN
*I *2858:A I *D sky130_fd_sc_hd__nor2_4
*I *2860:A I *D sky130_fd_sc_hd__nand2_2
*I *2859:A I *D sky130_fd_sc_hd__and2_4
*I *2869:A I *D sky130_fd_sc_hd__and2_4
*I *2872:A1 I *D sky130_fd_sc_hd__o21ai_2
*I *2868:A I *D sky130_fd_sc_hd__nor2_2
*I *2819:A I *D sky130_fd_sc_hd__and2_2
*I *2818:A I *D sky130_fd_sc_hd__nor2_2
*I *3260:X O *D sky130_fd_sc_hd__buf_6
*CAP
1 *2858:A 0.00057705
2 *2860:A 0
3 *2859:A 0
4 *2869:A 0
5 *2872:A1 0
6 *2868:A 0
7 *2819:A 0
8 *2818:A 0.000244292
9 *3260:X 0.00129141
10 *463:84 0.000945692
11 *463:71 0.000645647
12 *463:53 0.000238046
13 *463:45 0.000552843
14 *463:41 0.000717767
15 *463:32 0.000480907
16 *463:14 0.000244292
17 *463:12 0.0010371
18 *463:8 0.00197356
19 *2818:A *2818:B 0.000274078
20 *2818:A *548:12 8.52481e-05
21 *2858:A *2858:B 4.95785e-05
22 *2858:A *552:14 6.07496e-05
23 *2858:A *584:16 0.000182832
24 *463:12 *583:12 0.000408798
25 *463:12 *584:16 0
26 *463:32 *583:12 0.000326223
27 *463:32 *584:16 0
28 *463:41 *583:12 0.000114645
29 *463:41 *584:16 0
30 *463:45 *2869:B 5.67058e-05
31 *463:53 *2869:B 5.50106e-05
32 *463:53 *553:12 0
33 *463:53 *584:16 0
34 *463:71 *552:33 6.17437e-06
35 *463:71 *583:12 0.000208469
36 *463:71 *584:16 0
37 *463:84 *2892:A 0
38 *463:84 *474:46 0
39 *463:84 *548:12 0
40 *463:84 *552:8 1.14452e-05
41 *463:84 *552:33 0
42 *463:84 *583:12 3.70187e-05
43 S[18] *463:84 0.00011273
44 *2862:A1 *2858:A 5.50049e-05
45 *2875:A1 *463:45 0.000119313
46 *2875:A1 *463:53 9.45591e-05
47 *3260:A *463:8 0
48 *74:8 *463:71 7.44161e-06
49 *74:8 *463:84 3.16665e-05
50 *75:8 *2858:A 9.84851e-05
51 *141:24 *463:8 0.00056838
52 *268:24 *463:8 5.70419e-05
53 *269:18 *463:8 0.000291912
54 *275:8 *463:12 0
55 *276:8 *463:12 0
56 *312:6 *2858:A 2.28331e-05
57 *321:16 *463:53 0
58 *322:21 *463:41 0
59 *322:21 *463:45 9.6103e-05
60 *322:21 *463:71 0
61 *339:6 *2818:A 9.4223e-05
62 *462:10 *463:53 0.000221184
*RES
1 *3260:X *463:8 43.1757 
2 *463:8 *463:12 29.935 
3 *463:12 *463:14 15 
4 *463:14 *2818:A 29.0279 
5 *463:14 *2819:A 23 
6 *463:12 *463:32 8.59643 
7 *463:32 *2868:A 38 
8 *463:32 *463:41 2.96214 
9 *463:41 *463:45 21.815 
10 *463:45 *463:53 35.4893 
11 *463:53 *2872:A1 23 
12 *463:45 *2869:A 23 
13 *463:41 *463:71 21.5457 
14 *463:71 *2859:A 23 
15 *463:71 *463:84 37.2293 
16 *463:84 *2860:A 23 
17 *463:84 *2858:A 32.135 
*END

*D_NET *464 0.00433278
*CONN
*I *3098:A I *D sky130_fd_sc_hd__and2_2
*I *3100:A1 I *D sky130_fd_sc_hd__o21ai_2
*I *3182:A I *D sky130_fd_sc_hd__buf_6
*I *2719:A1 I *D sky130_fd_sc_hd__a21o_2
*I *3108:X O *D sky130_fd_sc_hd__dlymetal6s2s_1
*CAP
1 *3098:A 0.000202645
2 *3100:A1 0
3 *3182:A 0
4 *2719:A1 0.000325445
5 *3108:X 0
6 *464:31 0.00020531
7 *464:23 0.00046015
8 *464:10 0.000705839
9 *464:4 0.0003282
10 *3098:A *3096:A_N 1.14154e-05
11 *3098:A *3108:A 6.62988e-05
12 *3098:A *475:21 0.000528927
13 *3098:A *568:10 0.000250418
14 *3098:A *568:19 9.90162e-05
15 *3098:A *568:34 0.000165908
16 *464:10 *475:8 0
17 *464:31 *465:10 0
18 *464:31 *568:25 4.6318e-06
19 *2720:A2 *2719:A1 4.95081e-05
20 *2777:A1 *464:31 1.14452e-05
21 *61:9 *464:10 1.01436e-05
22 *176:10 *464:31 0.000164291
23 *176:27 *464:31 9.26098e-05
24 *177:10 *464:10 0
25 *178:8 *464:23 0.000108418
26 *178:16 *2719:A1 0.000400198
27 *178:16 *464:23 0.00014196
*RES
1 *3108:X *464:4 23 
2 *464:4 *464:10 31.9057 
3 *464:10 *2719:A1 28.3857 
4 *464:10 *464:23 4.95071 
5 *464:23 *464:31 34.4121 
6 *464:31 *3182:A 23 
7 *464:23 *3100:A1 23 
8 *464:4 *3098:A 31.8864 
*END

*D_NET *465 0.00533017
*CONN
*I *2740:A I *D sky130_fd_sc_hd__and2_4
*I *3239:A I *D sky130_fd_sc_hd__buf_2
*I *2744:A1 I *D sky130_fd_sc_hd__o21ai_2
*I *2743:A1 I *D sky130_fd_sc_hd__a21bo_2
*I *2742:A1 I *D sky130_fd_sc_hd__a21boi_2
*I *2739:A I *D sky130_fd_sc_hd__nor2_2
*I *3096:B I *D sky130_fd_sc_hd__nand2b_4
*I *3182:X O *D sky130_fd_sc_hd__buf_6
*CAP
1 *2740:A 0
2 *3239:A 0
3 *2744:A1 0
4 *2743:A1 0.000118961
5 *2742:A1 0.000167531
6 *2739:A 3.09382e-05
7 *3096:B 0
8 *3182:X 0
9 *465:79 0.00012459
10 *465:73 0.000159217
11 *465:66 0.00024534
12 *465:53 0.000374328
13 *465:38 0.000295104
14 *465:27 0.000551119
15 *465:10 0.000268858
16 *465:4 0.000706119
17 *2742:A1 *2743:A2 7.18503e-05
18 *2742:A1 *534:12 9.67842e-05
19 *2743:A1 *2743:A2 0.000135037
20 *2743:A1 *2743:B1_N 2.32004e-05
21 *465:10 *532:16 0
22 *465:10 *534:8 0
23 *465:27 *3072:B 5.67058e-05
24 *465:27 *534:8 0.000208469
25 *465:38 *534:8 6.4393e-05
26 *465:53 *2741:B1_N 4.80878e-05
27 *465:53 *534:8 1.58805e-05
28 *465:66 *2741:B1_N 0.000218962
29 *465:66 *485:8 6.7177e-06
30 *465:66 *485:27 4.23817e-05
31 *465:73 *2744:A2 0.000185434
32 S[7] *465:10 0
33 *3072:A *465:27 4.67269e-05
34 *30:9 *465:10 0.000193379
35 *199:6 *2739:A 2.93845e-05
36 *199:23 *465:38 8.62876e-05
37 *199:23 *465:53 7.48331e-05
38 *199:23 *465:66 0.000181943
39 *201:23 *465:27 4.6318e-06
40 *201:23 *465:38 1.89075e-05
41 *202:10 *465:66 4.98718e-06
42 *204:8 *465:66 7.03869e-05
43 *205:8 *465:27 0
44 *437:10 *465:27 0
45 *438:6 *465:73 0.000183733
46 *449:10 *465:79 5.46706e-05
47 *449:12 *465:66 0
48 *449:12 *465:79 0.000164291
49 *464:31 *465:10 0
*RES
1 *3182:X *465:4 23 
2 *465:4 *465:10 35.4271 
3 *465:10 *3096:B 23 
4 *465:4 *465:27 25.0464 
5 *465:27 *2739:A 38.6214 
6 *465:27 *465:38 1.90571 
7 *465:38 *2742:A1 41.045 
8 *465:38 *465:53 1.20143 
9 *465:53 *2743:A1 40.0507 
10 *465:53 *465:66 20.7793 
11 *465:66 *2744:A1 23 
12 *465:66 *465:73 2.05071 
13 *465:73 *465:79 32.9621 
14 *465:79 *3239:A 23 
15 *465:73 *2740:A 23 
*END

*D_NET *466 0.00227328
*CONN
*I *3184:A I *D sky130_fd_sc_hd__buf_8
*I *3247:A I *D sky130_fd_sc_hd__buf_2
*I *3109:X O *D sky130_fd_sc_hd__buf_8
*CAP
1 *3184:A 0.000245766
2 *3247:A 0
3 *3109:X 0.000414612
4 *466:10 0.000660378
5 *3184:A *3066:B1_N 0
6 *3184:A *475:38 0
7 *3184:A *536:19 0
8 *466:10 *475:38 0
9 *466:10 *535:10 0.000252161
10 *466:10 *536:19 0
11 *466:10 *570:6 0.000118143
12 *466:10 *607:10 0
13 *3070:B *3184:A 0.000249909
14 *32:11 *466:10 1.01436e-05
15 *63:13 *466:10 0.000187129
16 *96:8 *466:10 7.88926e-05
17 *146:8 *3184:A 0
18 *148:8 *3184:A 5.33753e-05
19 *148:8 *466:10 2.76611e-06
*RES
1 *3109:X *466:10 48.73 
2 *466:10 *3247:A 38 
3 *466:10 *3184:A 43.7793 
*END

*D_NET *467 0.00541664
*CONN
*I *3087:A I *D sky130_fd_sc_hd__and2_4
*I *3042:A I *D sky130_fd_sc_hd__nor2_2
*I *3022:A I *D sky130_fd_sc_hd__inv_16
*I *3183:X O *D sky130_fd_sc_hd__buf_8
*CAP
1 *3087:A 3.28308e-05
2 *3042:A 0
3 *3022:A 0
4 *3183:X 0
5 *467:25 0.000704507
6 *467:19 0.00106525
7 *467:10 0.00120737
8 *467:6 0.000879453
9 *467:10 *475:38 0
10 *467:25 *469:10 0
11 *467:25 *475:38 0
12 *467:25 *539:8 0
13 *2784:A2 *467:19 5.50049e-05
14 *3077:B *467:10 9.3813e-05
15 *123:10 *467:25 0
16 *149:28 *467:10 0
17 *153:12 *467:10 0
18 *154:19 *467:10 9.88575e-05
19 *154:30 *467:10 0.00013705
20 *157:8 *467:10 0
21 *169:10 *467:25 0.000202487
22 *169:12 *467:25 0.000244517
23 *173:8 *467:10 0.000143733
24 *242:25 *467:19 9.84794e-05
25 *438:41 *467:10 0
26 *449:84 *3087:A 2.64616e-05
27 *449:84 *467:19 0.000412068
28 *449:105 *467:25 1.47563e-05
*RES
1 *3183:X *467:6 38 
2 *467:6 *467:10 34.865 
3 *467:10 *3022:A 23 
4 *467:10 *467:19 8.74143 
5 *467:19 *467:25 44.2307 
6 *467:25 *3042:A 23 
7 *467:19 *3087:A 23.6214 
*END

*D_NET *468 0.00397251
*CONN
*I *3183:A I *D sky130_fd_sc_hd__buf_8
*I *3246:A I *D sky130_fd_sc_hd__buf_2
*I *3074:A1 I *D sky130_fd_sc_hd__o21a_4
*I *3184:X O *D sky130_fd_sc_hd__buf_8
*CAP
1 *3183:A 2.34823e-05
2 *3246:A 0.000337874
3 *3074:A1 0.000125922
4 *3184:X 0.000123563
5 *468:12 0.00112315
6 *468:6 0.000806398
7 *3074:A1 *570:23 6.07611e-06
8 *3074:A1 *570:34 0.000101462
9 *3246:A *503:10 5.41288e-05
10 *3246:A *569:10 0
11 *3246:A *570:34 2.71291e-05
12 *468:12 *3071:A 2.93845e-05
13 *468:12 *3071:B 9.74722e-05
14 *468:12 *3072:B 2.18409e-05
15 *3097:A *3074:A1 0.000380333
16 *94:8 *468:12 5.50106e-05
17 *149:10 *468:12 9.58714e-05
18 *149:28 *468:12 9.68547e-05
19 *150:10 *3074:A1 0.000169665
20 *150:10 *468:12 5.3304e-05
21 *449:12 *3074:A1 1.01436e-05
22 *449:12 *3246:A 0.000233443
*RES
1 *3184:X *468:6 25.0507 
2 *468:6 *468:12 27.0764 
3 *468:12 *3074:A1 43.075 
4 *468:12 *3246:A 45.2707 
5 *468:6 *3183:A 23.4971 
*END

*D_NET *469 0.0107951
*CONN
*I *3043:A I *D sky130_fd_sc_hd__and2_2
*I *3045:A1 I *D sky130_fd_sc_hd__o21ai_2
*I *3080:B I *D sky130_fd_sc_hd__nand2b_2
*I *3084:A1 I *D sky130_fd_sc_hd__o21a_4
*I *3082:A I *D sky130_fd_sc_hd__nand2_2
*I *3088:A1 I *D sky130_fd_sc_hd__o21ai_2
*I *3089:A1 I *D sky130_fd_sc_hd__a21oi_2
*I *3110:X O *D sky130_fd_sc_hd__clkbuf_2
*CAP
1 *3043:A 0
2 *3045:A1 0.000165122
3 *3080:B 0
4 *3084:A1 2.34823e-05
5 *3082:A 3.32149e-05
6 *3088:A1 0.000212027
7 *3089:A1 0
8 *3110:X 0.00084503
9 *469:91 0.000754276
10 *469:76 0.00124439
11 *469:65 0.000156885
12 *469:50 0.000553873
13 *469:39 0.000406721
14 *469:28 0.000444449
15 *469:24 0.00103028
16 *469:10 0.000372161
17 *3045:A1 *3045:B1 5.67058e-05
18 *3045:A1 *540:20 0.00024883
19 *3088:A1 *538:8 1.01436e-05
20 *469:10 *3110:A 7.51982e-05
21 *469:10 *475:38 0
22 *469:24 *533:10 3.38187e-05
23 *469:28 *538:8 0.000472577
24 *469:28 *539:8 0
25 *469:50 *538:17 0.000434153
26 *469:65 *3080:A_N 5.01263e-05
27 *469:76 *3083:A_N 7.53384e-06
28 *469:76 *520:12 4.58924e-05
29 *469:76 *538:8 8.62876e-05
30 *469:91 *3043:B 0
31 *469:91 *3045:B1 0
32 *469:91 *511:33 5.83625e-05
33 *469:91 *520:12 0.000136728
34 *469:91 *555:10 5.97178e-05
35 *469:91 *559:8 9.28842e-05
36 *3056:A2 *469:91 0.000605241
37 *3240:A *3088:A1 8.94487e-05
38 *3245:A *469:91 0
39 *2:11 *3088:A1 0.000117755
40 *3:17 *469:24 0.000124346
41 *3:17 *469:76 2.25927e-05
42 *117:10 *469:91 5.41385e-05
43 *121:10 *469:91 0.00016599
44 *121:12 *469:91 5.94125e-05
45 *134:8 *469:91 0.000659912
46 *161:10 *3088:A1 0.000377172
47 *161:10 *469:28 0.000339242
48 *162:8 *3082:A 5.3304e-05
49 *162:8 *469:50 1.56762e-05
50 *467:25 *469:10 0
*RES
1 *3110:X *469:10 43.7379 
2 *469:10 *3089:A1 38 
3 *3110:X *469:24 29.815 
4 *469:24 *469:28 21.4836 
5 *469:28 *3088:A1 44.1314 
6 *469:28 *469:39 15 
7 *469:39 *3082:A 23.6214 
8 *469:39 *469:50 6.83571 
9 *469:50 *3084:A1 23.4971 
10 *469:50 *469:65 32.8793 
11 *469:65 *3080:B 23 
12 *469:24 *469:76 20.8207 
13 *469:76 *3045:A1 42.4329 
14 *469:76 *469:91 35.0514 
15 *469:91 *3043:A 23 
*END

*D_NET *470 0.00681457
*CONN
*I *3030:A I *D sky130_fd_sc_hd__nor2_2
*I *3031:A I *D sky130_fd_sc_hd__and2_4
*I *3185:A I *D sky130_fd_sc_hd__buf_6
*I *3038:A I *D sky130_fd_sc_hd__and2_4
*I *3037:A I *D sky130_fd_sc_hd__nor2_2
*I *3039:A I *D sky130_fd_sc_hd__nand2_2
*I *3111:X O *D sky130_fd_sc_hd__buf_6
*CAP
1 *3030:A 0
2 *3031:A 0
3 *3185:A 0.000154007
4 *3038:A 0
5 *3037:A 0.000280191
6 *3039:A 0
7 *3111:X 0.000202083
8 *470:74 0.000407888
9 *470:62 0.000648997
10 *470:26 0.000193963
11 *470:20 0.000565562
12 *470:16 0.000340342
13 *470:10 0.000586723
14 *470:8 0.000626975
15 *3037:A *3038:B 5.3304e-05
16 *3037:A *541:25 0.000490671
17 *470:8 *3186:A 0.00010018
18 *470:8 *472:12 9.84851e-05
19 *470:8 *566:8 9.88574e-06
20 *470:10 *474:10 1.01436e-05
21 *470:10 *492:8 0
22 *470:10 *566:12 4.73585e-05
23 *470:16 *3038:B 5.50049e-05
24 *470:16 *492:8 0
25 *470:16 *566:12 2.76611e-06
26 *470:20 *3038:B 0.000209918
27 *470:26 *3043:B 0
28 *470:26 *541:46 0.00034521
29 *470:26 *580:8 0
30 *470:62 *472:8 0
31 *470:62 *474:10 0.000167452
32 *470:74 *3051:B1_N 6.16531e-05
33 *470:74 *474:10 0
34 *470:74 *543:24 0.00011867
35 *470:74 *577:10 0.000249329
36 *3040:A1 *3037:A 5.67058e-05
37 *3051:A2 *470:74 0
38 *3245:A *470:26 0
39 *108:8 *470:74 9.58714e-05
40 *110:8 *470:74 1.01436e-05
41 *110:16 *470:10 0
42 *110:16 *470:16 0
43 *116:8 *470:16 9.61128e-05
44 *118:14 *470:16 0.000122217
45 *118:14 *470:20 0.000182832
46 *124:8 *470:16 4.6318e-06
47 *129:10 *470:26 7.74128e-05
48 *447:10 *470:26 0.000141879
*RES
1 *3111:X *470:8 41.48 
2 *470:8 *470:10 3.66643 
3 *470:10 *470:16 20.4893 
4 *470:16 *470:20 3.02429 
5 *470:20 *470:26 35.075 
6 *470:26 *3039:A 23 
7 *470:20 *3037:A 29.8564 
8 *470:16 *3038:A 23 
9 *470:10 *3185:A 40.5271 
10 *470:8 *470:62 19.785 
11 *470:62 *470:74 38.1407 
12 *470:74 *3031:A 23 
13 *470:62 *3030:A 23 
*END

*D_NET *471 0.0048209
*CONN
*I *2923:A I *D sky130_fd_sc_hd__nor2_2
*I *2924:A I *D sky130_fd_sc_hd__and2_4
*I *3034:A I *D sky130_fd_sc_hd__nor2_4
*I *3033:A I *D sky130_fd_sc_hd__and2_4
*I *3036:A1 I *D sky130_fd_sc_hd__o21ai_2
*I *3185:X O *D sky130_fd_sc_hd__buf_6
*CAP
1 *2923:A 0.000179345
2 *2924:A 0.000139443
3 *3034:A 0
4 *3033:A 8.79331e-05
5 *3036:A1 0.00021296
6 *3185:X 0.000182141
7 *471:47 0.000700422
8 *471:34 0.000516633
9 *471:19 0.000300339
10 *471:8 0.000472507
11 *2923:A *474:10 0
12 *2923:A *558:14 0.000194318
13 *2924:A *558:6 2.4754e-05
14 *2924:A *558:14 0.000103647
15 *3033:A *542:18 5.50049e-05
16 *3036:A1 *3036:B1 0.00026136
17 *3036:A1 *492:8 6.9896e-05
18 *3036:A1 *492:10 9.54206e-05
19 *3036:A1 *542:18 1.47563e-05
20 *3036:A1 *566:18 0.000139647
21 *471:8 *566:18 0.000221992
22 *471:19 *475:71 0
23 *471:19 *542:18 9.3813e-05
24 *471:34 *542:26 0
25 *471:47 *475:71 0
26 *471:47 *542:26 0
27 *2926:A *2923:A 4.99753e-06
28 *128:34 *3036:A1 5.94125e-05
29 *128:34 *471:19 0.000223043
30 *128:34 *471:34 0.000117017
31 *128:34 *471:47 0.000133749
32 *373:21 *2923:A 1.88713e-05
33 *373:21 *471:47 0.000197479
*RES
1 *3185:X *471:8 41.48 
2 *471:8 *3036:A1 43.7793 
3 *471:8 *471:19 2.96214 
4 *471:19 *3033:A 39.5743 
5 *471:19 *471:34 3.37643 
6 *471:34 *3034:A 38 
7 *471:34 *471:47 9.01071 
8 *471:47 *2924:A 41.0243 
9 *471:47 *2923:A 42.0807 
*END

*D_NET *472 0.000760514
*CONN
*I *3186:A I *D sky130_fd_sc_hd__buf_4
*I *3111:A I *D sky130_fd_sc_hd__buf_6
*I *3112:X O *D sky130_fd_sc_hd__dlymetal6s2s_1
*CAP
1 *3186:A 1.86526e-05
2 *3111:A 0
3 *3112:X 0.000104382
4 *472:12 5.96993e-05
5 *472:8 0.000145429
6 *3186:A *566:8 3.34247e-05
7 *472:8 *492:8 0.000196549
8 *472:12 *566:8 3.7122e-06
9 *470:8 *3186:A 0.00010018
10 *470:8 *472:12 9.84851e-05
11 *470:62 *472:8 0
*RES
1 *3112:X *472:8 40.61 
2 *472:8 *472:12 16.0979 
3 *472:12 *3111:A 23 
4 *472:12 *3186:A 24.0979 
*END

*D_NET *473 0.00382033
*CONN
*I *2753:B I *D sky130_fd_sc_hd__nand2_2
*I *2755:A_N I *D sky130_fd_sc_hd__nand3b_4
*I *3117:X O *D sky130_fd_sc_hd__clkdlybuf4s25_1
*CAP
1 *2753:B 0
2 *2755:A_N 0.000175999
3 *3117:X 0.000324158
4 *473:29 0.0004282
5 *473:12 0.000604199
6 *473:10 0.000324158
7 *2755:A_N *572:20 0.000402801
8 *473:10 *549:12 0.000167443
9 *473:29 *529:10 0
10 *473:29 *564:10 0.000308716
11 *473:29 *572:20 6.89803e-05
12 *2751:A *473:29 7.80954e-05
13 *2755:C *473:29 0.000184527
14 *44:19 *473:29 0.000161121
15 *209:10 *473:10 0.000196889
16 *211:8 *473:29 0.000168744
17 *212:6 *473:29 0.0002263
*RES
1 *3117:X *473:10 43.7379 
2 *473:10 *473:12 15 
3 *473:12 *2755:A_N 27.93 
4 *473:12 *473:29 42.0764 
5 *473:29 *2753:B 23 
*END

*D_NET *474 0.015139
*CONN
*I *2916:A I *D sky130_fd_sc_hd__and2_2
*I *2915:A I *D sky130_fd_sc_hd__nor2_2
*I *2902:A I *D sky130_fd_sc_hd__nor2_2
*I *2905:A1 I *D sky130_fd_sc_hd__o21ai_2
*I *2903:A I *D sky130_fd_sc_hd__and2_4
*I *2906:A1 I *D sky130_fd_sc_hd__a21o_2
*I *2891:A I *D sky130_fd_sc_hd__nor2_2
*I *2892:A I *D sky130_fd_sc_hd__and2_2
*I *2893:A I *D sky130_fd_sc_hd__nand2_2
*I *3186:X O *D sky130_fd_sc_hd__buf_4
*CAP
1 *2916:A 0
2 *2915:A 0
3 *2902:A 0
4 *2905:A1 0
5 *2903:A 0
6 *2906:A1 0
7 *2891:A 6.7066e-05
8 *2892:A 9.74303e-05
9 *2893:A 0
10 *3186:X 3.23287e-05
11 *474:89 0.000790292
12 *474:46 0.000223483
13 *474:40 0.00143924
14 *474:38 0.00167502
15 *474:30 0.000722468
16 *474:24 0.00108387
17 *474:22 0.000103801
18 *474:20 0.000387519
19 *474:14 0.000855698
20 *474:10 0.00257659
21 *474:8 0.00203694
22 *2892:A *548:12 0.000227497
23 *474:8 *566:8 1.73399e-05
24 *474:10 *3051:B1_N 0
25 *474:10 *492:8 0
26 *474:10 *577:10 0
27 *474:14 *557:12 0.000491451
28 *474:20 *2915:B 0.000126847
29 *474:20 *557:12 4.19743e-05
30 *474:30 *2918:B1_N 4.6318e-06
31 *474:30 *517:10 0.000107548
32 *474:30 *593:14 0
33 *474:38 *2906:A2 0.000359259
34 *474:38 *556:22 1.19796e-05
35 *474:38 *593:14 0.000167443
36 *474:40 *2896:B1_N 0.000121021
37 *474:46 *548:12 0.000141879
38 *474:89 *2905:A2 0.000202241
39 *474:89 *513:6 4.55057e-05
40 *474:89 *517:10 7.03869e-05
41 *474:89 *593:14 2.47815e-05
42 *2906:B1 *474:40 3.22879e-05
43 *2908:A_N *474:40 0.000148524
44 *2908:C *474:40 0.00010725
45 *2923:A *474:10 0
46 *19:9 *474:89 0
47 *83:8 *474:89 5.50106e-05
48 *110:16 *474:10 0
49 *128:34 *474:10 0
50 *343:6 *474:40 5.41288e-05
51 *357:10 *474:40 0.000310653
52 *463:84 *2892:A 0
53 *463:84 *474:46 0
54 *470:10 *474:10 1.01436e-05
55 *470:62 *474:10 0.000167452
56 *470:74 *474:10 0
*RES
1 *3186:X *474:8 38.6214 
2 *474:8 *474:10 38.8807 
3 *474:10 *474:14 27.5321 
4 *474:14 *474:20 5.77929 
5 *474:20 *474:22 1.57429 
6 *474:22 *474:24 15 
7 *474:24 *474:30 20.4893 
8 *474:30 *474:38 37.6436 
9 *474:38 *474:40 17.7729 
10 *474:40 *474:46 17.5271 
11 *474:46 *2893:A 38 
12 *474:46 *2892:A 40.9621 
13 *474:40 *2891:A 24.4707 
14 *474:38 *2906:A1 23 
15 *474:30 *2903:A 23 
16 *474:24 *474:89 27.76 
17 *474:89 *2905:A1 23 
18 *474:22 *2902:A 23 
19 *474:20 *2915:A 23 
20 *474:14 *2916:A 23 
*END

*D_NET *475 0.0186857
*CONN
*I *3110:A I *D sky130_fd_sc_hd__clkbuf_2
*I *3112:A I *D sky130_fd_sc_hd__dlymetal6s2s_1
*I *2936:A I *D sky130_fd_sc_hd__and2_2
*I *3109:A I *D sky130_fd_sc_hd__buf_8
*I *3108:A I *D sky130_fd_sc_hd__dlymetal6s2s_1
*I *3113:X O *D sky130_fd_sc_hd__buf_8
*CAP
1 *3110:A 0.000303018
2 *3112:A 0
3 *2936:A 0
4 *3109:A 0
5 *3108:A 7.21306e-05
6 *3113:X 0.000231077
7 *475:71 0.00133889
8 *475:56 0.00106464
9 *475:50 0.00297331
10 *475:40 0.000872805
11 *475:38 0.00156746
12 *475:36 0.00197329
13 *475:27 7.26458e-05
14 *475:21 0.00130943
15 *475:10 0.000903092
16 *475:8 0.000231077
17 *475:8 *568:25 0
18 *475:21 *3074:B1 5.67058e-05
19 *475:21 *3097:B 0.000131304
20 *475:21 *535:14 0.000169595
21 *475:21 *568:34 2.80512e-05
22 *475:27 *3073:B 9.98891e-05
23 *475:36 *535:14 0.000656742
24 *475:38 *535:10 9.48381e-06
25 *475:38 *606:10 0
26 *475:71 *542:18 0
27 *475:71 *542:26 6.18339e-05
28 S[8] *475:38 0
29 *3005:A *475:36 2.93747e-05
30 *3015:C1 *475:71 9.6289e-05
31 *3048:A1 *475:71 0.000240426
32 *3050:A1 *475:71 1.37349e-05
33 *3061:C *475:71 1.86369e-05
34 *3070:B *475:38 0
35 *3097:A *475:21 3.22879e-05
36 *3098:A *3108:A 6.62988e-05
37 *3098:A *475:21 0.000528927
38 *3184:A *475:38 0
39 *61:9 *475:8 0
40 *62:15 *475:27 9.98891e-05
41 *112:10 *475:71 8.78099e-05
42 *113:17 *475:71 0.000161121
43 *118:20 *475:71 0.000148953
44 *118:22 *475:71 0.000163521
45 *118:47 *475:71 0
46 *126:8 *475:71 0.000345295
47 *127:14 *475:71 0
48 *136:10 *475:71 3.31683e-05
49 *136:14 *475:71 0.000588075
50 *145:14 *475:38 0
51 *148:8 *475:38 0
52 *153:25 *475:38 6.92524e-05
53 *154:30 *475:38 0
54 *156:10 *475:38 0.000354769
55 *157:8 *475:38 0.000335715
56 *173:8 *475:38 0
57 *176:10 *475:8 5.80963e-05
58 *178:16 *475:8 4.6318e-06
59 *242:25 *475:38 0
60 *243:10 *475:38 9.28842e-05
61 *244:8 *475:38 0.000176256
62 *244:8 *475:50 0.000169674
63 *442:10 *475:50 0.000155739
64 *442:10 *475:71 4.99753e-06
65 *442:26 *475:71 0.000162422
66 *443:8 *475:71 6.85472e-05
67 *445:10 *475:56 7.53384e-06
68 *445:10 *475:71 0.000169683
69 *464:10 *475:8 0
70 *466:10 *475:38 0
71 *467:10 *475:38 0
72 *467:25 *475:38 0
73 *469:10 *3110:A 7.51982e-05
74 *469:10 *475:38 0
75 *471:19 *475:71 0
76 *471:47 *475:71 0
*RES
1 *3113:X *475:8 40.9621 
2 *475:8 *475:10 15 
3 *475:10 *3108:A 24.595 
4 *475:10 *475:21 16.3436 
5 *475:21 *475:27 32.61 
6 *475:27 *3109:A 23 
7 *475:21 *475:36 23.7207 
8 *475:36 *475:38 35.0071 
9 *475:38 *475:40 15 
10 *475:40 *475:50 27.5736 
11 *475:50 *475:56 34.3471 
12 *475:56 *2936:A 23 
13 *475:50 *475:71 46.5271 
14 *475:71 *3112:A 23 
15 *475:40 *3110:A 28.3857 
*END

*D_NET *476 0.000385095
*CONN
*I *2841:B I *D sky130_fd_sc_hd__xor2_4
*I *3221:X O *D sky130_fd_sc_hd__buf_4
*CAP
1 *2841:B 0
2 *3221:X 0.0001416
3 *476:10 0.0001416
4 *2885:D *476:10 5.50049e-05
5 *289:12 *476:10 4.68911e-05
6 *289:39 *476:10 0
*RES
1 *3221:X *476:10 40.8793 
2 *476:10 *2841:B 38 
*END

*D_NET *477 0.000416001
*CONN
*I *2857:A2_N I *D sky130_fd_sc_hd__o2bb2ai_2
*I *3222:X O *D sky130_fd_sc_hd__buf_6
*CAP
1 *2857:A2_N 0.00011659
2 *3222:X 0.00011659
3 *2857:A1_N *2857:A2_N 0.00018282
*RES
1 *3222:X *2857:A2_N 48.5271 
*END

*D_NET *478 0.000700785
*CONN
*I *2849:A2_N I *D sky130_fd_sc_hd__o2bb2ai_2
*I *3223:X O *D sky130_fd_sc_hd__buf_6
*CAP
1 *2849:A2_N 0
2 *3223:X 0.000186689
3 *478:10 0.000186689
4 *2885:D *478:10 3.06991e-05
5 *3221:A *478:10 0.000102389
6 *289:25 *478:10 0.000194318
*RES
1 *3223:X *478:10 42.5364 
2 *478:10 *2849:A2_N 38 
*END

*D_NET *479 0.000371777
*CONN
*I *2791:A2 I *D sky130_fd_sc_hd__a31oi_2
*I *3224:X O *D sky130_fd_sc_hd__buf_2
*CAP
1 *2791:A2 0.000135798
2 *3224:X 0.000135798
3 *2791:A3 *2791:A2 0.00010018
*RES
1 *3224:X *2791:A2 48.5479 
*END

*D_NET *480 0.00045422
*CONN
*I *2791:A1 I *D sky130_fd_sc_hd__a31oi_2
*I *3225:X O *D sky130_fd_sc_hd__buf_2
*CAP
1 *2791:A1 0.00017702
2 *3225:X 0.00017702
3 *133:20 *2791:A1 0.00010018
*RES
1 *3225:X *2791:A1 49.5007 
*END

*D_NET *481 0.000433463
*CONN
*I *2865:A1 I *D sky130_fd_sc_hd__a211o_2
*I *3226:X O *D sky130_fd_sc_hd__buf_2
*CAP
1 *2865:A1 0.000182304
2 *3226:X 0.000182304
3 *310:16 *2865:A1 6.88554e-05
*RES
1 *3226:X *2865:A1 49.5214 
*END

*D_NET *482 0.000715459
*CONN
*I *2795:B I *D sky130_fd_sc_hd__xor2_2
*I *3227:X O *D sky130_fd_sc_hd__buf_2
*CAP
1 *2795:B 0
2 *3227:X 0.000343272
3 *482:10 0.000343272
4 *482:10 *581:8 0
5 *3249:A *482:10 2.8914e-05
*RES
1 *3227:X *482:10 43.6964 
2 *482:10 *2795:B 15 
*END

*D_NET *483 0.000879004
*CONN
*I *2900:A1 I *D sky130_fd_sc_hd__o211ai_2
*I *3228:X O *D sky130_fd_sc_hd__buf_2
*CAP
1 *2900:A1 0
2 *3228:X 0.000251261
3 *483:10 0.000251261
4 *483:10 *609:10 0
5 *483:10 *609:12 0
6 *254:12 *483:10 3.71251e-05
7 *342:10 *483:10 0.000169674
8 *342:21 *483:10 0.000169683
*RES
1 *3228:X *483:10 43.4686 
2 *483:10 *2900:A1 38 
*END

*D_NET *484 0.00161962
*CONN
*I *2830:B1 I *D sky130_fd_sc_hd__o21ai_4
*I *2832:B1_N I *D sky130_fd_sc_hd__o21ba_2
*I *3118:X O *D sky130_fd_sc_hd__clkdlybuf4s25_1
*CAP
1 *2830:B1 0
2 *2832:B1_N 0.000153369
3 *3118:X 0.000355272
4 *484:10 0.000508642
5 *2832:B1_N *3200:A 5.50049e-05
6 *484:10 *550:48 0.000164282
7 *2832:A1 *2832:B1_N 0
8 *2832:A1 *484:10 0
9 *285:10 *2832:B1_N 0
10 *286:10 *484:10 5.3365e-05
11 *459:62 *2832:B1_N 9.53705e-05
12 *459:62 *484:10 0.000234312
*RES
1 *3118:X *484:10 45.6021 
2 *484:10 *2832:B1_N 41.2314 
3 *484:10 *2830:B1 38 
*END

*D_NET *485 0.002213
*CONN
*I *3002:A1_N I *D sky130_fd_sc_hd__o2bb2ai_4
*I *2781:C I *D sky130_fd_sc_hd__nand3_4
*I *2745:B1 I *D sky130_fd_sc_hd__o21ai_2
*I *3229:X O *D sky130_fd_sc_hd__buf_2
*CAP
1 *3002:A1_N 0
2 *2781:C 0
3 *2745:B1 1.49804e-05
4 *3229:X 0.000162245
5 *485:35 0.000229054
6 *485:27 0.000510202
7 *485:8 0.000458373
8 *2745:A1 *2745:B1 5.50106e-05
9 *2746:D *2745:B1 5.50106e-05
10 *2781:B *485:35 0
11 *3002:A2_N *485:27 5.54148e-05
12 *3002:A2_N *485:35 5.50106e-05
13 *199:23 *485:8 2.60152e-05
14 *201:23 *485:8 0.000292856
15 *203:26 *485:8 2.04774e-05
16 *205:8 *485:8 0.000158629
17 *241:8 *485:35 0
18 *438:6 *485:27 7.06229e-05
19 *465:66 *485:8 6.7177e-06
20 *465:66 *485:27 4.23817e-05
*RES
1 *3229:X *485:8 43.075 
2 *485:8 *2745:B1 38.6214 
3 *485:8 *485:27 20.9036 
4 *485:27 *485:35 33.9357 
5 *485:35 *2781:C 23 
6 *485:27 *3002:A1_N 23 
*END

*D_NET *486 0.000368004
*CONN
*I *2944:B2 I *D sky130_fd_sc_hd__o221ai_4
*I *3230:X O *D sky130_fd_sc_hd__buf_4
*CAP
1 *2944:B2 0
2 *3230:X 0.000132226
3 *486:10 0.000132226
4 *140:22 *486:10 3.92407e-05
5 *250:30 *486:10 6.43108e-05
6 *252:14 *486:10 0
7 *396:14 *486:10 0
*RES
1 *3230:X *486:10 40.8793 
2 *486:10 *2944:B2 38 
*END

*D_NET *487 0.000892404
*CONN
*I *2793:D I *D sky130_fd_sc_hd__nand4_2
*I *3231:X O *D sky130_fd_sc_hd__buf_2
*CAP
1 *2793:D 0
2 *3231:X 0.000309272
3 *487:10 0.000309272
4 *487:10 *2793:C 0.000114092
5 *2785:A *487:10 2.93845e-05
6 *133:20 *487:10 4.5882e-05
7 *244:14 *487:10 7.42621e-05
8 *250:8 *487:10 1.02387e-05
*RES
1 *3231:X *487:10 43.3857 
2 *487:10 *2793:D 38 
*END

*D_NET *488 0.00125575
*CONN
*I *2835:A I *D sky130_fd_sc_hd__inv_2
*I *3232:X O *D sky130_fd_sc_hd__buf_2
*CAP
1 *2835:A 9.6734e-05
2 *3232:X 0.000371496
3 *488:10 0.00046823
4 *488:10 *505:14 0
5 *2887:A2 *2835:A 0.000187129
6 *277:27 *488:10 0
7 *278:47 *488:10 0.00010018
8 *291:10 *488:10 0
9 *295:8 *488:10 0
10 *337:12 *488:10 1.01436e-05
11 *462:32 *2835:A 2.18409e-05
*RES
1 *3232:X *488:10 44.1729 
2 *488:10 *2835:A 40.5271 
*END

*D_NET *489 0.000321488
*CONN
*I *2944:A1 I *D sky130_fd_sc_hd__o221ai_4
*I *3233:X O *D sky130_fd_sc_hd__buf_4
*CAP
1 *2944:A1 1.70892e-05
2 *3233:X 1.70892e-05
3 *3063:B1 *2944:A1 0.000143655
4 *140:22 *2944:A1 0.000143655
*RES
1 *3233:X *2944:A1 47.5743 
*END

*D_NET *490 0.00040423
*CONN
*I *2900:C1 I *D sky130_fd_sc_hd__o211ai_2
*I *3234:X O *D sky130_fd_sc_hd__buf_2
*CAP
1 *2900:C1 4.56369e-05
2 *3234:X 0.000107236
3 *490:8 0.000152873
4 *2900:C1 *609:8 9.84851e-05
5 *490:8 *494:10 0
6 *339:12 *490:8 0
*RES
1 *3234:X *490:8 39.9057 
2 *490:8 *2900:C1 39.0979 
*END

*D_NET *491 0.00518511
*CONN
*I *2876:B I *D sky130_fd_sc_hd__and3_2
*I *2879:B1 I *D sky130_fd_sc_hd__o21ai_2
*I *2880:B1 I *D sky130_fd_sc_hd__o31a_2
*I *2864:A I *D sky130_fd_sc_hd__nand2_2
*I *2886:A1 I *D sky130_fd_sc_hd__a31oi_2
*I *3235:X O *D sky130_fd_sc_hd__buf_2
*CAP
1 *2876:B 0.000165077
2 *2879:B1 0
3 *2880:B1 0.000125082
4 *2864:A 0.000179839
5 *2886:A1 0
6 *3235:X 0
7 *491:38 0.000188532
8 *491:32 0.000386434
9 *491:16 0.000595665
10 *491:8 0.000856547
11 *491:6 0.000238949
12 *2866:A *2880:B1 2.46468e-05
13 *2877:B *2880:B1 0.000141052
14 *2879:A2 *2880:B1 0.000116462
15 *2880:A3 *2880:B1 0.000137921
16 *2884:D1 *491:16 0
17 *2886:A3 *491:16 0
18 *296:49 *2864:A 0.00012377
19 *315:20 *491:8 7.03869e-05
20 *315:20 *491:16 0.000218696
21 *315:20 *491:32 3.55887e-05
22 *317:12 *491:8 0
23 *317:12 *491:32 0
24 *317:27 *2864:A 0.000315852
25 *317:55 *2876:B 0.000336148
26 *317:55 *491:32 7.23898e-05
27 *318:10 *2864:A 5.67058e-05
28 *324:14 *491:16 0.000249909
29 *327:10 *491:32 5.93877e-05
30 *332:8 *2876:B 7.10099e-05
31 *332:8 *491:32 4.18463e-05
32 *332:8 *491:38 2.24608e-05
33 *333:8 *2880:B1 0.000235975
34 *337:6 *491:16 6.71074e-05
35 *337:23 *491:16 4.79612e-05
36 *338:10 *491:16 3.7122e-06
*RES
1 *3235:X *491:6 38 
2 *491:6 *491:8 1.90571 
3 *491:8 *491:16 28.1743 
4 *491:16 *2886:A1 23 
5 *491:8 *2864:A 43.3857 
6 *491:6 *491:32 4.19464 
7 *491:32 *491:38 15.9425 
8 *491:38 *2880:B1 28.5929 
9 *491:38 *2879:B1 23 
10 *491:32 *2876:B 42.5468 
*END

*D_NET *492 0.00359052
*CONN
*I *3058:B1 I *D sky130_fd_sc_hd__o21a_2
*I *3019:B2 I *D sky130_fd_sc_hd__a22oi_2
*I *3018:B I *D sky130_fd_sc_hd__and4_2
*I *3236:X O *D sky130_fd_sc_hd__buf_2
*CAP
1 *3058:B1 2.84143e-05
2 *3019:B2 6.76754e-05
3 *3018:B 0.000281572
4 *3236:X 0.000371655
5 *492:10 0.000579087
6 *492:8 0.000629909
7 *3018:B *3018:A 9.75779e-05
8 *3018:B *3036:B1 1.19796e-05
9 *3018:B *3049:A1 0
10 *3019:B2 *3036:A2 1.24376e-05
11 *3019:B2 *542:6 0.000117769
12 *492:8 *566:12 5.26204e-05
13 *492:10 *3036:B1 4.9809e-06
14 *3036:A1 *492:8 6.9896e-05
15 *3036:A1 *492:10 9.54206e-05
16 *3048:B1 *3058:B1 9.67842e-05
17 *118:14 *3058:B1 9.67842e-05
18 *124:8 *3018:B 0
19 *124:8 *492:10 0
20 *128:34 *492:8 0.000538066
21 *129:28 *3019:B2 0.000123944
22 *446:20 *3018:B 0.000117401
23 *470:10 *492:8 0
24 *470:16 *492:8 0
25 *472:8 *492:8 0.000196549
26 *474:10 *492:8 0
*RES
1 *3236:X *492:8 48.3571 
2 *492:8 *492:10 3.31429 
3 *492:10 *3018:B 42.4329 
4 *492:10 *3019:B2 40.5271 
5 *492:8 *3058:B1 39.0979 
*END

*D_NET *493 0.000691609
*CONN
*I *2875:B1 I *D sky130_fd_sc_hd__o21ai_2
*I *2874:B1 I *D sky130_fd_sc_hd__o21a_2
*I *3237:X O *D sky130_fd_sc_hd__buf_2
*CAP
1 *2875:B1 0
2 *2874:B1 0.00012828
3 *3237:X 0.000190551
4 *493:12 0.00012828
5 *493:10 0.000190551
6 *2874:A1 *2874:B1 3.62905e-05
7 *2874:A2 *2874:B1 1.76557e-05
8 *315:20 *493:10 0
9 *324:25 *493:10 0
10 *327:10 *493:10 0
*RES
1 *3237:X *493:10 40.6514 
2 *493:10 *493:12 15 
3 *493:12 *2874:B1 25.5479 
4 *493:12 *2875:B1 23 
*END

*D_NET *494 0.000343701
*CONN
*I *2900:A2 I *D sky130_fd_sc_hd__o211ai_2
*I *3238:X O *D sky130_fd_sc_hd__buf_2
*CAP
1 *2900:A2 0
2 *3238:X 0.000134346
3 *494:10 0.000134346
4 *2900:B1 *494:10 4.6318e-06
5 *342:21 *494:10 7.03766e-05
6 *490:8 *494:10 0
*RES
1 *3238:X *494:10 40.5271 
2 *494:10 *2900:A2 38 
*END

*D_NET *495 0.00291383
*CONN
*I *2844:B1_N I *D sky130_fd_sc_hd__o21ba_2
*I *2845:B1_N I *D sky130_fd_sc_hd__o21bai_4
*I *2846:B1 I *D sky130_fd_sc_hd__o21ai_2
*I *3119:X O *D sky130_fd_sc_hd__clkdlybuf4s25_1
*CAP
1 *2844:B1_N 0.000167918
2 *2845:B1_N 7.53604e-05
3 *2846:B1 0.000455659
4 *3119:X 9.72223e-05
5 *495:10 0.000664989
6 *495:8 0.000399109
7 S[21] *495:8 0
8 *2851:A1 *2846:B1 3.47781e-05
9 *2853:A1 *2846:B1 5.51449e-05
10 *2853:A2 *2846:B1 6.50671e-05
11 *2853:B1 *2846:B1 5.56356e-05
12 *2853:C1 *2846:B1 5.56356e-05
13 *2857:B1 *2845:B1_N 5.3304e-05
14 *2857:B2 *2846:B1 0
15 *299:10 *2844:B1_N 0.000177667
16 *299:10 *495:8 5.24393e-05
17 *299:10 *495:10 0.000223043
18 *299:12 *2846:B1 0.000139647
19 *299:12 *495:10 2.46345e-05
20 *299:31 *2846:B1 5.3304e-05
21 *300:30 *2845:B1_N 6.17437e-06
22 *301:6 *2846:B1 9.65932e-06
23 *307:8 *2846:B1 4.74355e-05
24 *320:8 *495:10 0
*RES
1 *3119:X *495:8 39.9057 
2 *495:8 *495:10 3.31429 
3 *495:10 *2846:B1 46.5964 
4 *495:10 *2845:B1_N 39.0979 
5 *495:8 *2844:B1_N 41.9564 
*END

*D_NET *496 0.00248099
*CONN
*I *2935:A I *D sky130_fd_sc_hd__nor2_2
*I *3239:X O *D sky130_fd_sc_hd__buf_2
*CAP
1 *2935:A 0
2 *3239:X 0
3 *496:12 0.0011376
4 *496:6 0.0011376
5 *496:12 *559:12 0.000177899
6 *3225:A *496:12 0
7 *173:28 *496:12 0
8 *244:27 *496:12 0
9 *449:10 *496:12 2.79004e-05
*RES
1 *3239:X *496:6 38 
2 *496:6 *496:12 37.2886 
3 *496:12 *2935:A 23 
*END

*D_NET *497 0.000572497
*CONN
*I *3086:A I *D sky130_fd_sc_hd__nand2_2
*I *3240:X O *D sky130_fd_sc_hd__buf_2
*CAP
1 *3086:A 0
2 *3240:X 0.000244301
3 *497:10 0.000244301
4 *497:10 *500:8 0
5 *3240:A *497:10 7.24484e-05
6 *163:22 *497:10 0
7 *164:8 *497:10 1.14452e-05
*RES
1 *3240:X *497:10 41.9564 
2 *497:10 *3086:A 38 
*END

*D_NET *498 0.000337846
*CONN
*I *3055:B1 I *D sky130_fd_sc_hd__o21ai_4
*I *3241:X O *D sky130_fd_sc_hd__buf_2
*CAP
1 *3055:B1 4.24511e-05
2 *3241:X 9.71635e-05
3 *498:8 0.000139615
4 *3053:B1 *498:8 0
5 *141:8 *498:8 5.86165e-05
*RES
1 *3241:X *498:8 40.2579 
2 *498:8 *3055:B1 38.6214 
*END

*D_NET *499 0.00197749
*CONN
*I *3059:B I *D sky130_fd_sc_hd__nand2_2
*I *3015:B1 I *D sky130_fd_sc_hd__o211ai_2
*I *3242:X O *D sky130_fd_sc_hd__buf_2
*CAP
1 *3059:B 0
2 *3015:B1 0.000427452
3 *3242:X 0.000294951
4 *499:10 0.000722403
5 *3044:A *3015:B1 0
6 *3044:A *499:10 0
7 *3046:B1 *499:10 1.24376e-05
8 *3061:C *499:10 2.02872e-05
9 *118:47 *3015:B1 3.70187e-05
10 *118:47 *499:10 0.000124102
11 *119:37 *499:10 5.73835e-06
12 *137:8 *3015:B1 0
13 *442:26 *499:10 9.84851e-05
14 *443:8 *3015:B1 0.0001796
15 *445:10 *3015:B1 5.50106e-05
*RES
1 *3242:X *499:10 42.4329 
2 *499:10 *3015:B1 46.5964 
3 *499:10 *3059:B 38 
*END

*D_NET *500 0.000732942
*CONN
*I *3092:B1 I *D sky130_fd_sc_hd__o21a_2
*I *3243:X O *D sky130_fd_sc_hd__buf_2
*CAP
1 *3092:B1 0
2 *3243:X 0.00019337
3 *500:8 0.00019337
4 *3092:A2 *500:8 7.76364e-06
5 *163:10 *500:8 0.000168754
6 *163:16 *500:8 0.000169683
7 *163:22 *500:8 0
8 *166:51 *500:8 0
9 *497:10 *500:8 0
*RES
1 *3243:X *500:8 42.7229 
2 *500:8 *3092:B1 38 
*END

*D_NET *501 0.00244112
*CONN
*I *3058:A1 I *D sky130_fd_sc_hd__o21a_2
*I *3049:A1 I *D sky130_fd_sc_hd__o211ai_2
*I *3244:X O *D sky130_fd_sc_hd__buf_2
*CAP
1 *3058:A1 0
2 *3049:A1 0.00026459
3 *3244:X 0.000392934
4 *501:10 0.000657524
5 *3049:A1 *3036:B1 3.41958e-05
6 *3049:A1 *542:18 0.000185518
7 *501:10 *542:18 0.000135547
8 *3018:B *3049:A1 0
9 *3049:A2 *3049:A1 0.000220997
10 *3050:A2 *501:10 4.34973e-05
11 *3058:A2 *3049:A1 0.000184546
12 *3244:A *501:10 0.000115
13 *119:20 *3049:A1 9.20311e-06
14 *124:8 *3049:A1 0
15 *128:10 *3049:A1 2.60152e-05
16 *128:10 *501:10 7.13708e-05
17 *446:20 *3049:A1 0.00010018
*RES
1 *3244:X *501:10 43.8621 
2 *501:10 *3049:A1 44.8771 
3 *501:10 *3058:A1 38 
*END

*D_NET *502 0.00197356
*CONN
*I *3019:A1 I *D sky130_fd_sc_hd__a22oi_2
*I *3018:A I *D sky130_fd_sc_hd__and4_2
*I *3245:X O *D sky130_fd_sc_hd__buf_2
*CAP
1 *3019:A1 7.95654e-05
2 *3018:A 0.000138898
3 *3245:X 0.000267266
4 *502:10 0.00048573
5 *502:10 *511:12 0
6 *502:10 *596:8 5.67058e-05
7 *3018:B *3018:A 9.75779e-05
8 *3245:A *3019:A1 0.000163361
9 *3245:A *502:10 0.000398655
10 *122:10 *502:10 0
11 *123:10 *502:10 3.884e-05
12 *124:8 *502:10 0
13 *446:20 *3018:A 0.000147086
14 *446:34 *3019:A1 4.48671e-05
15 *447:10 *3018:A 5.50049e-05
*RES
1 *3245:X *502:10 44.0486 
2 *502:10 *3018:A 41.48 
3 *502:10 *3019:A1 40.2579 
*END

*D_NET *503 0.00172148
*CONN
*I *3071:A I *D sky130_fd_sc_hd__nand2_2
*I *3073:B I *D sky130_fd_sc_hd__nand2b_4
*I *3246:X O *D sky130_fd_sc_hd__buf_2
*CAP
1 *3071:A 3.2539e-05
2 *3073:B 0.000345787
3 *3246:X 0.000159041
4 *503:10 0.000537367
5 *3073:B *535:27 0.000114656
6 *3073:B *569:10 0.00010404
7 *3073:B *570:23 0
8 *3073:B *570:34 0
9 *503:10 *569:10 6.79006e-05
10 *3246:A *503:10 5.41288e-05
11 *62:15 *3073:B 0
12 *149:10 *3073:B 0.000166504
13 *151:8 *3073:B 0
14 *152:8 *3073:B 1.02387e-05
15 *468:12 *3071:A 2.93845e-05
16 *475:27 *3073:B 9.98891e-05
*RES
1 *3246:X *503:10 41.0036 
2 *503:10 *3073:B 46.9486 
3 *503:10 *3071:A 38.6214 
*END

*D_NET *504 0.00291773
*CONN
*I *3064:A I *D sky130_fd_sc_hd__nor2_2
*I *3069:A1 I *D sky130_fd_sc_hd__o21ai_2
*I *3065:A I *D sky130_fd_sc_hd__and2_4
*I *3068:A1 I *D sky130_fd_sc_hd__a21boi_2
*I *3247:X O *D sky130_fd_sc_hd__buf_2
*CAP
1 *3064:A 4.44025e-05
2 *3069:A1 6.20663e-05
3 *3065:A 6.17727e-05
4 *3068:A1 0
5 *3247:X 0.000232624
6 *504:32 0.000433254
7 *504:19 0.000567372
8 *504:8 0.000411439
9 *3064:A *571:36 6.6426e-05
10 *3069:A1 *3069:A2 0.00010018
11 *3069:A1 *571:36 1.56665e-05
12 *504:8 *607:10 9.84794e-05
13 *504:19 *3068:A2 0.00010018
14 *504:19 *536:19 0
15 *504:19 *571:21 0
16 *504:32 *571:36 0
17 *3067:A1 *504:19 6.07611e-06
18 *3067:A1 *504:32 0.000119828
19 *64:19 *504:8 0.000228909
20 *64:19 *504:19 0.000141954
21 *142:8 *504:32 8.51432e-05
22 *143:6 *3065:A 0.00014196
23 *146:8 *504:19 0
*RES
1 *3247:X *504:8 28.2821 
2 *504:8 *3068:A1 23 
3 *504:8 *504:19 19.1843 
4 *504:19 *3065:A 39.5743 
5 *504:19 *504:32 21.1314 
6 *504:32 *3069:A1 24.5743 
7 *504:32 *3064:A 24.1186 
*END

*D_NET *505 0.00532903
*CONN
*I *2873:A1 I *D sky130_fd_sc_hd__a21o_2
*I *3248:X O *D sky130_fd_sc_hd__buf_2
*CAP
1 *2873:A1 0
2 *3248:X 0.000832174
3 *505:14 0.00155371
4 *505:8 0.00238589
5 *3232:A *505:14 2.96154e-05
6 *266:10 *505:8 4.04598e-06
7 *268:24 *505:14 0
8 *273:10 *505:14 0
9 *274:10 *505:14 0
10 *278:8 *505:14 0
11 *280:10 *505:14 0
12 *280:14 *505:14 0
13 *290:10 *505:14 0.000116413
14 *322:48 *505:14 0.00014411
15 *325:6 *505:14 2.93845e-05
16 *326:8 *505:14 7.03317e-05
17 *338:10 *505:14 0.000163352
18 *462:10 *505:14 0
19 *462:14 *505:14 0
20 *488:10 *505:14 0
*RES
1 *3248:X *505:8 49.1029 
2 *505:8 *505:14 43.9379 
3 *505:14 *2873:A1 23 
*END

*D_NET *506 0.00316317
*CONN
*I *2861:C I *D sky130_fd_sc_hd__nand3b_4
*I *2862:B1_N I *D sky130_fd_sc_hd__o21ba_2
*I *2863:B1_N I *D sky130_fd_sc_hd__o21bai_4
*I *3120:X O *D sky130_fd_sc_hd__clkdlybuf4s25_1
*CAP
1 *2861:C 2.80435e-05
2 *2862:B1_N 0.000151608
3 *2863:B1_N 5.45687e-05
4 *3120:X 0.000355439
5 *506:10 0.000624835
6 *506:6 0.000802141
7 *2862:B1_N *507:12 0
8 *2861:A_N *506:10 0.000183733
9 *15:11 *506:6 0.000226295
10 *315:8 *506:10 0.000135134
11 *316:10 *2862:B1_N 2.30292e-05
12 *328:10 *2862:B1_N 1.47563e-05
13 *328:10 *2863:B1_N 8.76088e-05
14 *335:8 *2862:B1_N 5.86165e-05
15 *462:10 *2862:B1_N 0.000247687
16 *462:10 *2863:B1_N 0.000169674
*RES
1 *3120:X *506:6 29.3386 
2 *506:6 *506:10 22.2914 
3 *506:10 *2863:B1_N 40.2579 
4 *506:10 *2862:B1_N 42.4121 
5 *506:6 *2861:C 23.4971 
*END

*D_NET *507 0.00395585
*CONN
*I *2870:B1_N I *D sky130_fd_sc_hd__o21ba_2
*I *2871:B1_N I *D sky130_fd_sc_hd__o21bai_4
*I *2872:B1 I *D sky130_fd_sc_hd__o21ai_2
*I *3121:X O *D sky130_fd_sc_hd__clkdlybuf4s25_1
*CAP
1 *2870:B1_N 0
2 *2871:B1_N 2.1727e-05
3 *2872:B1 0
4 *3121:X 0.000197331
5 *507:34 0.000182575
6 *507:19 0.000324645
7 *507:12 0.000818454
8 *507:8 0.000895441
9 *2871:B1_N *553:16 4.00259e-06
10 *507:12 *590:8 0
11 *507:19 *553:16 7.44257e-05
12 *507:19 *553:26 0.000185428
13 *507:34 *553:16 5.41288e-05
14 *2862:B1_N *507:12 0
15 *2882:A1 *507:12 0
16 *80:10 *507:8 8.04014e-05
17 *315:14 *507:12 0
18 *316:10 *507:12 0
19 *321:16 *507:34 0
20 *322:48 *507:12 0
21 *323:8 *507:34 9.168e-05
22 *324:6 *507:19 4.56951e-05
23 *324:25 *507:12 0.000379431
24 *325:6 *507:19 5.50106e-05
25 *328:10 *507:12 0.000348005
26 *335:8 *507:12 0.00019747
27 *462:10 *507:12 0
28 *462:10 *507:34 0
*RES
1 *3121:X *507:8 41.0036 
2 *507:8 *507:12 31.6957 
3 *507:12 *2872:B1 23 
4 *507:12 *507:19 3.48 
5 *507:19 *2871:B1_N 23.4971 
6 *507:19 *507:34 33.7079 
7 *507:34 *2870:B1_N 23 
*END

*D_NET *508 0.00064661
*CONN
*I *2802:A1 I *D sky130_fd_sc_hd__a21bo_2
*I *3249:X O *D sky130_fd_sc_hd__buf_2
*CAP
1 *2802:A1 0
2 *3249:X 0.000323305
3 *508:10 0.000323305
*RES
1 *3249:X *508:10 42.4329 
2 *508:10 *2802:A1 38 
*END

*D_NET *509 0.00201736
*CONN
*I *2894:C I *D sky130_fd_sc_hd__and3b_2
*I *2895:C I *D sky130_fd_sc_hd__nand3b_2
*I *2896:B1_N I *D sky130_fd_sc_hd__o21bai_2
*I *3122:X O *D sky130_fd_sc_hd__clkdlybuf4s25_1
*CAP
1 *2894:C 1.3639e-05
2 *2895:C 0
3 *2896:B1_N 0.000213923
4 *3122:X 0.000138053
5 *509:18 0.000489981
6 *509:12 0.000289697
7 *509:10 0.000138053
8 *509:10 *554:12 9.84851e-05
9 *509:10 *554:14 0
10 *509:18 *554:14 0
11 *509:18 *591:14 0
12 S[24] *509:10 2.29192e-05
13 S[24] *509:18 0
14 *2894:A_N *509:18 4.07715e-05
15 *2908:C *2896:B1_N 5.3304e-05
16 *344:10 *2896:B1_N 0.00019654
17 *344:10 *509:18 0.000155068
18 *345:23 *509:18 4.59027e-05
19 *346:8 *2896:B1_N 0
20 *346:8 *509:18 0
21 *347:10 *2896:B1_N 0
22 *474:40 *2896:B1_N 0.000121021
*RES
1 *3122:X *509:10 40.2993 
2 *509:10 *509:12 15 
3 *509:12 *509:18 20.5929 
4 *509:18 *2896:B1_N 43.1371 
5 *509:18 *2895:C 38 
6 *509:12 *2894:C 23.1916 
*END

*D_NET *510 0.00108009
*CONN
*I *3013:B1 I *D sky130_fd_sc_hd__a22o_4
*I *3250:X O *D sky130_fd_sc_hd__buf_6
*CAP
1 *3013:B1 0
2 *3250:X 0.000156798
3 *510:8 0.000156798
4 *510:8 *3013:A1 5.50106e-05
5 *510:8 *520:16 0.000480242
6 *510:8 *579:8 0.000231246
*RES
1 *3250:X *510:8 28.8829 
2 *510:8 *3013:B1 23 
*END

*D_NET *511 0.00389053
*CONN
*I *3250:A I *D sky130_fd_sc_hd__buf_6
*I *3012:B I *D sky130_fd_sc_hd__xor2_2
*I *3251:X O *D sky130_fd_sc_hd__buf_6
*CAP
1 *3250:A 0
2 *3012:B 0.000522253
3 *3251:X 0.000363037
4 *511:33 0.000344353
5 *511:12 0.000540936
6 *511:12 *595:16 7.75329e-06
7 *511:33 *3045:B1 0
8 *511:33 *3192:A 0.000185434
9 *511:33 *544:23 0
10 *511:33 *559:8 3.47781e-05
11 *511:33 *559:12 0.0002246
12 *511:33 *578:8 0
13 *3012:A *3012:B 0.000406297
14 *3044:A *3012:B 4.1462e-05
15 *3044:A *511:12 7.58551e-05
16 *3046:B1 *511:12 0.000168965
17 *3056:A2 *511:33 9.28945e-05
18 *120:8 *3012:B 7.13673e-05
19 *121:44 *511:12 0.000136738
20 *122:10 *511:12 0.000215791
21 *122:22 *511:33 4.21594e-06
22 *123:10 *3012:B 1.02387e-05
23 *123:10 *511:12 0
24 *135:10 *511:12 9.95114e-05
25 *135:12 *3012:B 8.43224e-05
26 *135:12 *511:12 3.26076e-05
27 *444:8 *3012:B 0.000168754
28 *469:91 *511:33 5.83625e-05
29 *502:10 *511:12 0
*RES
1 *3251:X *511:12 47.1246 
2 *511:12 *3012:B 21.8875 
3 *3012:B *511:33 38.3789 
4 *511:33 *3250:A 23 
*END

*D_NET *512 0.00175332
*CONN
*I *3010:A I *D sky130_fd_sc_hd__nand4_4
*I *2793:C I *D sky130_fd_sc_hd__nand4_2
*I *3252:X O *D sky130_fd_sc_hd__buf_6
*CAP
1 *3010:A 0.000292052
2 *2793:C 0.000265495
3 *3252:X 8.54719e-05
4 *512:8 0.000643019
5 *2793:A *2793:C 2.93747e-05
6 *3010:C *3010:A 5.50106e-05
7 *133:20 *2793:C 0
8 *245:8 *2793:C 0
9 *245:8 *512:8 0
10 *250:8 *2793:C 0.000210934
11 *250:30 *2793:C 1.19692e-05
12 *250:30 *512:8 4.59027e-05
13 *253:10 *2793:C 0
14 *487:10 *2793:C 0.000114092
*RES
1 *3252:X *512:8 39.9057 
2 *512:8 *2793:C 44.8979 
3 *512:8 *3010:A 42.4536 
*END

*D_NET *513 0.00136867
*CONN
*I *2905:B1 I *D sky130_fd_sc_hd__o21ai_2
*I *2904:B1_N I *D sky130_fd_sc_hd__o21ba_2
*I *3123:X O *D sky130_fd_sc_hd__clkdlybuf4s25_1
*CAP
1 *2905:B1 0
2 *2904:B1_N 0
3 *3123:X 0.000383644
4 *513:12 0.000112228
5 *513:6 0.000495872
6 *513:6 *2905:A2 0.000117954
7 *18:9 *513:6 0.000141052
8 *83:8 *513:6 5.37348e-06
9 *355:8 *513:12 6.70363e-05
10 *356:8 *513:12 0
11 *474:89 *513:6 4.55057e-05
*RES
1 *3123:X *513:6 30.2914 
2 *513:6 *513:12 32.2579 
3 *513:12 *2904:B1_N 23 
4 *513:6 *2905:B1 23 
*END

*D_NET *514 0.000715689
*CONN
*I *2995:B I *D sky130_fd_sc_hd__xnor2_2
*I *3253:X O *D sky130_fd_sc_hd__buf_4
*CAP
1 *2995:B 0
2 *3253:X 0.00025957
3 *514:8 0.00025957
4 *514:8 *522:36 0.000196549
5 *3253:A *514:8 0
6 *198:10 *514:8 0
7 *235:25 *514:8 0
8 *457:101 *514:8 0
*RES
1 *3253:X *514:8 43.4271 
2 *514:8 *2995:B 38 
*END

*D_NET *515 0.00036394
*CONN
*I *2774:B1 I *D sky130_fd_sc_hd__o21ai_2
*I *3254:X O *D sky130_fd_sc_hd__buf_2
*CAP
1 *2774:B1 0
2 *3254:X 0.00018197
3 *515:10 0.00018197
4 *3254:A *515:10 0
*RES
1 *3254:X *515:10 40.6514 
2 *515:10 *2774:B1 38 
*END

*D_NET *516 0.00243484
*CONN
*I *2992:A I *D sky130_fd_sc_hd__nand3_2
*I *2991:A2 I *D sky130_fd_sc_hd__a21oi_2
*I *2768:B1 I *D sky130_fd_sc_hd__o21a_2
*I *3255:X O *D sky130_fd_sc_hd__buf_2
*CAP
1 *2992:A 0
2 *2991:A2 4.24511e-05
3 *2768:B1 0.000288574
4 *3255:X 0.000287057
5 *516:12 0.000448813
6 *516:10 0.000404845
7 *2768:A2 *2768:B1 9.67842e-05
8 *2775:A1 *516:10 3.5664e-05
9 *2775:A2 *516:10 0.000300812
10 *2992:C *2768:B1 0
11 *2992:C *516:10 0
12 *2992:C *516:12 0
13 *225:29 *2768:B1 0.00019231
14 *225:40 *516:10 1.24376e-05
15 *227:10 *2768:B1 8.33365e-05
16 *227:10 *516:10 7.75329e-06
17 *227:10 *516:12 7.4878e-05
18 *228:10 *2768:B1 4.5051e-05
19 *431:10 *2768:B1 0
20 *432:10 *516:10 0
21 *433:8 *516:10 0.000114074
*RES
1 *3255:X *516:10 43.3857 
2 *516:10 *516:12 2.96214 
3 *516:12 *2768:B1 44.7943 
4 *516:12 *2991:A2 38.6214 
5 *516:10 *2992:A 38 
*END

*D_NET *517 0.00175101
*CONN
*I *2917:C_N I *D sky130_fd_sc_hd__or3b_4
*I *2918:B1_N I *D sky130_fd_sc_hd__o21bai_2
*I *3124:X O *D sky130_fd_sc_hd__clkdlybuf4s25_1
*CAP
1 *2917:C_N 0
2 *2918:B1_N 0.000126683
3 *3124:X 0.000601201
4 *517:10 0.000727884
5 *2918:B1_N *593:14 0
6 *2918:A1 *2918:B1_N 0
7 *2918:A1 *517:10 0
8 *19:9 *517:10 3.22879e-05
9 *51:9 *517:10 7.53384e-06
10 *365:8 *517:10 0
11 *367:8 *2918:B1_N 7.28526e-05
12 *474:30 *2918:B1_N 4.6318e-06
13 *474:30 *517:10 0.000107548
14 *474:89 *517:10 7.03869e-05
*RES
1 *3124:X *517:10 48.1086 
2 *517:10 *2918:B1_N 40.9621 
3 *517:10 *2917:C_N 38 
*END

*D_NET *518 0.0026288
*CONN
*I *3083:A_N I *D sky130_fd_sc_hd__nand3b_4
*I *3084:B1 I *D sky130_fd_sc_hd__o21a_4
*I *3125:X O *D sky130_fd_sc_hd__clkdlybuf4s25_1
*CAP
1 *3083:A_N 0.000398082
2 *3084:B1 0
3 *3125:X 0.000604609
4 *518:10 0.00100269
5 *3083:A_N *538:8 0
6 *518:10 *3087:B 4.93223e-05
7 *3081:A *3083:A_N 0
8 *3081:A *518:10 0
9 *3:17 *3083:A_N 0.000272377
10 *159:8 *3083:A_N 0.000223808
11 *159:8 *518:10 7.03766e-05
12 *449:105 *3083:A_N 0
13 *469:76 *3083:A_N 7.53384e-06
*RES
1 *3125:X *518:10 46.2443 
2 *518:10 *3084:B1 38 
3 *518:10 *3083:A_N 47.135 
*END

*D_NET *519 0.00334978
*CONN
*I *2925:B1_N I *D sky130_fd_sc_hd__o21ba_2
*I *2926:C_N I *D sky130_fd_sc_hd__or3b_4
*I *3126:X O *D sky130_fd_sc_hd__clkdlybuf4s25_1
*CAP
1 *2925:B1_N 0
2 *2926:C_N 0.000175448
3 *3126:X 0.00138526
4 *519:10 0.000289633
5 *519:6 0.00149944
6 *2926:A *2926:C_N 0
7 *2926:A *519:10 0
8 *372:8 *519:10 0
9 *373:21 *2926:C_N 0
10 *375:10 *2926:C_N 0
11 *375:10 *519:10 0
*RES
1 *3126:X *519:6 40.7729 
2 *519:6 *519:10 16.9057 
3 *519:10 *2926:C_N 41.3143 
4 *519:10 *2925:B1_N 38 
*END

*D_NET *520 0.00960523
*CONN
*I *2938:C_N I *D sky130_fd_sc_hd__nor3b_2
*I *2937:B1_N I *D sky130_fd_sc_hd__o21bai_2
*I *2939:C_N I *D sky130_fd_sc_hd__or3b_2
*I *3127:X O *D sky130_fd_sc_hd__clkdlybuf4s25_1
*CAP
1 *2938:C_N 2.34823e-05
2 *2937:B1_N 0.000167805
3 *2939:C_N 0.000277824
4 *3127:X 0.000129321
5 *520:22 0.000767529
6 *520:16 0.00247565
7 *520:12 0.0024845
8 *520:8 0.000483552
9 *520:12 *540:20 0.000673486
10 *520:16 *579:8 0.000200369
11 *2938:A *520:22 0.000150273
12 *2939:A *2939:C_N 0.000141052
13 *2939:B *2939:C_N 5.3304e-05
14 *34:15 *520:8 3.22879e-05
15 *35:15 *520:8 3.98818e-05
16 *134:8 *520:12 0.000137163
17 *245:8 *2939:C_N 0.000192077
18 *245:8 *520:22 0.000215131
19 *383:17 *2939:C_N 9.39056e-05
20 *383:17 *520:22 4.6318e-06
21 *386:8 *520:22 0
22 *387:12 *2939:C_N 0.000100653
23 *404:8 *520:22 9.84851e-05
24 *469:76 *520:12 4.58924e-05
25 *469:91 *520:12 0.000136728
26 *510:8 *520:16 0.000480242
*RES
1 *3127:X *520:8 40.0507 
2 *520:8 *520:12 26.0614 
3 *520:12 *520:16 35.8979 
4 *520:16 *520:22 22.395 
5 *520:22 *2939:C_N 45.0843 
6 *520:22 *2937:B1_N 40.5271 
7 *520:16 *2938:C_N 23.4971 
*END

*D_NET *521 0.00873479
*CONN
*I *2956:B1_N I *D sky130_fd_sc_hd__o21bai_2
*I *2955:B1_N I *D sky130_fd_sc_hd__o21ba_2
*I *2954:C_N I *D sky130_fd_sc_hd__or3b_2
*I *3128:X O *D sky130_fd_sc_hd__clkdlybuf4s25_1
*CAP
1 *2956:B1_N 0.000128637
2 *2955:B1_N 0.000301302
3 *2954:C_N 0
4 *3128:X 0.000272151
5 *521:25 0.000570347
6 *521:14 0.00165114
7 *521:8 0.00178289
8 *521:8 *3113:A 0.000350606
9 *521:14 *2953:B 0
10 *521:14 *560:14 0.000511225
11 *521:14 *565:16 0
12 *2735:A1 *521:14 0
13 *2955:A1 *2955:B1_N 0.000141954
14 *2955:A2 *2955:B1_N 7.57021e-05
15 *182:10 *521:14 4.08537e-05
16 *191:16 *521:14 0.000400905
17 *192:8 *521:14 2.24151e-05
18 *193:10 *521:14 0.000163352
19 *194:10 *521:14 2.79004e-05
20 *194:29 *521:14 1.94685e-05
21 *399:8 *521:14 5.26101e-05
22 *399:21 *521:14 2.76611e-06
23 *399:21 *521:25 2.44393e-05
24 *400:19 *521:25 8.16356e-05
25 *401:10 *521:25 0.000105165
26 *402:8 *2955:B1_N 5.67058e-05
27 *449:48 *521:14 0.00100008
28 *456:19 *521:14 0.000577427
29 *456:67 *521:14 0
30 *457:101 *521:14 0.000165114
31 *457:107 *521:14 0.000196549
32 *457:107 *521:25 1.14452e-05
*RES
1 *3128:X *521:8 41.9564 
2 *521:8 *521:14 40.2479 
3 *521:14 *2954:C_N 38 
4 *521:14 *521:25 18.3143 
5 *521:25 *2955:B1_N 29.3593 
6 *521:25 *2956:B1_N 25.0507 
*END

*D_NET *522 0.0086604
*CONN
*I *2994:A1 I *D sky130_fd_sc_hd__a21oi_4
*I *2989:C1 I *D sky130_fd_sc_hd__a211o_4
*I *2988:C1 I *D sky130_fd_sc_hd__a211o_4
*I *3256:X O *D sky130_fd_sc_hd__buf_6
*CAP
1 *2994:A1 0
2 *2989:C1 0
3 *2988:C1 0
4 *3256:X 0.000256088
5 *522:36 0.00219297
6 *522:20 0.000139951
7 *522:14 0.000490365
8 *522:10 0.00254339
9 *522:8 0.000256088
10 *522:8 *564:10 0.000230671
11 *522:20 *597:10 0
12 *522:36 *565:27 0
13 *522:36 *565:40 0
14 *522:36 *567:59 3.85021e-05
15 *522:36 *567:70 0.000402801
16 *522:36 *602:12 0
17 *2756:A2 *522:20 1.02387e-05
18 *2786:A1 *522:8 8.72173e-05
19 *2787:A2 *522:20 2.77955e-05
20 *2989:A2 *522:14 2.98648e-05
21 *2989:B1 *522:20 3.92407e-05
22 *3253:A *522:36 0
23 *187:10 *522:36 6.9805e-05
24 *212:10 *522:8 1.01436e-05
25 *212:21 *522:8 0.000392333
26 *213:6 *522:14 1.24376e-05
27 *213:6 *522:36 0.000342591
28 *213:10 *522:14 0.000219383
29 *214:10 *522:20 2.60152e-05
30 *220:12 *522:20 0.000140949
31 *434:10 *522:36 0
32 *435:8 *522:36 0.00025596
33 *456:21 *522:36 0.000132374
34 *456:67 *522:36 9.62666e-05
35 *457:61 *522:14 2.92911e-06
36 *457:61 *522:36 1.74848e-05
37 *457:101 *522:36 0
38 *514:8 *522:36 0.000196549
*RES
1 *3256:X *522:8 44.4836 
2 *522:8 *522:10 15 
3 *522:10 *522:14 4.80571 
4 *522:14 *522:20 33.3143 
5 *522:20 *2988:C1 23 
6 *522:14 *2989:C1 23 
7 *522:10 *522:36 49.7586 
8 *522:36 *2994:A1 38 
*END

*D_NET *523 0.000470303
*CONN
*I *2987:A I *D sky130_fd_sc_hd__xnor2_2
*I *3257:X O *D sky130_fd_sc_hd__buf_6
*CAP
1 *2987:A 6.34361e-05
2 *3257:X 9.51565e-05
3 *523:8 0.000158593
4 *523:8 *597:10 0
5 S[1] *523:8 1.12487e-05
6 *429:10 *523:8 0.000141869
*RES
1 *3257:X *523:8 40.2579 
2 *523:8 *2987:A 39.0979 
*END

*D_NET *524 0.000345328
*CONN
*I *2988:A2 I *D sky130_fd_sc_hd__a211o_4
*I *3258:X O *D sky130_fd_sc_hd__buf_2
*CAP
1 *2988:A2 0.000131617
2 *3258:X 0.000131617
3 *2988:A2 *2751:B 2.79662e-05
4 *2988:A1 *2988:A2 0
5 *3258:A *2988:A2 5.41288e-05
*RES
1 *3258:X *2988:A2 48.5479 
*END

*D_NET *525 0.000887061
*CONN
*I *2989:A1 I *D sky130_fd_sc_hd__a211o_4
*I *3259:X O *D sky130_fd_sc_hd__buf_2
*CAP
1 *2989:A1 2.55354e-05
2 *3259:X 0.00020473
3 *525:10 0.000230265
4 *2786:A1 *525:10 0.000133316
5 *2989:A2 *2989:A1 5.50106e-05
6 *3259:A *525:10 5.3304e-05
7 *213:10 *2989:A1 9.67842e-05
8 *214:10 *2989:A1 2.4754e-05
9 *215:29 *525:10 6.33614e-05
*RES
1 *3259:X *525:10 41.48 
2 *525:10 *2989:A1 39.0979 
*END

*D_NET *526 0.00419507
*CONN
*I *2766:B1_N I *D sky130_fd_sc_hd__o21bai_4
*I *2767:B1 I *D sky130_fd_sc_hd__o21ai_4
*I *3129:X O *D sky130_fd_sc_hd__clkdlybuf4s25_1
*CAP
1 *2766:B1_N 0
2 *2767:B1 0.000146947
3 *3129:X 0.000841894
4 *526:10 0.000218482
5 *526:6 0.00091343
6 *2767:B1 *2767:A2 9.67842e-05
7 *2767:B1 *572:52 9.63918e-05
8 *526:6 *601:6 0.0015829
9 *526:10 *572:52 9.98891e-05
10 *453:42 *2767:B1 4.6318e-06
11 *453:57 *2767:B1 9.98995e-05
12 *453:57 *526:10 9.3813e-05
*RES
1 *3129:X *526:6 42.2021 
2 *526:6 *526:10 17.61 
3 *526:10 *2767:B1 41.7079 
4 *526:10 *2766:B1_N 38 
*END

*D_NET *527 0.00147685
*CONN
*I *2963:C_N I *D sky130_fd_sc_hd__or3b_2
*I *2965:B1_N I *D sky130_fd_sc_hd__o21bai_2
*I *2964:B1_N I *D sky130_fd_sc_hd__o21ba_2
*I *3130:X O *D sky130_fd_sc_hd__clkdlybuf4s25_1
*CAP
1 *2963:C_N 4.39143e-05
2 *2965:B1_N 0
3 *2964:B1_N 0
4 *3130:X 9.18994e-05
5 *527:27 0.000100984
6 *527:21 0.000276652
7 *527:12 0.000176159
8 *527:8 0.000136305
9 *527:8 *608:8 4.33941e-05
10 *527:27 *608:8 0
11 *2964:A1 *2963:C_N 5.67058e-05
12 *2964:A2 *527:27 1.14452e-05
13 *2976:A *527:12 5.70419e-05
14 *2976:A *527:21 4.6595e-05
15 *56:11 *527:8 2.26497e-05
16 *407:19 *2963:C_N 4.34745e-05
17 *408:23 *2963:C_N 1.03955e-05
18 *408:23 *527:21 2.93845e-05
19 *410:10 *527:27 7.03663e-05
20 *457:23 *527:27 8.51329e-05
21 *457:27 *2963:C_N 9.67842e-05
22 *457:27 *527:21 6.9805e-05
23 *457:42 *527:8 0
24 *457:42 *527:27 7.76364e-06
*RES
1 *3130:X *527:8 39.9057 
2 *527:8 *527:12 16.0979 
3 *527:12 *2964:B1_N 23 
4 *527:12 *527:21 3.02429 
5 *527:21 *527:27 32.61 
6 *527:27 *2965:B1_N 23 
7 *527:21 *2963:C_N 24.5743 
*END

*D_NET *528 0.00187719
*CONN
*I *3021:A1_N I *D sky130_fd_sc_hd__o2bb2ai_4
*I *2977:A I *D sky130_fd_sc_hd__xnor2_2
*I *3131:X O *D sky130_fd_sc_hd__clkdlybuf4s25_1
*CAP
1 *3021:A1_N 0.000521549
2 *2977:A 0.000231108
3 *3131:X 0.000115859
4 *528:8 0.000868516
5 *3021:A1_N *563:8 0
6 *3021:A1_N *608:8 2.22079e-05
7 *528:8 *563:8 0
8 *2983:A *3021:A1_N 0
9 *410:10 *3021:A1_N 0
10 *422:10 *2977:A 9.84794e-05
11 *425:8 *3021:A1_N 1.94693e-05
12 *428:8 *3021:A1_N 0
13 *457:23 *528:8 0
*RES
1 *3131:X *528:8 39.9057 
2 *528:8 *2977:A 42.4329 
3 *528:8 *3021:A1_N 46.5964 
*END

*D_NET *529 0.00376853
*CONN
*I *2773:B1_N I *D sky130_fd_sc_hd__o21bai_4
*I *2771:B1 I *D sky130_fd_sc_hd__o21ai_4
*I *3132:X O *D sky130_fd_sc_hd__clkdlybuf4s25_1
*CAP
1 *2773:B1_N 0.000290092
2 *2771:B1 2.95011e-05
3 *3132:X 5.14097e-05
4 *529:10 0.000812734
5 *529:8 0.000544551
6 *2773:B1_N *2772:A2 0.000103637
7 *529:10 *2772:A2 0
8 *529:10 *564:10 0
9 *529:10 *564:29 0.00025307
10 *529:10 *567:59 0
11 *2751:A *529:10 0.000194318
12 *2772:B1 *2773:B1_N 0.000190985
13 *26:9 *529:10 1.01436e-05
14 *211:8 *529:10 5.26101e-05
15 *223:29 *529:8 9.58714e-05
16 *223:29 *529:10 0.000114656
17 *229:10 *2773:B1_N 0.000105165
18 *229:10 *529:10 9.3813e-05
19 *230:8 *2773:B1_N 0.000207507
20 *230:8 *529:10 0.000415752
21 *233:10 *2773:B1_N 0.00010018
22 *455:59 *529:10 0
23 *455:91 *2771:B1 5.50106e-05
24 *455:91 *2773:B1_N 4.75206e-05
25 *473:29 *529:10 0
*RES
1 *3132:X *529:8 39.0979 
2 *529:8 *529:10 13.8786 
3 *529:10 *2771:B1 38.6214 
4 *529:10 *2773:B1_N 46.3686 
*END

*D_NET *530 0.00757914
*CONN
*I *2736:A_N I *D sky130_fd_sc_hd__and3b_2
*I *2737:A_N I *D sky130_fd_sc_hd__nand3b_2
*I *2734:B1 I *D sky130_fd_sc_hd__o21ai_2
*I *3133:X O *D sky130_fd_sc_hd__clkdlybuf4s25_1
*CAP
1 *2736:A_N 0
2 *2737:A_N 0.000151683
3 *2734:B1 0
4 *3133:X 0.000212216
5 *530:28 0.000413822
6 *530:18 0.000679837
7 *530:14 0.0011469
8 *530:8 0.00124479
9 *530:8 *564:6 0.000317553
10 *530:8 *567:18 0.000392386
11 *530:14 *2726:A2 0
12 *530:14 *567:18 5.31444e-05
13 *530:14 *567:31 0.000101564
14 *530:14 *567:72 0
15 *530:28 *565:16 0
16 *2726:A1 *530:28 4.9662e-05
17 *2727:A1 *530:14 2.61802e-05
18 *2736:B *2737:A_N 0.000278909
19 *2736:C *2737:A_N 0.000134326
20 *2750:A *530:14 1.02387e-05
21 *60:11 *530:8 0.000781048
22 *185:14 *530:28 0.000137651
23 *186:12 *530:28 2.30292e-05
24 *194:10 *530:28 7.53384e-06
25 *455:8 *530:14 0.00031656
26 *455:46 *530:14 0.00014411
27 *455:59 *530:14 0.000342652
28 *455:70 *530:14 0.000129412
29 *455:81 *530:14 6.07611e-06
30 *456:38 *530:28 9.74235e-05
31 *457:61 *530:14 6.07929e-05
32 *457:67 *530:14 0.000296426
33 *457:75 *530:8 2.32101e-05
34 *457:75 *530:14 0
*RES
1 *3133:X *530:8 47.1971 
2 *530:8 *530:14 38.9457 
3 *530:14 *530:18 2.07143 
4 *530:18 *530:28 38.0164 
5 *530:28 *2734:B1 23 
6 *530:18 *2737:A_N 26.9771 
7 *530:14 *2736:A_N 23 
*END

*D_NET *531 0.00428605
*CONN
*I *2724:B1 I *D sky130_fd_sc_hd__o21a_2
*I *2727:B1 I *D sky130_fd_sc_hd__a21oi_2
*I *3023:A I *D sky130_fd_sc_hd__inv_2
*I *2725:B1_N I *D sky130_fd_sc_hd__a21boi_2
*I *3134:X O *D sky130_fd_sc_hd__clkdlybuf4s25_1
*CAP
1 *2724:B1 4.43644e-05
2 *2727:B1 0
3 *3023:A 0.000119243
4 *2725:B1_N 0.000124766
5 *3134:X 0.000572661
6 *531:40 0.000366828
7 *531:21 0.000694082
8 *531:8 0.000949801
9 *2724:B1 *2724:A2 5.50106e-05
10 *2725:B1_N *549:33 7.78984e-05
11 *3023:A *567:82 5.67058e-05
12 *531:21 *549:33 2.71291e-05
13 *531:40 *567:70 0
14 *531:40 *567:82 0
15 *2722:A_N *3023:A 1.22822e-05
16 *2727:A1 *531:40 1.02387e-05
17 *2728:B *531:21 0
18 *2729:B2 *531:21 0
19 *2750:A *2725:B1_N 3.04021e-05
20 *2750:A *531:21 9.72129e-05
21 *2750:A *531:40 4.6674e-05
22 *2755:C *531:8 0.000139754
23 *2998:A2 *531:40 0
24 *28:15 *531:8 0.00025392
25 *101:8 *531:21 0
26 *181:6 *3023:A 8.1796e-05
27 *184:10 *2724:B1 4.95081e-05
28 *184:10 *531:40 0.000103984
29 *187:10 *2724:B1 0.000184527
30 *187:10 *531:40 5.67058e-05
31 *454:23 *531:8 1.03955e-05
32 *455:18 *3023:A 5.50106e-05
33 *456:6 *2725:B1_N 5.50049e-05
34 *457:75 *2725:B1_N 1.01436e-05
*RES
1 *3134:X *531:8 45.7679 
2 *531:8 *2725:B1_N 40.6514 
3 *531:8 *531:21 4.37071 
4 *531:21 *3023:A 41.0243 
5 *531:21 *531:40 20.8414 
6 *531:40 *2727:B1 23 
7 *531:40 *2724:B1 25.0507 
*END

*D_NET *532 0.00170112
*CONN
*I *3099:A_N I *D sky130_fd_sc_hd__nand3b_4
*I *3100:B1 I *D sky130_fd_sc_hd__o21ai_2
*I *3135:X O *D sky130_fd_sc_hd__clkdlybuf4s25_1
*CAP
1 *3099:A_N 0
2 *3100:B1 0
3 *3135:X 0.000156549
4 *532:16 0.00040043
5 *532:8 0.00055698
6 *532:16 *568:25 8.16253e-05
7 *3099:B *532:8 0
8 *3099:C *532:8 0.000400204
9 *29:11 *532:8 6.29487e-05
10 *30:9 *532:16 0
11 *174:8 *532:16 4.23817e-05
12 *465:10 *532:16 0
*RES
1 *3135:X *532:8 27.93 
2 *532:8 *532:16 36.8771 
3 *532:16 *3100:B1 23 
4 *532:8 *3099:A_N 23 
*END

*D_NET *533 0.00228517
*CONN
*I *3090:B1 I *D sky130_fd_sc_hd__a21oi_4
*I *3088:B1 I *D sky130_fd_sc_hd__o21ai_2
*I *3136:X O *D sky130_fd_sc_hd__clkdlybuf4s25_1
*CAP
1 *3090:B1 0
2 *3088:B1 0.000334989
3 *3136:X 0.000437847
4 *533:10 0.000772836
5 *3088:B1 *3088:A2 0.000166513
6 *3088:B1 *539:8 0
7 *3088:B1 *539:36 0.000418557
8 *533:10 *539:8 0
9 *533:10 *539:36 1.14452e-05
10 *3089:B1 *3088:B1 0
11 *3:17 *533:10 3.71251e-05
12 *161:10 *533:10 7.20415e-05
13 *163:8 *3088:B1 0
14 *469:24 *533:10 3.38187e-05
*RES
1 *3136:X *533:10 44.6907 
2 *533:10 *3088:B1 45.8921 
3 *533:10 *3090:B1 38 
*END

*D_NET *534 0.00311635
*CONN
*I *2741:B1_N I *D sky130_fd_sc_hd__o21bai_4
*I *2742:B1_N I *D sky130_fd_sc_hd__a21boi_2
*I *2743:B1_N I *D sky130_fd_sc_hd__a21bo_2
*I *3137:X O *D sky130_fd_sc_hd__clkdlybuf4s25_1
*CAP
1 *2741:B1_N 0.00021835
2 *2742:B1_N 0
3 *2743:B1_N 0.000182231
4 *3137:X 0.000378012
5 *534:12 0.00026926
6 *534:8 0.000683391
7 *2743:B1_N *2743:A2 5.3304e-05
8 *534:8 *605:8 8.51432e-05
9 *534:12 *2743:A2 0.000158584
10 S[7] *534:8 0.000137788
11 *2742:A1 *534:12 9.67842e-05
12 *2743:A1 *2743:B1_N 2.32004e-05
13 *202:10 *2741:B1_N 9.28945e-05
14 *203:26 *2743:B1_N 2.95542e-05
15 *449:12 *2741:B1_N 6.86023e-06
16 *449:12 *534:8 0.000145205
17 *465:10 *534:8 0
18 *465:27 *534:8 0.000208469
19 *465:38 *534:8 6.4393e-05
20 *465:53 *2741:B1_N 4.80878e-05
21 *465:53 *534:8 1.58805e-05
22 *465:66 *2741:B1_N 0.000218962
*RES
1 *3137:X *534:8 48.005 
2 *534:8 *534:12 17.0507 
3 *534:12 *2743:B1_N 26.3454 
4 *534:12 *2742:B1_N 23 
5 *534:8 *2741:B1_N 42.4329 
*END

*D_NET *535 0.00346174
*CONN
*I *3076:A_N I *D sky130_fd_sc_hd__nand3b_2
*I *3074:B1 I *D sky130_fd_sc_hd__o21a_4
*I *3138:X O *D sky130_fd_sc_hd__clkdlybuf4s25_1
*CAP
1 *3076:A_N 0
2 *3074:B1 2.37985e-05
3 *3138:X 0.000486455
4 *535:27 7.37535e-05
5 *535:14 0.000376625
6 *535:10 0.000765528
7 *535:14 *569:8 0.000158828
8 S[8] *535:10 0.000138718
9 *3073:B *535:27 0.000114656
10 *32:11 *535:10 5.41385e-05
11 *96:8 *535:10 7.43025e-06
12 *151:8 *535:27 0.000117121
13 *466:10 *535:10 0.000252161
14 *475:21 *3074:B1 5.67058e-05
15 *475:21 *535:14 0.000169595
16 *475:36 *535:14 0.000656742
17 *475:38 *535:10 9.48381e-06
*RES
1 *3138:X *535:10 46.2443 
2 *535:10 *535:14 24.1971 
3 *535:14 *3074:B1 23.6214 
4 *535:14 *535:27 32.9621 
5 *535:27 *3076:A_N 23 
*END

*D_NET *536 0.00278717
*CONN
*I *3066:B1_N I *D sky130_fd_sc_hd__o21ba_2
*I *3067:B1_N I *D sky130_fd_sc_hd__o21bai_4
*I *3068:B1_N I *D sky130_fd_sc_hd__a21boi_2
*I *3139:X O *D sky130_fd_sc_hd__clkdlybuf4s25_1
*CAP
1 *3066:B1_N 0.000138856
2 *3067:B1_N 7.18281e-05
3 *3068:B1_N 0
4 *3139:X 0.000630749
5 *536:19 0.000339982
6 *536:10 0.000760047
7 *536:10 *607:10 0.000141879
8 *3184:A *3066:B1_N 0
9 *3184:A *536:19 0
10 *32:11 *536:10 0.000275371
11 *64:19 *536:10 0.000141879
12 *64:19 *536:19 6.38845e-05
13 *145:8 *3067:B1_N 0.00010018
14 *146:8 *3066:B1_N 7.66188e-05
15 *146:8 *536:19 4.58924e-05
16 *466:10 *536:19 0
17 *504:19 *536:19 0
*RES
1 *3139:X *536:10 48.6264 
2 *536:10 *3068:B1_N 38 
3 *536:10 *536:19 2.96214 
4 *536:19 *3067:B1_N 39.5743 
5 *536:19 *3066:B1_N 40.9621 
*END

*D_NET *537 0.00736006
*CONN
*I *2757:B I *D sky130_fd_sc_hd__and2_4
*I *2760:A2 I *D sky130_fd_sc_hd__a21oi_2
*I *2759:A2 I *D sky130_fd_sc_hd__o21ai_2
*I *2762:A1 I *D sky130_fd_sc_hd__o211ai_2
*I *2985:B I *D sky130_fd_sc_hd__xor2_2
*I *2986:S I *D sky130_fd_sc_hd__mux2_1
*I *2758:B I *D sky130_fd_sc_hd__nor2_2
*I *3140:X O *D sky130_fd_sc_hd__dlymetal6s4s_1
*CAP
1 *2757:B 0
2 *2760:A2 0.000186582
3 *2759:A2 0
4 *2762:A1 0.000229222
5 *2985:B 0.000124985
6 *2986:S 0
7 *2758:B 0.000168257
8 *3140:X 0.00029939
9 *537:76 0.000160393
10 *537:66 0.000570177
11 *537:58 0.000475137
12 *537:32 0.000416739
13 *537:23 8.14825e-05
14 *537:12 0.000187207
15 *537:10 0.000551325
16 *2758:B *572:20 5.3304e-05
17 *2760:A2 *572:50 1.22822e-05
18 *537:10 *3188:A 2.07484e-05
19 *537:10 *572:10 0.000185755
20 *537:10 *573:8 3.68285e-05
21 *537:23 *572:20 0.000100069
22 *537:32 *572:20 0.000226226
23 *537:58 *572:10 2.46345e-05
24 *537:58 *572:35 0.000382583
25 *537:76 *572:52 0
26 *2758:A *2758:B 0.000198803
27 *2759:B1 *537:76 0.000218023
28 *2760:B1 *2760:A2 9.84851e-05
29 *2762:A2 *2762:A1 0.00010018
30 *2762:A2 *537:76 1.14452e-05
31 *2762:B1 *2762:A1 9.90162e-05
32 *2985:A *2985:B 0.000169674
33 *1:9 *2758:B 5.3304e-05
34 *1:9 *2985:B 0
35 *1:9 *537:23 8.76309e-05
36 *1:9 *537:32 0.000212703
37 *218:10 *2758:B 0.000584148
38 *219:8 *537:76 0.000154138
39 *220:6 *2760:A2 0.000190561
40 *222:10 *2762:A1 0.00010018
41 *450:6 *2758:B 0.000171366
42 *450:30 *2762:A1 0.000156379
43 *450:30 *2985:B 5.94125e-05
44 *452:34 *537:66 0.000109669
45 *457:6 *537:76 1.14154e-05
46 *457:10 *537:66 3.37867e-05
47 *457:55 *2760:A2 2.32004e-05
48 *457:55 *537:66 2.32101e-05
*RES
1 *3140:X *537:10 43.6964 
2 *537:10 *537:12 15 
3 *537:12 *2758:B 30.7886 
4 *537:12 *537:23 1.09786 
5 *537:23 *2986:S 23 
6 *537:23 *537:32 17.5271 
7 *537:32 *2985:B 17.9621 
8 *537:32 *2762:A1 44.2557 
9 *537:10 *537:58 20.4271 
10 *537:58 *537:66 4.61929 
11 *537:66 *537:76 34.0807 
12 *537:76 *2759:A2 23 
13 *537:66 *2760:A2 28.075 
14 *537:58 *2757:B 23 
*END

*D_NET *538 0.00311129
*CONN
*I *3084:A2 I *D sky130_fd_sc_hd__o21a_4
*I *3080:A_N I *D sky130_fd_sc_hd__nand2b_2
*I *3081:B I *D sky130_fd_sc_hd__nand2_4
*I *3082:B I *D sky130_fd_sc_hd__nand2_2
*I *3141:X O *D sky130_fd_sc_hd__clkdlybuf4s25_1
*CAP
1 *3084:A2 0
2 *3080:A_N 9.74334e-05
3 *3081:B 0.000138677
4 *3082:B 0
5 *3141:X 0.000285563
6 *538:19 0.00023611
7 *538:17 0.000205065
8 *538:10 0.000205065
9 *538:8 0.000285563
10 *538:8 *539:8 0
11 *3081:A *3081:B 0
12 *3081:A *538:8 3.68907e-05
13 *3083:A_N *538:8 0
14 *3088:A1 *538:8 1.01436e-05
15 *2:11 *538:8 0.000124829
16 *159:8 *3080:A_N 0.000179831
17 *159:8 *3081:B 0.000169674
18 *162:8 *538:17 5.50049e-05
19 *449:105 *538:8 3.82956e-05
20 *469:28 *538:8 0.000472577
21 *469:50 *538:17 0.000434153
22 *469:65 *3080:A_N 5.01263e-05
23 *469:76 *538:8 8.62876e-05
*RES
1 *3141:X *538:8 45.54 
2 *538:8 *538:10 15 
3 *538:10 *3082:B 23 
4 *538:10 *538:17 4.90929 
5 *538:17 *538:19 15 
6 *538:19 *3081:B 41.3143 
7 *538:19 *3080:A_N 40.61 
8 *538:17 *3084:A2 23 
*END

*D_NET *539 0.00571588
*CONN
*I *3090:A2 I *D sky130_fd_sc_hd__a21oi_4
*I *3087:B I *D sky130_fd_sc_hd__and2_4
*I *3088:A2 I *D sky130_fd_sc_hd__o21ai_2
*I *3091:A2 I *D sky130_fd_sc_hd__o21ai_4
*I *3089:A2 I *D sky130_fd_sc_hd__a21oi_2
*I *3142:X O *D sky130_fd_sc_hd__clkdlybuf4s25_1
*CAP
1 *3090:A2 0.000259212
2 *3087:B 0.000349471
3 *3088:A2 0.000178593
4 *3091:A2 2.34823e-05
5 *3089:A2 0.000344017
6 *3142:X 0.000344552
7 *539:36 0.000697044
8 *539:32 0.000580463
9 *539:12 0.00043788
10 *539:10 0.000222651
11 *539:8 0.000344552
12 *3088:B1 *3088:A2 0.000166513
13 *3088:B1 *539:8 0
14 *3088:B1 *539:36 0.000418557
15 *3089:B1 *3089:A2 0.000139764
16 *3089:B1 *539:8 0
17 *3091:B1 *3090:A2 1.98404e-05
18 *3091:B1 *3091:A2 0
19 *3091:B1 *539:32 9.29957e-05
20 *3240:A *3088:A2 6.25829e-05
21 *161:10 *3088:A2 0.000129504
22 *161:10 *539:36 0.000429621
23 *161:27 *3088:A2 2.64616e-05
24 *163:8 *3088:A2 0
25 *166:12 *3088:A2 6.17437e-06
26 *167:10 *3089:A2 0.000180212
27 *169:10 *3089:A2 1.5769e-05
28 *169:10 *539:12 5.47808e-05
29 *169:10 *539:32 3.7122e-06
30 *449:84 *3087:B 2.30292e-05
31 *449:105 *3090:A2 9.62398e-05
32 *449:105 *539:32 7.44161e-06
33 *467:25 *539:8 0
34 *469:28 *539:8 0
35 *518:10 *3087:B 4.93223e-05
36 *533:10 *539:8 0
37 *533:10 *539:36 1.14452e-05
38 *538:8 *539:8 0
*RES
1 *3142:X *539:8 43.4271 
2 *539:8 *539:10 15 
3 *539:10 *539:12 1.57429 
4 *539:12 *3089:A2 29.8357 
5 *539:12 *3091:A2 23.4971 
6 *539:10 *539:32 3.02429 
7 *539:32 *539:36 20.7793 
8 *539:36 *3088:A2 42.1843 
9 *539:36 *3087:B 43.8621 
10 *539:32 *3090:A2 27.5986 
*END

*D_NET *540 0.00466993
*CONN
*I *3043:B I *D sky130_fd_sc_hd__and2_2
*I *3045:A2 I *D sky130_fd_sc_hd__o21ai_2
*I *3042:B I *D sky130_fd_sc_hd__nor2_2
*I *3143:X O *D sky130_fd_sc_hd__clkdlybuf4s25_1
*CAP
1 *3043:B 0.00018767
2 *3045:A2 0
3 *3042:B 0.000109947
4 *3143:X 0.000211125
5 *540:20 0.000982584
6 *540:8 0.00127143
7 *3043:B *580:8 0.00025214
8 *540:8 *596:8 0.000264559
9 *540:20 *3045:B1 5.50106e-05
10 *540:20 *576:10 1.28726e-05
11 S[13] *540:20 6.54744e-05
12 S[14] *540:20 0
13 *3045:A1 *540:20 0.00024883
14 *3162:A *540:20 0.00012799
15 *4:11 *540:20 0
16 *68:10 *540:20 0
17 *85:10 *3043:B 5.56203e-05
18 *85:10 *540:20 2.22269e-05
19 *134:8 *3043:B 5.08795e-05
20 *134:8 *540:20 7.8085e-05
21 *469:91 *3043:B 0
22 *470:26 *3043:B 0
23 *520:12 *540:20 0.000673486
*RES
1 *3143:X *540:8 41.0036 
2 *540:8 *540:20 35.5486 
3 *540:20 *3042:B 25.0507 
4 *540:20 *3045:A2 23 
5 *540:8 *3043:B 43.075 
*END

*D_NET *541 0.00472993
*CONN
*I *3039:B I *D sky130_fd_sc_hd__nand2_2
*I *3038:B I *D sky130_fd_sc_hd__and2_4
*I *3037:B I *D sky130_fd_sc_hd__nor2_2
*I *3144:X O *D sky130_fd_sc_hd__clkdlybuf4s25_1
*CAP
1 *3039:B 0
2 *3038:B 0.000104641
3 *3037:B 0
4 *3144:X 0.000554044
5 *541:46 0.000258227
6 *541:25 0.000686591
7 *541:12 0.000323723
8 *541:10 0.000554044
9 *3038:B *3040:B1_N 0.000182826
10 *541:25 *3040:B1_N 9.41704e-05
11 *541:46 *555:10 8.37883e-05
12 *3037:A *3038:B 5.3304e-05
13 *3037:A *541:25 0.000490671
14 *3040:A1 *541:25 2.18409e-05
15 *6:11 *541:10 0.000109743
16 *108:21 *541:10 0
17 *115:6 *541:25 2.93845e-05
18 *115:21 *541:10 0.000194318
19 *116:8 *3038:B 0.000114798
20 *116:8 *541:25 5.94258e-05
21 *117:10 *541:46 7.76364e-06
22 *118:14 *3038:B 0
23 *119:8 *541:46 0.000174088
24 *121:10 *541:46 2.45549e-06
25 *129:10 *541:46 6.7177e-06
26 *447:10 *541:46 1.32314e-05
27 *470:16 *3038:B 5.50049e-05
28 *470:20 *3038:B 0.000209918
29 *470:26 *541:46 0.00034521
*RES
1 *3144:X *541:10 48.0671 
2 *541:10 *541:12 15 
3 *541:12 *3037:B 23 
4 *541:12 *541:25 7.83 
5 *541:25 *3038:B 27.1221 
6 *541:25 *541:46 36.67 
7 *541:46 *3039:B 23 
*END

*D_NET *542 0.0046678
*CONN
*I *3036:A2 I *D sky130_fd_sc_hd__o21ai_2
*I *3033:B I *D sky130_fd_sc_hd__and2_4
*I *3034:B I *D sky130_fd_sc_hd__nor2_4
*I *3145:X O *D sky130_fd_sc_hd__clkdlybuf4s25_1
*CAP
1 *3036:A2 5.89421e-05
2 *3033:B 0
3 *3034:B 0
4 *3145:X 0.000510258
5 *542:26 0.000185511
6 *542:18 0.00060586
7 *542:6 0.000989549
8 *542:18 *3036:B1 0.000247656
9 *542:18 *566:18 0.000131735
10 *3019:B2 *3036:A2 1.24376e-05
11 *3019:B2 *542:6 0.000117769
12 *3033:A *542:18 5.50049e-05
13 *3036:A1 *542:18 1.47563e-05
14 *3049:A1 *542:18 0.000185518
15 *110:37 *542:6 0.000485452
16 *110:37 *542:18 0.000178517
17 *111:22 *542:18 0
18 *114:6 *542:18 7.53384e-06
19 *126:8 *542:18 0
20 *128:10 *542:18 2.36844e-05
21 *129:16 *542:6 4.39607e-05
22 *129:28 *3036:A2 1.57571e-05
23 *129:28 *542:6 7.43025e-06
24 *129:28 *542:18 2.25419e-05
25 *448:8 *542:6 0.000476726
26 *471:19 *542:18 9.3813e-05
27 *471:34 *542:26 0
28 *471:47 *542:26 0
29 *475:71 *542:18 0
30 *475:71 *542:26 6.18339e-05
31 *501:10 *542:18 0.000135547
*RES
1 *3145:X *542:6 35.0557 
2 *542:6 *542:18 41.5379 
3 *542:18 *542:26 33.7079 
4 *542:26 *3034:B 23 
5 *542:18 *3033:B 23 
6 *542:6 *3036:A2 24.6157 
*END

*D_NET *543 0.00144398
*CONN
*I *3031:B I *D sky130_fd_sc_hd__and2_4
*I *3030:B I *D sky130_fd_sc_hd__nor2_2
*I *3146:X O *D sky130_fd_sc_hd__clkdlybuf4s25_1
*CAP
1 *3031:B 0
2 *3030:B 0
3 *3146:X 0.000108145
4 *543:24 0.000267249
5 *543:12 0.000391079
6 *543:8 0.000231976
7 *543:12 *577:10 0.000153155
8 *3051:A2 *543:24 4.6318e-06
9 *39:11 *543:8 0
10 *108:8 *543:24 0.000103324
11 *109:8 *543:24 6.57551e-05
12 *470:74 *543:24 0.00011867
*RES
1 *3146:X *543:8 39.9057 
2 *543:8 *543:12 18.0036 
3 *543:12 *543:24 36.1314 
4 *543:24 *3030:B 23 
5 *543:12 *3031:B 23 
*END

*D_NET *544 0.00373669
*CONN
*I *3056:B1_N I *D sky130_fd_sc_hd__o21bai_2
*I *3047:C I *D sky130_fd_sc_hd__nand3_2
*I *3013:A1 I *D sky130_fd_sc_hd__a22o_4
*I *3045:B1 I *D sky130_fd_sc_hd__o21ai_2
*I *3147:X O *D sky130_fd_sc_hd__clkdlybuf4s25_1
*CAP
1 *3056:B1_N 2.34823e-05
2 *3047:C 0.000188852
3 *3013:A1 1.49804e-05
4 *3045:B1 0.000280948
5 *3147:X 3.51753e-05
6 *544:23 0.000314981
7 *544:10 0.000802955
8 *544:6 0.000469517
9 *3013:A1 *579:8 5.50106e-05
10 *3045:B1 *559:8 0
11 *3045:B1 *578:8 0.000221184
12 *3047:C *596:8 0.000224605
13 *3045:A1 *3045:B1 5.67058e-05
14 *3056:A1 *544:10 0.000269781
15 *3056:A2 *544:10 5.3304e-05
16 *3245:A *3047:C 1.01436e-05
17 *122:22 *3047:C 0.00032977
18 *122:22 *544:23 4.6318e-06
19 *123:10 *3045:B1 0.000148697
20 *123:10 *3047:C 7.20786e-05
21 *123:10 *544:23 4.98647e-05
22 *469:91 *3045:B1 0
23 *510:8 *3013:A1 5.50106e-05
24 *511:33 *3045:B1 0
25 *511:33 *544:23 0
26 *540:20 *3045:B1 5.50106e-05
*RES
1 *3147:X *544:6 23.6214 
2 *544:6 *544:10 21.815 
3 *544:10 *3045:B1 44.7529 
4 *544:10 *544:23 2.25786 
5 *544:23 *3013:A1 38.6214 
6 *544:23 *3047:C 43.8414 
7 *544:6 *3056:B1_N 23.4971 
*END

*D_NET *545 0.00214113
*CONN
*I *3026:A I *D sky130_fd_sc_hd__nand2_2
*I *3024:A I *D sky130_fd_sc_hd__nor2_8
*I *3025:A I *D sky130_fd_sc_hd__and2_4
*I *3148:X O *D sky130_fd_sc_hd__clkdlybuf4s25_1
*CAP
1 *3026:A 0.000142103
2 *3024:A 0
3 *3025:A 0.000221582
4 *3148:X 5.74332e-05
5 *545:10 0.000380868
6 *545:8 0.000358822
7 *3025:A *3027:C 0.000128321
8 *3025:A *588:10 0.00025465
9 *545:10 *3027:C 0.000246739
10 *3026:B *3026:A 4.07902e-05
11 *3027:A_N *3025:A 2.22033e-05
12 *3027:A_N *3026:A 9.84794e-05
13 *3027:A_N *545:10 7.45536e-05
14 *3027:B *3026:A 1.03955e-05
15 *3028:A1 *3025:A 4.33941e-05
16 *40:11 *545:8 0
17 *40:11 *545:10 0
18 *459:32 *3025:A 1.69668e-05
19 *459:62 *545:8 2.79004e-05
20 *459:62 *545:10 1.59312e-05
*RES
1 *3148:X *545:8 39.2014 
2 *545:8 *545:10 4.01857 
3 *545:10 *3025:A 44.0486 
4 *545:10 *3024:A 38 
5 *545:8 *3026:A 41.045 
*END

*D_NET *546 0.00225112
*CONN
*I *2796:B I *D sky130_fd_sc_hd__nor2_4
*I *2798:B I *D sky130_fd_sc_hd__nand2_2
*I *2797:B I *D sky130_fd_sc_hd__and2_4
*I *3149:X O *D sky130_fd_sc_hd__clkdlybuf4s25_1
*CAP
1 *2796:B 0.000180731
2 *2798:B 7.85614e-05
3 *2797:B 0
4 *3149:X 0.000309923
5 *546:14 0.000180702
6 *546:10 0.000592795
7 *2798:B *547:6 4.19743e-05
8 *2798:B *599:10 0.000228001
9 *546:14 *547:6 0.000274078
10 *546:14 *599:10 0.000219883
11 *2796:A *2796:B 4.21594e-06
12 *256:8 *2796:B 0
13 *458:23 *2796:B 0
14 *458:40 *2798:B 0.000140259
*RES
1 *3149:X *546:10 42.4329 
2 *546:10 *546:14 19.4329 
3 *546:14 *2797:B 23 
4 *546:14 *2798:B 26.5214 
5 *546:10 *2796:B 41.3143 
*END

*D_NET *547 0.00350757
*CONN
*I *2806:B I *D sky130_fd_sc_hd__nand2_2
*I *2805:B I *D sky130_fd_sc_hd__and2_4
*I *2804:B I *D sky130_fd_sc_hd__nor2_4
*I *3150:X O *D sky130_fd_sc_hd__clkdlybuf4s25_1
*CAP
1 *2806:B 0.00012437
2 *2805:B 0.000113999
3 *2804:B 0
4 *3150:X 0.000887365
5 *547:12 0.000271954
6 *547:6 0.00116969
7 *547:12 *572:60 0.000138185
8 *2798:B *547:6 4.19743e-05
9 *257:10 *547:6 1.32939e-05
10 *262:10 *2805:B 0.00010018
11 *458:40 *547:6 0.000143655
12 *458:51 *547:12 4.21594e-06
13 *458:55 *2805:B 0.000224605
14 *546:14 *547:6 0.000274078
*RES
1 *3150:X *547:6 39.3436 
2 *547:6 *547:12 33.6664 
3 *547:12 *2804:B 23 
4 *547:12 *2805:B 26.0036 
5 *547:6 *2806:B 25.0714 
*END

*D_NET *548 0.00487248
*CONN
*I *2819:B I *D sky130_fd_sc_hd__and2_2
*I *2818:B I *D sky130_fd_sc_hd__nor2_2
*I *3151:X O *D sky130_fd_sc_hd__clkdlybuf4s25_1
*CAP
1 *2819:B 0
2 *2818:B 3.26044e-05
3 *3151:X 0
4 *548:12 0.00136548
5 *548:6 0.00133288
6 *548:12 *2891:B 0.000194318
7 *548:12 *552:8 0
8 *548:12 *554:14 0.000132665
9 *548:12 *554:16 0.000243847
10 *548:12 *583:12 0
11 *2818:A *2818:B 0.000274078
12 *2818:A *548:12 8.52481e-05
13 *2892:A *548:12 0.000227497
14 *337:23 *548:12 3.98859e-05
15 *339:6 *2818:B 0.000274078
16 *339:6 *548:12 0.000528019
17 *339:12 *548:12 0
18 *347:10 *548:12 0
19 *348:8 *548:12 0
20 *352:10 *548:12 0
21 *463:84 *548:12 0
22 *474:46 *548:12 0.000141879
*RES
1 *3151:X *548:6 38 
2 *548:6 *548:12 45.305 
3 *548:12 *2818:B 26.0036 
4 *548:12 *2819:B 23 
*END

*D_NET *549 0.00680512
*CONN
*I *2751:B I *D sky130_fd_sc_hd__nand2_2
*I *2749:A_N I *D sky130_fd_sc_hd__nand2b_4
*I *2752:B I *D sky130_fd_sc_hd__nor2_2
*I *2750:B I *D sky130_fd_sc_hd__nand2_4
*I *3152:X O *D sky130_fd_sc_hd__clkdlybuf4s25_1
*CAP
1 *2751:B 0.000390624
2 *2749:A_N 0
3 *2752:B 0
4 *2750:B 2.34823e-05
5 *3152:X 0.000682336
6 *549:33 0.000389264
7 *549:16 0.000651542
8 *549:12 0.000506787
9 *549:8 0.00134095
10 *549:12 *564:10 0
11 *549:33 *2725:A2 0.000441076
12 *2725:B1_N *549:33 7.78984e-05
13 *2756:A2 *2751:B 3.81658e-05
14 *2988:A2 *2751:B 2.79662e-05
15 *3258:A *2751:B 6.70272e-05
16 *12:11 *549:16 0.000352388
17 *28:15 *549:33 0.000218372
18 *44:19 *549:8 0.000655835
19 *185:14 *549:33 0
20 *209:10 *549:12 1.12487e-05
21 *209:10 *549:16 0.000126847
22 *212:6 *549:33 2.93845e-05
23 *212:10 *2751:B 8.72173e-05
24 *212:10 *549:12 0.000108681
25 *212:21 *2751:B 0.000126343
26 *215:8 *2751:B 0
27 *215:8 *549:12 0
28 *215:29 *2751:B 6.07611e-06
29 *222:10 *549:8 0.00010018
30 *456:6 *549:33 5.50049e-05
31 *457:67 *549:33 7.88828e-05
32 *457:75 *549:33 1.69668e-05
33 *473:10 *549:12 0.000167443
34 *531:21 *549:33 2.71291e-05
*RES
1 *3152:X *549:8 48.6264 
2 *549:8 *549:12 19.7229 
3 *549:12 *549:16 5.88286 
4 *549:16 *2750:B 23.4971 
5 *549:16 *549:33 39.9221 
6 *549:33 *2752:B 23 
7 *549:12 *2749:A_N 23 
8 *549:8 *2751:B 44.96 
*END

*D_NET *550 0.00205591
*CONN
*I *2828:B I *D sky130_fd_sc_hd__and2_4
*I *2831:A2 I *D sky130_fd_sc_hd__a21oi_2
*I *2830:A2 I *D sky130_fd_sc_hd__o21ai_4
*I *2829:B I *D sky130_fd_sc_hd__nor2_2
*I *3153:X O *D sky130_fd_sc_hd__clkdlybuf4s25_1
*CAP
1 *2828:B 0
2 *2831:A2 0
3 *2830:A2 0
4 *2829:B 0.000311033
5 *3153:X 0.000114521
6 *550:48 0.000223811
7 *550:35 0.00026533
8 *550:12 0.000344993
9 *550:8 0.000106961
10 *13:13 *550:8 0
11 *284:10 *550:48 0
12 *285:10 *2829:B 5.3304e-05
13 *286:10 *2829:B 4.06849e-05
14 *286:10 *550:48 4.6318e-06
15 *459:62 *550:8 5.61414e-05
16 *459:62 *550:48 1.69668e-05
17 *460:6 *550:48 8.264e-05
18 *460:14 *550:8 7.28526e-05
19 *460:14 *550:35 0.00010018
20 *460:14 *550:48 9.75779e-05
21 *460:41 *550:48 0
22 *484:10 *550:48 0.000164282
*RES
1 *3153:X *550:8 40.2579 
2 *550:8 *550:12 15.6214 
3 *550:12 *2829:B 28.4271 
4 *550:12 *2830:A2 23 
5 *3153:X *550:35 24.0979 
6 *550:35 *2831:A2 23 
7 *550:35 *550:48 35.0129 
8 *550:48 *2828:B 23 
*END

*D_NET *551 0.00286785
*CONN
*I *2846:A2 I *D sky130_fd_sc_hd__o21ai_2
*I *2843:B I *D sky130_fd_sc_hd__and2_4
*I *2842:B I *D sky130_fd_sc_hd__nor2_2
*I *2847:A2 I *D sky130_fd_sc_hd__a21oi_2
*I *3154:X O *D sky130_fd_sc_hd__clkdlybuf4s25_1
*CAP
1 *2846:A2 3.64812e-05
2 *2843:B 0.000190589
3 *2842:B 0
4 *2847:A2 0.000157762
5 *3154:X 0.00059483
6 *551:23 0.000292716
7 *551:8 0.000259889
8 *551:6 0.000631311
9 *2843:A *2843:B 0.000267905
10 *2843:A *551:23 1.01436e-05
11 *2847:A1 *2847:A2 3.22051e-05
12 *460:45 *2847:A2 0.000171906
13 *460:54 *2847:A2 3.70094e-05
14 *460:54 *551:23 0.000185104
*RES
1 *3154:X *551:6 33.6264 
2 *551:6 *551:8 15 
3 *551:8 *2847:A2 41.7286 
4 *551:8 *551:23 2.61 
5 *551:23 *2842:B 38 
6 *551:23 *2843:B 42.4121 
7 *551:6 *2846:A2 23.6214 
*END

*D_NET *552 0.00223432
*CONN
*I *2860:B I *D sky130_fd_sc_hd__nand2_2
*I *2859:B I *D sky130_fd_sc_hd__and2_4
*I *2858:B I *D sky130_fd_sc_hd__nor2_4
*I *3155:X O *D sky130_fd_sc_hd__clkdlybuf4s25_1
*CAP
1 *2860:B 0
2 *2859:B 0
3 *2858:B 0.000155555
4 *3155:X 9.16934e-05
5 *552:33 0.000270397
6 *552:14 0.000501009
7 *552:10 7.5057e-05
8 *552:8 9.16934e-05
9 *2858:B *584:16 0.000174884
10 *552:14 *584:16 0
11 *552:33 *583:12 2.76611e-06
12 *552:33 *584:16 0
13 S[18] *552:8 6.93449e-05
14 S[18] *552:33 0.000348456
15 *2858:A *2858:B 4.95785e-05
16 *2858:A *552:14 6.07496e-05
17 *15:11 *552:33 0
18 *74:8 *552:33 7.53384e-06
19 *75:8 *2858:B 5.70419e-05
20 *312:6 *2858:B 5.50049e-05
21 *314:10 *2858:B 0.000137685
22 *314:10 *552:14 6.82514e-05
23 *463:71 *552:33 6.17437e-06
24 *463:84 *552:8 1.14452e-05
25 *463:84 *552:33 0
26 *548:12 *552:8 0
*RES
1 *3155:X *552:8 39.9057 
2 *552:8 *552:10 15 
3 *552:10 *552:14 2.07143 
4 *552:14 *2858:B 28.075 
5 *552:14 *552:33 36.0486 
6 *552:33 *2859:B 23 
7 *552:10 *2860:B 23 
*END

*D_NET *553 0.00451031
*CONN
*I *2869:B I *D sky130_fd_sc_hd__and2_4
*I *2868:B I *D sky130_fd_sc_hd__nor2_2
*I *2872:A2 I *D sky130_fd_sc_hd__o21ai_2
*I *2873:A2 I *D sky130_fd_sc_hd__a21o_2
*I *3156:X O *D sky130_fd_sc_hd__clkdlybuf4s25_1
*CAP
1 *2869:B 2.09391e-05
2 *2868:B 0.000388247
3 *2872:A2 0
4 *2873:A2 0
5 *3156:X 0
6 *553:26 0.00022117
7 *553:16 0.000338016
8 *553:12 0.000710724
9 *553:8 0.000962562
10 *553:6 0.000735992
11 *553:8 *584:16 0
12 *553:12 *584:16 0
13 *2863:A1 *553:8 0
14 *2871:B1_N *553:16 4.00259e-06
15 *2875:A1 *2869:B 9.84851e-05
16 *15:11 *553:8 0
17 *312:17 *553:8 0
18 *313:16 *553:8 0
19 *321:8 *2868:B 0.000272383
20 *321:16 *2868:B 2.02872e-05
21 *322:48 *553:26 0
22 *324:6 *553:16 0.000225393
23 *325:6 *553:26 2.4754e-05
24 *462:10 *553:8 0
25 *462:10 *553:12 0
26 *462:10 *553:26 6.16531e-05
27 *463:45 *2869:B 5.67058e-05
28 *463:53 *2869:B 5.50106e-05
29 *463:53 *553:12 0
30 *507:19 *553:16 7.44257e-05
31 *507:19 *553:26 0.000185428
32 *507:34 *553:16 5.41288e-05
*RES
1 *3156:X *553:6 38 
2 *553:6 *553:8 13.1743 
3 *553:8 *553:12 17.9621 
4 *553:12 *553:16 3.50071 
5 *553:16 *553:26 33.8736 
6 *553:26 *2873:A2 23 
7 *553:16 *2872:A2 23 
8 *553:12 *2868:B 30.685 
9 *553:8 *2869:B 39.0979 
*END

*D_NET *554 0.00278464
*CONN
*I *2892:B I *D sky130_fd_sc_hd__and2_2
*I *2893:B I *D sky130_fd_sc_hd__nand2_2
*I *2891:B I *D sky130_fd_sc_hd__nor2_2
*I *3157:X O *D sky130_fd_sc_hd__clkdlybuf4s25_1
*CAP
1 *2892:B 0
2 *2893:B 0
3 *2891:B 7.57457e-05
4 *3157:X 0.000536264
5 *554:16 0.000168274
6 *554:14 0.000184226
7 *554:12 0.000627962
8 *554:12 *3205:A 0.00014196
9 *2894:A_N *554:14 4.21594e-06
10 *2894:A_N *554:16 8.1606e-05
11 *17:9 *554:12 0.00010018
12 *49:11 *554:12 0.000113862
13 *82:8 *554:12 1.14762e-05
14 *343:10 *2891:B 6.53342e-05
15 *343:10 *554:16 4.21594e-06
16 *509:10 *554:12 9.84851e-05
17 *509:10 *554:14 0
18 *509:18 *554:14 0
19 *548:12 *2891:B 0.000194318
20 *548:12 *554:14 0.000132665
21 *548:12 *554:16 0.000243847
*RES
1 *3157:X *554:12 47.8393 
2 *554:12 *554:14 2.25786 
3 *554:14 *554:16 3.31429 
4 *554:16 *2891:B 40.61 
5 *554:16 *2893:B 38 
6 *554:14 *2892:B 38 
*END

*D_NET *555 0.00272223
*CONN
*I *3041:C I *D sky130_fd_sc_hd__nand3b_4
*I *3040:B1_N I *D sky130_fd_sc_hd__o21bai_4
*I *3158:X O *D sky130_fd_sc_hd__clkdlybuf4s25_1
*CAP
1 *3041:C 6.10457e-05
2 *3040:B1_N 7.52256e-05
3 *3158:X 0.000379471
4 *555:10 0.000515742
5 *3038:B *3040:B1_N 0.000182826
6 *116:8 *3040:B1_N 0.000267167
7 *117:10 *3041:C 0.000194318
8 *117:10 *555:10 0.000425864
9 *119:8 *3041:C 0.000184174
10 *119:8 *555:10 0.000198722
11 *469:91 *555:10 5.97178e-05
12 *541:25 *3040:B1_N 9.41704e-05
13 *541:46 *555:10 8.37883e-05
*RES
1 *3158:X *555:10 46.0786 
2 *555:10 *3040:B1_N 41.0036 
3 *555:10 *3041:C 40.61 
*END

*D_NET *556 0.00280954
*CONN
*I *2905:A2 I *D sky130_fd_sc_hd__o21ai_2
*I *2903:B I *D sky130_fd_sc_hd__and2_4
*I *2906:A2 I *D sky130_fd_sc_hd__a21o_2
*I *2902:B I *D sky130_fd_sc_hd__nor2_2
*I *3159:X O *D sky130_fd_sc_hd__clkdlybuf4s25_1
*CAP
1 *2905:A2 0.000271908
2 *2903:B 6.80678e-05
3 *2906:A2 0.000226227
4 *2902:B 5.69898e-05
5 *3159:X 0.000160909
6 *556:22 0.000504348
7 *556:20 0.00058588
8 *2905:A2 *593:14 0
9 *556:22 *593:14 0
10 *2906:B1 *2906:A2 0
11 *18:9 *2905:A2 0.000139357
12 *50:9 *2905:A2 0
13 *50:9 *556:22 0
14 *353:6 *2902:B 5.50049e-05
15 *353:6 *556:20 4.94192e-05
16 *354:18 *556:22 0
17 *356:8 *556:22 0
18 *474:38 *2906:A2 0.000359259
19 *474:38 *556:22 1.19796e-05
20 *474:89 *2905:A2 0.000202241
21 *513:6 *2905:A2 0.000117954
*RES
1 *3159:X *2902:B 47.0979 
2 *3159:X *556:20 39.5743 
3 *556:20 *556:22 4.01857 
4 *556:22 *2906:A2 43.7379 
5 *556:22 *2903:B 39.0979 
6 *556:20 *2905:A2 44.7114 
*END

*D_NET *557 0.00152397
*CONN
*I *2916:B I *D sky130_fd_sc_hd__and2_2
*I *2915:B I *D sky130_fd_sc_hd__nor2_2
*I *3160:X O *D sky130_fd_sc_hd__clkdlybuf4s25_1
*CAP
1 *2916:B 0
2 *2915:B 0.000100709
3 *3160:X 0.000110774
4 *557:12 0.000321073
5 *557:8 0.000331138
6 *474:14 *557:12 0.000491451
7 *474:20 *2915:B 0.000126847
8 *474:20 *557:12 4.19743e-05
*RES
1 *3160:X *557:8 39.9057 
2 *557:8 *557:12 21.3386 
3 *557:12 *2915:B 25.5271 
4 *557:12 *2916:B 23 
*END

*D_NET *558 0.00204951
*CONN
*I *2924:B I *D sky130_fd_sc_hd__and2_4
*I *2923:B I *D sky130_fd_sc_hd__nor2_2
*I *3161:X O *D sky130_fd_sc_hd__clkdlybuf4s25_1
*CAP
1 *2924:B 0
2 *2923:B 0
3 *3161:X 0.000650801
4 *558:14 0.000167507
5 *558:6 0.000818308
6 *2923:A *558:14 0.000194318
7 *2924:A *558:6 2.4754e-05
8 *2924:A *558:14 0.000103647
9 *2926:A *558:14 6.07611e-06
10 *372:8 *558:14 8.41012e-05
*RES
1 *3161:X *558:6 35.0557 
2 *558:6 *558:14 34.6607 
3 *558:14 *2923:B 23 
4 *558:6 *2924:B 23 
*END

*D_NET *559 0.00538598
*CONN
*I *2935:B I *D sky130_fd_sc_hd__nor2_2
*I *2936:B I *D sky130_fd_sc_hd__and2_2
*I *3162:X O *D sky130_fd_sc_hd__clkdlybuf4s25_1
*CAP
1 *2935:B 4.01155e-05
2 *2936:B 0
3 *3162:X 0.000119292
4 *559:20 0.00019824
5 *559:12 0.00210846
6 *559:8 0.00198939
7 *559:12 *3192:A 2.18409e-05
8 *2939:B *559:20 8.51329e-05
9 *3045:B1 *559:8 0
10 *250:30 *559:20 0.000197479
11 *383:6 *559:20 9.58714e-05
12 *383:17 *559:20 0
13 *469:91 *559:8 9.28842e-05
14 *496:12 *559:12 0.000177899
15 *511:33 *559:8 3.47781e-05
16 *511:33 *559:12 0.0002246
*RES
1 *3162:X *559:8 40.61 
2 *559:8 *559:12 47.0657 
3 *559:12 *559:20 34.6607 
4 *559:20 *2936:B 23 
5 *559:12 *2935:B 23.8493 
*END

*D_NET *560 0.00829899
*CONN
*I *2953:B I *D sky130_fd_sc_hd__and2_2
*I *2952:B I *D sky130_fd_sc_hd__nor2_2
*I *3163:X O *D sky130_fd_sc_hd__clkdlybuf4s25_1
*CAP
1 *2953:B 0.000360162
2 *2952:B 9.37145e-05
3 *3163:X 0.00020722
4 *560:14 0.00204392
5 *560:8 0.00179726
6 *560:8 *565:8 0.000315857
7 *560:14 *565:55 0.000382583
8 *2731:A *560:14 7.76364e-06
9 *2954:A *2953:B 5.50049e-05
10 *2954:B *2953:B 1.11986e-05
11 *22:13 *560:14 0.000205313
12 *28:15 *560:14 0
13 *182:10 *560:14 0.000165593
14 *185:14 *560:14 0.000969109
15 *196:8 *560:14 0.000138718
16 *399:8 *2953:B 7.03766e-05
17 *400:6 *2953:B 1.32939e-05
18 *401:10 *2953:B 9.06304e-05
19 *449:48 *560:14 0.000731031
20 *456:38 *560:14 0.000129016
21 *521:14 *2953:B 0
22 *521:14 *560:14 0.000511225
*RES
1 *3163:X *560:8 41.48 
2 *560:8 *560:14 42.4643 
3 *560:14 *2952:B 39.5743 
4 *560:14 *2953:B 44.7114 
*END

*D_NET *561 0.00569025
*CONN
*I *2764:B I *D sky130_fd_sc_hd__nor2_2
*I *2767:A2 I *D sky130_fd_sc_hd__o21ai_4
*I *2765:B I *D sky130_fd_sc_hd__and2_4
*I *3164:X O *D sky130_fd_sc_hd__clkdlybuf4s25_1
*CAP
1 *2764:B 0
2 *2767:A2 0.000154408
3 *2765:B 0.000168097
4 *3164:X 0.00163217
5 *561:12 0.000486366
6 *561:10 0.000241808
7 *561:6 0.00171012
8 *2765:B *572:52 0.000272312
9 *561:10 *572:52 0.000130424
10 *561:12 *572:52 0.000400235
11 *2767:B1 *2767:A2 9.67842e-05
12 *2775:A1 *561:12 3.07161e-05
13 *225:40 *2765:B 0.000122304
14 *225:40 *561:12 7.03869e-05
15 *433:8 *561:10 0
16 *433:8 *561:12 0
17 *453:36 *2765:B 0.000174124
*RES
1 *3164:X *561:6 43.6314 
2 *561:6 *561:10 16.9057 
3 *561:10 *561:12 5.42714 
4 *561:12 *2765:B 43.2407 
5 *561:12 *2767:A2 40.5479 
6 *561:10 *2764:B 38 
*END

*D_NET *562 0.000642771
*CONN
*I *2962:B I *D sky130_fd_sc_hd__and2_2
*I *2961:B I *D sky130_fd_sc_hd__nor2_2
*I *3165:X O *D sky130_fd_sc_hd__clkdlybuf4s25_1
*CAP
1 *2962:B 5.72949e-05
2 *2961:B 6.62092e-05
3 *3165:X 0.000172687
4 *562:20 0.000163773
5 *2962:B *598:10 0.000141954
6 *408:10 *562:20 4.08537e-05
7 *457:42 *562:20 0
*RES
1 *3165:X *2961:B 47.0979 
2 *3165:X *562:20 39.9057 
3 *562:20 *2962:B 39.5743 
*END

*D_NET *563 0.00141268
*CONN
*I *2976:B I *D sky130_fd_sc_hd__xor2_2
*I *3166:X O *D sky130_fd_sc_hd__clkdlybuf4s25_1
*CAP
1 *2976:B 0
2 *3166:X 0.00061632
3 *563:8 0.00061632
4 *563:8 *608:8 0
5 *2977:B *563:8 0
6 *3021:A1_N *563:8 0
7 *25:15 *563:8 0
8 *99:8 *563:8 0.000180036
9 *421:10 *563:8 0
10 *528:8 *563:8 0
*RES
1 *3166:X *563:8 48.3571 
2 *563:8 *2976:B 15 
*END

*D_NET *564 0.00854734
*CONN
*I *2772:A2 I *D sky130_fd_sc_hd__a21o_2
*I *2769:B I *D sky130_fd_sc_hd__and2_4
*I *2771:A2 I *D sky130_fd_sc_hd__o21ai_4
*I *2770:B I *D sky130_fd_sc_hd__nor2_2
*I *3167:X O *D sky130_fd_sc_hd__clkdlybuf4s25_1
*CAP
1 *2772:A2 0.000519134
2 *2769:B 0
3 *2771:A2 0
4 *2770:B 0
5 *3167:X 0.00106309
6 *564:37 0.000116238
7 *564:29 0.000317683
8 *564:14 0.000381098
9 *564:10 0.0015093
10 *564:6 0.0018736
11 *564:10 *567:10 1.01436e-05
12 *2771:A1 *564:37 4.2573e-05
13 *2773:B1_N *2772:A2 0.000103637
14 *2786:A1 *564:10 3.09649e-05
15 *2787:A1 *2772:A2 0
16 *2789:B2 *2772:A2 0
17 *12:11 *564:10 3.04021e-05
18 *33:9 *564:6 0.000102301
19 *44:19 *564:10 1.59208e-05
20 *58:17 *564:6 0.000305377
21 *60:11 *564:6 2.4754e-05
22 *65:6 *564:6 7.44161e-06
23 *212:10 *564:10 5.40866e-05
24 *229:10 *564:29 0.000106288
25 *229:10 *564:37 0.000197479
26 *230:8 *2772:A2 0
27 *233:10 *2772:A2 1.76557e-05
28 *455:59 *564:29 2.76611e-06
29 *455:70 *564:29 4.81134e-05
30 *455:70 *564:37 1.01436e-05
31 *455:81 *564:37 0.000185104
32 *455:91 *2772:A2 0.000308718
33 *455:91 *564:37 5.3304e-05
34 *473:29 *564:10 0.000308716
35 *522:8 *564:10 0.000230671
36 *529:10 *2772:A2 0
37 *529:10 *564:10 0
38 *529:10 *564:29 0.00025307
39 *530:8 *564:6 0.000317553
40 *549:12 *564:10 0
*RES
1 *3167:X *564:6 39.82 
2 *564:6 *564:10 30.9914 
3 *564:10 *564:14 18.0036 
4 *564:14 *2770:B 23 
5 *564:14 *564:29 35.0336 
6 *564:29 *564:37 33.7079 
7 *564:37 *2771:A2 23 
8 *564:29 *2769:B 23 
9 *564:10 *2772:A2 49.8279 
*END

*D_NET *565 0.008177
*CONN
*I *2732:B I *D sky130_fd_sc_hd__nand2_2
*I *2731:B I *D sky130_fd_sc_hd__and2_2
*I *2733:A_N I *D sky130_fd_sc_hd__nand2b_2
*I *2735:A2 I *D sky130_fd_sc_hd__a21oi_2
*I *2734:A2 I *D sky130_fd_sc_hd__o21ai_2
*I *3168:X O *D sky130_fd_sc_hd__clkdlybuf4s25_1
*CAP
1 *2732:B 0
2 *2731:B 0
3 *2733:A_N 4.01156e-05
4 *2735:A2 0
5 *2734:A2 0
6 *3168:X 0.0004018
7 *565:68 0.000145579
8 *565:55 0.000132834
9 *565:42 0.000457072
10 *565:40 0.00073152
11 *565:27 0.000486372
12 *565:16 0.000948156
13 *565:8 0.0011654
14 *565:16 *603:10 0.0001796
15 *2731:A *565:55 0.000195157
16 *2996:A2 *565:42 2.64616e-05
17 *2996:B1 *565:40 2.13733e-05
18 *2996:B1 *565:42 1.71001e-05
19 *2996:B2 *565:40 6.17437e-06
20 *22:13 *565:16 0
21 *27:17 *565:8 0.000386662
22 *54:9 *565:8 0.000123934
23 *59:11 *565:8 1.03955e-05
24 *92:12 *565:8 5.67058e-05
25 *186:12 *565:16 0.000149238
26 *191:16 *2733:A_N 0
27 *191:16 *565:42 5.3304e-05
28 *193:10 *565:42 5.23488e-05
29 *194:10 *565:16 2.45549e-06
30 *197:8 *565:68 0.000192096
31 *436:10 *565:16 0.000373072
32 *449:40 *565:68 4.67488e-05
33 *456:19 *565:16 0.000260047
34 *456:67 *565:16 0.000161121
35 *457:75 *565:8 0.000103637
36 *457:101 *565:16 0.000115289
37 *457:101 *565:27 0.000113614
38 *457:101 *565:40 0.000131077
39 *457:101 *565:68 0.000192096
40 *521:14 *565:16 0
41 *522:36 *565:27 0
42 *522:36 *565:40 0
43 *530:28 *565:16 0
44 *560:8 *565:8 0.000315857
45 *560:14 *565:55 0.000382583
*RES
1 *3168:X *565:8 48.6264 
2 *565:8 *565:16 33.0629 
3 *565:16 *2734:A2 23 
4 *565:16 *565:27 18.5836 
5 *565:27 *2735:A2 38 
6 *565:27 *565:40 20.2407 
7 *565:40 *565:42 3.95643 
8 *565:42 *2733:A_N 23.8493 
9 *565:42 *565:55 35.075 
10 *565:55 *2731:B 23 
11 *565:40 *565:68 33.7079 
12 *565:68 *2732:B 23 
*END

*D_NET *566 0.00727864
*CONN
*I *3050:B1_N I *D sky130_fd_sc_hd__o21bai_4
*I *3048:A2 I *D sky130_fd_sc_hd__a22oi_2
*I *3053:A1 I *D sky130_fd_sc_hd__o21ai_2
*I *3052:A1 I *D sky130_fd_sc_hd__o21a_2
*I *3036:B1 I *D sky130_fd_sc_hd__o21ai_2
*I *3169:X O *D sky130_fd_sc_hd__clkdlybuf4s25_1
*CAP
1 *3050:B1_N 0
2 *3048:A2 2.0995e-05
3 *3053:A1 0.000326751
4 *3052:A1 0.000237603
5 *3036:B1 0.000185711
6 *3169:X 0.000776074
7 *566:43 0.000693594
8 *566:37 0.000545976
9 *566:18 0.000775253
10 *566:12 0.000288685
11 *566:8 0.000870957
12 *3018:B *3036:B1 1.19796e-05
13 *3035:A *3053:A1 9.41435e-05
14 *3036:A1 *3036:B1 0.00026136
15 *3036:A1 *566:18 0.000139647
16 *3048:A1 *3053:A1 4.18957e-05
17 *3048:A1 *566:43 6.7911e-05
18 *3048:B1 *3048:A2 0
19 *3048:B2 *3048:A2 0
20 *3048:B2 *566:37 0
21 *3049:A1 *3036:B1 3.41958e-05
22 *3050:A1 *3053:A1 0.000165593
23 *3052:A2 *3052:A1 0.00011633
24 *3052:B1 *3052:A1 2.93747e-05
25 *3053:A2 *3053:A1 7.29907e-05
26 *3053:B1 *3053:A1 0
27 *3186:A *566:8 3.34247e-05
28 *3244:A *3052:A1 5.50049e-05
29 *110:16 *566:8 1.32289e-05
30 *112:10 *3053:A1 5.01986e-05
31 *113:17 *3053:A1 7.65883e-06
32 *114:6 *3036:B1 5.50106e-05
33 *118:14 *566:37 0.000136738
34 *118:20 *566:37 0.000136743
35 *128:34 *566:18 5.3304e-05
36 *129:10 *566:8 0.000103647
37 *129:28 *3036:B1 9.84851e-05
38 *129:43 *3053:A1 0
39 *129:43 *566:43 0
40 *136:10 *566:37 2.41846e-05
41 *136:10 *566:43 1.39431e-05
42 *470:8 *566:8 9.88574e-06
43 *470:10 *566:12 4.73585e-05
44 *470:16 *566:12 2.76611e-06
45 *471:8 *566:18 0.000221992
46 *472:12 *566:8 3.7122e-06
47 *474:8 *566:8 1.73399e-05
48 *492:8 *566:12 5.26204e-05
49 *492:10 *3036:B1 4.9809e-06
50 *542:18 *3036:B1 0.000247656
51 *542:18 *566:18 0.000131735
*RES
1 *3169:X *566:8 48.6264 
2 *566:8 *566:12 17.2579 
3 *566:12 *566:18 19.9093 
4 *566:18 *3036:B1 43.4686 
5 *566:18 *566:37 20.5514 
6 *566:37 *566:43 17.5271 
7 *566:43 *3052:A1 42.93 
8 *566:43 *3053:A1 44.9393 
9 *566:37 *3048:A2 23.4971 
10 *566:12 *3050:B1_N 23 
*END

*D_NET *567 0.0116886
*CONN
*I *2726:A2 I *D sky130_fd_sc_hd__o21ai_4
*I *2724:A2 I *D sky130_fd_sc_hd__o21a_2
*I *2722:B I *D sky130_fd_sc_hd__nand2b_2
*I *2727:A2 I *D sky130_fd_sc_hd__a21oi_2
*I *2723:B I *D sky130_fd_sc_hd__nand2_2
*I *2721:A_N I *D sky130_fd_sc_hd__nand2b_4
*I *2725:A2 I *D sky130_fd_sc_hd__a21boi_2
*I *3170:X O *D sky130_fd_sc_hd__clkdlybuf4s25_1
*CAP
1 *2726:A2 0.000240993
2 *2724:A2 8.24409e-05
3 *2722:B 0
4 *2727:A2 0
5 *2723:B 3.2572e-05
6 *2721:A_N 9.15628e-05
7 *2725:A2 0.000405636
8 *3170:X 0.000556769
9 *567:82 0.000995129
10 *567:72 0.00113709
11 *567:70 0.000448476
12 *567:59 0.000336478
13 *567:44 0.000307287
14 *567:31 0.000391264
15 *567:18 0.000989924
16 *567:10 0.000927555
17 *2722:A_N *2721:A_N 0
18 *2722:A_N *567:82 0.000255975
19 *2724:B1 *2724:A2 5.50106e-05
20 *2727:A1 *567:72 0
21 *2998:A1 *567:82 4.2062e-05
22 *2998:A2 *567:82 0.000160893
23 *2998:B1 *567:82 0.000112463
24 *3023:A *567:82 5.67058e-05
25 *12:11 *567:10 6.08751e-05
26 *26:9 *2721:A_N 5.3304e-05
27 *26:9 *567:18 3.14377e-05
28 *26:9 *567:31 6.32794e-05
29 *26:9 *567:44 7.75329e-06
30 *58:17 *567:10 0.000707122
31 *181:6 *567:82 2.9938e-05
32 *184:10 *567:70 2.13733e-05
33 *187:10 *2724:A2 4.6595e-05
34 *187:10 *567:70 0.000185428
35 *187:10 *567:72 1.62015e-05
36 *187:10 *567:82 5.15908e-05
37 *210:8 *567:18 6.07611e-06
38 *210:8 *567:31 0.000116321
39 *223:29 *567:44 8.51432e-05
40 *223:29 *567:59 2.70366e-05
41 *223:33 *2723:B 2.93747e-05
42 *455:8 *567:31 0.000240416
43 *455:8 *567:44 8.94487e-05
44 *455:18 *2721:A_N 3.17027e-05
45 *455:46 *567:44 0.000130433
46 *455:46 *567:59 1.01436e-05
47 *455:59 *567:59 0.000206587
48 *456:6 *2725:A2 0.000144067
49 *456:19 *2725:A2 2.4754e-05
50 *456:25 *2726:A2 9.95346e-05
51 *456:38 *2726:A2 2.68751e-05
52 *457:61 *567:59 6.99589e-05
53 *457:61 *567:70 9.88574e-06
54 *522:36 *567:59 3.85021e-05
55 *522:36 *567:70 0.000402801
56 *529:10 *567:59 0
57 *530:8 *567:18 0.000392386
58 *530:14 *2726:A2 0
59 *530:14 *567:18 5.31444e-05
60 *530:14 *567:31 0.000101564
61 *530:14 *567:72 0
62 *531:40 *567:70 0
63 *531:40 *567:82 0
64 *549:33 *2725:A2 0.000441076
65 *564:10 *567:10 1.01436e-05
*RES
1 *3170:X *567:10 47.6736 
2 *567:10 *567:18 35.9864 
3 *567:18 *2725:A2 46.7414 
4 *567:18 *567:31 6.13143 
5 *567:31 *2721:A_N 39.595 
6 *567:31 *567:44 2.96214 
7 *567:44 *2723:B 38.6214 
8 *567:44 *567:59 19.5364 
9 *567:59 *2727:A2 23 
10 *567:59 *567:70 20.2821 
11 *567:70 *567:72 1.20143 
12 *567:72 *567:82 30.9914 
13 *567:82 *2722:B 23 
14 *567:72 *2724:A2 39.5743 
15 *567:70 *2726:A2 41.9771 
*END

*D_NET *568 0.00374056
*CONN
*I *2719:A2 I *D sky130_fd_sc_hd__a21o_2
*I *3097:B I *D sky130_fd_sc_hd__nand2_2
*I *3098:B I *D sky130_fd_sc_hd__and2_2
*I *3100:A2 I *D sky130_fd_sc_hd__o21ai_2
*I *3096:A_N I *D sky130_fd_sc_hd__nand2b_4
*I *3171:X O *D sky130_fd_sc_hd__clkdlybuf4s25_1
*CAP
1 *2719:A2 0
2 *3097:B 6.94716e-05
3 *3098:B 0
4 *3100:A2 0
5 *3096:A_N 2.0995e-05
6 *3171:X 9.43408e-05
7 *568:52 7.80571e-05
8 *568:34 0.000192247
9 *568:25 9.04607e-05
10 *568:19 0.000257479
11 *568:10 0.000523515
12 *568:6 0.000630674
13 *568:52 *602:12 0.000114083
14 *3098:A *3096:A_N 1.14154e-05
15 *3098:A *568:10 0.000250418
16 *3098:A *568:19 9.90162e-05
17 *3098:A *568:34 0.000165908
18 *61:9 *568:10 0.000269775
19 *176:10 *3097:B 4.95081e-05
20 *176:10 *568:19 0.000141954
21 *176:10 *568:25 4.06408e-05
22 *176:10 *568:34 0.000394994
23 *177:10 *568:52 0
24 *464:31 *568:25 4.6318e-06
25 *475:8 *568:25 0
26 *475:21 *3097:B 0.000131304
27 *475:21 *568:34 2.80512e-05
28 *532:16 *568:25 8.16253e-05
*RES
1 *3171:X *568:6 24.0979 
2 *568:6 *568:10 9.21786 
3 *568:10 *3096:A_N 23.4971 
4 *568:10 *568:19 2.05071 
5 *568:19 *568:25 32.2579 
6 *568:25 *3100:A2 23 
7 *568:19 *568:34 4.93 
8 *568:34 *3098:B 23 
9 *568:34 *3097:B 25.5271 
10 *568:6 *568:52 31.5536 
11 *568:52 *2719:A2 23 
*END

*D_NET *569 0.00747815
*CONN
*I *2740:B I *D sky130_fd_sc_hd__and2_4
*I *2744:A2 I *D sky130_fd_sc_hd__o21ai_2
*I *2742:A2 I *D sky130_fd_sc_hd__a21boi_2
*I *2743:A2 I *D sky130_fd_sc_hd__a21bo_2
*I *2739:B I *D sky130_fd_sc_hd__nor2_2
*I *3172:X O *D sky130_fd_sc_hd__clkdlybuf4s25_1
*CAP
1 *2740:B 0
2 *2744:A2 0.000141183
3 *2742:A2 0
4 *2743:A2 0.000183489
5 *2739:B 0.000352132
6 *3172:X 0.000287928
7 *569:47 0.000576907
8 *569:25 0.000484582
9 *569:21 0.000846052
10 *569:10 0.000747444
11 *569:8 0.000574005
12 *2742:A1 *2743:A2 7.18503e-05
13 *2743:A1 *2743:A2 0.000135037
14 *2743:B1_N *2743:A2 5.3304e-05
15 *3003:B *569:10 0.000250839
16 *3003:B *569:21 0.0002129
17 *3003:B *569:47 2.46345e-05
18 *3006:A1 *569:25 5.3304e-05
19 *3073:B *569:10 0.00010404
20 *3075:A *569:10 0.000660181
21 *3075:A *569:21 1.01436e-05
22 *3246:A *569:10 0
23 *149:10 *569:10 0.000166504
24 *152:8 *569:10 0.000139647
25 *153:12 *569:21 0
26 *155:10 *569:21 0
27 *200:10 *569:47 5.50049e-05
28 *202:10 *2743:A2 9.84851e-05
29 *438:6 *2744:A2 4.50413e-05
30 *438:6 *569:47 0.000249258
31 *438:10 *569:47 0.000383503
32 *465:73 *2744:A2 0.000185434
33 *503:10 *569:10 6.79006e-05
34 *534:12 *2743:A2 0.000158584
35 *535:14 *569:8 0.000158828
*RES
1 *3172:X *569:8 42.4329 
2 *569:8 *569:10 10.7093 
3 *569:10 *2739:B 43.8621 
4 *569:10 *569:21 2.96214 
5 *569:21 *569:25 20.3857 
6 *569:25 *2743:A2 27.5986 
7 *569:25 *2742:A2 23 
8 *569:21 *569:47 25.8129 
9 *569:47 *2744:A2 26.0036 
10 *569:47 *2740:B 23 
*END

*D_NET *570 0.00531076
*CONN
*I *3071:B I *D sky130_fd_sc_hd__nand2_2
*I *3072:B I *D sky130_fd_sc_hd__nand2_2
*I *3074:A2 I *D sky130_fd_sc_hd__o21a_4
*I *3073:A_N I *D sky130_fd_sc_hd__nand2b_4
*I *3173:X O *D sky130_fd_sc_hd__clkdlybuf4s25_1
*CAP
1 *3071:B 8.09495e-05
2 *3072:B 0.000247606
3 *3074:A2 0
4 *3073:A_N 0.000197827
5 *3173:X 0.000789324
6 *570:34 0.000533609
7 *570:23 0.000440484
8 *570:6 0.00122258
9 S[7] *570:23 0
10 *3072:A *3072:B 9.29957e-05
11 *3073:B *570:23 0
12 *3073:B *570:34 0
13 *3074:A1 *570:23 6.07611e-06
14 *3074:A1 *570:34 0.000101462
15 *3246:A *570:34 2.71291e-05
16 *62:15 *570:23 0
17 *63:13 *3073:A_N 5.3304e-05
18 *63:13 *570:6 0.000651923
19 *63:13 *570:23 3.47781e-05
20 *94:8 *3072:B 0.000147191
21 *150:10 *570:34 0.000169665
22 *151:8 *570:23 0.000117331
23 *151:8 *570:34 0.000102365
24 *465:27 *3072:B 5.67058e-05
25 *466:10 *570:6 0.000118143
26 *468:12 *3071:B 9.74722e-05
27 *468:12 *3072:B 2.18409e-05
*RES
1 *3173:X *570:6 36.0086 
2 *570:6 *3073:A_N 25.9 
3 *570:6 *570:23 19.785 
4 *570:23 *3074:A2 38 
5 *570:23 *570:34 20.7793 
6 *570:34 *3072:B 28.7171 
7 *570:34 *3071:B 25.0507 
*END

*D_NET *571 0.00245935
*CONN
*I *3064:B I *D sky130_fd_sc_hd__nor2_2
*I *3069:A2 I *D sky130_fd_sc_hd__o21ai_2
*I *3065:B I *D sky130_fd_sc_hd__and2_4
*I *3068:A2 I *D sky130_fd_sc_hd__a21boi_2
*I *3174:X O *D sky130_fd_sc_hd__clkdlybuf4s25_1
*CAP
1 *3064:B 0
2 *3069:A2 9.101e-05
3 *3065:B 0
4 *3068:A2 0.000204991
5 *3174:X 0.000190697
6 *571:36 0.00055512
7 *571:21 0.000576996
8 *571:8 0.000508573
9 *3064:A *571:36 6.6426e-05
10 *3069:A1 *3069:A2 0.00010018
11 *3069:A1 *571:36 1.56665e-05
12 *64:19 *3068:A2 4.95081e-05
13 *504:19 *3068:A2 0.00010018
14 *504:19 *571:21 0
15 *504:32 *571:36 0
*RES
1 *3174:X *571:8 40.5271 
2 *571:8 *3068:A2 42.205 
3 *571:8 *571:21 1.90571 
4 *571:21 *3065:B 38 
5 *571:21 *571:36 23.4514 
6 *571:36 *3069:A2 25.0507 
7 *571:36 *3064:B 23 
*END

*D_NET *572 0.0207307
*CONN
*I *3248:A I *D sky130_fd_sc_hd__buf_2
*I *3107:A I *D sky130_fd_sc_hd__dlymetal6s2s_1
*I *3104:A I *D sky130_fd_sc_hd__buf_4
*I *3113:A I *D sky130_fd_sc_hd__buf_8
*I *3175:X O *D sky130_fd_sc_hd__buf_8
*CAP
1 *3248:A 0.00028714
2 *3107:A 0
3 *3104:A 0
4 *3113:A 0.000805569
5 *3175:X 0.000200551
6 *572:60 0.000665608
7 *572:52 0.00241594
8 *572:50 0.00231898
9 *572:41 5.44277e-05
10 *572:35 0.000698228
11 *572:20 0.00272644
12 *572:10 0.00248372
13 *2755:A_N *572:20 0.000402801
14 *2758:B *572:20 5.3304e-05
15 *2759:B1 *572:41 2.07944e-05
16 *2759:B1 *572:52 0
17 *2760:A2 *572:50 1.22822e-05
18 *2760:B1 *572:50 2.4754e-05
19 *2765:B *572:52 0.000272312
20 *2767:B1 *572:52 9.63918e-05
21 *2808:B *3248:A 5.50106e-05
22 *2808:C *3248:A 7.38076e-05
23 *2808:C *572:60 5.50106e-05
24 *2966:B *572:52 0
25 *3257:A *572:20 2.64616e-05
26 *1:9 *572:20 0.000119313
27 *76:8 *572:20 0.000119957
28 *178:16 *3113:A 6.51763e-05
29 *188:6 *3113:A 0.00111933
30 *212:6 *572:20 0.00106975
31 *217:10 *572:35 3.88262e-05
32 *218:10 *572:10 1.01436e-05
33 *218:10 *572:35 0.000187335
34 *219:8 *572:52 0
35 *220:6 *572:50 5.67058e-05
36 *262:10 *572:60 5.26101e-05
37 *264:8 *572:60 0
38 *266:10 *3248:A 3.22879e-05
39 *411:12 *572:52 0
40 *418:10 *572:52 0
41 *423:22 *572:52 0
42 *426:8 *572:52 0.000135547
43 *429:10 *572:20 1.55097e-05
44 *451:10 *572:60 3.70187e-05
45 *452:34 *572:41 3.64246e-05
46 *452:42 *572:35 2.96051e-05
47 *452:42 *572:41 1.31414e-05
48 *453:10 *572:52 6.6869e-05
49 *453:36 *572:52 0.000315526
50 *453:42 *572:52 0
51 *453:61 *572:52 0.00080511
52 *457:10 *572:35 0.000227476
53 *457:10 *572:50 8.53029e-05
54 *457:55 *572:50 0.000135037
55 *457:55 *572:52 2.29192e-05
56 *458:51 *572:60 0
57 *458:61 *572:60 7.66085e-05
58 *473:29 *572:20 6.89803e-05
59 *521:8 *3113:A 0.000350606
60 *526:10 *572:52 9.98891e-05
61 *537:10 *572:10 0.000185755
62 *537:23 *572:20 0.000100069
63 *537:32 *572:20 0.000226226
64 *537:58 *572:10 2.46345e-05
65 *537:58 *572:35 0.000382583
66 *537:76 *572:52 0
67 *547:12 *572:60 0.000138185
68 *561:10 *572:52 0.000130424
69 *561:12 *572:52 0.000400235
*RES
1 *3175:X *572:10 41.5836 
2 *572:10 *572:20 48.205 
3 *572:20 *3113:A 40.6693 
4 *572:10 *572:35 23.6586 
5 *572:35 *572:41 31.2014 
6 *572:41 *3104:A 23 
7 *572:35 *572:50 18.9564 
8 *572:50 *572:52 48.9168 
9 *572:52 *572:60 23.3789 
10 *572:60 *3107:A 23 
11 *572:60 *3248:A 29.0486 
*END

*D_NET *573 0.000805041
*CONN
*I *3188:A I *D sky130_fd_sc_hd__clkdlybuf4s25_1
*I *2985:X O *D sky130_fd_sc_hd__xor2_2
*CAP
1 *3188:A 9.03505e-05
2 *2985:X 0.000138515
3 *573:8 0.000228866
4 *2985:A *573:8 1.15307e-05
5 *65:6 *3188:A 0.000278201
6 *537:10 *3188:A 2.07484e-05
7 *537:10 *573:8 3.68285e-05
*RES
1 *2985:X *573:8 40.9621 
2 *573:8 *3188:A 41.0036 
*END

*D_NET *574 0.000709188
*CONN
*I *3189:A I *D sky130_fd_sc_hd__buf_6
*I *3007:X O *D sky130_fd_sc_hd__xor2_2
*CAP
1 *3189:A 0
2 *3007:X 0.000243018
3 *574:8 0.000243018
4 *574:8 *575:8 0.000223153
5 *441:10 *574:8 0
*RES
1 *3007:X *574:8 43.4271 
2 *574:8 *3189:A 38 
*END

*D_NET *575 0.000898193
*CONN
*I *3190:A I *D sky130_fd_sc_hd__buf_6
*I *3009:X O *D sky130_fd_sc_hd__xor2_2
*CAP
1 *3190:A 4.24211e-05
2 *3009:X 0.000268473
3 *575:8 0.000310894
4 S[10] *575:8 1.4796e-05
5 S[11] *575:8 3.84556e-05
6 *441:10 *575:8 0
7 *574:8 *575:8 0.000223153
*RES
1 *3009:X *575:8 44.1314 
2 *575:8 *3190:A 38.6214 
*END

*D_NET *576 0.00115789
*CONN
*I *3191:A I *D sky130_fd_sc_hd__buf_6
*I *3012:X O *D sky130_fd_sc_hd__xor2_2
*CAP
1 *3191:A 0
2 *3012:X 0.000450167
3 *576:10 0.000450167
4 *576:10 *3192:A 0.000182826
5 *3162:A *576:10 6.18548e-05
6 *68:10 *576:10 0
7 *540:20 *576:10 1.28726e-05
*RES
1 *3012:X *576:10 45.6436 
2 *576:10 *3191:A 38 
*END

*D_NET *577 0.00144677
*CONN
*I *3032:C_N I *D sky130_fd_sc_hd__or3b_4
*I *3051:B1_N I *D sky130_fd_sc_hd__o21bai_2
*I *3176:X O *D sky130_fd_sc_hd__clkdlybuf4s25_1
*CAP
1 *3032:C_N 0
2 *3051:B1_N 0.000130308
3 *3176:X 0.000344135
4 *577:10 0.000474443
5 *3051:A2 *3051:B1_N 0
6 *110:8 *3051:B1_N 3.3746e-05
7 *110:16 *3051:B1_N 0
8 *470:74 *3051:B1_N 6.16531e-05
9 *470:74 *577:10 0.000249329
10 *474:10 *3051:B1_N 0
11 *474:10 *577:10 0
12 *543:12 *577:10 0.000153155
*RES
1 *3176:X *577:10 45.0429 
2 *577:10 *3051:B1_N 40.61 
3 *577:10 *3032:C_N 38 
*END

*D_NET *578 0.00109533
*CONN
*I *3192:A I *D sky130_fd_sc_hd__buf_6
*I *3014:Y O *D sky130_fd_sc_hd__xnor2_2
*CAP
1 *3192:A 0.000118162
2 *3014:Y 0.000123859
3 *578:8 0.00024202
4 *3045:B1 *578:8 0.000221184
5 *511:33 *3192:A 0.000185434
6 *511:33 *578:8 0
7 *559:12 *3192:A 2.18409e-05
8 *576:10 *3192:A 0.000182826
*RES
1 *3014:Y *578:8 40.9621 
2 *578:8 *3192:A 41.48 
*END

*D_NET *579 0.00209018
*CONN
*I *3193:A I *D sky130_fd_sc_hd__buf_6
*I *3017:X O *D sky130_fd_sc_hd__xor2_2
*CAP
1 *3193:A 0
2 *3017:X 0.000801778
3 *579:8 0.000801778
4 *3013:A1 *579:8 5.50106e-05
5 *510:8 *579:8 0.000231246
6 *520:16 *579:8 0.000200369
*RES
1 *3017:X *579:8 36.9821 
2 *579:8 *3193:A 23 
*END

*D_NET *580 0.00100373
*CONN
*I *3194:A I *D sky130_fd_sc_hd__clkbuf_2
*I *3020:Y O *D sky130_fd_sc_hd__nor2_4
*CAP
1 *3194:A 0.000121682
2 *3020:Y 0.000232927
3 *580:8 0.000354609
4 S[15] *580:8 0
5 *3043:B *580:8 0.00025214
6 *5:11 *580:8 0
7 *117:10 *580:8 4.23714e-05
8 *470:26 *580:8 0
*RES
1 *3020:Y *580:8 43.4271 
2 *580:8 *3194:A 40.0507 
*END

*D_NET *581 0.00161811
*CONN
*I *3195:A I *D sky130_fd_sc_hd__buf_6
*I *2795:X O *D sky130_fd_sc_hd__xor2_2
*CAP
1 *3195:A 0.000334908
2 *2795:X 0.000169163
3 *581:8 0.000504071
4 *2802:B1_N *3195:A 0.000142432
5 *2812:A *581:8 3.70094e-05
6 *105:10 *3195:A 0.000156619
7 *105:21 *3195:A 5.40241e-05
8 *105:21 *581:8 0.000219882
9 *482:10 *581:8 0
*RES
1 *2795:X *581:8 42.0186 
2 *581:8 *3195:A 44.8357 
*END

*D_NET *582 0.00137293
*CONN
*I *3196:A I *D sky130_fd_sc_hd__buf_6
*I *2803:X O *D sky130_fd_sc_hd__xor2_2
*CAP
1 *3196:A 0.000238054
2 *2803:X 0.000290483
3 *582:8 0.000528537
4 *103:8 *582:8 0
5 *106:10 *582:8 0
6 *258:8 *582:8 0
7 *258:21 *582:8 0
8 *459:8 *3196:A 0.000315857
9 *459:19 *582:8 0
10 *459:32 *582:8 0
*RES
1 *2803:X *582:8 43.4271 
2 *582:8 *3196:A 43.3857 
*END

*D_NET *583 0.00394602
*CONN
*I *3197:A I *D sky130_fd_sc_hd__buf_2
*I *2815:X O *D sky130_fd_sc_hd__xor2_2
*CAP
1 *3197:A 0
2 *2815:X 0.000275318
3 *583:12 0.00114873
4 *583:8 0.00142405
5 *463:12 *583:12 0.000408798
6 *463:32 *583:12 0.000326223
7 *463:41 *583:12 0.000114645
8 *463:71 *583:12 0.000208469
9 *463:84 *583:12 3.70187e-05
10 *548:12 *583:12 0
11 *552:33 *583:12 2.76611e-06
*RES
1 *2815:X *583:8 42.4329 
2 *583:8 *583:12 42.9643 
3 *583:12 *3197:A 23 
*END

*D_NET *584 0.00440135
*CONN
*I *3198:A I *D sky130_fd_sc_hd__buf_4
*I *2827:Y O *D sky130_fd_sc_hd__nand2_2
*CAP
1 *3198:A 0
2 *2827:Y 7.32674e-05
3 *584:16 0.00156015
4 *584:8 0.00163342
5 *2858:A *584:16 0.000182832
6 *2858:B *584:16 0.000174884
7 *2863:A1 *584:16 9.63815e-05
8 *15:11 *584:16 3.14274e-05
9 *275:8 *584:16 0.000193388
10 *290:16 *584:8 5.83407e-05
11 *312:17 *584:16 0.00011218
12 *314:10 *584:16 8.76088e-05
13 *321:16 *584:16 0.00019747
14 *322:21 *584:16 0
15 *323:8 *584:16 0
16 *463:12 *584:16 0
17 *463:32 *584:16 0
18 *463:41 *584:16 0
19 *463:53 *584:16 0
20 *463:71 *584:16 0
21 *552:14 *584:16 0
22 *552:33 *584:16 0
23 *553:8 *584:16 0
24 *553:12 *584:16 0
*RES
1 *2827:Y *584:8 39.5743 
2 *584:8 *584:16 45.8643 
3 *584:16 *3198:A 23 
*END

*D_NET *585 0.000248619
*CONN
*I *3199:A I *D sky130_fd_sc_hd__buf_6
*I *2987:Y O *D sky130_fd_sc_hd__xnor2_2
*CAP
1 *3199:A 0
2 *2987:Y 0.000108248
3 *585:8 0.000108248
4 *585:8 *597:10 0
5 S[1] *585:8 3.21223e-05
6 *3257:A *585:8 0
7 *1:9 *585:8 0
*RES
1 *2987:Y *585:8 39.9057 
2 *585:8 *3199:A 38 
*END

*D_NET *586 0.00169931
*CONN
*I *3200:A I *D sky130_fd_sc_hd__clkbuf_4
*I *2841:X O *D sky130_fd_sc_hd__xor2_4
*CAP
1 *3200:A 0.000425021
2 *2841:X 0.000425021
3 *2832:A2 *3200:A 5.50049e-05
4 *2832:B1_N *3200:A 5.50049e-05
5 *288:10 *3200:A 0.000739255
*RES
1 *2841:X *3200:A 34.0304 
*END

*D_NET *587 0.00384354
*CONN
*I *3201:A I *D sky130_fd_sc_hd__buf_8
*I *2852:Y O *D sky130_fd_sc_hd__nand2_4
*CAP
1 *3201:A 0
2 *2852:Y 0.000395668
3 *587:12 0.000711467
4 *587:8 0.00110713
5 *2865:A2 *587:12 0.000188916
6 *2876:A *587:12 0.000211979
7 *2879:A2 *587:12 6.7177e-06
8 *2884:D1 *587:12 0
9 *3106:A *587:8 4.05196e-05
10 *296:49 *587:12 0
11 *307:19 *587:12 0.000252676
12 *309:10 *587:12 6.88715e-05
13 *317:12 *587:12 0
14 *317:35 *587:12 0.000225265
15 *318:10 *587:12 0
16 *319:8 *587:12 0.000634329
*RES
1 *2852:Y *587:8 44.3386 
2 *587:8 *587:12 32.7521 
3 *587:12 *3201:A 23 
*END

*D_NET *588 0.00223728
*CONN
*I *3027:C I *D sky130_fd_sc_hd__nand3b_2
*I *3028:B1_N I *D sky130_fd_sc_hd__o21bai_4
*I *3177:X O *D sky130_fd_sc_hd__clkdlybuf4s25_1
*CAP
1 *3027:C 0.000151595
2 *3028:B1_N 0.000328111
3 *3177:X 0.000127152
4 *588:10 0.000606859
5 *3025:A *3027:C 0.000128321
6 *3025:A *588:10 0.00025465
7 *3028:A2 *3028:B1_N 7.15126e-05
8 *106:10 *3028:B1_N 3.06338e-05
9 *459:32 *3027:C 6.42505e-05
10 *459:32 *588:10 0.000108672
11 *459:41 *3027:C 7.90464e-05
12 *459:62 *3027:C 3.97399e-05
13 *545:10 *3027:C 0.000246739
*RES
1 *3177:X *588:10 41.5836 
2 *588:10 *3028:B1_N 42.8057 
3 *588:10 *3027:C 43.075 
*END

*D_NET *589 0.00055684
*CONN
*I *3202:A I *D sky130_fd_sc_hd__buf_8
*I *2867:Y O *D sky130_fd_sc_hd__nand2_4
*CAP
1 *3202:A 5.56623e-05
2 *2867:Y 9.45542e-05
3 *589:8 0.000150216
4 S[21] *589:8 0.000199701
5 *2876:A *589:8 0
6 *79:8 *3202:A 5.67058e-05
7 *319:8 *589:8 0
*RES
1 *2867:Y *589:8 40.61 
2 *589:8 *3202:A 39.0979 
*END

*D_NET *590 0.000441851
*CONN
*I *3203:A I *D sky130_fd_sc_hd__buf_6
*I *2883:Y O *D sky130_fd_sc_hd__nor2_4
*CAP
1 *3203:A 6.7348e-05
2 *2883:Y 0.000108413
3 *590:8 0.000175761
4 *80:10 *3203:A 7.88828e-05
5 *316:10 *590:8 1.14452e-05
6 *507:12 *590:8 0
*RES
1 *2883:Y *590:8 39.9057 
2 *590:8 *3203:A 39.5743 
*END

*D_NET *591 0.00253174
*CONN
*I *3204:A I *D sky130_fd_sc_hd__clkbuf_2
*I *2901:X O *D sky130_fd_sc_hd__and2_2
*CAP
1 *3204:A 0
2 *2901:X 0.00023884
3 *591:14 0.000563108
4 *591:8 0.000801948
5 *591:14 *592:8 5.61311e-05
6 *2897:A *591:14 0
7 *2901:A *591:8 8.1796e-05
8 *2901:B *591:8 1.94693e-05
9 *346:8 *591:14 0.000130011
10 *350:8 *591:14 0.000354778
11 *351:20 *591:14 0.000122304
12 *359:8 *591:14 0.000163352
13 *360:8 *591:14 0
14 *509:18 *591:14 0
*RES
1 *2901:X *591:8 41.48 
2 *591:8 *591:14 29.1479 
3 *591:14 *3204:A 23 
*END

*D_NET *592 0.000955439
*CONN
*I *3205:A I *D sky130_fd_sc_hd__clkbuf_2
*I *2910:Y O *D sky130_fd_sc_hd__nand2_2
*CAP
1 *3205:A 0.00011069
2 *2910:Y 0.000231761
3 *592:8 0.00034245
4 S[24] *592:8 0
5 *82:8 *3205:A 7.24484e-05
6 *554:12 *3205:A 0.00014196
7 *591:14 *592:8 5.61311e-05
*RES
1 *2910:Y *592:8 42.3707 
2 *592:8 *3205:A 41.0036 
*END

*D_NET *593 0.00172052
*CONN
*I *3206:A I *D sky130_fd_sc_hd__clkbuf_2
*I *2922:Y O *D sky130_fd_sc_hd__nand2_2
*CAP
1 *3206:A 0
2 *2922:Y 4.74551e-05
3 *593:14 0.000658371
4 *593:8 0.000705826
5 *2905:A2 *593:14 0
6 *2918:B1_N *593:14 0
7 *2919:B *593:14 0
8 *2930:A1 *593:8 9.84794e-05
9 *83:8 *593:14 3.7122e-06
10 *363:18 *593:14 0
11 *367:8 *593:14 0
12 *368:10 *593:14 0
13 *370:8 *593:14 1.44546e-05
14 *474:30 *593:14 0
15 *474:38 *593:14 0.000167443
16 *474:89 *593:14 2.47815e-05
17 *556:22 *593:14 0
*RES
1 *2922:Y *593:8 39.0979 
2 *593:8 *593:14 27.5114 
3 *593:14 *3206:A 23 
*END

*D_NET *594 0.00291248
*CONN
*I *3207:A I *D sky130_fd_sc_hd__buf_4
*I *2934:Y O *D sky130_fd_sc_hd__o21ai_2
*CAP
1 *3207:A 0
2 *2934:Y 0.00140794
3 *594:10 0.00140794
4 *2934:A1 *594:10 4.95081e-05
5 *2934:A2 *594:10 1.72339e-05
6 *376:20 *594:10 0
7 *380:10 *594:10 2.98648e-05
*RES
1 *2934:Y *594:10 49.39 
2 *594:10 *3207:A 23 
*END

*D_NET *595 0.00928027
*CONN
*I *3208:A I *D sky130_fd_sc_hd__buf_6
*I *2951:X O *D sky130_fd_sc_hd__and2b_4
*CAP
1 *3208:A 0
2 *2951:X 0
3 *595:16 0.000319376
4 *595:6 0.00267458
5 *595:4 0.0023552
6 *595:6 *596:8 0.00258612
7 *2959:A1 *595:6 1.76557e-05
8 *2959:A2 *595:6 0.000180218
9 *3057:A1 *595:16 5.50049e-05
10 *3057:A2 *595:16 0.000354122
11 *3057:B1 *595:16 3.75074e-05
12 *121:36 *595:16 1.21972e-05
13 *123:10 *595:16 0.000108681
14 *135:10 *595:16 0.000306038
15 *406:10 *595:6 0.00026582
16 *511:12 *595:16 7.75329e-06
*RES
1 *2951:X *595:4 23 
2 *595:4 *595:6 36.83 
3 *595:6 *595:16 37.9129 
4 *595:16 *3208:A 23 
*END

*D_NET *596 0.00647817
*CONN
*I *3209:A I *D sky130_fd_sc_hd__buf_6
*I *2960:Y O *D sky130_fd_sc_hd__o21ai_2
*CAP
1 *3209:A 0
2 *2960:Y 0
3 *596:8 0.00130618
4 *596:4 0.00130618
5 *3011:B *596:8 0.000135037
6 *3047:A *596:8 0.000143655
7 *3047:C *596:8 0.000224605
8 *36:15 *596:8 6.29487e-05
9 *118:47 *596:8 9.16459e-05
10 *122:22 *596:8 0.000113302
11 *125:8 *596:8 5.98028e-05
12 *135:36 *596:8 3.06213e-05
13 *406:10 *596:8 5.3304e-05
14 *442:16 *596:8 4.34973e-05
15 *502:10 *596:8 5.67058e-05
16 *540:8 *596:8 0.000264559
17 *595:6 *596:8 0.00258612
*RES
1 *2960:Y *596:4 23 
2 *596:4 *596:8 38.28 
3 *596:8 *3209:A 23 
*END

*D_NET *597 0.00227526
*CONN
*I *3210:A I *D sky130_fd_sc_hd__buf_6
*I *2990:X O *D sky130_fd_sc_hd__xor2_2
*CAP
1 *3210:A 0
2 *2990:X 0
3 *597:10 0.000839332
4 *597:6 0.000839332
5 S[1] *597:10 0
6 *2756:A2 *597:10 0
7 *2763:A *597:10 0.000168744
8 *2989:B1 *597:10 0
9 *3257:A *597:10 0.000271392
10 *215:8 *597:10 0
11 *215:23 *597:10 0
12 *223:10 *597:10 0.000114074
13 *430:10 *597:10 0
14 *431:10 *597:10 4.23817e-05
15 *522:20 *597:10 0
16 *523:8 *597:10 0
17 *585:8 *597:10 0
*RES
1 *2990:X *597:6 38 
2 *597:6 *597:10 31.6957 
3 *597:10 *3210:A 23 
*END

*D_NET *598 0.0035405
*CONN
*I *3211:A I *D sky130_fd_sc_hd__buf_6
*I *2974:Y O *D sky130_fd_sc_hd__o21ai_4
*CAP
1 *3211:A 0
2 *2974:Y 0.00150741
3 *598:16 7.87325e-05
4 *598:10 0.00158614
5 *598:10 *3220:A 2.93845e-05
6 *2962:B *598:10 0.000141954
7 *99:8 *598:16 0.000141869
8 *408:10 *598:10 5.50106e-05
*RES
1 *2974:Y *598:10 46.6557 
2 *598:10 *598:16 31.9057 
3 *598:16 *3211:A 23 
*END

*D_NET *599 0.00238806
*CONN
*I *2800:B1_N I *D sky130_fd_sc_hd__o21bai_4
*I *2799:C I *D sky130_fd_sc_hd__nand3b_4
*I *3178:X O *D sky130_fd_sc_hd__clkdlybuf4s25_1
*CAP
1 *2800:B1_N 0.000128144
2 *2799:C 0
3 *3178:X 0.000533511
4 *599:10 0.000661655
5 *2798:B *599:10 0.000228001
6 *42:15 *599:10 2.30292e-05
7 *257:10 *599:10 0.000224679
8 *258:8 *2800:B1_N 0.000194309
9 *258:8 *599:10 3.92407e-05
10 *259:10 *2800:B1_N 3.71251e-05
11 *451:6 *2800:B1_N 9.84794e-05
12 *458:23 *2800:B1_N 0
13 *458:23 *599:10 0
14 *546:14 *599:10 0.000219883
*RES
1 *3178:X *599:10 49.8071 
2 *599:10 *2799:C 38 
3 *599:10 *2800:B1_N 41.7079 
*END

*D_NET *600 0.00308223
*CONN
*I *3212:A I *D sky130_fd_sc_hd__buf_6
*I *2984:Y O *D sky130_fd_sc_hd__a22oi_4
*CAP
1 *3212:A 0
2 *2984:Y 0.000400458
3 *600:14 0.000814605
4 *600:8 0.00121506
5 *25:15 *600:14 6.00453e-05
6 *410:40 *600:8 0.000218962
7 *422:24 *600:8 0
8 *424:10 *600:8 0
9 *427:10 *600:8 0.0003731
*RES
1 *2984:Y *600:8 46.9486 
2 *600:8 *600:14 29.4586 
3 *600:14 *3212:A 23 
*END

*D_NET *601 0.00409335
*CONN
*I *3213:A I *D sky130_fd_sc_hd__buf_8
*I *2993:Y O *D sky130_fd_sc_hd__nand2b_4
*CAP
1 *3213:A 0
2 *2993:Y 0.000742767
3 *601:12 0.000326176
4 *601:6 0.00106894
5 *2764:A *601:6 4.34745e-05
6 *224:10 *601:6 0.000230604
7 *453:57 *601:6 9.84851e-05
8 *526:6 *601:6 0.0015829
*RES
1 *2993:Y *601:6 44.5843 
2 *601:6 *601:12 36.1314 
3 *601:12 *3213:A 23 
*END

*D_NET *602 0.00343406
*CONN
*I *3214:A I *D sky130_fd_sc_hd__buf_6
*I *2995:Y O *D sky130_fd_sc_hd__xnor2_2
*CAP
1 *3214:A 0
2 *2995:Y 4.26123e-05
3 *602:12 0.00121887
4 *602:8 0.00126149
5 *602:12 *604:8 7.55832e-05
6 *2998:B1 *602:12 0
7 *177:10 *602:12 0
8 *177:26 *602:12 8.05268e-05
9 *179:8 *602:12 0
10 *180:8 *602:12 0
11 *188:12 *602:12 0
12 *189:21 *602:12 0.000218706
13 *190:21 *602:12 0
14 *195:12 *602:12 0.000129402
15 *434:10 *602:12 0.000194309
16 *435:8 *602:12 0
17 *449:40 *602:8 9.84794e-05
18 *522:36 *602:12 0
19 *568:52 *602:12 0.000114083
*RES
1 *2995:Y *602:8 39.0979 
2 *602:8 *602:12 40.4993 
3 *602:12 *3214:A 23 
*END

*D_NET *603 0.00191526
*CONN
*I *3215:A I *D sky130_fd_sc_hd__buf_6
*I *2997:Y O *D sky130_fd_sc_hd__xnor2_2
*CAP
1 *3215:A 0
2 *2997:Y 0.00056169
3 *603:10 0.00056169
4 *603:10 *604:8 0
5 S[4] *603:10 0
6 *2730:B1 *603:10 6.38845e-05
7 *22:13 *603:10 0
8 *176:18 *603:10 0
9 *177:26 *603:10 0
10 *180:8 *603:10 0
11 *186:12 *603:10 0.000124102
12 *436:10 *603:10 0.000373072
13 *457:95 *603:10 5.12254e-05
14 *565:16 *603:10 0.0001796
*RES
1 *2997:Y *603:10 49.8071 
2 *603:10 *3215:A 38 
*END

*D_NET *604 0.000342875
*CONN
*I *3216:A I *D sky130_fd_sc_hd__buf_6
*I *2999:Y O *D sky130_fd_sc_hd__xnor2_2
*CAP
1 *3216:A 0
2 *2999:Y 0.000125215
3 *604:8 0.000125215
4 S[4] *604:8 6.7177e-06
5 S[5] *604:8 1.01436e-05
6 *602:12 *604:8 7.55832e-05
7 *603:10 *604:8 0
*RES
1 *2999:Y *604:8 40.9621 
2 *604:8 *3216:A 38 
*END

*D_NET *605 0.000392292
*CONN
*I *3217:A I *D sky130_fd_sc_hd__buf_6
*I *3001:X O *D sky130_fd_sc_hd__xor2_2
*CAP
1 *3217:A 0
2 *3001:X 6.91975e-05
3 *605:8 6.91975e-05
4 *449:12 *605:8 0.000168754
5 *534:8 *605:8 8.51432e-05
*RES
1 *3001:X *605:8 40.2579 
2 *605:8 *3217:A 38 
*END

*D_NET *606 0.00119191
*CONN
*I *3218:A I *D sky130_fd_sc_hd__buf_6
*I *3003:Y O *D sky130_fd_sc_hd__xnor2_2
*CAP
1 *3218:A 0
2 *3003:Y 0.000420827
3 *606:10 0.000420827
4 *3078:D *606:10 5.3304e-05
5 *154:19 *606:10 0.000296947
6 *438:41 *606:10 0
7 *475:38 *606:10 0
*RES
1 *3003:Y *606:10 44.6493 
2 *606:10 *3218:A 38 
*END

*D_NET *607 0.000946997
*CONN
*I *3219:A I *D sky130_fd_sc_hd__buf_6
*I *3005:Y O *D sky130_fd_sc_hd__xnor2_2
*CAP
1 *3219:A 1.08631e-05
2 *3005:Y 0.000261466
3 *607:10 0.000272329
4 *32:11 *3219:A 5.50106e-05
5 *32:11 *607:10 1.19692e-05
6 *64:19 *607:10 3.82956e-05
7 *96:8 *3219:A 5.67058e-05
8 *466:10 *607:10 0
9 *504:8 *607:10 9.84794e-05
10 *536:10 *607:10 0.000141879
*RES
1 *3005:Y *607:10 43.4893 
2 *607:10 *3219:A 38.6214 
*END

*D_NET *608 0.00114358
*CONN
*I *3220:A I *D sky130_fd_sc_hd__buf_6
*I *3021:Y O *D sky130_fd_sc_hd__o2bb2ai_4
*CAP
1 *3220:A 3.09382e-05
2 *3021:Y 0.000493356
3 *608:8 0.000524294
4 *3021:A1_N *608:8 2.22079e-05
5 *24:11 *608:8 0
6 *56:11 *608:8 0
7 *99:8 *608:8 0
8 *410:10 *608:8 0
9 *457:42 *608:8 0
10 *527:8 *608:8 4.33941e-05
11 *527:27 *608:8 0
12 *563:8 *608:8 0
13 *598:10 *3220:A 2.93845e-05
*RES
1 *3021:Y *608:8 46.5964 
2 *608:8 *3220:A 38.6214 
*END

*D_NET *609 0.00599591
*CONN
*I *2912:A2 I *D sky130_fd_sc_hd__a21boi_2
*I *2899:A2 I *D sky130_fd_sc_hd__a21o_2
*I *2898:A2 I *D sky130_fd_sc_hd__a21oi_2
*I *2929:A2 I *D sky130_fd_sc_hd__a21oi_4
*I *2945:A2 I *D sky130_fd_sc_hd__o21a_4
*I *2946:A2 I *D sky130_fd_sc_hd__o21ai_2
*I *3187:X O *D sky130_fd_sc_hd__buf_6
*CAP
1 *2912:A2 8.55621e-05
2 *2899:A2 0.000217225
3 *2898:A2 0.000295684
4 *2929:A2 0.000106986
5 *2945:A2 1.50079e-05
6 *2946:A2 0.00021931
7 *3187:X 0.00052465
8 *609:62 0.0003893
9 *609:47 0.000477611
10 *609:12 0.000438948
11 *609:10 0.000436839
12 *609:8 0.000745288
13 *2898:A1 *2898:A2 5.50049e-05
14 *2900:B1 *609:8 5.50049e-05
15 *2900:C1 *609:8 9.84851e-05
16 *2911:A *2898:A2 4.79641e-05
17 *2911:B *2912:A2 2.24973e-05
18 *2911:B *609:62 8.51329e-05
19 *2912:B1_N *2912:A2 4.6318e-06
20 *2912:B1_N *609:62 9.27917e-05
21 *2929:A1 *2929:A2 5.67058e-05
22 *2941:A *609:10 1.83564e-05
23 *2941:A *609:47 9.17992e-05
24 *2941:A *609:62 1.09783e-05
25 *2943:B *2945:A2 5.50049e-05
26 *2945:B1 *2945:A2 5.50049e-05
27 *2945:B1 *2946:A2 5.50106e-05
28 *254:12 *2946:A2 0
29 *254:12 *609:12 0
30 *342:10 *609:12 0
31 *342:21 *2898:A2 0
32 *342:21 *609:10 0
33 *342:21 *609:47 0
34 *342:48 *2899:A2 0.000401899
35 *342:48 *2912:A2 5.50106e-05
36 *352:10 *609:8 0.00010655
37 *377:10 *2912:A2 1.69668e-05
38 *377:10 *609:10 6.02277e-06
39 *389:8 *2946:A2 1.47754e-05
40 *389:8 *609:10 0.000197479
41 *389:8 *609:12 0.000408138
42 *394:8 *2946:A2 3.22879e-05
43 *483:10 *609:10 0
44 *483:10 *609:12 0
*RES
1 *3187:X *609:8 48.15 
2 *609:8 *609:10 3.31429 
3 *609:10 *609:12 5.42714 
4 *609:12 *2946:A2 41.5421 
5 *609:12 *2945:A2 38.6214 
6 *609:10 *2929:A2 40.0507 
7 *609:8 *609:47 2.43393 
8 *609:47 *2898:A2 43.8518 
9 *609:47 *609:62 2.78607 
10 *609:62 *2899:A2 42.9093 
11 *609:62 *2912:A2 39.9471 
*END
