*SPEF "ieee 1481-1999"
*DESIGN "addsub32"
*DATE "09:32:13 Tuesday September 29, 2026"
*VENDOR "The OpenROAD Project"
*PROGRAM "OpenROAD"
*VERSION "dcf36133a369abc8f3c5e5738cd4d82e4903c0e0"
*DESIGN_FLOW "NAME_SCOPE LOCAL" "PIN_CAP NONE"
*DIVIDER /
*DELIMITER :
*BUS_DELIMITER []
*T_UNIT 1 NS
*C_UNIT 1 PF
*R_UNIT 1 OHM
*L_UNIT 1 HENRY

*NAME_MAP
*1 A[0]
*2 A[10]
*3 A[11]
*4 A[12]
*5 A[13]
*6 A[14]
*7 A[15]
*8 A[16]
*9 A[17]
*10 A[18]
*11 A[19]
*12 A[1]
*13 A[20]
*14 A[21]
*15 A[22]
*16 A[23]
*17 A[24]
*18 A[25]
*19 A[26]
*20 A[27]
*21 A[28]
*22 A[29]
*23 A[2]
*24 A[30]
*25 A[31]
*26 A[3]
*27 A[4]
*28 A[5]
*29 A[6]
*30 A[7]
*31 A[8]
*32 A[9]
*33 B[0]
*34 B[10]
*35 B[11]
*36 B[12]
*37 B[13]
*38 B[14]
*39 B[15]
*40 B[16]
*41 B[17]
*42 B[18]
*43 B[19]
*44 B[1]
*45 B[20]
*46 B[21]
*47 B[22]
*48 B[23]
*49 B[24]
*50 B[25]
*51 B[26]
*52 B[27]
*53 B[28]
*54 B[29]
*55 B[2]
*56 B[30]
*57 B[31]
*58 B[3]
*59 B[4]
*60 B[5]
*61 B[6]
*62 B[7]
*63 B[8]
*64 B[9]
*65 S[0]
*66 S[10]
*67 S[11]
*68 S[12]
*69 S[13]
*70 S[14]
*71 S[15]
*72 S[16]
*73 S[17]
*74 S[18]
*75 S[19]
*76 S[1]
*77 S[20]
*78 S[21]
*79 S[22]
*80 S[23]
*81 S[24]
*82 S[25]
*83 S[26]
*84 S[27]
*85 S[28]
*86 S[29]
*87 S[2]
*88 S[30]
*89 S[31]
*90 S[3]
*91 S[4]
*92 S[5]
*93 S[6]
*94 S[7]
*95 S[8]
*96 S[9]
*99 carryOut
*100 sub
*101 _000_
*102 _001_
*103 _002_
*104 _003_
*105 _004_
*106 _005_
*107 _006_
*108 _007_
*109 _008_
*110 _009_
*111 _010_
*112 _011_
*113 _012_
*114 _013_
*115 _014_
*116 _015_
*117 _016_
*118 _017_
*119 _018_
*120 _019_
*121 _020_
*122 _021_
*123 _022_
*124 _023_
*125 _024_
*126 _025_
*127 _026_
*128 _027_
*129 _028_
*130 _029_
*131 _030_
*132 _031_
*133 _032_
*134 _033_
*135 _034_
*136 _035_
*137 _036_
*138 _037_
*139 _038_
*140 _039_
*141 _040_
*142 _041_
*143 _042_
*144 _043_
*145 _044_
*146 _045_
*147 _046_
*148 _047_
*149 _048_
*150 _049_
*151 _050_
*152 _051_
*153 _052_
*154 _053_
*155 _054_
*156 _055_
*157 _056_
*158 _057_
*159 _058_
*160 _059_
*161 _060_
*162 _061_
*163 _062_
*164 _063_
*165 _064_
*166 _065_
*167 _066_
*168 _067_
*169 _068_
*170 _069_
*171 _070_
*172 _071_
*173 _072_
*174 _073_
*175 _074_
*176 _075_
*177 _076_
*178 _077_
*179 _078_
*180 _079_
*181 _080_
*182 _081_
*183 _082_
*184 _083_
*185 _084_
*186 _085_
*187 _086_
*188 _087_
*189 _088_
*190 _089_
*191 _090_
*192 _091_
*193 _092_
*194 _093_
*195 _094_
*196 _095_
*197 _096_
*198 _097_
*199 _098_
*200 _099_
*201 _100_
*202 _101_
*203 _102_
*204 _103_
*205 _104_
*206 _105_
*207 _106_
*208 _107_
*209 _108_
*210 _109_
*211 _110_
*212 _111_
*213 _112_
*214 _113_
*215 _114_
*216 _115_
*217 _116_
*218 _117_
*219 _118_
*220 _119_
*221 _120_
*222 _121_
*223 _122_
*224 _123_
*225 _124_
*226 _125_
*227 _126_
*228 _127_
*229 _128_
*230 _129_
*231 _130_
*232 _131_
*233 _132_
*234 _133_
*235 _134_
*236 _135_
*237 _136_
*238 _137_
*239 _138_
*240 _139_
*241 _140_
*242 _141_
*243 _142_
*244 _143_
*245 _144_
*246 _145_
*247 _146_
*248 _147_
*249 _148_
*250 _149_
*251 _150_
*252 _151_
*253 _152_
*254 _153_
*255 _154_
*256 _155_
*257 _156_
*258 _157_
*259 _158_
*260 _159_
*261 _160_
*262 _161_
*263 _162_
*264 _163_
*265 _164_
*266 _165_
*267 _166_
*268 _167_
*269 _168_
*270 _169_
*271 _170_
*272 _171_
*273 _172_
*274 _173_
*275 _174_
*276 _175_
*277 _176_
*278 _177_
*279 _178_
*280 _179_
*281 _180_
*282 _181_
*283 _182_
*284 _183_
*285 _184_
*286 _185_
*287 _186_
*288 _187_
*289 _188_
*290 _189_
*291 _190_
*292 _191_
*293 _192_
*294 _193_
*295 _194_
*296 _195_
*297 _196_
*298 _197_
*299 _198_
*300 _199_
*301 _200_
*302 _201_
*303 _202_
*304 _203_
*305 _204_
*306 _205_
*307 _206_
*308 _207_
*309 _208_
*310 _209_
*311 _210_
*312 _211_
*313 _212_
*314 _213_
*315 _214_
*316 _215_
*317 _216_
*318 _217_
*319 _218_
*320 _219_
*321 _220_
*322 _221_
*323 _222_
*324 _223_
*325 _224_
*326 _225_
*327 _226_
*328 _227_
*329 _228_
*330 _229_
*331 _230_
*332 _231_
*333 _232_
*334 _233_
*335 _234_
*336 _235_
*337 _236_
*338 _237_
*339 _238_
*340 _239_
*341 _240_
*342 _241_
*343 _242_
*344 _243_
*345 _244_
*346 _245_
*347 _246_
*348 _247_
*349 _248_
*350 _249_
*351 _250_
*352 _251_
*353 _252_
*354 _253_
*355 _254_
*356 _255_
*357 _256_
*358 _257_
*359 _258_
*360 _259_
*361 _260_
*362 _261_
*363 _262_
*364 _263_
*365 _264_
*366 _265_
*367 _266_
*368 _267_
*369 _268_
*370 _269_
*371 _270_
*372 _271_
*373 _272_
*374 _273_
*375 _274_
*376 _275_
*377 _276_
*378 _277_
*379 _278_
*380 _279_
*381 _280_
*382 _281_
*383 _282_
*384 _283_
*385 _284_
*386 _285_
*387 _286_
*388 _287_
*389 _288_
*390 _289_
*391 _290_
*392 _291_
*393 _292_
*394 _293_
*395 _294_
*396 _295_
*397 _296_
*398 _297_
*399 _298_
*400 _299_
*401 _300_
*402 _301_
*403 _302_
*404 _303_
*405 _304_
*406 _305_
*407 _306_
*408 _307_
*409 _308_
*410 _309_
*411 _310_
*412 _311_
*413 _312_
*414 net1
*415 net10
*416 net100
*417 net101
*418 net102
*419 net103
*420 net104
*421 net105
*422 net106
*423 net107
*424 net108
*425 net109
*426 net11
*427 net110
*428 net111
*429 net112
*430 net113
*431 net114
*432 net115
*433 net116
*434 net117
*435 net118
*436 net119
*437 net12
*438 net120
*439 net121
*440 net122
*441 net123
*442 net124
*443 net125
*444 net126
*445 net127
*446 net128
*447 net129
*448 net13
*449 net130
*450 net131
*451 net132
*452 net133
*453 net134
*454 net135
*455 net136
*456 net137
*457 net138
*458 net139
*459 net14
*460 net140
*461 net141
*462 net146
*463 net147
*464 net148
*465 net149
*466 net15
*467 net150
*468 net151
*469 net152
*470 net153
*471 net154
*472 net155
*473 net156
*474 net157
*475 net16
*476 net166
*477 net17
*478 net177
*479 net178
*480 net179
*481 net18
*482 net180
*483 net185
*484 net19
*485 net198
*486 net2
*487 net20
*488 net206
*489 net21
*490 net22
*491 net23
*492 net24
*493 net25
*494 net26
*495 net27
*496 net28
*497 net29
*498 net3
*499 net30
*500 net31
*501 net32
*502 net33
*503 net34
*504 net35
*505 net36
*506 net37
*507 net38
*508 net39
*509 net4
*510 net40
*511 net41
*512 net42
*513 net43
*514 net44
*515 net45
*516 net46
*517 net47
*518 net48
*519 net49
*520 net5
*521 net50
*522 net51
*523 net52
*524 net53
*525 net54
*526 net55
*527 net56
*528 net57
*529 net58
*530 net59
*531 net6
*532 net60
*533 net61
*534 net62
*535 net63
*536 net64
*537 net65
*538 net66
*539 net67
*540 net68
*541 net69
*542 net7
*543 net70
*544 net71
*545 net72
*546 net73
*547 net74
*548 net75
*549 net76
*550 net77
*551 net78
*552 net79
*553 net8
*554 net80
*555 net81
*556 net82
*557 net83
*558 net84
*559 net85
*560 net86
*561 net87
*562 net88
*563 net89
*564 net9
*565 net90
*566 net91
*567 net92
*568 net93
*569 net94
*570 net95
*571 net96
*572 net97
*573 net98
*574 net99
*575 FILLER_0_108
*576 FILLER_0_111
*577 FILLER_0_113
*578 FILLER_0_12
*579 FILLER_0_123
*580 FILLER_0_138
*581 FILLER_0_15
*582 FILLER_0_165
*583 FILLER_0_169
*584 FILLER_0_172
*585 FILLER_0_18
*586 FILLER_0_193
*587 FILLER_0_197
*588 FILLER_0_200
*589 FILLER_0_21
*590 FILLER_0_24
*591 FILLER_0_27
*592 FILLER_0_29
*593 FILLER_0_3
*594 FILLER_0_57
*595 FILLER_0_6
*596 FILLER_0_85
*597 FILLER_0_88
*598 FILLER_0_9
*599 FILLER_10_101
*600 FILLER_10_104
*601 FILLER_10_112
*602 FILLER_10_115
*603 FILLER_10_132
*604 FILLER_10_135
*605 FILLER_10_138
*606 FILLER_10_141
*607 FILLER_10_146
*608 FILLER_10_149
*609 FILLER_10_152
*610 FILLER_10_155
*611 FILLER_10_179
*612 FILLER_10_197
*613 FILLER_10_200
*614 FILLER_10_29
*615 FILLER_10_3
*616 FILLER_10_45
*617 FILLER_10_48
*618 FILLER_10_51
*619 FILLER_10_54
*620 FILLER_10_57
*621 FILLER_10_60
*622 FILLER_10_63
*623 FILLER_10_66
*624 FILLER_10_69
*625 FILLER_10_92
*626 FILLER_10_95
*627 FILLER_10_98
*628 FILLER_11_113
*629 FILLER_11_116
*630 FILLER_11_119
*631 FILLER_11_133
*632 FILLER_11_136
*633 FILLER_11_139
*634 FILLER_11_142
*635 FILLER_11_145
*636 FILLER_11_192
*637 FILLER_11_3
*638 FILLER_11_45
*639 FILLER_11_48
*640 FILLER_11_51
*641 FILLER_11_54
*642 FILLER_11_57
*643 FILLER_11_60
*644 FILLER_11_63
*645 FILLER_11_66
*646 FILLER_11_69
*647 FILLER_11_72
*648 FILLER_12_100
*649 FILLER_12_103
*650 FILLER_12_110
*651 FILLER_12_113
*652 FILLER_12_116
*653 FILLER_12_119
*654 FILLER_12_122
*655 FILLER_12_141
*656 FILLER_12_160
*657 FILLER_12_163
*658 FILLER_12_197
*659 FILLER_12_200
*660 FILLER_12_27
*661 FILLER_12_3
*662 FILLER_12_37
*663 FILLER_12_48
*664 FILLER_12_51
*665 FILLER_12_54
*666 FILLER_12_57
*667 FILLER_12_60
*668 FILLER_12_63
*669 FILLER_12_66
*670 FILLER_12_69
*671 FILLER_12_72
*672 FILLER_12_75
*673 FILLER_12_78
*674 FILLER_12_81
*675 FILLER_12_85
*676 FILLER_12_88
*677 FILLER_12_9
*678 FILLER_12_91
*679 FILLER_12_94
*680 FILLER_12_97
*681 FILLER_13_102
*682 FILLER_13_105
*683 FILLER_13_108
*684 FILLER_13_111
*685 FILLER_13_113
*686 FILLER_13_116
*687 FILLER_13_119
*688 FILLER_13_122
*689 FILLER_13_125
*690 FILLER_13_128
*691 FILLER_13_131
*692 FILLER_13_134
*693 FILLER_13_141
*694 FILLER_13_144
*695 FILLER_13_147
*696 FILLER_13_156
*697 FILLER_13_159
*698 FILLER_13_169
*699 FILLER_13_19
*700 FILLER_13_200
*701 FILLER_13_22
*702 FILLER_13_40
*703 FILLER_13_43
*704 FILLER_13_46
*705 FILLER_13_57
*706 FILLER_13_63
*707 FILLER_13_66
*708 FILLER_13_69
*709 FILLER_13_72
*710 FILLER_13_75
*711 FILLER_13_78
*712 FILLER_13_81
*713 FILLER_13_84
*714 FILLER_13_87
*715 FILLER_13_90
*716 FILLER_13_93
*717 FILLER_13_96
*718 FILLER_13_99
*719 FILLER_14_100
*720 FILLER_14_103
*721 FILLER_14_106
*722 FILLER_14_109
*723 FILLER_14_112
*724 FILLER_14_115
*725 FILLER_14_118
*726 FILLER_14_121
*727 FILLER_14_124
*728 FILLER_14_139
*729 FILLER_14_141
*730 FILLER_14_156
*731 FILLER_14_159
*732 FILLER_14_173
*733 FILLER_14_3
*734 FILLER_14_39
*735 FILLER_14_68
*736 FILLER_14_85
*737 FILLER_14_88
*738 FILLER_14_91
*739 FILLER_14_94
*740 FILLER_14_97
*741 FILLER_15_102
*742 FILLER_15_105
*743 FILLER_15_108
*744 FILLER_15_111
*745 FILLER_15_113
*746 FILLER_15_116
*747 FILLER_15_119
*748 FILLER_15_122
*749 FILLER_15_125
*750 FILLER_15_128
*751 FILLER_15_131
*752 FILLER_15_134
*753 FILLER_15_137
*754 FILLER_15_140
*755 FILLER_15_166
*756 FILLER_15_169
*757 FILLER_15_172
*758 FILLER_15_36
*759 FILLER_15_39
*760 FILLER_15_42
*761 FILLER_15_45
*762 FILLER_15_48
*763 FILLER_15_57
*764 FILLER_15_60
*765 FILLER_15_63
*766 FILLER_15_66
*767 FILLER_15_69
*768 FILLER_15_72
*769 FILLER_15_75
*770 FILLER_15_78
*771 FILLER_15_81
*772 FILLER_15_84
*773 FILLER_15_87
*774 FILLER_15_90
*775 FILLER_15_93
*776 FILLER_15_96
*777 FILLER_15_99
*778 FILLER_16_100
*779 FILLER_16_103
*780 FILLER_16_106
*781 FILLER_16_109
*782 FILLER_16_112
*783 FILLER_16_115
*784 FILLER_16_118
*785 FILLER_16_121
*786 FILLER_16_124
*787 FILLER_16_127
*788 FILLER_16_130
*789 FILLER_16_133
*790 FILLER_16_136
*791 FILLER_16_139
*792 FILLER_16_153
*793 FILLER_16_186
*794 FILLER_16_25
*795 FILLER_16_29
*796 FILLER_16_3
*797 FILLER_16_32
*798 FILLER_16_46
*799 FILLER_16_58
*800 FILLER_16_61
*801 FILLER_16_64
*802 FILLER_16_67
*803 FILLER_16_70
*804 FILLER_16_73
*805 FILLER_16_76
*806 FILLER_16_79
*807 FILLER_16_82
*808 FILLER_16_85
*809 FILLER_16_88
*810 FILLER_16_91
*811 FILLER_16_94
*812 FILLER_16_97
*813 FILLER_17_101
*814 FILLER_17_104
*815 FILLER_17_107
*816 FILLER_17_110
*817 FILLER_17_113
*818 FILLER_17_120
*819 FILLER_17_123
*820 FILLER_17_126
*821 FILLER_17_129
*822 FILLER_17_132
*823 FILLER_17_135
*824 FILLER_17_138
*825 FILLER_17_141
*826 FILLER_17_164
*827 FILLER_17_167
*828 FILLER_17_169
*829 FILLER_17_196
*830 FILLER_17_199
*831 FILLER_17_33
*832 FILLER_17_49
*833 FILLER_17_57
*834 FILLER_17_60
*835 FILLER_17_63
*836 FILLER_17_70
*837 FILLER_17_77
*838 FILLER_17_80
*839 FILLER_17_83
*840 FILLER_17_86
*841 FILLER_17_89
*842 FILLER_17_9
*843 FILLER_17_92
*844 FILLER_17_95
*845 FILLER_17_98
*846 FILLER_18_100
*847 FILLER_18_121
*848 FILLER_18_124
*849 FILLER_18_127
*850 FILLER_18_130
*851 FILLER_18_133
*852 FILLER_18_136
*853 FILLER_18_139
*854 FILLER_18_141
*855 FILLER_18_144
*856 FILLER_18_195
*857 FILLER_18_197
*858 FILLER_18_200
*859 FILLER_18_29
*860 FILLER_18_3
*861 FILLER_18_45
*862 FILLER_18_48
*863 FILLER_18_51
*864 FILLER_18_54
*865 FILLER_18_57
*866 FILLER_18_6
*867 FILLER_18_78
*868 FILLER_18_81
*869 FILLER_18_85
*870 FILLER_18_88
*871 FILLER_18_91
*872 FILLER_18_94
*873 FILLER_18_97
*874 FILLER_19_100
*875 FILLER_19_122
*876 FILLER_19_125
*877 FILLER_19_128
*878 FILLER_19_131
*879 FILLER_19_134
*880 FILLER_19_137
*881 FILLER_19_140
*882 FILLER_19_143
*883 FILLER_19_146
*884 FILLER_19_149
*885 FILLER_19_167
*886 FILLER_19_182
*887 FILLER_19_185
*888 FILLER_19_201
*889 FILLER_19_25
*890 FILLER_19_35
*891 FILLER_19_38
*892 FILLER_19_41
*893 FILLER_19_44
*894 FILLER_19_47
*895 FILLER_19_50
*896 FILLER_19_53
*897 FILLER_19_57
*898 FILLER_19_60
*899 FILLER_19_63
*900 FILLER_19_73
*901 FILLER_19_76
*902 FILLER_19_79
*903 FILLER_1_113
*904 FILLER_1_12
*905 FILLER_1_145
*906 FILLER_1_15
*907 FILLER_1_159
*908 FILLER_1_185
*909 FILLER_1_188
*910 FILLER_1_3
*911 FILLER_1_52
*912 FILLER_1_55
*913 FILLER_1_57
*914 FILLER_1_6
*915 FILLER_1_67
*916 FILLER_1_9
*917 FILLER_20_100
*918 FILLER_20_108
*919 FILLER_20_111
*920 FILLER_20_115
*921 FILLER_20_118
*922 FILLER_20_121
*923 FILLER_20_124
*924 FILLER_20_127
*925 FILLER_20_130
*926 FILLER_20_133
*927 FILLER_20_136
*928 FILLER_20_139
*929 FILLER_20_141
*930 FILLER_20_144
*931 FILLER_20_153
*932 FILLER_20_156
*933 FILLER_20_170
*934 FILLER_20_18
*935 FILLER_20_26
*936 FILLER_20_29
*937 FILLER_20_32
*938 FILLER_20_35
*939 FILLER_20_38
*940 FILLER_20_41
*941 FILLER_20_47
*942 FILLER_20_55
*943 FILLER_20_58
*944 FILLER_20_61
*945 FILLER_20_64
*946 FILLER_20_67
*947 FILLER_20_70
*948 FILLER_20_73
*949 FILLER_20_76
*950 FILLER_20_79
*951 FILLER_20_82
*952 FILLER_20_85
*953 FILLER_20_88
*954 FILLER_20_91
*955 FILLER_20_94
*956 FILLER_20_97
*957 FILLER_21_102
*958 FILLER_21_105
*959 FILLER_21_108
*960 FILLER_21_111
*961 FILLER_21_113
*962 FILLER_21_116
*963 FILLER_21_119
*964 FILLER_21_122
*965 FILLER_21_125
*966 FILLER_21_128
*967 FILLER_21_131
*968 FILLER_21_134
*969 FILLER_21_137
*970 FILLER_21_140
*971 FILLER_21_143
*972 FILLER_21_146
*973 FILLER_21_149
*974 FILLER_21_152
*975 FILLER_21_155
*976 FILLER_21_158
*977 FILLER_21_161
*978 FILLER_21_164
*979 FILLER_21_167
*980 FILLER_21_19
*981 FILLER_21_199
*982 FILLER_21_27
*983 FILLER_21_30
*984 FILLER_21_33
*985 FILLER_21_57
*986 FILLER_21_72
*987 FILLER_21_75
*988 FILLER_21_78
*989 FILLER_21_81
*990 FILLER_21_84
*991 FILLER_21_93
*992 FILLER_21_96
*993 FILLER_21_99
*994 FILLER_22_101
*995 FILLER_22_113
*996 FILLER_22_119
*997 FILLER_22_122
*998 FILLER_22_125
*999 FILLER_22_128
*1000 FILLER_22_131
*1001 FILLER_22_134
*1002 FILLER_22_137
*1003 FILLER_22_160
*1004 FILLER_22_170
*1005 FILLER_22_177
*1006 FILLER_22_192
*1007 FILLER_22_195
*1008 FILLER_22_197
*1009 FILLER_22_200
*1010 FILLER_22_3
*1011 FILLER_22_35
*1012 FILLER_22_38
*1013 FILLER_22_41
*1014 FILLER_22_44
*1015 FILLER_22_47
*1016 FILLER_22_50
*1017 FILLER_22_68
*1018 FILLER_22_85
*1019 FILLER_22_88
*1020 FILLER_22_98
*1021 FILLER_23_109
*1022 FILLER_23_123
*1023 FILLER_23_126
*1024 FILLER_23_129
*1025 FILLER_23_132
*1026 FILLER_23_151
*1027 FILLER_23_154
*1028 FILLER_23_169
*1029 FILLER_23_195
*1030 FILLER_23_198
*1031 FILLER_23_201
*1032 FILLER_23_29
*1033 FILLER_23_3
*1034 FILLER_23_32
*1035 FILLER_23_35
*1036 FILLER_23_38
*1037 FILLER_23_41
*1038 FILLER_23_44
*1039 FILLER_23_47
*1040 FILLER_23_50
*1041 FILLER_23_53
*1042 FILLER_23_57
*1043 FILLER_23_65
*1044 FILLER_23_68
*1045 FILLER_23_71
*1046 FILLER_23_74
*1047 FILLER_23_93
*1048 FILLER_24_101
*1049 FILLER_24_104
*1050 FILLER_24_107
*1051 FILLER_24_115
*1052 FILLER_24_118
*1053 FILLER_24_121
*1054 FILLER_24_124
*1055 FILLER_24_127
*1056 FILLER_24_130
*1057 FILLER_24_133
*1058 FILLER_24_136
*1059 FILLER_24_139
*1060 FILLER_24_141
*1061 FILLER_24_144
*1062 FILLER_24_150
*1063 FILLER_24_169
*1064 FILLER_24_172
*1065 FILLER_24_175
*1066 FILLER_24_193
*1067 FILLER_24_197
*1068 FILLER_24_200
*1069 FILLER_24_24
*1070 FILLER_24_27
*1071 FILLER_24_29
*1072 FILLER_24_32
*1073 FILLER_24_46
*1074 FILLER_24_49
*1075 FILLER_24_52
*1076 FILLER_24_55
*1077 FILLER_24_58
*1078 FILLER_24_61
*1079 FILLER_24_70
*1080 FILLER_24_73
*1081 FILLER_24_76
*1082 FILLER_24_79
*1083 FILLER_24_82
*1084 FILLER_24_85
*1085 FILLER_24_95
*1086 FILLER_24_98
*1087 FILLER_25_100
*1088 FILLER_25_103
*1089 FILLER_25_11
*1090 FILLER_25_113
*1091 FILLER_25_116
*1092 FILLER_25_119
*1093 FILLER_25_122
*1094 FILLER_25_125
*1095 FILLER_25_128
*1096 FILLER_25_131
*1097 FILLER_25_134
*1098 FILLER_25_137
*1099 FILLER_25_14
*1100 FILLER_25_140
*1101 FILLER_25_143
*1102 FILLER_25_146
*1103 FILLER_25_149
*1104 FILLER_25_163
*1105 FILLER_25_166
*1106 FILLER_25_169
*1107 FILLER_25_172
*1108 FILLER_25_175
*1109 FILLER_25_183
*1110 FILLER_25_186
*1111 FILLER_25_57
*1112 FILLER_25_73
*1113 FILLER_25_76
*1114 FILLER_25_82
*1115 FILLER_25_85
*1116 FILLER_25_88
*1117 FILLER_25_91
*1118 FILLER_25_94
*1119 FILLER_25_97
*1120 FILLER_26_103
*1121 FILLER_26_106
*1122 FILLER_26_121
*1123 FILLER_26_124
*1124 FILLER_26_127
*1125 FILLER_26_130
*1126 FILLER_26_133
*1127 FILLER_26_136
*1128 FILLER_26_139
*1129 FILLER_26_141
*1130 FILLER_26_164
*1131 FILLER_26_167
*1132 FILLER_26_170
*1133 FILLER_26_177
*1134 FILLER_26_184
*1135 FILLER_26_197
*1136 FILLER_26_200
*1137 FILLER_26_25
*1138 FILLER_26_29
*1139 FILLER_26_32
*1140 FILLER_26_35
*1141 FILLER_26_41
*1142 FILLER_26_53
*1143 FILLER_26_56
*1144 FILLER_26_59
*1145 FILLER_26_68
*1146 FILLER_26_85
*1147 FILLER_26_88
*1148 FILLER_27_105
*1149 FILLER_27_12
*1150 FILLER_27_128
*1151 FILLER_27_144
*1152 FILLER_27_15
*1153 FILLER_27_22
*1154 FILLER_27_25
*1155 FILLER_27_28
*1156 FILLER_27_31
*1157 FILLER_27_34
*1158 FILLER_27_37
*1159 FILLER_27_49
*1160 FILLER_27_52
*1161 FILLER_27_55
*1162 FILLER_27_57
*1163 FILLER_27_60
*1164 FILLER_27_63
*1165 FILLER_27_66
*1166 FILLER_27_88
*1167 FILLER_28_101
*1168 FILLER_28_104
*1169 FILLER_28_107
*1170 FILLER_28_122
*1171 FILLER_28_125
*1172 FILLER_28_133
*1173 FILLER_28_136
*1174 FILLER_28_139
*1175 FILLER_28_146
*1176 FILLER_28_149
*1177 FILLER_28_152
*1178 FILLER_28_155
*1179 FILLER_28_158
*1180 FILLER_28_161
*1181 FILLER_28_164
*1182 FILLER_28_167
*1183 FILLER_28_170
*1184 FILLER_28_173
*1185 FILLER_28_176
*1186 FILLER_28_179
*1187 FILLER_28_191
*1188 FILLER_28_194
*1189 FILLER_28_197
*1190 FILLER_28_200
*1191 FILLER_28_22
*1192 FILLER_28_25
*1193 FILLER_28_29
*1194 FILLER_28_56
*1195 FILLER_28_59
*1196 FILLER_28_67
*1197 FILLER_28_74
*1198 FILLER_28_80
*1199 FILLER_28_83
*1200 FILLER_28_98
*1201 FILLER_29_110
*1202 FILLER_29_113
*1203 FILLER_29_116
*1204 FILLER_29_119
*1205 FILLER_29_134
*1206 FILLER_29_137
*1207 FILLER_29_140
*1208 FILLER_29_149
*1209 FILLER_29_165
*1210 FILLER_29_169
*1211 FILLER_29_172
*1212 FILLER_29_175
*1213 FILLER_29_178
*1214 FILLER_29_181
*1215 FILLER_29_196
*1216 FILLER_29_199
*1217 FILLER_29_23
*1218 FILLER_29_26
*1219 FILLER_29_29
*1220 FILLER_29_41
*1221 FILLER_29_57
*1222 FILLER_29_60
*1223 FILLER_29_69
*1224 FILLER_29_72
*1225 FILLER_29_75
*1226 FILLER_29_78
*1227 FILLER_29_81
*1228 FILLER_29_95
*1229 FILLER_2_104
*1230 FILLER_2_12
*1231 FILLER_2_122
*1232 FILLER_2_138
*1233 FILLER_2_149
*1234 FILLER_2_15
*1235 FILLER_2_179
*1236 FILLER_2_18
*1237 FILLER_2_197
*1238 FILLER_2_200
*1239 FILLER_2_29
*1240 FILLER_2_3
*1241 FILLER_2_6
*1242 FILLER_2_64
*1243 FILLER_2_85
*1244 FILLER_2_9
*1245 FILLER_30_113
*1246 FILLER_30_116
*1247 FILLER_30_119
*1248 FILLER_30_12
*1249 FILLER_30_122
*1250 FILLER_30_15
*1251 FILLER_30_174
*1252 FILLER_30_186
*1253 FILLER_30_194
*1254 FILLER_30_197
*1255 FILLER_30_200
*1256 FILLER_30_21
*1257 FILLER_30_24
*1258 FILLER_30_27
*1259 FILLER_30_29
*1260 FILLER_30_32
*1261 FILLER_30_54
*1262 FILLER_30_57
*1263 FILLER_30_71
*1264 FILLER_30_74
*1265 FILLER_30_95
*1266 FILLER_30_98
*1267 FILLER_31_10
*1268 FILLER_31_113
*1269 FILLER_31_144
*1270 FILLER_31_169
*1271 FILLER_31_190
*1272 FILLER_31_193
*1273 FILLER_31_20
*1274 FILLER_31_23
*1275 FILLER_31_26
*1276 FILLER_31_29
*1277 FILLER_31_3
*1278 FILLER_31_32
*1279 FILLER_31_40
*1280 FILLER_31_43
*1281 FILLER_31_46
*1282 FILLER_31_57
*1283 FILLER_32_120
*1284 FILLER_32_130
*1285 FILLER_32_139
*1286 FILLER_32_141
*1287 FILLER_32_144
*1288 FILLER_32_168
*1289 FILLER_32_171
*1290 FILLER_32_194
*1291 FILLER_32_197
*1292 FILLER_32_200
*1293 FILLER_32_29
*1294 FILLER_32_3
*1295 FILLER_33_157
*1296 FILLER_33_194
*1297 FILLER_33_197
*1298 FILLER_33_20
*1299 FILLER_33_200
*1300 FILLER_33_23
*1301 FILLER_33_26
*1302 FILLER_33_29
*1303 FILLER_33_57
*1304 FILLER_33_69
*1305 FILLER_33_72
*1306 FILLER_33_85
*1307 FILLER_3_12
*1308 FILLER_3_123
*1309 FILLER_3_126
*1310 FILLER_3_129
*1311 FILLER_3_163
*1312 FILLER_3_166
*1313 FILLER_3_192
*1314 FILLER_3_3
*1315 FILLER_3_31
*1316 FILLER_3_47
*1317 FILLER_3_6
*1318 FILLER_3_64
*1319 FILLER_3_9
*1320 FILLER_4_101
*1321 FILLER_4_121
*1322 FILLER_4_192
*1323 FILLER_4_195
*1324 FILLER_4_201
*1325 FILLER_4_27
*1326 FILLER_4_3
*1327 FILLER_4_51
*1328 FILLER_4_81
*1329 FILLER_4_85
*1330 FILLER_5_107
*1331 FILLER_5_110
*1332 FILLER_5_113
*1333 FILLER_5_144
*1334 FILLER_5_147
*1335 FILLER_5_150
*1336 FILLER_5_153
*1337 FILLER_5_159
*1338 FILLER_5_182
*1339 FILLER_5_185
*1340 FILLER_5_19
*1341 FILLER_5_198
*1342 FILLER_5_201
*1343 FILLER_5_27
*1344 FILLER_5_3
*1345 FILLER_5_74
*1346 FILLER_6_112
*1347 FILLER_6_137
*1348 FILLER_6_154
*1349 FILLER_6_157
*1350 FILLER_6_172
*1351 FILLER_6_191
*1352 FILLER_6_194
*1353 FILLER_6_197
*1354 FILLER_6_200
*1355 FILLER_6_27
*1356 FILLER_6_85
*1357 FILLER_6_88
*1358 FILLER_6_91
*1359 FILLER_6_94
*1360 FILLER_6_97
*1361 FILLER_7_119
*1362 FILLER_7_191
*1363 FILLER_7_20
*1364 FILLER_7_34
*1365 FILLER_7_55
*1366 FILLER_7_61
*1367 FILLER_7_71
*1368 FILLER_7_74
*1369 FILLER_7_97
*1370 FILLER_8_118
*1371 FILLER_8_145
*1372 FILLER_8_158
*1373 FILLER_8_174
*1374 FILLER_8_177
*1375 FILLER_8_194
*1376 FILLER_8_201
*1377 FILLER_8_27
*1378 FILLER_8_29
*1379 FILLER_8_3
*1380 FILLER_8_41
*1381 FILLER_8_44
*1382 FILLER_8_47
*1383 FILLER_8_50
*1384 FILLER_8_53
*1385 FILLER_8_56
*1386 FILLER_8_6
*1387 FILLER_8_67
*1388 FILLER_8_70
*1389 FILLER_8_73
*1390 FILLER_8_76
*1391 FILLER_8_85
*1392 FILLER_8_88
*1393 FILLER_8_91
*1394 FILLER_8_94
*1395 FILLER_8_97
*1396 FILLER_9_111
*1397 FILLER_9_113
*1398 FILLER_9_116
*1399 FILLER_9_121
*1400 FILLER_9_130
*1401 FILLER_9_149
*1402 FILLER_9_169
*1403 FILLER_9_177
*1404 FILLER_9_3
*1405 FILLER_9_44
*1406 FILLER_9_47
*1407 FILLER_9_50
*1408 FILLER_9_53
*1409 FILLER_9_57
*1410 FILLER_9_60
*1411 FILLER_9_63
*1412 FILLER_9_66
*1413 FILLER_9_69
*1414 FILLER_9_72
*1415 FILLER_9_92
*1416 FILLER_9_95
*1417 PHY_EDGE_ROW_0_Left_34
*1418 PHY_EDGE_ROW_0_Right_0
*1419 PHY_EDGE_ROW_10_Left_44
*1420 PHY_EDGE_ROW_10_Right_10
*1421 PHY_EDGE_ROW_11_Left_45
*1422 PHY_EDGE_ROW_11_Right_11
*1423 PHY_EDGE_ROW_12_Left_46
*1424 PHY_EDGE_ROW_12_Right_12
*1425 PHY_EDGE_ROW_13_Left_47
*1426 PHY_EDGE_ROW_13_Right_13
*1427 PHY_EDGE_ROW_14_Left_48
*1428 PHY_EDGE_ROW_14_Right_14
*1429 PHY_EDGE_ROW_15_Left_49
*1430 PHY_EDGE_ROW_15_Right_15
*1431 PHY_EDGE_ROW_16_Left_50
*1432 PHY_EDGE_ROW_16_Right_16
*1433 PHY_EDGE_ROW_17_Left_51
*1434 PHY_EDGE_ROW_17_Right_17
*1435 PHY_EDGE_ROW_18_Left_52
*1436 PHY_EDGE_ROW_18_Right_18
*1437 PHY_EDGE_ROW_19_Left_53
*1438 PHY_EDGE_ROW_19_Right_19
*1439 PHY_EDGE_ROW_1_Left_35
*1440 PHY_EDGE_ROW_1_Right_1
*1441 PHY_EDGE_ROW_20_Left_54
*1442 PHY_EDGE_ROW_20_Right_20
*1443 PHY_EDGE_ROW_21_Left_55
*1444 PHY_EDGE_ROW_21_Right_21
*1445 PHY_EDGE_ROW_22_Left_56
*1446 PHY_EDGE_ROW_22_Right_22
*1447 PHY_EDGE_ROW_23_Left_57
*1448 PHY_EDGE_ROW_23_Right_23
*1449 PHY_EDGE_ROW_24_Left_58
*1450 PHY_EDGE_ROW_24_Right_24
*1451 PHY_EDGE_ROW_25_Left_59
*1452 PHY_EDGE_ROW_25_Right_25
*1453 PHY_EDGE_ROW_26_Left_60
*1454 PHY_EDGE_ROW_26_Right_26
*1455 PHY_EDGE_ROW_27_Left_61
*1456 PHY_EDGE_ROW_27_Right_27
*1457 PHY_EDGE_ROW_28_Left_62
*1458 PHY_EDGE_ROW_28_Right_28
*1459 PHY_EDGE_ROW_29_Left_63
*1460 PHY_EDGE_ROW_29_Right_29
*1461 PHY_EDGE_ROW_2_Left_36
*1462 PHY_EDGE_ROW_2_Right_2
*1463 PHY_EDGE_ROW_30_Left_64
*1464 PHY_EDGE_ROW_30_Right_30
*1465 PHY_EDGE_ROW_31_Left_65
*1466 PHY_EDGE_ROW_31_Right_31
*1467 PHY_EDGE_ROW_32_Left_66
*1468 PHY_EDGE_ROW_32_Right_32
*1469 PHY_EDGE_ROW_33_Left_67
*1470 PHY_EDGE_ROW_33_Right_33
*1471 PHY_EDGE_ROW_3_Left_37
*1472 PHY_EDGE_ROW_3_Right_3
*1473 PHY_EDGE_ROW_4_Left_38
*1474 PHY_EDGE_ROW_4_Right_4
*1475 PHY_EDGE_ROW_5_Left_39
*1476 PHY_EDGE_ROW_5_Right_5
*1477 PHY_EDGE_ROW_6_Left_40
*1478 PHY_EDGE_ROW_6_Right_6
*1479 PHY_EDGE_ROW_7_Left_41
*1480 PHY_EDGE_ROW_7_Right_7
*1481 PHY_EDGE_ROW_8_Left_42
*1482 PHY_EDGE_ROW_8_Right_8
*1483 PHY_EDGE_ROW_9_Left_43
*1484 PHY_EDGE_ROW_9_Right_9
*1485 TAP_TAPCELL_ROW_0_68
*1486 TAP_TAPCELL_ROW_0_69
*1487 TAP_TAPCELL_ROW_0_70
*1488 TAP_TAPCELL_ROW_0_71
*1489 TAP_TAPCELL_ROW_0_72
*1490 TAP_TAPCELL_ROW_0_73
*1491 TAP_TAPCELL_ROW_0_74
*1492 TAP_TAPCELL_ROW_10_106
*1493 TAP_TAPCELL_ROW_10_107
*1494 TAP_TAPCELL_ROW_10_108
*1495 TAP_TAPCELL_ROW_10_109
*1496 TAP_TAPCELL_ROW_11_110
*1497 TAP_TAPCELL_ROW_11_111
*1498 TAP_TAPCELL_ROW_11_112
*1499 TAP_TAPCELL_ROW_12_113
*1500 TAP_TAPCELL_ROW_12_114
*1501 TAP_TAPCELL_ROW_12_115
*1502 TAP_TAPCELL_ROW_12_116
*1503 TAP_TAPCELL_ROW_13_117
*1504 TAP_TAPCELL_ROW_13_118
*1505 TAP_TAPCELL_ROW_13_119
*1506 TAP_TAPCELL_ROW_14_120
*1507 TAP_TAPCELL_ROW_14_121
*1508 TAP_TAPCELL_ROW_14_122
*1509 TAP_TAPCELL_ROW_14_123
*1510 TAP_TAPCELL_ROW_15_124
*1511 TAP_TAPCELL_ROW_15_125
*1512 TAP_TAPCELL_ROW_15_126
*1513 TAP_TAPCELL_ROW_16_127
*1514 TAP_TAPCELL_ROW_16_128
*1515 TAP_TAPCELL_ROW_16_129
*1516 TAP_TAPCELL_ROW_16_130
*1517 TAP_TAPCELL_ROW_17_131
*1518 TAP_TAPCELL_ROW_17_132
*1519 TAP_TAPCELL_ROW_17_133
*1520 TAP_TAPCELL_ROW_18_134
*1521 TAP_TAPCELL_ROW_18_135
*1522 TAP_TAPCELL_ROW_18_136
*1523 TAP_TAPCELL_ROW_18_137
*1524 TAP_TAPCELL_ROW_19_138
*1525 TAP_TAPCELL_ROW_19_139
*1526 TAP_TAPCELL_ROW_19_140
*1527 TAP_TAPCELL_ROW_1_75
*1528 TAP_TAPCELL_ROW_1_76
*1529 TAP_TAPCELL_ROW_1_77
*1530 TAP_TAPCELL_ROW_20_141
*1531 TAP_TAPCELL_ROW_20_142
*1532 TAP_TAPCELL_ROW_20_143
*1533 TAP_TAPCELL_ROW_20_144
*1534 TAP_TAPCELL_ROW_21_145
*1535 TAP_TAPCELL_ROW_21_146
*1536 TAP_TAPCELL_ROW_21_147
*1537 TAP_TAPCELL_ROW_22_148
*1538 TAP_TAPCELL_ROW_22_149
*1539 TAP_TAPCELL_ROW_22_150
*1540 TAP_TAPCELL_ROW_22_151
*1541 TAP_TAPCELL_ROW_23_152
*1542 TAP_TAPCELL_ROW_23_153
*1543 TAP_TAPCELL_ROW_23_154
*1544 TAP_TAPCELL_ROW_24_155
*1545 TAP_TAPCELL_ROW_24_156
*1546 TAP_TAPCELL_ROW_24_157
*1547 TAP_TAPCELL_ROW_24_158
*1548 TAP_TAPCELL_ROW_25_159
*1549 TAP_TAPCELL_ROW_25_160
*1550 TAP_TAPCELL_ROW_25_161
*1551 TAP_TAPCELL_ROW_26_162
*1552 TAP_TAPCELL_ROW_26_163
*1553 TAP_TAPCELL_ROW_26_164
*1554 TAP_TAPCELL_ROW_26_165
*1555 TAP_TAPCELL_ROW_27_166
*1556 TAP_TAPCELL_ROW_27_167
*1557 TAP_TAPCELL_ROW_27_168
*1558 TAP_TAPCELL_ROW_28_169
*1559 TAP_TAPCELL_ROW_28_170
*1560 TAP_TAPCELL_ROW_28_171
*1561 TAP_TAPCELL_ROW_28_172
*1562 TAP_TAPCELL_ROW_29_173
*1563 TAP_TAPCELL_ROW_29_174
*1564 TAP_TAPCELL_ROW_29_175
*1565 TAP_TAPCELL_ROW_2_78
*1566 TAP_TAPCELL_ROW_2_79
*1567 TAP_TAPCELL_ROW_2_80
*1568 TAP_TAPCELL_ROW_2_81
*1569 TAP_TAPCELL_ROW_30_176
*1570 TAP_TAPCELL_ROW_30_177
*1571 TAP_TAPCELL_ROW_30_178
*1572 TAP_TAPCELL_ROW_30_179
*1573 TAP_TAPCELL_ROW_31_180
*1574 TAP_TAPCELL_ROW_31_181
*1575 TAP_TAPCELL_ROW_31_182
*1576 TAP_TAPCELL_ROW_32_183
*1577 TAP_TAPCELL_ROW_32_184
*1578 TAP_TAPCELL_ROW_32_185
*1579 TAP_TAPCELL_ROW_32_186
*1580 TAP_TAPCELL_ROW_33_187
*1581 TAP_TAPCELL_ROW_33_188
*1582 TAP_TAPCELL_ROW_33_189
*1583 TAP_TAPCELL_ROW_33_190
*1584 TAP_TAPCELL_ROW_33_191
*1585 TAP_TAPCELL_ROW_33_192
*1586 TAP_TAPCELL_ROW_33_193
*1587 TAP_TAPCELL_ROW_3_82
*1588 TAP_TAPCELL_ROW_3_83
*1589 TAP_TAPCELL_ROW_3_84
*1590 TAP_TAPCELL_ROW_4_85
*1591 TAP_TAPCELL_ROW_4_86
*1592 TAP_TAPCELL_ROW_4_87
*1593 TAP_TAPCELL_ROW_4_88
*1594 TAP_TAPCELL_ROW_5_89
*1595 TAP_TAPCELL_ROW_5_90
*1596 TAP_TAPCELL_ROW_5_91
*1597 TAP_TAPCELL_ROW_6_92
*1598 TAP_TAPCELL_ROW_6_93
*1599 TAP_TAPCELL_ROW_6_94
*1600 TAP_TAPCELL_ROW_6_95
*1601 TAP_TAPCELL_ROW_7_96
*1602 TAP_TAPCELL_ROW_7_97
*1603 TAP_TAPCELL_ROW_7_98
*1604 TAP_TAPCELL_ROW_8_100
*1605 TAP_TAPCELL_ROW_8_101
*1606 TAP_TAPCELL_ROW_8_102
*1607 TAP_TAPCELL_ROW_8_99
*1608 TAP_TAPCELL_ROW_9_103
*1609 TAP_TAPCELL_ROW_9_104
*1610 TAP_TAPCELL_ROW_9_105
*1611 _313_
*1612 _314_
*1613 _315_
*1614 _316_
*1615 _317_
*1616 _318_
*1617 _319_
*1618 _320_
*1619 _321_
*1620 _322_
*1621 _323_
*1622 _324_
*1623 _325_
*1624 _326_
*1625 _327_
*1626 _328_
*1627 _329_
*1628 _330_
*1629 _331_
*1630 _332_
*1631 _333_
*1632 _334_
*1633 _335_
*1634 _336_
*1635 _337_
*1636 _338_
*1637 _339_
*1638 _340_
*1639 _341_
*1640 _342_
*1641 _343_
*1642 _344_
*1643 _345_
*1644 _346_
*1645 _347_
*1646 _348_
*1647 _349_
*1648 _350_
*1649 _351_
*1650 _352_
*1651 _353_
*1652 _354_
*1653 _355_
*1654 _356_
*1655 _357_
*1656 _358_
*1657 _359_
*1658 _360_
*1659 _361_
*1660 _362_
*1661 _363_
*1662 _364_
*1663 _365_
*1664 _366_
*1665 _367_
*1666 _368_
*1667 _369_
*1668 _370_
*1669 _371_
*1670 _372_
*1671 _373_
*1672 _374_
*1673 _375_
*1674 _376_
*1675 _377_
*1676 _378_
*1677 _379_
*1678 _380_
*1679 _381_
*1680 _382_
*1681 _383_
*1682 _384_
*1683 _385_
*1684 _386_
*1685 _387_
*1686 _388_
*1687 _389_
*1688 _390_
*1689 _391_
*1690 _392_
*1691 _393_
*1692 _394_
*1693 _395_
*1694 _396_
*1695 _397_
*1696 _398_
*1697 _399_
*1698 _400_
*1699 _401_
*1700 _402_
*1701 _403_
*1702 _404_
*1703 _405_
*1704 _406_
*1705 _407_
*1706 _408_
*1707 _409_
*1708 _410_
*1709 _411_
*1710 _412_
*1711 _413_
*1712 _414_
*1713 _415_
*1714 _416_
*1715 _417_
*1716 _418_
*1717 _419_
*1718 _420_
*1719 _421_
*1720 _422_
*1721 _423_
*1722 _424_
*1723 _425_
*1724 _426_
*1725 _427_
*1726 _428_
*1727 _429_
*1728 _430_
*1729 _431_
*1730 _432_
*1731 _433_
*1732 _434_
*1733 _435_
*1734 _436_
*1735 _437_
*1736 _438_
*1737 _439_
*1738 _440_
*1739 _441_
*1740 _442_
*1741 _443_
*1742 _444_
*1743 _445_
*1744 _446_
*1745 _447_
*1746 _448_
*1747 _449_
*1748 _450_
*1749 _451_
*1750 _452_
*1751 _453_
*1752 _454_
*1753 _455_
*1754 _456_
*1755 _457_
*1756 _458_
*1757 _459_
*1758 _460_
*1759 _461_
*1760 _462_
*1761 _463_
*1762 _464_
*1763 _465_
*1764 _466_
*1765 _467_
*1766 _468_
*1767 _469_
*1768 _470_
*1769 _471_
*1770 _472_
*1771 _473_
*1772 _474_
*1773 _475_
*1774 _476_
*1775 _477_
*1776 _478_
*1777 _479_
*1778 _480_
*1779 _481_
*1780 _482_
*1781 _483_
*1782 _484_
*1783 _485_
*1784 _486_
*1785 _487_
*1786 _488_
*1787 _489_
*1788 _490_
*1789 _491_
*1790 _492_
*1791 _493_
*1792 _494_
*1793 _495_
*1794 _496_
*1795 _497_
*1796 _498_
*1797 _499_
*1798 _500_
*1799 _501_
*1800 _502_
*1801 _503_
*1802 _504_
*1803 _505_
*1804 _506_
*1805 _507_
*1806 _508_
*1807 _509_
*1808 _510_
*1809 _511_
*1810 _512_
*1811 _513_
*1812 _514_
*1813 _515_
*1814 _516_
*1815 _517_
*1816 _518_
*1817 _519_
*1818 _520_
*1819 _521_
*1820 _522_
*1821 _523_
*1822 _524_
*1823 _525_
*1824 _526_
*1825 _527_
*1826 _528_
*1827 _529_
*1828 _530_
*1829 _531_
*1830 _532_
*1831 _533_
*1832 _534_
*1833 _535_
*1834 _536_
*1835 _537_
*1836 _538_
*1837 _539_
*1838 _540_
*1839 _541_
*1840 _542_
*1841 _543_
*1842 _544_
*1843 _545_
*1844 _546_
*1845 _547_
*1846 _548_
*1847 _549_
*1848 _550_
*1849 _551_
*1850 _552_
*1851 _553_
*1852 _554_
*1853 _555_
*1854 _556_
*1855 _557_
*1856 _558_
*1857 _559_
*1858 _560_
*1859 _561_
*1860 _562_
*1861 _563_
*1862 _564_
*1863 _565_
*1864 _566_
*1865 _567_
*1866 _568_
*1867 _569_
*1868 _570_
*1869 _571_
*1870 _572_
*1871 _573_
*1872 _574_
*1873 _575_
*1874 _576_
*1875 _577_
*1876 _578_
*1877 _579_
*1878 _580_
*1879 _581_
*1880 _582_
*1881 _583_
*1882 _584_
*1883 _585_
*1884 _586_
*1885 _587_
*1886 _588_
*1887 _589_
*1888 _590_
*1889 _591_
*1890 _592_
*1891 _593_
*1892 _594_
*1893 _595_
*1894 _596_
*1895 _597_
*1896 _598_
*1897 _599_
*1898 _600_
*1899 _601_
*1900 _602_
*1901 _603_
*1902 _604_
*1903 _605_
*1904 _606_
*1905 _607_
*1906 _608_
*1907 _609_
*1908 _610_
*1909 _611_
*1910 _612_
*1911 _613_
*1912 _614_
*1913 _615_
*1914 _616_
*1915 _617_
*1916 _618_
*1917 _619_
*1918 _620_
*1919 _621_
*1920 _622_
*1921 _623_
*1922 _624_
*1923 _625_
*1924 _626_
*1925 _627_
*1926 _628_
*1927 _629_
*1928 _630_
*1929 _631_
*1930 _632_
*1931 _633_
*1932 _634_
*1933 _635_
*1934 _636_
*1935 _637_
*1936 _638_
*1937 _639_
*1938 _640_
*1939 _641_
*1940 _642_
*1941 _643_
*1942 _644_
*1943 _645_
*1944 _646_
*1945 _647_
*1946 _648_
*1947 _649_
*1948 _650_
*1949 _651_
*1950 _652_
*1951 _653_
*1952 _654_
*1953 _655_
*1954 _656_
*1955 _657_
*1956 _658_
*1957 clone136
*1958 fanout100
*1959 fanout102
*1960 fanout103
*1961 fanout105
*1962 fanout106
*1963 fanout107
*1964 fanout109
*1965 fanout110
*1966 fanout112
*1967 fanout113
*1968 fanout115
*1969 fanout117
*1970 fanout118
*1971 input1
*1972 input10
*1973 input11
*1974 input12
*1975 input13
*1976 input14
*1977 input15
*1978 input16
*1979 input17
*1980 input18
*1981 input19
*1982 input2
*1983 input20
*1984 input21
*1985 input22
*1986 input23
*1987 input24
*1988 input25
*1989 input26
*1990 input27
*1991 input28
*1992 input29
*1993 input3
*1994 input30
*1995 input31
*1996 input32
*1997 input33
*1998 input34
*1999 input35
*2000 input36
*2001 input37
*2002 input38
*2003 input39
*2004 input4
*2005 input40
*2006 input41
*2007 input42
*2008 input43
*2009 input44
*2010 input45
*2011 input46
*2012 input47
*2013 input48
*2014 input49
*2015 input5
*2016 input50
*2017 input51
*2018 input52
*2019 input53
*2020 input54
*2021 input55
*2022 input56
*2023 input57
*2024 input58
*2025 input59
*2026 input6
*2027 input60
*2028 input61
*2029 input62
*2030 input63
*2031 input64
*2032 input65
*2033 input7
*2034 input8
*2035 input9
*2036 load_slew101
*2037 load_slew104
*2038 load_slew108
*2039 load_slew111
*2040 load_slew114
*2041 load_slew116
*2042 max_cap99
*2043 output66
*2044 output67
*2045 output68
*2046 output69
*2047 output70
*2048 output71
*2049 output72
*2050 output73
*2051 output74
*2052 output75
*2053 output76
*2054 output77
*2055 output78
*2056 output79
*2057 output80
*2058 output81
*2059 output82
*2060 output83
*2061 output84
*2062 output85
*2063 output86
*2064 output87
*2065 output88
*2066 output89
*2067 output90
*2068 output91
*2069 output92
*2070 output93
*2071 output94
*2072 output95
*2073 output96
*2074 output97
*2075 output98
*2076 rebuffer119
*2077 rebuffer120
*2078 rebuffer121
*2079 rebuffer122
*2080 rebuffer123
*2081 rebuffer124
*2082 rebuffer125
*2083 rebuffer126
*2084 rebuffer127
*2085 rebuffer128
*2086 rebuffer129
*2087 rebuffer130
*2088 rebuffer131
*2089 rebuffer132
*2090 rebuffer133
*2091 rebuffer134
*2092 rebuffer135
*2093 rebuffer137
*2094 rebuffer138
*2095 rebuffer139
*2096 rebuffer140
*2097 rebuffer141
*2098 rebuffer146
*2099 rebuffer147
*2100 rebuffer148
*2101 rebuffer149
*2102 rebuffer150
*2103 rebuffer151
*2104 rebuffer152
*2105 rebuffer153
*2106 rebuffer154
*2107 rebuffer155
*2108 rebuffer156
*2109 rebuffer157
*2110 rebuffer166
*2111 rebuffer177
*2112 rebuffer178
*2113 rebuffer179
*2114 rebuffer180
*2115 rebuffer185
*2116 rebuffer198
*2117 rebuffer206

*PORTS
A[0] I
A[10] I
A[11] I
A[12] I
A[13] I
A[14] I
A[15] I
A[16] I
A[17] I
A[18] I
A[19] I
A[1] I
A[20] I
A[21] I
A[22] I
A[23] I
A[24] I
A[25] I
A[26] I
A[27] I
A[28] I
A[29] I
A[2] I
A[30] I
A[31] I
A[3] I
A[4] I
A[5] I
A[6] I
A[7] I
A[8] I
A[9] I
B[0] I
B[10] I
B[11] I
B[12] I
B[13] I
B[14] I
B[15] I
B[16] I
B[17] I
B[18] I
B[19] I
B[1] I
B[20] I
B[21] I
B[22] I
B[23] I
B[24] I
B[25] I
B[26] I
B[27] I
B[28] I
B[29] I
B[2] I
B[30] I
B[31] I
B[3] I
B[4] I
B[5] I
B[6] I
B[7] I
B[8] I
B[9] I
S[0] O
S[10] O
S[11] O
S[12] O
S[13] O
S[14] O
S[15] O
S[16] O
S[17] O
S[18] O
S[19] O
S[1] O
S[20] O
S[21] O
S[22] O
S[23] O
S[24] O
S[25] O
S[26] O
S[27] O
S[28] O
S[29] O
S[2] O
S[30] O
S[31] O
S[3] O
S[4] O
S[5] O
S[6] O
S[7] O
S[8] O
S[9] O
carryOut O
sub I

*D_NET *1 0.001108
*CONN
*P A[0] I
*I *1971:A I *D sky130_fd_sc_hd__clkdlybuf4s25_1
*CAP
1 A[0] 0.000530064
2 *1971:A 0.000530064
3 *1971:A S[20] 0
4 *1971:A *1975:A 4.78735e-05
*RES
1 A[0] *1971:A 12.1092 
*END

*D_NET *2 0.0022503
*CONN
*P A[10] I
*I *1982:A I *D sky130_fd_sc_hd__clkdlybuf4s25_1
*CAP
1 A[10] 0.000673434
2 *1982:A 0.000673434
3 *1982:A S[10] 0.000290364
4 *1982:A *1998:A 0.000528062
5 *1982:A *2035:A 0
6 *1982:A *509:10 8.50047e-05
*RES
1 A[10] *1982:A 8.42363 
*END

*D_NET *3 0.00333212
*CONN
*P A[11] I
*I *1993:A I *D sky130_fd_sc_hd__clkdlybuf4s25_1
*CAP
1 A[11] 0.000880848
2 *1993:A 0.000880848
3 *1993:A S[10] 0.000421688
4 *1993:A S[11] 0.00018049
5 *1993:A *1879:A 0.000130363
6 *1993:A *1890:B 0.000123225
7 *1993:A *1891:B 0.000163204
8 *1993:A *1893:A 9.52646e-05
9 *1993:A *1893:C 0.000124895
10 *1993:A *1905:B1 8.20792e-05
11 *1993:A *1999:A 8.67192e-05
12 *1993:A *455:20 8.23457e-05
13 *1993:A *498:6 8.0152e-05
14 *1993:A *509:10 0
*RES
1 A[11] *1993:A 17.3544 
*END

*D_NET *4 0.00274304
*CONN
*P A[12] I
*I *2004:A I *D sky130_fd_sc_hd__clkdlybuf4s25_1
*CAP
1 A[12] 0.000783697
2 *2004:A 0.000783697
3 *2004:A S[11] 0
4 *2004:A *1662:C 7.21296e-06
5 *2004:A *1898:B1 2.03321e-05
6 *2004:A *1901:A 0.000139443
7 *2004:A *1905:B1 0.000111538
8 *2004:A *1998:A 0
9 *2004:A *2000:A 0.000439068
10 *2004:A *2006:A 9.3161e-05
11 *2004:A *2035:A 0.000364892
*RES
1 A[12] *2004:A 17.4946 
*END

*D_NET *5 0.00264458
*CONN
*P A[13] I
*I *2015:A I *D sky130_fd_sc_hd__clkdlybuf4s25_1
*CAP
1 A[13] 0.000646309
2 *2015:A 0.000646309
3 *2015:A S[12] 0
4 *2015:A S[15] 0.000557301
5 *2015:A *1655:A1 1.73877e-05
6 *2015:A *1656:B1_N 7.48806e-05
7 *2015:A *2001:A 0.000486977
8 *2015:A *220:8 2.96556e-06
9 *2015:A *457:21 0.000139021
10 *2015:A *520:10 7.34286e-05
*RES
1 A[13] *2015:A 10.0119 
*END

*D_NET *6 0.0022493
*CONN
*P A[14] I
*I *2026:A I *D sky130_fd_sc_hd__clkdlybuf4s25_1
*CAP
1 A[14] 0.00109143
2 *2026:A 0.00109143
3 *2026:A S[14] 0
4 *2026:A *2002:A 6.6432e-05
*RES
1 A[14] *2026:A 22.6622 
*END

*D_NET *7 0.00315817
*CONN
*P A[15] I
*I *2033:A I *D sky130_fd_sc_hd__clkdlybuf4s25_1
*CAP
1 A[15] 0.000889159
2 *2033:A 0.000889159
3 *2033:A S[31] 0
4 *2033:A carryOut 0.00055302
5 *2033:A *1840:A2_N 0
6 *2033:A *1988:A 0.000575406
7 *2033:A *2003:A 0
8 *2033:A *2023:A 0.000251422
*RES
1 A[15] *2033:A 28.3037 
*END

*D_NET *8 0.00188541
*CONN
*P A[16] I
*I *2034:A I *D sky130_fd_sc_hd__clkdlybuf4s25_1
*CAP
1 A[16] 0.000458116
2 *2034:A 0.000458116
3 *2034:A S[16] 0
4 *2034:A S[18] 9.66021e-05
5 *2034:A *1970:A 0.000279787
6 *2034:A *1985:A 4.99619e-05
7 *2034:A *2005:A 0.000542828
*RES
1 A[16] *2034:A 16.6087 
*END

*D_NET *9 0.00238597
*CONN
*P A[17] I
*I *2035:A I *D sky130_fd_sc_hd__clkdlybuf4s25_1
*CAP
1 A[17] 0.000786155
2 *2035:A 0.000786155
3 *2035:A S[12] 0.000286626
4 *2035:A *1662:A_N 1.93834e-05
5 *2035:A *1663:A2 4.58785e-05
6 *2035:A *1998:A 0
7 *2035:A *2006:A 0
8 *2035:A *229:8 9.68787e-05
9 *2035:A *505:12 0
10 *2035:A *509:10 0
11 *1982:A *2035:A 0
12 *2004:A *2035:A 0.000364892
*RES
1 A[17] *2035:A 9.5019 
*END

*D_NET *10 0.00226376
*CONN
*P A[18] I
*I *1972:A I *D sky130_fd_sc_hd__clkdlybuf4s25_1
*CAP
1 A[18] 0.000608158
2 *1972:A 0.000608158
3 *1972:A S[22] 0.000346313
4 *1972:A S[23] 0.000235927
5 *1972:A *1742:B 0.0001199
6 *1972:A *1743:B 0.000271447
7 *1972:A *1978:A 1.7635e-05
8 *1972:A *2007:A 5.62209e-05
9 *1972:A *305:10 0
*RES
1 A[18] *1972:A 14.3966 
*END

*D_NET *11 0.000804437
*CONN
*P A[19] I
*I *1973:A I *D sky130_fd_sc_hd__clkdlybuf4s25_1
*CAP
1 A[19] 0.000307762
2 *1973:A 0.000307762
3 *1973:A S[22] 0
4 *1973:A *2008:A 0.000188914
*RES
1 A[19] *1973:A 7.58377 
*END

*D_NET *12 0.00234012
*CONN
*P A[1] I
*I *1974:A I *D sky130_fd_sc_hd__clkdlybuf4s25_1
*CAP
1 A[1] 0.000751715
2 *1974:A 0.000751715
3 *1974:A *2009:A 0.000608902
4 *1974:A *514:12 1.91597e-05
5 *1974:A *514:20 5.35686e-05
6 *1974:A *514:42 0.000155056
*RES
1 A[1] *1974:A 19.41 
*END

*D_NET *13 0.00200398
*CONN
*P A[20] I
*I *1975:A I *D sky130_fd_sc_hd__clkdlybuf4s25_1
*CAP
1 A[20] 0.000623878
2 *1975:A 0.000623878
3 *1975:A S[20] 0
4 *1975:A *1729:A1 2.04591e-05
5 *1975:A *1736:A2 0
6 *1975:A *2010:A 0.000655628
7 *1975:A *416:10 0
8 *1975:A *418:18 8.53113e-06
9 *1975:A *448:10 2.37321e-05
10 *1975:A *454:10 0
11 *1971:A *1975:A 4.78735e-05
*RES
1 A[20] *1975:A 7.87563 
*END

*D_NET *14 0.00141905
*CONN
*P A[21] I
*I *1976:A I *D sky130_fd_sc_hd__clkdlybuf4s25_1
*CAP
1 A[21] 0.000528318
2 *1976:A 0.000528318
3 *1976:A *2011:A 0.000145128
4 *1976:A *2013:A 8.15826e-05
5 *1976:A *415:14 4.99619e-05
6 *1976:A *459:10 8.57406e-05
*RES
1 A[21] *1976:A 12.5522 
*END

*D_NET *15 0.00246541
*CONN
*P A[22] I
*I *1977:A I *D sky130_fd_sc_hd__clkdlybuf4s25_1
*CAP
1 A[22] 0.000413403
2 *1977:A 0.000413403
3 *1977:A *1745:A 0.000118504
4 *1977:A *1746:A2 8.09021e-06
5 *1977:A *2007:A 0.000552644
6 *1977:A *2012:A 0.000532195
7 *1977:A *2057:A 0.000186099
8 *1977:A *305:10 0.000120346
9 *1977:A *466:10 5.12017e-06
10 *1977:A *466:16 0.000115607
*RES
1 A[22] *1977:A 11.606 
*END

*D_NET *16 0.0018059
*CONN
*P A[23] I
*I *1978:A I *D sky130_fd_sc_hd__clkdlybuf4s25_1
*CAP
1 A[23] 0.000679852
2 *1978:A 0.000679852
3 *1978:A *2012:A 0
4 *1978:A *2013:A 0.000333182
5 *1978:A *418:8 9.53753e-05
6 *1972:A *1978:A 1.7635e-05
*RES
1 A[23] *1978:A 10.7084 
*END

*D_NET *17 0.00154275
*CONN
*P A[24] I
*I *1979:A I *D sky130_fd_sc_hd__clkdlybuf4s25_1
*CAP
1 A[24] 0.000518422
2 *1979:A 0.000518422
3 *1979:A S[24] 4.75368e-05
4 *1979:A *1980:A 0.0001419
5 *1979:A *2014:A 0.000240369
6 *1979:A *2016:A 7.60971e-05
*RES
1 A[24] *1979:A 10.0616 
*END

*D_NET *18 0.00184974
*CONN
*P A[25] I
*I *1980:A I *D sky130_fd_sc_hd__clkdlybuf4s25_1
*CAP
1 A[25] 0.000505207
2 *1980:A 0.000505207
3 *1980:A *1780:B1_N 1.94212e-05
4 *1980:A *2014:A 0
5 *1980:A *2016:A 0.000145128
6 *1980:A *338:12 0.000274659
7 *1980:A *481:10 0.000258213
8 *1979:A *1980:A 0.0001419
*RES
1 A[25] *1980:A 13.4822 
*END

*D_NET *19 0.00132334
*CONN
*P A[26] I
*I *1981:A I *D sky130_fd_sc_hd__clkdlybuf4s25_1
*CAP
1 A[26] 0.000635469
2 *1981:A 0.000635469
3 *1981:A *537:36 5.2397e-05
*RES
1 A[26] *1981:A 14.9888 
*END

*D_NET *20 0.00234566
*CONN
*P A[27] I
*I *1983:A I *D sky130_fd_sc_hd__clkdlybuf4s25_1
*CAP
1 A[27] 0.000629404
2 *1983:A 0.000629404
3 *1983:A *1814:B 0
4 *1983:A *2018:A 0.000552607
5 *1983:A *2038:A 0.000163019
6 *1983:A *358:8 0.000141606
7 *1983:A *423:8 0.000183057
8 *1983:A *487:10 4.65607e-05
*RES
1 A[27] *1983:A 19.6537 
*END

*D_NET *21 0.00277768
*CONN
*P A[28] I
*I *1984:A I *D sky130_fd_sc_hd__clkdlybuf4s25_1
*CAP
1 A[28] 0.000766575
2 *1984:A 0.000766575
3 *1984:A S[28] 0
4 *1984:A *1816:A 0.000162325
5 *1984:A *1818:A2 0
6 *1984:A *1818:B2 8.97564e-05
7 *1984:A *1819:A 0.000136877
8 *1984:A *1819:B 0
9 *1984:A *1886:A 3.60648e-05
10 *1984:A *2019:A 0
11 *1984:A *2020:A 0.000518604
12 *1984:A *2053:A 0
13 *1984:A *2063:A 0
14 *1984:A *371:12 0.000252275
15 *1984:A *372:10 2.11084e-05
16 *1984:A *489:10 2.75229e-05
17 *1984:A *490:14 0
*RES
1 A[28] *1984:A 22.6987 
*END

*D_NET *22 0.00192162
*CONN
*P A[29] I
*I *1985:A I *D sky130_fd_sc_hd__clkdlybuf4s25_1
*CAP
1 A[29] 0.000585405
2 *1985:A 0.000585405
3 *1985:A S[16] 0
4 *1985:A S[18] 0.000520479
5 *1985:A *1970:A 0.000180373
6 *2034:A *1985:A 4.99619e-05
*RES
1 A[29] *1985:A 17.4037 
*END

*D_NET *23 0.00165228
*CONN
*P A[2] I
*I *1986:A I *D sky130_fd_sc_hd__clkdlybuf4s25_1
*CAP
1 A[2] 0.000692615
2 *1986:A 0.000692615
3 *1986:A *1635:A_N 0.00012657
4 *1986:A *1635:B 1.61831e-05
5 *1986:A *1882:A 8.65961e-05
6 *1986:A *2021:A 0
7 *1986:A *491:8 3.77036e-05
*RES
1 A[2] *1986:A 15.915 
*END

*D_NET *24 0.0028509
*CONN
*P A[30] I
*I *1987:A I *D sky130_fd_sc_hd__clkdlybuf4s25_1
*CAP
1 A[30] 0.000938813
2 *1987:A 0.000938813
3 *1987:A S[31] 0
4 *1987:A *1834:B 0.000139245
5 *1987:A *1840:A2_N 0
6 *1987:A *1841:A1 5.93761e-05
7 *1987:A *1841:A2 8.08153e-06
8 *1987:A *1842:B1 0.000320834
9 *1987:A *2023:A 0
10 *1987:A *2067:A 0.000320834
11 *1987:A *492:6 0.0001249
12 *1987:A *492:43 0
13 *1987:A *508:10 0
*RES
1 A[30] *1987:A 23.3888 
*END

*D_NET *25 0.00290234
*CONN
*P A[31] I
*I *1988:A I *D sky130_fd_sc_hd__clkdlybuf4s25_1
*CAP
1 A[31] 0.000805517
2 *1988:A 0.000805517
3 *1988:A carryOut 0.000210449
4 *1988:A *1840:A2_N 0
5 *1988:A *1840:B1 6.9451e-05
6 *1988:A *1840:B2 0.000163019
7 *1988:A *2075:A 0
8 *1988:A *435:63 0.000272978
9 *2033:A *1988:A 0.000575406
*RES
1 A[31] *1988:A 22.1138 
*END

*D_NET *26 0.00125131
*CONN
*P A[3] I
*I *1989:A I *D sky130_fd_sc_hd__clkdlybuf4s25_1
*CAP
1 A[3] 0.000369321
2 *1989:A 0.000369321
3 *1989:A S[8] 0.000464377
4 *1989:A S[9] 0
5 *1989:A *2024:A 0
6 *1989:A *431:30 4.82919e-05
*RES
1 A[3] *1989:A 13.05 
*END

*D_NET *27 0.00194241
*CONN
*P A[4] I
*I *1990:A I *D sky130_fd_sc_hd__clkdlybuf4s25_1
*CAP
1 A[4] 0.000737981
2 *1990:A 0.000737981
3 *1990:A S[4] 0
4 *1990:A *1852:B1 0
5 *1990:A *1947:B1 0.000341552
6 *1990:A *1954:A2 0
7 *1990:A *2025:A 0
8 *1990:A *169:10 0
9 *1990:A *169:19 0
10 *1990:A *495:8 0.0001249
*RES
1 A[4] *1990:A 17.82 
*END

*D_NET *28 0.00230494
*CONN
*P A[5] I
*I *1991:A I *D sky130_fd_sc_hd__clkdlybuf4s25_1
*CAP
1 A[5] 0.000753777
2 *1991:A 0.000753777
3 *1991:A *1854:A1 0.000122331
4 *1991:A *1935:A_N 0
5 *1991:A *1942:A_N 0
6 *1991:A *1944:A1 0.000332816
7 *1991:A *2027:A 1.06698e-05
8 *1991:A *158:10 9.50342e-06
9 *1991:A *159:34 0.000122331
10 *1991:A *532:21 0.000199734
*RES
1 A[5] *1991:A 19.92 
*END

*D_NET *29 0.00145318
*CONN
*P A[6] I
*I *1992:A I *D sky130_fd_sc_hd__clkdlybuf4s25_1
*CAP
1 A[6] 0.000390228
2 *1992:A 0.000390228
3 *1992:A *1930:B 0
4 *1992:A *1994:A 0.0003649
5 *1992:A *2029:A 0.000307828
*RES
1 A[6] *1992:A 5.72077 
*END

*D_NET *30 0.00151731
*CONN
*P A[7] I
*I *1994:A I *D sky130_fd_sc_hd__clkdlybuf4s25_1
*CAP
1 A[7] 0.000576207
2 *1994:A 0.000576207
3 *1994:A *1940:B1 0
4 *1994:A *153:10 0
5 *1992:A *1994:A 0.0003649
*RES
1 A[7] *1994:A 10.3546 
*END

*D_NET *31 0.00250168
*CONN
*P A[8] I
*I *1995:A I *D sky130_fd_sc_hd__clkdlybuf4s25_1
*CAP
1 A[8] 0.000681283
2 *1995:A 0.000681283
3 *1995:A S[3] 4.82919e-05
4 *1995:A S[9] 0.000563131
5 *1995:A *1623:A_N 0.000162005
6 *1995:A *2030:A 0
7 *1995:A *2068:A 6.28687e-05
8 *1995:A *2073:A 0
9 *1995:A *192:14 0
10 *1995:A *196:6 3.24055e-05
11 *1995:A *431:24 0
12 *1995:A *500:10 0.000270415
*RES
1 A[8] *1995:A 20.445 
*END

*D_NET *32 0.00183953
*CONN
*P A[9] I
*I *1996:A I *D sky130_fd_sc_hd__clkdlybuf4s25_1
*CAP
1 A[9] 0.000486925
2 *1996:A 0.000486925
3 *1996:A S[2] 5.83121e-06
4 *1996:A *2031:A 0.00059614
5 *1996:A *2065:A 8.65905e-05
6 *1996:A *203:16 0.000177119
*RES
1 A[9] *1996:A 16.08 
*END

*D_NET *33 0.00195736
*CONN
*P B[0] I
*I *1997:A I *D sky130_fd_sc_hd__clkdlybuf4s25_1
*CAP
1 B[0] 0.000790727
2 *1997:A 0.000790727
3 *1997:A *1613:A_N 0
4 *1997:A *1630:A 0
5 *1997:A *1630:B 0
6 *1997:A *1635:A_N 0.00021451
7 *1997:A *1636:A1 5.30673e-05
8 *1997:A *1636:A2 0.000108329
9 *1997:A *2021:A 0
*RES
1 B[0] *1997:A 18.27 
*END

*D_NET *34 0.00170349
*CONN
*P B[10] I
*I *1998:A I *D sky130_fd_sc_hd__dlymetal6s4s_1
*CAP
1 B[10] 0.000386004
2 *1998:A 0.000386004
3 *1998:A *2006:A 0.000403421
4 *1998:A *509:10 0
5 *1982:A *1998:A 0.000528062
6 *2004:A *1998:A 0
7 *2035:A *1998:A 0
*RES
1 B[10] *1998:A 6.6825 
*END

*D_NET *35 0.00174249
*CONN
*P B[11] I
*I *1999:A I *D sky130_fd_sc_hd__clkdlybuf4s25_1
*CAP
1 B[11] 0.000784527
2 *1999:A 0.000784527
3 *1999:A S[11] 8.67192e-05
4 *1993:A *1999:A 8.67192e-05
*RES
1 B[11] *1999:A 16.9604 
*END

*D_NET *36 0.00273438
*CONN
*P B[12] I
*I *2000:A I *D sky130_fd_sc_hd__clkdlybuf4s25_1
*CAP
1 B[12] 0.000808572
2 *2000:A 0.000808572
3 *2000:A S[12] 0
4 *2000:A S[13] 1.00941e-05
5 *2000:A *1653:A 5.92345e-05
6 *2000:A *1653:B 0.000207263
7 *2000:A *2006:A 0.000348512
8 *2000:A *506:8 3.00381e-05
9 *2000:A *506:34 2.30292e-05
10 *2004:A *2000:A 0.000439068
*RES
1 B[12] *2000:A 17.2114 
*END

*D_NET *37 0.00142014
*CONN
*P B[13] I
*I *2001:A I *D sky130_fd_sc_hd__clkdlybuf4s25_1
*CAP
1 B[13] 0.000452504
2 *2001:A 0.000452504
3 *2001:A S[13] 0
4 *2001:A *1652:B 0
5 *2001:A *1656:A2 2.81572e-05
6 *2015:A *2001:A 0.000486977
*RES
1 B[13] *2001:A 6.87923 
*END

*D_NET *38 0.00190796
*CONN
*P B[14] I
*I *2002:A I *D sky130_fd_sc_hd__clkdlybuf4s25_1
*CAP
1 B[14] 0.000910282
2 *2002:A 0.000910282
3 *2002:A S[14] 2.09665e-05
4 *2026:A *2002:A 6.6432e-05
*RES
1 B[14] *2002:A 16.035 
*END

*D_NET *39 0.00195173
*CONN
*P B[15] I
*I *2003:A I *D sky130_fd_sc_hd__clkdlybuf4s25_1
*CAP
1 B[15] 0.00045763
2 *2003:A 0.00045763
3 *2003:A S[30] 0.000544695
4 *2003:A *2022:A 0.000211757
5 *2003:A *435:10 0.000164874
6 *2003:A *527:10 0.000115146
7 *2033:A *2003:A 0
*RES
1 B[15] *2003:A 17.2987 
*END

*D_NET *40 0.00144513
*CONN
*P B[16] I
*I *2005:A I *D sky130_fd_sc_hd__clkdlybuf4s25_1
*CAP
1 B[16] 0.000410928
2 *2005:A 0.000410928
3 *2005:A S[17] 0
4 *2005:A S[18] 2.75145e-05
5 *2005:A S[29] 0
6 *2005:A *1970:A 4.99619e-05
7 *2005:A *2052:A 2.97004e-06
8 *2034:A *2005:A 0.000542828
*RES
1 B[16] *2005:A 14.5387 
*END

*D_NET *41 0.00270564
*CONN
*P B[17] I
*I *2006:A I *D sky130_fd_sc_hd__clkdlybuf4s25_1
*CAP
1 B[17] 0.000590469
2 *2006:A 0.000590469
3 *2006:A *1662:A_N 0.000198945
4 *2006:A *1662:C 0.000320023
5 *2006:A *230:12 0.000160641
6 *2006:A *509:10 0
7 *1998:A *2006:A 0.000403421
8 *2000:A *2006:A 0.000348512
9 *2004:A *2006:A 9.3161e-05
10 *2035:A *2006:A 0
*RES
1 B[17] *2006:A 14.2662 
*END

*D_NET *42 0.00204958
*CONN
*P B[18] I
*I *2007:A I *D sky130_fd_sc_hd__clkdlybuf4s25_1
*CAP
1 B[18] 0.000536191
2 *2007:A 0.000536191
3 *2007:A S[22] 0
4 *2007:A S[23] 0.000239155
5 *2007:A *1743:A 4.39014e-05
6 *2007:A *1961:A 3.2874e-05
7 *2007:A *2012:A 5.24059e-05
8 *1972:A *2007:A 5.62209e-05
9 *1977:A *2007:A 0.000552644
*RES
1 B[18] *2007:A 6.9139 
*END

*D_NET *43 0.000993545
*CONN
*P B[19] I
*I *2008:A I *D sky130_fd_sc_hd__clkdlybuf4s25_1
*CAP
1 B[19] 0.000229159
2 *2008:A 0.000229159
3 *2008:A S[22] 0
4 *2008:A *2014:A 0.000346313
5 *1973:A *2008:A 0.000188914
*RES
1 B[19] *2008:A 5.98163 
*END

*D_NET *44 0.00248982
*CONN
*P B[1] I
*I *2009:A I *D sky130_fd_sc_hd__clkdlybuf4s25_1
*CAP
1 B[1] 0.000742622
2 *2009:A 0.000742622
3 *2009:A *1613:A_N 0
4 *2009:A *1616:A 0.00031375
5 *2009:A *181:10 5.92849e-05
6 *2009:A *417:12 0
7 *2009:A *437:10 0
8 *2009:A *514:42 2.26364e-05
9 *1974:A *2009:A 0.000608902
*RES
1 B[1] *2009:A 20.73 
*END

*D_NET *45 0.00252122
*CONN
*P B[20] I
*I *2010:A I *D sky130_fd_sc_hd__clkdlybuf4s25_1
*CAP
1 B[20] 0.000637959
2 *2010:A 0.000637959
3 *2010:A S[1] 0.000279041
4 *2010:A *1729:A1 0.000305105
5 *2010:A *1736:A2 0
6 *2010:A *2054:A 5.53249e-06
7 *2010:A *414:10 0
8 *1975:A *2010:A 0.000655628
*RES
1 B[20] *2010:A 9.4639 
*END

*D_NET *46 0.00138644
*CONN
*P B[21] I
*I *2011:A I *D sky130_fd_sc_hd__clkdlybuf4s25_1
*CAP
1 B[21] 0.000414799
2 *2011:A 0.000414799
3 *2011:A S[21] 0.000262662
4 *2011:A *1743:A 9.90902e-05
5 *2011:A *1743:B 0
6 *2011:A *2013:A 0
7 *2011:A *305:10 4.99619e-05
8 *2011:A *459:10 0
9 *1976:A *2011:A 0.000145128
*RES
1 B[21] *2011:A 10.1136 
*END

*D_NET *47 0.00175737
*CONN
*P B[22] I
*I *2012:A I *D sky130_fd_sc_hd__clkdlybuf4s25_1
*CAP
1 B[22] 0.000567836
2 *2012:A 0.000567836
3 *2012:A *1743:A 0
4 *2012:A *1961:A 9.50342e-06
5 *2012:A *2013:A 0
6 *2012:A *466:16 2.75892e-05
7 *1977:A *2012:A 0.000532195
8 *1978:A *2012:A 0
9 *2007:A *2012:A 5.24059e-05
*RES
1 B[22] *2012:A 6.54237 
*END

*D_NET *48 0.00289411
*CONN
*P B[23] I
*I *2013:A I *D sky130_fd_sc_hd__clkdlybuf4s25_1
*CAP
1 B[23] 0.00119511
2 *2013:A 0.00119511
3 *2013:A S[21] 0
4 *2013:A *1732:B 0
5 *2013:A *1753:A 1.59477e-05
6 *2013:A *1760:B2 3.63701e-06
7 *2013:A *299:25 0
8 *2013:A *299:40 6.95482e-05
9 *1976:A *2013:A 8.15826e-05
10 *1978:A *2013:A 0.000333182
11 *2011:A *2013:A 0
12 *2012:A *2013:A 0
*RES
1 B[23] *2013:A 9.02657 
*END

*D_NET *49 0.0019725
*CONN
*P B[24] I
*I *2014:A I *D sky130_fd_sc_hd__clkdlybuf4s25_1
*CAP
1 B[24] 0.000455113
2 *2014:A 0.000455113
3 *2014:A *1780:B1_N 0.000189426
4 *2014:A *2016:A 0.000286168
5 *2014:A *336:10 0
6 *2014:A *521:10 0
7 *1979:A *2014:A 0.000240369
8 *1980:A *2014:A 0
9 *2008:A *2014:A 0.000346313
*RES
1 B[24] *2014:A 11.3349 
*END

*D_NET *50 0.00146654
*CONN
*P B[25] I
*I *2016:A I *D sky130_fd_sc_hd__clkdlybuf4s25_1
*CAP
1 B[25] 0.000449826
2 *2016:A 0.000449826
3 *2016:A *513:14 5.94962e-05
4 *1979:A *2016:A 7.60971e-05
5 *1980:A *2016:A 0.000145128
6 *2014:A *2016:A 0.000286168
*RES
1 B[25] *2016:A 10.0668 
*END

*D_NET *51 0.0013352
*CONN
*P B[26] I
*I *2017:A I *D sky130_fd_sc_hd__clkdlybuf4s25_1
*CAP
1 B[26] 0.000620154
2 *2017:A 0.000620154
3 *2017:A S[26] 0
4 *2017:A *1787:B 0
5 *2017:A *2032:A 9.48869e-05
6 *2017:A *522:10 0
*RES
1 B[26] *2017:A 12.4288 
*END

*D_NET *52 0.00280812
*CONN
*P B[27] I
*I *2018:A I *D sky130_fd_sc_hd__clkdlybuf4s25_1
*CAP
1 B[27] 0.000568171
2 *2018:A 0.000568171
3 *2018:A S[27] 0.000532048
4 *2018:A *1801:A 0
5 *2018:A *1801:B 8.8266e-05
6 *2018:A *1819:B 9.37731e-05
7 *2018:A *2038:A 0.000229872
8 *2018:A *423:8 0.000175214
9 *2018:A *424:12 0
10 *1983:A *2018:A 0.000552607
*RES
1 B[27] *2018:A 21.4837 
*END

*D_NET *53 0.00243695
*CONN
*P B[28] I
*I *2019:A I *D sky130_fd_sc_hd__clkdlybuf4s25_1
*CAP
1 B[28] 0.000953271
2 *2019:A 0.000953271
3 *2019:A *1814:B 0.000164287
4 *2019:A *1815:B 0.000117825
5 *2019:A *2053:A 0.000248298
6 *2019:A *487:10 0
7 *2019:A *487:18 0
8 *1984:A *2019:A 0
*RES
1 B[28] *2019:A 22.2938 
*END

*D_NET *54 0.00392442
*CONN
*P B[29] I
*I *2020:A I *D sky130_fd_sc_hd__clkdlybuf4s25_1
*CAP
1 B[29] 0.000803611
2 *2020:A 0.000803611
3 *2020:A S[19] 0.00090907
4 *2020:A S[27] 0.000279787
5 *2020:A *1970:A 0.000321953
6 *2020:A *537:36 0.00028778
7 *1984:A *2020:A 0.000518604
*RES
1 B[29] *2020:A 25.7887 
*END

*D_NET *55 0.0023448
*CONN
*P B[2] I
*I *2021:A I *D sky130_fd_sc_hd__clkdlybuf4s25_1
*CAP
1 B[2] 0.000822234
2 *2021:A 0.000822234
3 *2021:A *1635:A_N 0
4 *2021:A *1635:B 8.97642e-05
5 *2021:A *1636:B1 0.000105841
6 *2021:A *1882:A 0.000120881
7 *2021:A *201:10 0.000194588
8 *2021:A *420:34 0.000189259
9 *1986:A *2021:A 0
10 *1997:A *2021:A 0
*RES
1 B[2] *2021:A 20.91 
*END

*D_NET *56 0.0028271
*CONN
*P B[30] I
*I *2022:A I *D sky130_fd_sc_hd__clkdlybuf4s25_1
*CAP
1 B[30] 0.000973276
2 *2022:A 0.000973276
3 *2022:A S[17] 0
4 *2022:A S[30] 0.000518604
5 *2022:A *1970:A 4.9253e-06
6 *2022:A *435:10 1.34503e-05
7 *2022:A *527:10 0.000131806
8 *2003:A *2022:A 0.000211757
*RES
1 B[30] *2022:A 21.5438 
*END

*D_NET *57 0.00249482
*CONN
*P B[31] I
*I *2023:A I *D sky130_fd_sc_hd__clkdlybuf4s25_1
*CAP
1 B[31] 0.0011217
2 *2023:A 0.0011217
3 *2023:A carryOut 0
4 *2023:A *2075:A 0
5 *1987:A *2023:A 0
6 *2033:A *2023:A 0.000251422
*RES
1 B[31] *2023:A 27.9587 
*END

*D_NET *58 0.00207429
*CONN
*P B[3] I
*I *2024:A I *D sky130_fd_sc_hd__clkdlybuf4s25_1
*CAP
1 B[3] 0.000686772
2 *2024:A 0.000686772
3 *2024:A S[9] 0.000440154
4 *2024:A *1624:B 9.53428e-06
5 *2024:A *431:24 0.000153482
6 *2024:A *431:30 4.82863e-05
7 *2024:A *529:6 2.11084e-05
8 *2024:A *529:19 2.8185e-05
9 *1989:A *2024:A 0
*RES
1 B[3] *2024:A 16.95 
*END

*D_NET *59 0.00147337
*CONN
*P B[4] I
*I *2025:A I *D sky130_fd_sc_hd__clkdlybuf4s25_1
*CAP
1 B[4] 0.000655768
2 *2025:A 0.000655768
3 *2025:A *530:6 0.000161837
4 *1990:A *2025:A 0
*RES
1 B[4] *2025:A 15.225 
*END

*D_NET *60 0.00172111
*CONN
*P B[5] I
*I *2027:A I *D sky130_fd_sc_hd__clkdlybuf4s25_1
*CAP
1 B[5] 0.000473075
2 *2027:A 0.000473075
3 *2027:A S[5] 0.000559474
4 *2027:A *1937:B1 8.23457e-05
5 *2027:A *1944:A1 0
6 *2027:A *1944:B1 4.66108e-05
7 *2027:A *1948:B1 2.92496e-05
8 *2027:A *165:6 4.66108e-05
9 *1991:A *2027:A 1.06698e-05
*RES
1 B[5] *2027:A 15.69 
*END

*D_NET *61 0.00157717
*CONN
*P B[6] I
*I *2028:A I *D sky130_fd_sc_hd__clkdlybuf4s25_1
*CAP
1 B[6] 0.000686457
2 *2028:A 0.000686457
3 *2028:A S[7] 0.000204253
4 *2028:A *1940:B1 0
5 *2028:A *2029:A 0
6 *2028:A *162:16 0
7 *2028:A *461:10 0
8 *2028:A *461:12 0
9 *2028:A *533:12 0
*RES
1 B[6] *2028:A 9.29077 
*END

*D_NET *62 0.00178655
*CONN
*P B[7] I
*I *2029:A I *D sky130_fd_sc_hd__clkdlybuf4s25_1
*CAP
1 B[7] 0.000723743
2 *2029:A 0.000723743
3 *2029:A *154:10 0
4 *2029:A *533:12 3.12319e-05
5 *1992:A *2029:A 0.000307828
6 *2028:A *2029:A 0
*RES
1 B[7] *2029:A 6.4419 
*END

*D_NET *63 0.00217269
*CONN
*P B[8] I
*I *2030:A I *D sky130_fd_sc_hd__clkdlybuf4s25_1
*CAP
1 B[8] 0.000687986
2 *2030:A 0.000687986
3 *2030:A S[3] 0.000240699
4 *2030:A *1850:B 0
5 *2030:A *431:24 1.26548e-05
6 *2030:A *529:19 0.000298449
7 *2030:A *529:32 0.000236381
8 *2030:A *535:10 8.53113e-06
9 *1995:A *2030:A 0
*RES
1 B[8] *2030:A 18.975 
*END

*D_NET *64 0.00292005
*CONN
*P B[9] I
*I *2031:A I *D sky130_fd_sc_hd__clkdlybuf4s25_1
*CAP
1 B[9] 0.000424947
2 *2031:A 0.000424947
3 *2031:A S[0] 0.000611373
4 *2031:A *1638:C1 8.65961e-05
5 *2031:A *1848:B 0.000116165
6 *2031:A *203:16 0.000245229
7 *2031:A *204:10 0.000134429
8 *2031:A *536:18 0.000280226
9 *1996:A *2031:A 0.00059614
*RES
1 B[9] *2031:A 20.31 
*END

*D_NET *65 0.00195712
*CONN
*P S[0] O
*I *2043:X O *D sky130_fd_sc_hd__buf_6
*CAP
1 S[0] 0.000496857
2 *2043:X 0.000496857
3 S[0] *1848:B 8.53113e-06
4 S[0] *2043:A 0
5 S[0] *2065:A 0.000180301
6 S[0] *202:12 0.000163199
7 *2031:A S[0] 0.000611373
*RES
1 *2043:X S[0] 16.935 
*END

*D_NET *66 0.00139512
*CONN
*P S[10] O
*I *2044:X O *D sky130_fd_sc_hd__buf_6
*CAP
1 S[10] 0.000341532
2 *2044:X 0.000341532
3 S[10] S[11] 0
4 S[10] *1901:A 0
5 S[10] *509:10 0
6 *1982:A S[10] 0.000290364
7 *1993:A S[10] 0.000421688
*RES
1 *2044:X S[10] 5.9175 
*END

*D_NET *67 0.00135721
*CONN
*P S[11] O
*I *2045:X O *D sky130_fd_sc_hd__clkbuf_4
*CAP
1 S[11] 0.000544999
2 *2045:X 0.000544999
3 S[11] *509:10 0
4 S[10] S[11] 0
5 *1993:A S[11] 0.00018049
6 *1999:A S[11] 8.67192e-05
7 *2004:A S[11] 0
*RES
1 *2045:X S[11] 6.1725 
*END

*D_NET *68 0.00142816
*CONN
*P S[12] O
*I *2046:X O *D sky130_fd_sc_hd__buf_6
*CAP
1 S[12] 0.00037967
2 *2046:X 0.00037967
3 S[12] S[13] 0.000382199
4 *2000:A S[12] 0
5 *2015:A S[12] 0
6 *2035:A S[12] 0.000286626
*RES
1 *2046:X S[12] 6.23077 
*END

*D_NET *69 0.000924849
*CONN
*P S[13] O
*I *2047:X O *D sky130_fd_sc_hd__clkbuf_4
*CAP
1 S[13] 0.000266278
2 *2047:X 0.000266278
3 S[12] S[13] 0.000382199
4 *2000:A S[13] 1.00941e-05
5 *2001:A S[13] 0
*RES
1 *2047:X S[13] 5.3129 
*END

*D_NET *70 0.00201118
*CONN
*P S[14] O
*I *2048:X O *D sky130_fd_sc_hd__buf_6
*CAP
1 S[14] 0.000903125
2 *2048:X 0.000903125
3 S[14] S[15] 0.000183965
4 *2002:A S[14] 2.09665e-05
5 *2026:A S[14] 0
*RES
1 *2048:X S[14] 17.4635 
*END

*D_NET *71 0.00165064
*CONN
*P S[15] O
*I *2049:X O *D sky130_fd_sc_hd__buf_6
*CAP
1 S[15] 0.000454688
2 *2049:X 0.000454688
3 S[15] *1655:A1 0
4 S[15] *220:8 0
5 S[14] S[15] 0.000183965
6 *2015:A S[15] 0.000557301
*RES
1 *2049:X S[15] 8.27077 
*END

*D_NET *72 0.00247599
*CONN
*P S[16] O
*I *2050:X O *D sky130_fd_sc_hd__buf_6
*CAP
1 S[16] 0.00101805
2 *2050:X 0.00101805
3 S[16] S[28] 0
4 S[16] *1820:B 6.65804e-05
5 S[16] *1821:B 1.65192e-05
6 S[16] *1822:A 0.000196376
7 S[16] *1825:B1 0.000112123
8 S[16] *1887:A 4.82919e-05
9 S[16] *2063:A 0
10 S[16] *490:14 0
11 S[16] *510:10 0
12 *1985:A S[16] 0
13 *2034:A S[16] 0
*RES
1 *2050:X S[16] 22.0387 
*END

*D_NET *73 0.00183835
*CONN
*P S[17] O
*I *2051:X O *D sky130_fd_sc_hd__buf_6
*CAP
1 S[17] 0.00076859
2 *2051:X 0.00076859
3 S[17] S[29] 0
4 S[17] S[30] 0
5 S[17] *2064:A 0.000185398
6 S[17] *434:10 0.00011577
7 S[17] *527:10 0
8 *2005:A S[17] 0
9 *2022:A S[17] 0
*RES
1 *2051:X S[17] 17.9587 
*END

*D_NET *74 0.00194899
*CONN
*P S[18] O
*I *2052:X O *D sky130_fd_sc_hd__clkbuf_4
*CAP
1 S[18] 0.000619091
2 *2052:X 0.000619091
3 S[18] *1970:A 3.86988e-05
4 S[18] *2052:A 2.75145e-05
5 *1985:A S[18] 0.000520479
6 *2005:A S[18] 2.75145e-05
7 *2034:A S[18] 9.66021e-05
*RES
1 *2052:X S[18] 16.7887 
*END

*D_NET *75 0.00237518
*CONN
*P S[19] O
*I *2053:X O *D sky130_fd_sc_hd__buf_6
*CAP
1 S[19] 0.000312447
2 *2053:X 0.000312447
3 S[19] S[28] 0.000532048
4 S[19] *1970:A 0.00022257
5 S[19] *2053:A 8.65961e-05
6 *2020:A S[19] 0.00090907
*RES
1 *2053:X S[19] 18.0788 
*END

*D_NET *76 0.00171825
*CONN
*P S[1] O
*I *2054:X O *D sky130_fd_sc_hd__buf_6
*CAP
1 S[1] 0.000578569
2 *2054:X 0.000578569
3 S[1] *1733:A 8.40269e-05
4 S[1] *1736:A2 0.000198046
5 *2010:A S[1] 0.000279041
*RES
1 *2054:X S[1] 11.0868 
*END

*D_NET *77 0.0019338
*CONN
*P S[20] O
*I *2055:X O *D sky130_fd_sc_hd__buf_6
*CAP
1 S[20] 0.000530995
2 *2055:X 0.000530995
3 S[20] S[21] 0.000658178
4 S[20] *1734:A1 0.000106819
5 S[20] *418:12 0.000106819
6 *1971:A S[20] 0
7 *1975:A S[20] 0
*RES
1 *2055:X S[20] 7.11063 
*END

*D_NET *78 0.00221376
*CONN
*P S[21] O
*I *2056:X O *D sky130_fd_sc_hd__buf_6
*CAP
1 S[21] 0.000550883
2 *2056:X 0.000550883
3 S[21] *1736:A1 0.000125182
4 S[21] *418:12 6.59682e-05
5 S[20] S[21] 0.000658178
6 *2011:A S[21] 0.000262662
7 *2013:A S[21] 0
*RES
1 *2056:X S[21] 7.4239 
*END

*D_NET *79 0.00103578
*CONN
*P S[22] O
*I *2057:X O *D sky130_fd_sc_hd__buf_6
*CAP
1 S[22] 0.000344734
2 *2057:X 0.000344734
3 S[22] *1746:A2 0
4 *1972:A S[22] 0.000346313
5 *1973:A S[22] 0
6 *2007:A S[22] 0
7 *2008:A S[22] 0
*RES
1 *2057:X S[22] 6.8049 
*END

*D_NET *80 0.00137684
*CONN
*P S[23] O
*I *2058:X O *D sky130_fd_sc_hd__buf_6
*CAP
1 S[23] 0.000385717
2 *2058:X 0.000385717
3 S[23] *1742:A 4.92935e-05
4 S[23] *1742:B 4.82919e-05
5 S[23] *304:12 3.27343e-05
6 *1972:A S[23] 0.000235927
7 *2007:A S[23] 0.000239155
*RES
1 *2058:X S[23] 9.5153 
*END

*D_NET *81 0.0016671
*CONN
*P S[24] O
*I *2059:X O *D sky130_fd_sc_hd__buf_6
*CAP
1 S[24] 0.000459937
2 *2059:X 0.000459937
3 S[24] S[25] 0.000699687
4 S[24] *2059:A 0
5 *1979:A S[24] 4.75368e-05
*RES
1 *2059:X S[24] 9.92317 
*END

*D_NET *82 0.00168345
*CONN
*P S[25] O
*I *2060:X O *D sky130_fd_sc_hd__buf_6
*CAP
1 S[25] 0.000491879
2 *2060:X 0.000491879
3 S[25] *2059:A 0
4 S[24] S[25] 0.000699687
*RES
1 *2060:X S[25] 10.6299 
*END

*D_NET *83 0.00102063
*CONN
*P S[26] O
*I *2061:X O *D sky130_fd_sc_hd__buf_6
*CAP
1 S[26] 0.000510313
2 *2061:X 0.000510313
3 S[26] *2032:A 0
4 *2017:A S[26] 0
*RES
1 *2061:X S[26] 11.6892 
*END

*D_NET *84 0.00255885
*CONN
*P S[27] O
*I *2062:X O *D sky130_fd_sc_hd__buf_6
*CAP
1 S[27] 0.000757181
2 *2062:X 0.000757181
3 S[27] *2062:A 4.82863e-05
4 S[27] *537:36 0.000184364
5 *2018:A S[27] 0.000532048
6 *2020:A S[27] 0.000279787
*RES
1 *2062:X S[27] 20.8388 
*END

*D_NET *85 0.0018362
*CONN
*P S[28] O
*I *2063:X O *D sky130_fd_sc_hd__buf_6
*CAP
1 S[28] 0.000582427
2 *2063:X 0.000582427
3 S[28] *1824:B1 1.34594e-05
4 S[28] *2063:A 7.00889e-06
5 S[28] *108:6 2.50602e-05
6 S[28] *490:14 9.37731e-05
7 S[16] S[28] 0
8 S[19] S[28] 0.000532048
9 *1984:A S[28] 0
*RES
1 *2063:X S[28] 17.3738 
*END

*D_NET *86 0.00167327
*CONN
*P S[29] O
*I *2064:X O *D sky130_fd_sc_hd__buf_6
*CAP
1 S[29] 0.000734071
2 *2064:X 0.000734071
3 S[29] *1970:A 0.000158521
4 S[29] *2064:A 4.66108e-05
5 S[17] S[29] 0
6 *2005:A S[29] 0
*RES
1 *2064:X S[29] 16.6987 
*END

*D_NET *87 0.00142815
*CONN
*P S[2] O
*I *2065:X O *D sky130_fd_sc_hd__buf_6
*CAP
1 S[2] 0.000697404
2 *2065:X 0.000697404
3 S[2] S[3] 0
4 S[2] *529:6 2.75145e-05
5 *1996:A S[2] 5.83121e-06
*RES
1 *2065:X S[2] 15.21 
*END

*D_NET *88 0.002683
*CONN
*P S[30] O
*I *2066:X O *D sky130_fd_sc_hd__buf_6
*CAP
1 S[30] 0.000657223
2 *2066:X 0.000657223
3 S[30] *1831:A1 4.43871e-06
4 S[30] *1831:B1 0.000125959
5 S[30] *1835:A2_N 8.65961e-05
6 S[30] *2066:A 8.8266e-05
7 S[30] *527:10 0
8 S[17] S[30] 0
9 *2003:A S[30] 0.000544695
10 *2022:A S[30] 0.000518604
*RES
1 *2066:X S[30] 21.4688 
*END

*D_NET *89 0.0015055
*CONN
*P S[31] O
*I *2067:X O *D sky130_fd_sc_hd__buf_6
*CAP
1 S[31] 0.000727146
2 *2067:X 0.000727146
3 S[31] *1841:A2 4.18603e-06
4 S[31] *435:10 0
5 S[31] *508:10 4.70256e-05
6 *1987:A S[31] 0
7 *2033:A S[31] 0
*RES
1 *2067:X S[31] 16.1287 
*END

*D_NET *90 0.00178553
*CONN
*P S[3] O
*I *2068:X O *D sky130_fd_sc_hd__buf_6
*CAP
1 S[3] 0.000676634
2 *2068:X 0.000676634
3 S[3] *1850:B 0.000143266
4 S[2] S[3] 0
5 *1995:A S[3] 4.82919e-05
6 *2030:A S[3] 0.000240699
*RES
1 *2068:X S[3] 17.43 
*END

*D_NET *91 0.00130046
*CONN
*P S[4] O
*I *2069:X O *D sky130_fd_sc_hd__clkbuf_2
*CAP
1 S[4] 0.000601927
2 *2069:X 0.000601927
3 S[4] *530:6 9.66106e-05
4 *1990:A S[4] 0
*RES
1 *2069:X S[4] 14.175 
*END

*D_NET *92 0.00269216
*CONN
*P S[5] O
*I *2070:X O *D sky130_fd_sc_hd__clkbuf_4
*CAP
1 S[5] 0.000728649
2 *2070:X 0.000728649
3 S[5] *1936:B 0
4 S[5] *1944:A2 2.50049e-05
5 S[5] *1944:B1 0.000162318
6 S[5] *1948:B1 0.000180675
7 S[5] *1955:C 6.27529e-05
8 S[5] *2070:A 2.66935e-05
9 S[5] *158:10 0
10 S[5] *159:23 0.000100528
11 S[5] *166:10 0.000117419
12 *2027:A S[5] 0.000559474
*RES
1 *2070:X S[5] 21.735 
*END

*D_NET *93 0.00104952
*CONN
*P S[6] O
*I *2071:X O *D sky130_fd_sc_hd__clkbuf_2
*CAP
1 S[6] 0.000516383
2 *2071:X 0.000516383
3 S[6] *1855:A 0
4 S[6] *2071:A 1.67513e-05
*RES
1 *2071:X S[6] 5.85923 
*END

*D_NET *94 0.00144422
*CONN
*P S[7] O
*I *2072:X O *D sky130_fd_sc_hd__buf_6
*CAP
1 S[7] 0.000619984
2 *2072:X 0.000619984
3 S[7] *1855:A 0
4 *2028:A S[7] 0.000204253
*RES
1 *2072:X S[7] 12.8118 
*END

*D_NET *95 0.00166169
*CONN
*P S[8] O
*I *2073:X O *D sky130_fd_sc_hd__buf_6
*CAP
1 S[8] 0.00054547
2 *2073:X 0.00054547
3 S[8] S[9] 0
4 S[8] *2073:A 4.82919e-05
5 S[8] *192:14 5.80846e-05
6 S[8] *494:10 0
7 S[8] *530:14 0
8 *1989:A S[8] 0.000464377
*RES
1 *2073:X S[8] 16.125 
*END

*D_NET *96 0.00159708
*CONN
*P S[9] O
*I *2074:X O *D sky130_fd_sc_hd__buf_6
*CAP
1 S[9] 0.000296899
2 *2074:X 0.000296899
3 S[9] *192:14 0
4 S[8] S[9] 0
5 *1989:A S[9] 0
6 *1995:A S[9] 0.000563131
7 *2024:A S[9] 0.000440154
*RES
1 *2074:X S[9] 14.64 
*END

*D_NET *99 0.00231391
*CONN
*P carryOut O
*I *2075:X O *D sky130_fd_sc_hd__buf_6
*CAP
1 carryOut 0.000730844
2 *2075:X 0.000730844
3 carryOut *1837:B 1.4399e-05
4 carryOut *1840:B2 7.43523e-05
5 *1988:A carryOut 0.000210449
6 *2023:A carryOut 0
7 *2033:A carryOut 0.00055302
*RES
1 *2075:X carryOut 18.7687 
*END

*D_NET *100 0.00117725
*CONN
*P sub I
*I *2032:A I *D sky130_fd_sc_hd__buf_8
*CAP
1 sub 0.000541182
2 *2032:A 0.000541182
3 S[26] *2032:A 0
4 *2017:A *2032:A 9.48869e-05
*RES
1 sub *2032:A 12.3007 
*END

*D_NET *101 0.000345316
*CONN
*I *1893:A I *D sky130_fd_sc_hd__nand3_4
*I *1879:Y O *D sky130_fd_sc_hd__inv_2
*CAP
1 *1893:A 5.10637e-05
2 *1879:Y 5.10637e-05
3 *1893:A *1879:A 0.000124895
4 *1893:A *1905:B1 2.30292e-05
5 *1993:A *1893:A 9.52646e-05
*RES
1 *1879:Y *1893:A 5.045 
*END

*D_NET *102 0.00151882
*CONN
*I *1926:A1 I *D sky130_fd_sc_hd__a21oi_2
*I *1927:A2 I *D sky130_fd_sc_hd__o21a_2
*I *1880:Y O *D sky130_fd_sc_hd__inv_2
*CAP
1 *1926:A1 0
2 *1927:A2 0.000123156
3 *1880:Y 0.000188016
4 *102:10 0.000311172
5 *1927:A2 *1923:B 7.09921e-05
6 *1927:A2 *1924:A2 1.26626e-05
7 *1927:A2 *1927:A1 7.09999e-05
8 *1927:A2 *1952:A1 4.18603e-06
9 *1927:A2 *148:10 1.01661e-05
10 *102:10 *1880:A 6.52265e-05
11 *102:10 *1924:A2 8.97564e-05
12 *102:10 *1927:A1 1.1561e-05
13 *102:10 *1929:A_N 2.05056e-05
14 *102:10 *1929:B 0.000192907
15 *102:10 *217:16 0.000270409
16 *102:10 *427:8 7.71016e-05
*RES
1 *1880:Y *102:10 9.045 
2 *102:10 *1927:A2 5.94 
3 *102:10 *1926:A1 3.6 
*END

*D_NET *103 0.00162238
*CONN
*I *1643:A1 I *D sky130_fd_sc_hd__a32oi_2
*I *1628:A I *D sky130_fd_sc_hd__nand3_2
*I *1881:Y O *D sky130_fd_sc_hd__inv_2
*CAP
1 *1643:A1 3.81145e-05
2 *1628:A 0.000127428
3 *1881:Y 0.000440628
4 *103:8 0.000606171
5 *1628:A *1623:A_N 5.30673e-05
6 *1628:A *2068:A 4.18603e-06
7 *1628:A *2073:A 0
8 *1628:A *196:6 3.45679e-05
9 *1628:A *500:10 0
10 *1643:A1 *2073:A 0
11 *1643:A1 *500:10 0
12 *103:8 *1627:A1 9.52646e-05
13 *103:8 *1643:A2 0.000177127
14 *103:8 *1644:B1 4.58257e-05
*RES
1 *1881:Y *103:8 9.225 
2 *103:8 *1628:A 6.03 
3 *103:8 *1643:A1 4.215 
*END

*D_NET *104 0.00601057
*CONN
*I *1642:B2 I *D sky130_fd_sc_hd__o2bb2ai_4
*I *1641:B2 I *D sky130_fd_sc_hd__o2bb2a_4
*I *1643:B2 I *D sky130_fd_sc_hd__a32oi_2
*I *1849:A1 I *D sky130_fd_sc_hd__a22oi_2
*I *1636:B1 I *D sky130_fd_sc_hd__o21ai_4
*I *1882:Y O *D sky130_fd_sc_hd__inv_2
*CAP
1 *1642:B2 0.000230462
2 *1641:B2 0
3 *1643:B2 0.000238003
4 *1849:A1 5.71675e-05
5 *1636:B1 0.000340322
6 *1882:Y 0
7 *104:42 0.000414339
8 *104:38 0.0007679
9 *104:21 0.000946078
10 *104:4 0.000868132
11 *1636:B1 *1639:B 8.73389e-06
12 *1636:B1 *1882:A 0.000670261
13 *1636:B1 *189:8 1.1392e-05
14 *1636:B1 *420:20 4.7043e-05
15 *1636:B1 *420:24 0.000142037
16 *1642:B2 *1642:A1_N 8.58063e-05
17 *1642:B2 *207:8 0.000203402
18 *1643:B2 *1627:A2 5.83121e-06
19 *1643:B2 *202:45 4.19342e-05
20 *1643:B2 *535:10 0.00023468
21 *1849:A1 *1641:A2_N 6.02123e-05
22 *1849:A1 *1847:A1 3.69334e-05
23 *1849:A1 *1849:B1 5.53249e-06
24 *104:21 *1639:B 1.1392e-05
25 *104:21 *2117:A 5.05521e-05
26 *104:38 *535:10 0
27 *104:42 *1629:A2 0.000162318
28 *104:42 *1849:A2 0.000201946
29 *104:42 *1850:A 6.23206e-05
30 *2021:A *1636:B1 0.000105841
*RES
1 *1882:Y *104:4 1.6 
2 *104:4 *1636:B1 14.6 
3 *104:4 *104:21 5.625 
4 *104:21 *1849:A1 6.98 
5 *104:21 *104:38 5.99 
6 *104:38 *104:42 6.44 
7 *104:42 *1643:B2 5.86 
8 *104:42 *1641:B2 1.6 
9 *104:38 *1642:B2 7.86 
*END

*D_NET *105 0.00136446
*CONN
*I *1696:B1 I *D sky130_fd_sc_hd__o21ai_2
*I *1708:A2 I *D sky130_fd_sc_hd__o31ai_2
*I *1883:Y O *D sky130_fd_sc_hd__inv_2
*CAP
1 *1696:B1 8.66809e-05
2 *1708:A2 3.87161e-05
3 *1883:Y 8.30978e-05
4 *105:12 0.000208495
5 *1696:B1 *1697:C 0
6 *1696:B1 *259:20 2.42236e-05
7 *1696:B1 *263:10 0.000159957
8 *1696:B1 *434:32 0.00012476
9 *1696:B1 *434:38 5.53249e-06
10 *1708:A2 *1697:A_N 2.59295e-05
11 *1708:A2 *1708:A3 4.82863e-05
12 *1708:A2 *1719:A1 8.49205e-05
13 *105:12 *1697:A_N 6.77501e-05
14 *105:12 *1708:A3 7.14699e-05
15 *105:12 *1708:B1 4.94404e-05
16 *105:12 *1719:A1 0.000192125
17 *105:12 *264:10 9.30787e-05
*RES
1 *1883:Y *105:12 8.555 
2 *105:12 *1708:A2 2.755 
3 *105:12 *1696:B1 8.255 
*END

*D_NET *106 0.00117463
*CONN
*I *1756:B1 I *D sky130_fd_sc_hd__a21o_2
*I *1758:A I *D sky130_fd_sc_hd__nand3_2
*I *1757:A I *D sky130_fd_sc_hd__and3_2
*I *1884:Y O *D sky130_fd_sc_hd__inv_2
*CAP
1 *1756:B1 0.000121897
2 *1758:A 0
3 *1757:A 0
4 *1884:Y 4.99363e-05
5 *106:15 0.00019525
6 *106:6 0.00012329
7 *1756:B1 *1756:A1 0.000142015
8 *1756:B1 *1756:A2 4.99619e-05
9 *1756:B1 *1757:C 3.66286e-05
10 *1756:B1 *316:12 0
11 *1756:B1 *421:37 4.82863e-05
12 *106:6 *421:37 2.33708e-05
13 *106:15 *1757:C 0.000164874
14 *106:15 *1884:A 3.50152e-06
15 *106:15 *421:37 0.000215618
*RES
1 *1884:Y *106:6 2.395 
2 *106:6 *1757:A 1.6 
3 *106:6 *106:15 2.535 
4 *106:15 *1758:A 1.6 
5 *106:15 *1756:B1 8.39 
*END

*D_NET *107 0.00195649
*CONN
*I *1766:B1 I *D sky130_fd_sc_hd__o21a_2
*I *1768:B I *D sky130_fd_sc_hd__or3_2
*I *1767:B I *D sky130_fd_sc_hd__nor3_2
*I *1885:Y O *D sky130_fd_sc_hd__inv_2
*CAP
1 *1766:B1 0
2 *1768:B 0.000142342
3 *1767:B 2.2036e-05
4 *1885:Y 0.00027352
5 *107:14 0.000237086
6 *107:10 0.000346228
7 *1767:B *1766:A1 6.28498e-05
8 *1767:B *324:10 9.50342e-06
9 *1767:B *327:8 7.4027e-05
10 *1768:B *1768:A 2.30292e-05
11 *1768:B *339:10 0.00015639
12 *107:10 *1777:A 8.23457e-05
13 *107:10 *327:8 5.46798e-05
14 *107:10 *329:6 4.16353e-05
15 *107:10 *338:12 9.37731e-05
16 *107:10 *339:10 9.29751e-06
17 *107:10 *422:45 0.000111455
18 *107:14 *1766:A1 7.23602e-05
19 *107:14 *1766:A2 1.01661e-05
20 *107:14 *327:8 0.000133763
21 *107:14 *339:10 0
*RES
1 *1885:Y *107:10 7.845 
2 *107:10 *107:14 2.085 
3 *107:14 *1767:B 4.47 
4 *107:14 *1768:B 5.43 
5 *107:10 *1766:B1 3.6 
*END

*D_NET *108 0.00262071
*CONN
*I *1825:B1 I *D sky130_fd_sc_hd__o22a_2
*I *1818:A1 I *D sky130_fd_sc_hd__o22ai_2
*I *1886:Y O *D sky130_fd_sc_hd__inv_2
*CAP
1 *1825:B1 0.000257393
2 *1818:A1 9.24331e-05
3 *1886:Y 0.00031025
4 *108:6 0.000660076
5 *1818:A1 *1818:A2 0.000130065
6 *1818:A1 *1824:B1 5.02217e-05
7 *1818:A1 *2063:A 0.00031916
8 *1825:B1 *1820:B 2.59981e-05
9 *1825:B1 *1821:B 3.23391e-05
10 *1825:B1 *1824:B1 0.000309607
11 *1825:B1 *1825:A2 5.10121e-06
12 *1825:B1 *1825:B2 1.12643e-05
13 *108:6 *1819:A 0.000194694
14 *108:6 *1824:B1 8.49205e-05
15 S[16] *1825:B1 0.000112123
16 S[28] *108:6 2.50602e-05
*RES
1 *1886:Y *108:6 5.5 
2 *108:6 *1818:A1 9.275 
3 *108:6 *1825:B1 9.95375 
*END

*D_NET *109 0.00184873
*CONN
*I *1824:A2 I *D sky130_fd_sc_hd__a21o_2
*I *1825:A2 I *D sky130_fd_sc_hd__o22a_2
*I *1820:A I *D sky130_fd_sc_hd__xor2_2
*I *1887:Y O *D sky130_fd_sc_hd__inv_2
*CAP
1 *1824:A2 0
2 *1825:A2 0.000302214
3 *1820:A 0.000231488
4 *1887:Y 0
5 *109:21 0.00038284
6 *109:6 0.000312115
7 *1820:A *1822:A 3.09233e-05
8 *1820:A *2052:A 0
9 *1820:A *510:10 0
10 *1825:A2 *1824:A1 5.95442e-05
11 *1825:A2 *1824:B1 0.000124007
12 *1825:A2 *1825:B2 8.50777e-05
13 *1825:A2 *374:18 8.60345e-06
14 *1825:A2 *379:16 0.000154005
15 *109:21 *1822:A 0.000152814
16 *109:21 *2052:A 0
17 *1825:B1 *1825:A2 5.10121e-06
*RES
1 *1887:Y *109:6 3.6 
2 *109:6 *1820:A 7.395 
3 *109:6 *109:21 3.89 
4 *109:21 *1825:A2 7.63 
5 *109:21 *1824:A2 1.6 
*END

*D_NET *110 0.000144487
*CONN
*I *1877:A1 I *D sky130_fd_sc_hd__o21bai_4
*I *1888:Y O *D sky130_fd_sc_hd__inv_2
*CAP
1 *1877:A1 7.22434e-05
2 *1888:Y 7.22434e-05
*RES
1 *1888:Y *1877:A1 3.995 
*END

*D_NET *111 0.00187552
*CONN
*I *1916:A1_N I *D sky130_fd_sc_hd__a2bb2o_4
*I *1894:A1 I *D sky130_fd_sc_hd__o21a_4
*I *1905:A2 I *D sky130_fd_sc_hd__o2111a_2
*I *1889:X O *D sky130_fd_sc_hd__and2_4
*CAP
1 *1916:A1_N 0.000148626
2 *1894:A1 0
3 *1905:A2 5.41282e-05
4 *1889:X 3.61824e-05
5 *111:23 0.000258409
6 *111:6 0.000200094
7 *1905:A2 *1890:B 8.71079e-05
8 *1905:A2 *425:16 0.00015997
9 *1916:A1_N *1892:B1 7.04108e-05
10 *1916:A1_N *1894:B1 7.66083e-05
11 *1916:A1_N *1916:B2 9.50342e-06
12 *1916:A1_N *1930:A_N 2.11084e-05
13 *1916:A1_N *114:10 0
14 *1916:A1_N *114:25 6.57653e-06
15 *111:6 *1889:A 7.92042e-05
16 *111:6 *1917:B1 0.000160635
17 *111:6 *116:18 1.91597e-05
18 *111:23 *1889:A 1.34503e-05
19 *111:23 *1892:A1 4.01778e-05
20 *111:23 *1894:B1 0.000172965
21 *111:23 *1917:B1 0.000193806
22 *111:23 *1930:A_N 6.73974e-05
*RES
1 *1889:X *111:6 3.085 
2 *111:6 *1905:A2 7.49 
3 *111:6 *111:23 3.675 
4 *111:23 *1894:A1 1.6 
5 *111:23 *1916:A1_N 8.54 
*END

*D_NET *112 0.00236902
*CONN
*I *1893:B I *D sky130_fd_sc_hd__nand3_4
*I *1890:Y O *D sky130_fd_sc_hd__nand2b_2
*CAP
1 *1893:B 0.000682518
2 *1890:Y 0.000682518
3 *1893:B *1892:B1 0.000202662
4 *1893:B *1894:B1 0.00022921
5 *1893:B *1916:B2 0
6 *1893:B *1930:B 5.92269e-05
7 *1893:B *1931:B 9.54469e-05
8 *1893:B *2039:A 0.000200615
9 *1893:B *115:8 0.000149766
10 *1893:B *504:20 5.3619e-05
11 *1893:B *509:10 1.34361e-05
*RES
1 *1890:Y *1893:B 20.52 
*END

*D_NET *113 0.000285071
*CONN
*I *1893:C I *D sky130_fd_sc_hd__nand3_4
*I *1891:Y O *D sky130_fd_sc_hd__nand2b_4
*CAP
1 *1893:C 4.33017e-05
2 *1891:Y 4.33017e-05
3 *1893:C *498:6 7.35729e-05
4 *1993:A *1893:C 0.000124895
*RES
1 *1891:Y *1893:C 4.7 
*END

*D_NET *114 0.00203799
*CONN
*I *1916:A2_N I *D sky130_fd_sc_hd__a2bb2o_4
*I *1905:A1 I *D sky130_fd_sc_hd__o2111a_2
*I *1894:A2 I *D sky130_fd_sc_hd__o21a_4
*I *1892:Y O *D sky130_fd_sc_hd__o21ai_2
*CAP
1 *1916:A2_N 1.44745e-05
2 *1905:A1 5.5917e-05
3 *1894:A2 0
4 *1892:Y 0.0002381
5 *114:25 0.000210422
6 *114:10 0.000378131
7 *1905:A1 *1905:D1 0.000132415
8 *1905:A1 *2045:A 0.000234685
9 *1916:A2_N *1905:D1 5.05521e-05
10 *1916:A2_N *2045:A 7.66083e-05
11 *114:10 *1891:B 8.69382e-05
12 *114:10 *1892:A1 0.000312077
13 *114:10 *154:10 4.82863e-05
14 *114:10 *428:8 0
15 *114:10 *504:8 1.16578e-05
16 *114:10 *504:14 0.000115782
17 *114:25 *1891:B 1.59309e-05
18 *114:25 *1917:B1 4.94404e-05
19 *1916:A1_N *114:10 0
20 *1916:A1_N *114:25 6.57653e-06
*RES
1 *1892:Y *114:10 9.435 
2 *114:10 *1894:A2 3.6 
3 *114:10 *114:25 4.445 
4 *114:25 *1905:A1 3.775 
5 *114:25 *1916:A2_N 2.395 
*END

*D_NET *115 0.00332267
*CONN
*I *1905:D1 I *D sky130_fd_sc_hd__o2111a_2
*I *1916:B1 I *D sky130_fd_sc_hd__a2bb2o_4
*I *1894:B1 I *D sky130_fd_sc_hd__o21a_4
*I *1893:Y O *D sky130_fd_sc_hd__nand3_4
*CAP
1 *1905:D1 0.000501204
2 *1916:B1 0
3 *1894:B1 0.000336181
4 *1893:Y 5.73443e-05
5 *115:23 0.000501204
6 *115:8 0.000393525
7 *1894:B1 *1892:A1 0.00015896
8 *1894:B1 *1930:B 5.4003e-05
9 *1894:B1 *116:18 0
10 *1894:B1 *509:10 0.000140912
11 *1905:D1 *1916:B2 9.02259e-05
12 *1905:D1 *2045:A 0.000118332
13 *115:8 *509:10 0.000159269
14 *1893:B *1894:B1 0.00022921
15 *1893:B *115:8 0.000149766
16 *1905:A1 *1905:D1 0.000132415
17 *1916:A1_N *1894:B1 7.66083e-05
18 *1916:A2_N *1905:D1 5.05521e-05
19 *111:23 *1894:B1 0.000172965
*RES
1 *1893:Y *115:8 5.49 
2 *115:8 *1894:B1 11.205 
3 *115:8 *115:23 2 
4 *115:23 *1916:B1 1.6 
5 *115:23 *1905:D1 9.67 
*END

*D_NET *116 0.00225443
*CONN
*I *2082:A I *D sky130_fd_sc_hd__buf_2
*I *1921:A I *D sky130_fd_sc_hd__nand4_4
*I *1894:X O *D sky130_fd_sc_hd__o21a_4
*CAP
1 *2082:A 0
2 *1921:A 9.10008e-05
3 *1894:X 0.000670136
4 *116:18 0.000761137
5 *1921:A *1921:B 4.99619e-05
6 *116:18 *1889:A 0.000322158
7 *116:18 *1917:B1 1.61831e-05
8 *116:18 *137:17 0.000204034
9 *116:18 *139:18 0.000120655
10 *116:18 *143:8 0
11 *116:18 *430:14 0
12 *1894:B1 *116:18 0
13 *111:6 *116:18 1.91597e-05
*RES
1 *1894:X *116:18 17.645 
2 *116:18 *1921:A 3.085 
3 *116:18 *2082:A 1.6 
*END

*D_NET *117 0.00118403
*CONN
*I *1901:B I *D sky130_fd_sc_hd__nand2_2
*I *1895:Y O *D sky130_fd_sc_hd__nand2_2
*CAP
1 *1901:B 0.000245362
2 *1895:Y 0.000245362
3 *1901:B *1898:B1 0.000425972
4 *1901:B *2044:A 0.000237301
5 *1901:B *486:10 3.00381e-05
*RES
1 *1895:Y *1901:B 10.565 
*END

*D_NET *118 0.00132751
*CONN
*I *1903:B I *D sky130_fd_sc_hd__nand3b_4
*I *1896:Y O *D sky130_fd_sc_hd__nand2b_4
*CAP
1 *1903:B 0.000164295
2 *1896:Y 0.000164295
3 *1903:B *1663:A1 0.000249928
4 *1903:B *1897:B 4.82919e-05
5 *1903:B *2090:A 0.000514419
6 *1903:B *119:10 0
7 *1903:B *217:16 0.000158754
8 *1903:B *503:48 2.75229e-05
*RES
1 *1896:Y *1903:B 13.875 
*END

*D_NET *119 0.00207882
*CONN
*I *1903:C I *D sky130_fd_sc_hd__nand3b_4
*I *1904:A2 I *D sky130_fd_sc_hd__a21oi_4
*I *1897:Y O *D sky130_fd_sc_hd__nand2b_2
*CAP
1 *1903:C 0
2 *1904:A2 0.000166798
3 *1897:Y 0.00021577
4 *119:10 0.000382568
5 *1904:A2 *1867:A1 0.000185411
6 *1904:A2 *2044:A 0.000137462
7 *1904:A2 *218:12 0.0001032
8 *119:10 *1867:A1 0.000465891
9 *119:10 *1897:B 8.49205e-05
10 *119:10 *2090:A 0
11 *119:10 *218:12 0.000288769
12 *119:10 *503:50 4.80285e-05
13 *1903:B *119:10 0
*RES
1 *1897:Y *119:10 10.62 
2 *119:10 *1904:A2 7.92 
3 *119:10 *1903:C 3.6 
*END

*D_NET *120 0.000299952
*CONN
*I *1901:A I *D sky130_fd_sc_hd__nand2_2
*I *1898:X O *D sky130_fd_sc_hd__o21a_2
*CAP
1 *1901:A 6.09239e-05
2 *1898:X 6.09239e-05
3 *1901:A *1898:B1 3.86607e-05
4 S[10] *1901:A 0
5 *2004:A *1901:A 0.000139443
*RES
1 *1898:X *1901:A 8.835 
*END

*D_NET *121 0.000590206
*CONN
*I *1900:B1 I *D sky130_fd_sc_hd__a21oi_4
*I *1899:Y O *D sky130_fd_sc_hd__o21ai_4
*CAP
1 *1900:B1 0.0001438
2 *1899:Y 0.0001438
3 *1900:B1 *1899:B1 5.21545e-05
4 *1900:B1 *1900:A1 0
5 *1900:B1 *217:16 0.000191166
6 *1900:B1 *486:10 5.92849e-05
*RES
1 *1899:Y *1900:B1 11.13 
*END

*D_NET *122 0.00495616
*CONN
*I *2090:A I *D sky130_fd_sc_hd__buf_2
*I *1904:B1 I *D sky130_fd_sc_hd__a21oi_4
*I *1916:B2 I *D sky130_fd_sc_hd__a2bb2o_4
*I *1900:Y O *D sky130_fd_sc_hd__a21oi_4
*CAP
1 *2090:A 0.000250066
2 *1904:B1 4.69857e-05
3 *1916:B2 0.000797383
4 *1900:Y 0.000912087
5 *122:28 0.000411755
6 *1904:B1 *2044:A 2.75229e-05
7 *1916:B2 *1891:B 0
8 *1916:B2 *1892:B1 8.5225e-05
9 *1916:B2 *2044:A 0.000844971
10 *1916:B2 *2045:A 0.000160635
11 *1916:B2 *455:20 0
12 *1916:B2 *509:10 0
13 *2090:A *1867:A1 6.23206e-05
14 *2090:A *1902:A1 0.00013994
15 *2090:A *1964:A 1.07797e-05
16 *2090:A *1965:A 0.000469634
17 *2090:A *217:16 1.52862e-05
18 *122:28 *2044:A 0.000107424
19 *1893:B *1916:B2 0
20 *1903:B *2090:A 0.000514419
21 *1905:D1 *1916:B2 9.02259e-05
22 *1916:A1_N *1916:B2 9.50342e-06
23 *119:10 *2090:A 0
*RES
1 *1900:Y *1916:B2 20.055 
2 *1900:Y *122:28 3.79 
3 *122:28 *1904:B1 2.41 
4 *122:28 *2090:A 14.06 
*END

*D_NET *123 0.00332643
*CONN
*I *1905:B1 I *D sky130_fd_sc_hd__o2111a_2
*I *1901:Y O *D sky130_fd_sc_hd__nand2_2
*CAP
1 *1905:B1 0.000940043
2 *1901:Y 0.000940043
3 *1905:B1 *1879:A 0.000476377
4 *1905:B1 *1890:B 0.000117832
5 *1905:B1 *425:16 6.28765e-05
6 *1905:B1 *498:6 0.000572614
7 *1905:B1 *509:10 0
8 *1893:A *1905:B1 2.30292e-05
9 *1993:A *1905:B1 8.20792e-05
10 *2004:A *1905:B1 0.000111538
*RES
1 *1901:Y *1905:B1 25.885 
*END

*D_NET *124 0.000346013
*CONN
*I *1904:A1 I *D sky130_fd_sc_hd__a21oi_4
*I *1902:Y O *D sky130_fd_sc_hd__a21oi_2
*CAP
1 *1904:A1 4.51949e-05
2 *1902:Y 4.51949e-05
3 *1904:A1 *218:12 9.16315e-05
4 *1904:A1 *430:14 0.000163992
*RES
1 *1902:Y *1904:A1 9.09 
*END

*D_NET *125 0.00210444
*CONN
*I *1905:C1 I *D sky130_fd_sc_hd__o2111a_2
*I *1867:B1 I *D sky130_fd_sc_hd__o31a_2
*I *1903:Y O *D sky130_fd_sc_hd__nand3b_4
*CAP
1 *1905:C1 0.000468929
2 *1867:B1 0
3 *1903:Y 8.98781e-05
4 *125:10 0.000558807
5 *1905:C1 *1890:B 0.000100057
6 *1905:C1 *2045:A 8.65961e-05
7 *1905:C1 *217:16 0
8 *1905:C1 *498:6 0.000142661
9 *125:10 *1867:A1 0.000314452
10 *125:10 *1867:A2 5.53249e-06
11 *125:10 *1965:A 0.000337531
12 *125:10 *218:12 0
*RES
1 *1903:Y *125:10 9.53 
2 *125:10 *1867:B1 1.6 
3 *125:10 *1905:C1 13.55 
*END

*D_NET *126 0.0020568
*CONN
*I *2086:A I *D sky130_fd_sc_hd__buf_2
*I *1921:B I *D sky130_fd_sc_hd__nand4_4
*I *1904:Y O *D sky130_fd_sc_hd__a21oi_4
*CAP
1 *2086:A 0
2 *1921:B 0.000287546
3 *1904:Y 0.000427169
4 *126:10 0.000714714
5 *1921:B *1866:B 0
6 *1921:B *1921:C 0
7 *1921:B *430:14 0
8 *126:10 *1866:A 4.05358e-05
9 *126:10 *1866:B 0
10 *126:10 *2044:A 0.000536874
11 *126:10 *430:14 0
12 *1921:A *1921:B 4.99619e-05
*RES
1 *1904:Y *126:10 9.915 
2 *126:10 *1921:B 8.28 
3 *126:10 *2086:A 3.6 
*END

*D_NET *127 0.00139866
*CONN
*I *1917:A2 I *D sky130_fd_sc_hd__a21oi_4
*I *1905:X O *D sky130_fd_sc_hd__o2111a_2
*CAP
1 *1917:A2 0.000462429
2 *1905:X 0.000462429
3 *1917:A2 *1867:A2 0.000116158
4 *1917:A2 *2045:A 0.000239813
5 *1917:A2 *218:12 0.000117832
*RES
1 *1905:X *1917:A2 13.515 
*END

*D_NET *128 0.00037527
*CONN
*I *1915:A2 I *D sky130_fd_sc_hd__o32a_4
*I *1906:Y O *D sky130_fd_sc_hd__nor2b_4
*CAP
1 *1915:A2 0.000162363
2 *1906:Y 0.000162363
3 *1915:A2 *1906:A 5.05437e-05
4 *1915:A2 *1915:B1 0
*RES
1 *1906:Y *1915:A2 5.3 
*END

*D_NET *129 0.000817785
*CONN
*I *1920:A2 I *D sky130_fd_sc_hd__a21oi_4
*I *1907:Y O *D sky130_fd_sc_hd__nand2b_2
*CAP
1 *1920:A2 0.000151544
2 *1907:Y 0.000151544
3 *1920:A2 *1907:A_N 8.40269e-05
4 *1920:A2 *1907:B 4.82919e-05
5 *1920:A2 *1909:B1 9.80032e-06
6 *1920:A2 *1915:A3 0.000158072
7 *1920:A2 *1920:A1 4.99619e-05
8 *1920:A2 *413:24 2.05056e-05
9 *1920:A2 *420:8 5.85071e-05
10 *1920:A2 *420:12 2.97004e-06
11 *1920:A2 *536:72 8.25609e-05
*RES
1 *1907:Y *1920:A2 11.37 
*END

*D_NET *130 0.00117073
*CONN
*I *1915:A3 I *D sky130_fd_sc_hd__o32a_4
*I *1908:Y O *D sky130_fd_sc_hd__nor2b_2
*CAP
1 *1915:A3 0.000344105
2 *1908:Y 0.000344105
3 *1915:A3 *1907:A_N 3.96653e-05
4 *1915:A3 *1907:B 4.47125e-05
5 *1915:A3 *1915:A1 1.01661e-05
6 *1915:A3 *1915:B1 0.000229904
7 *1915:A3 *142:14 0
8 *1920:A2 *1915:A3 0.000158072
*RES
1 *1908:Y *1915:A3 12.975 
*END

*D_NET *131 0.00096271
*CONN
*I *1920:A1 I *D sky130_fd_sc_hd__a21oi_4
*I *1909:Y O *D sky130_fd_sc_hd__a21oi_2
*CAP
1 *1920:A1 0.000168335
2 *1909:Y 0.000168335
3 *1920:A1 *1909:A2 4.82863e-05
4 *1920:A1 *2089:A 0.00019637
5 *1920:A1 *413:24 0.00027042
6 *1920:A1 *536:47 6.10014e-05
7 *1920:A2 *1920:A1 4.99619e-05
*RES
1 *1909:Y *1920:A1 11.55 
*END

*D_NET *132 0.000685859
*CONN
*I *1911:B1 I *D sky130_fd_sc_hd__a21oi_2
*I *1910:Y O *D sky130_fd_sc_hd__o21ai_2
*CAP
1 *1911:B1 0.000263813
2 *1910:Y 0.000263813
3 *1911:B1 *133:10 0.000109947
4 *1911:B1 *501:32 0
5 *1911:B1 *535:34 0
6 *1911:B1 *536:37 4.82863e-05
*RES
1 *1910:Y *1911:B1 11.7 
*END

*D_NET *133 0.00173069
*CONN
*I *1915:B1 I *D sky130_fd_sc_hd__o32a_4
*I *1920:B1 I *D sky130_fd_sc_hd__a21oi_4
*I *1911:Y O *D sky130_fd_sc_hd__a21oi_2
*CAP
1 *1915:B1 0.000291081
2 *1920:B1 0
3 *1911:Y 0.000225116
4 *133:10 0.000516196
5 *1915:B1 *1914:B1 0
6 *1915:B1 *1915:A1 7.89767e-05
7 *1915:B1 *501:32 0.000100463
8 *133:10 *1914:A2 0
9 *133:10 *1914:B1 0
10 *133:10 *501:32 9.24127e-05
11 *133:10 *536:37 8.65905e-05
12 *1911:B1 *133:10 0.000109947
13 *1915:A2 *1915:B1 0
14 *1915:A3 *1915:B1 0.000229904
*RES
1 *1911:Y *133:10 8.01 
2 *133:10 *1920:B1 3.6 
3 *133:10 *1915:B1 9.72 
*END

*D_NET *134 0.000199172
*CONN
*I *1919:A2 I *D sky130_fd_sc_hd__a21oi_4
*I *1912:Y O *D sky130_fd_sc_hd__nand2b_2
*CAP
1 *1919:A2 5.5453e-05
2 *1912:Y 5.5453e-05
3 *1919:A2 *1912:B 8.8266e-05
*RES
1 *1912:Y *1919:A2 4.34 
*END

*D_NET *135 0.000953272
*CONN
*I *1914:B1 I *D sky130_fd_sc_hd__a21oi_4
*I *1913:Y O *D sky130_fd_sc_hd__o21ai_4
*CAP
1 *1914:B1 0.000190421
2 *1913:Y 0.000190421
3 *1914:B1 *1914:A2 0.000101317
4 *1914:B1 *1918:B1 8.68724e-05
5 *1914:B1 *142:14 5.16418e-05
6 *1914:B1 *413:24 0.000126717
7 *1914:B1 *431:12 0
8 *1914:B1 *431:18 9.50342e-06
9 *1914:B1 *535:23 9.24049e-05
10 *1914:B1 *535:34 0.000103974
11 *1915:B1 *1914:B1 0
12 *133:10 *1914:B1 0
*RES
1 *1913:Y *1914:B1 13.425 
*END

*D_NET *136 0.00304613
*CONN
*I *1862:A1 I *D sky130_fd_sc_hd__o21a_2
*I *1919:B1 I *D sky130_fd_sc_hd__a21oi_4
*I *1861:A I *D sky130_fd_sc_hd__nor3_2
*I *1915:B2 I *D sky130_fd_sc_hd__o32a_4
*I *1914:Y O *D sky130_fd_sc_hd__a21oi_4
*CAP
1 *1862:A1 0.000143708
2 *1919:B1 6.54245e-05
3 *1861:A 0
4 *1915:B2 0.000177467
5 *1914:Y 7.99714e-05
6 *136:28 0.000373441
7 *136:12 0.000436116
8 *136:6 0.000502928
9 *1862:A1 *1921:C 0
10 *1862:A1 *2040:A 2.24423e-05
11 *1862:A1 *2074:A 7.96996e-05
12 *1862:A1 *142:24 6.27438e-05
13 *1862:A1 *402:8 0.000160635
14 *1915:B2 *137:6 8.65905e-05
15 *1919:B1 *2040:A 6.44047e-05
16 *1919:B1 *2074:A 6.44047e-05
17 *136:6 *1914:A2 0.000160635
18 *136:12 *1860:A 0
19 *136:12 *1863:B 0.000141599
20 *136:12 *142:14 0
21 *136:12 *142:18 3.84409e-05
22 *136:12 *413:24 2.75707e-05
23 *136:28 *1912:B 0.000271314
24 *136:28 *1914:A2 8.65961e-05
*RES
1 *1914:Y *136:6 3.085 
2 *136:6 *136:12 8.695 
3 *136:12 *1915:B2 4.55125 
4 *136:12 *1861:A 1.6 
5 *136:6 *136:28 5.555 
6 *136:28 *1919:B1 5.49 
7 *136:28 *1862:A1 7.485 
*END

*D_NET *137 0.00376545
*CONN
*I *1917:A1 I *D sky130_fd_sc_hd__a21oi_4
*I *1867:A2 I *D sky130_fd_sc_hd__o31a_2
*I *1865:B1 I *D sky130_fd_sc_hd__a21oi_4
*I *1915:X O *D sky130_fd_sc_hd__o32a_4
*CAP
1 *1917:A1 0
2 *1867:A2 0.000113333
3 *1865:B1 2.08101e-05
4 *1915:X 0.000627796
5 *137:17 0.000594205
6 *137:6 0.00112948
7 *1867:A2 *1867:A3 0.000318473
8 *1867:A2 *1965:A 1.61461e-05
9 *1867:A2 *218:12 0.000139843
10 *137:6 *1861:C 2.75145e-05
11 *137:6 *1863:A 4.99619e-05
12 *137:6 *1865:A2 0.000253954
13 *137:6 *1866:B 4.99619e-05
14 *137:17 *1866:B 1.16578e-05
15 *1915:B2 *137:6 8.65905e-05
16 *1917:A2 *1867:A2 0.000116158
17 *116:18 *137:17 0.000204034
18 *125:10 *1867:A2 5.53249e-06
*RES
1 *1915:X *137:6 11.71 
2 *137:6 *1865:B1 1.96 
3 *137:6 *137:17 7.365 
4 *137:17 *1867:A2 9.785 
5 *137:17 *1917:A1 1.6 
*END

*D_NET *138 0.00143751
*CONN
*I *1917:B1 I *D sky130_fd_sc_hd__a21oi_4
*I *1916:X O *D sky130_fd_sc_hd__a2bb2o_4
*CAP
1 *1917:B1 0.0003347
2 *1916:X 0.0003347
3 *1917:B1 *1889:A 0.000134314
4 *1917:B1 *1891:B 9.30787e-05
5 *1917:B1 *1930:A_N 0.000120655
6 *111:6 *1917:B1 0.000160635
7 *111:23 *1917:B1 0.000193806
8 *114:25 *1917:B1 4.94404e-05
9 *116:18 *1917:B1 1.61831e-05
*RES
1 *1916:X *1917:B1 14.31 
*END

*D_NET *139 0.00338446
*CONN
*I *1647:B1 I *D sky130_fd_sc_hd__o21ai_4
*I *1648:C I *D sky130_fd_sc_hd__nand3_4
*I *1917:Y O *D sky130_fd_sc_hd__a21oi_4
*CAP
1 *1647:B1 1.88809e-05
2 *1648:C 9.77813e-05
3 *1917:Y 0.000717221
4 *139:18 0.000833883
5 *1647:B1 *2080:A 5.4155e-06
6 *1648:C *1649:B2 7.09999e-05
7 *1648:C *1650:A1_N 8.65961e-05
8 *1648:C *1650:A2_N 0.000132842
9 *1648:C *2080:A 2.49909e-05
10 *1648:C *2110:A 4.66108e-05
11 *1648:C *2115:A 0.000122331
12 *1648:C *216:6 4.82863e-05
13 *139:18 *1650:B1 8.53113e-06
14 *139:18 *1867:A3 0.000118527
15 *139:18 *1902:A1 0.000154353
16 *139:18 *1950:A2 3.09233e-05
17 *139:18 *1950:B1 0.000180083
18 *139:18 *1965:A 0.000164679
19 *139:18 *2080:A 0.000178746
20 *139:18 *2110:A 0.000222123
21 *139:18 *218:12 0
22 *116:18 *139:18 0.000120655
*RES
1 *1917:Y *139:18 19.655 
2 *139:18 *1648:C 8.825 
3 *139:18 *1647:B1 1.96 
*END

*D_NET *140 0.00058734
*CONN
*I *1919:A1 I *D sky130_fd_sc_hd__a21oi_4
*I *1918:Y O *D sky130_fd_sc_hd__a21oi_2
*CAP
1 *1919:A1 0.000164491
2 *1918:Y 0.000164491
3 *1919:A1 *1860:A 0.00011852
4 *1919:A1 *1912:B 8.53113e-06
5 *1919:A1 *413:24 0
6 *1919:A1 *413:37 4.47125e-05
7 *1919:A1 *431:12 8.65961e-05
*RES
1 *1918:Y *1919:A1 10.065 
*END

*D_NET *141 0.00188064
*CONN
*I *1921:C I *D sky130_fd_sc_hd__nand4_4
*I *2098:A I *D sky130_fd_sc_hd__buf_2
*I *1919:Y O *D sky130_fd_sc_hd__a21oi_4
*CAP
1 *1921:C 0.000443417
2 *2098:A 0
3 *1919:Y 0.000216702
4 *141:10 0.000660118
5 *1921:C *1858:A1 0.000117825
6 *1921:C *1859:B 1.73877e-05
7 *1921:C *1864:C1 3.57768e-05
8 *1921:C *1921:D 7.07879e-05
9 *1921:C *2074:A 0
10 *1921:C *142:35 7.45302e-05
11 *141:10 *1859:B 5.42303e-05
12 *141:10 *1859:C 4.82919e-05
13 *141:10 *1860:B 3.64622e-05
14 *141:10 *2040:A 0
15 *141:10 *413:70 0.00010511
16 *1862:A1 *1921:C 0
17 *1921:B *1921:C 0
*RES
1 *1919:Y *141:10 7.665 
2 *141:10 *2098:A 3.6 
3 *141:10 *1921:C 11.505 
*END

*D_NET *142 0.00358168
*CONN
*I *1862:B1 I *D sky130_fd_sc_hd__o21a_2
*I *1861:B I *D sky130_fd_sc_hd__nor3_2
*I *1921:D I *D sky130_fd_sc_hd__nand4_4
*I *1865:A1 I *D sky130_fd_sc_hd__a21oi_4
*I *1864:C1 I *D sky130_fd_sc_hd__o211a_2
*I *1920:Y O *D sky130_fd_sc_hd__a21oi_4
*CAP
1 *1862:B1 1.72597e-05
2 *1861:B 4.55127e-05
3 *1921:D 0.000101004
4 *1865:A1 0
5 *1864:C1 3.95262e-05
6 *1920:Y 0.000510268
7 *142:35 0.000172835
8 *142:24 0.00060116
9 *142:18 0.000559024
10 *142:14 0.000551235
11 *1861:B *1863:B 0.000133763
12 *1861:B *2074:A 0
13 *1861:B *402:27 4.70343e-05
14 *1864:C1 *1858:A1 8.53113e-06
15 *1864:C1 *1864:B1 5.53249e-06
16 *1921:D *1866:B 0
17 *142:14 *1914:A2 0.000120655
18 *142:14 *413:24 0.000151266
19 *142:18 *1860:A 2.97004e-06
20 *142:18 *1863:B 9.50342e-06
21 *142:18 *402:27 2.75538e-05
22 *142:24 *1858:A2 8.49205e-05
23 *142:24 *1858:B1 9.46111e-06
24 *142:24 *402:8 4.87417e-05
25 *1862:A1 *142:24 6.27438e-05
26 *1914:B1 *142:14 5.16418e-05
27 *1915:A3 *142:14 0
28 *1921:C *1864:C1 3.57768e-05
29 *1921:C *1921:D 7.07879e-05
30 *1921:C *142:35 7.45302e-05
31 *136:12 *142:14 0
32 *136:12 *142:18 3.84409e-05
*RES
1 *1920:Y *142:14 14.075 
2 *142:14 *142:18 2.87 
3 *142:18 *142:24 9.97 
4 *142:24 *1864:C1 4.47 
5 *142:24 *142:35 1.635 
6 *142:35 *1865:A1 3.6 
7 *142:35 *1921:D 5.49 
8 *142:18 *1861:B 5.235 
9 *142:14 *1862:B1 2.05 
*END

*D_NET *143 0.00332396
*CONN
*I *1922:A I *D sky130_fd_sc_hd__inv_2
*I *2080:A I *D sky130_fd_sc_hd__buf_2
*I *1647:A2 I *D sky130_fd_sc_hd__o21ai_4
*I *1921:Y O *D sky130_fd_sc_hd__nand4_4
*CAP
1 *1922:A 6.90437e-05
2 *2080:A 0.000378836
3 *1647:A2 3.8445e-05
4 *1921:Y 0.00023465
5 *143:16 0.000667147
6 *143:8 0.00055356
7 *1647:A2 *2110:A 4.92062e-05
8 *1922:A *1864:A1 0.000238137
9 *1922:A *1867:A3 0.000278117
10 *2080:A *1950:B1 0.000276441
11 *2080:A *2110:A 9.80032e-06
12 *143:8 *1866:B 0
13 *143:16 *1649:B1 0.000152127
14 *143:16 *1649:B2 0.000137446
15 *143:16 *1650:A2_N 3.18519e-05
16 *143:16 *1864:A1 0
17 *143:16 *214:23 0
18 *1647:B1 *2080:A 5.4155e-06
19 *1648:C *2080:A 2.49909e-05
20 *116:18 *143:8 0
21 *139:18 *2080:A 0.000178746
*RES
1 *1921:Y *143:8 7.275 
2 *143:8 *143:16 6.995 
3 *143:16 *1647:A2 2.395 
4 *143:16 *2080:A 8.98 
5 *143:8 *1922:A 6.48 
*END

*D_NET *144 0.000299389
*CONN
*I *1649:A2 I *D sky130_fd_sc_hd__a22oi_4
*I *1922:Y O *D sky130_fd_sc_hd__inv_2
*CAP
1 *1649:A2 9.22089e-05
2 *1922:Y 9.22089e-05
3 *1649:A2 *1864:A1 4.61744e-05
4 *1649:A2 *1867:A3 1.4389e-05
5 *1649:A2 *173:8 4.18603e-06
6 *1649:A2 *218:12 0
7 *1649:A2 *430:14 5.02217e-05
*RES
1 *1922:Y *1649:A2 9.03 
*END

*D_NET *145 0.000381935
*CONN
*I *1952:A2 I *D sky130_fd_sc_hd__a21oi_4
*I *1923:Y O *D sky130_fd_sc_hd__nand2_2
*CAP
1 *1952:A2 0.00012311
2 *1923:Y 0.00012311
3 *1952:A2 *1952:A1 4.91189e-05
4 *1952:A2 *1952:B1 0
5 *1952:A2 *171:8 8.65961e-05
*RES
1 *1923:Y *1952:A2 9.375 
*END

*D_NET *146 0.000328335
*CONN
*I *1925:B1 I *D sky130_fd_sc_hd__a21oi_2
*I *1924:Y O *D sky130_fd_sc_hd__o21ai_2
*CAP
1 *1925:B1 4.14924e-05
2 *1924:Y 4.14924e-05
3 *1925:B1 *428:8 0.000140905
4 *1925:B1 *533:37 0.000104446
*RES
1 *1924:Y *1925:B1 8.835 
*END

*D_NET *147 0.0011582
*CONN
*I *1949:C1 I *D sky130_fd_sc_hd__a211oi_4
*I *1952:B1 I *D sky130_fd_sc_hd__a21oi_4
*I *1925:Y O *D sky130_fd_sc_hd__a21oi_2
*CAP
1 *1949:C1 0.000104878
2 *1952:B1 0.0001205
3 *1925:Y 4.12284e-05
4 *147:8 0.000266606
5 *1949:C1 *171:8 9.09379e-05
6 *1949:C1 *499:10 0.000311294
7 *1952:B1 *1923:B 0
8 *1952:B1 *1952:A1 0
9 *1952:B1 *150:10 8.08439e-05
10 *1952:B1 *533:18 2.75538e-05
11 *1952:B1 *533:37 8.08153e-06
12 *147:8 *1923:B 0
13 *147:8 *499:10 7.23602e-05
14 *147:8 *533:37 3.39151e-05
15 *1952:A2 *1952:B1 0
*RES
1 *1925:Y *147:8 4.725 
2 *147:8 *1952:B1 6.255 
3 *147:8 *1949:C1 6.825 
*END

*D_NET *148 0.00105173
*CONN
*I *1927:B1 I *D sky130_fd_sc_hd__o21a_2
*I *1952:A1 I *D sky130_fd_sc_hd__a21oi_4
*I *1926:Y O *D sky130_fd_sc_hd__a21oi_2
*CAP
1 *1927:B1 0
2 *1952:A1 0.000232847
3 *1926:Y 0.000135091
4 *148:10 0.000367938
5 *1952:A1 *1650:B1 0
6 *1952:A1 *1950:A2 0
7 *148:10 *1650:B1 0
8 *148:10 *1880:A 0.000120655
9 *148:10 *1902:A1 3.86607e-05
10 *148:10 *1927:A1 9.30717e-05
11 *1927:A2 *1952:A1 4.18603e-06
12 *1927:A2 *148:10 1.01661e-05
13 *1952:A2 *1952:A1 4.91189e-05
14 *1952:B1 *1952:A1 0
*RES
1 *1926:Y *148:10 6.12 
2 *148:10 *1952:A1 7.485 
3 *148:10 *1927:B1 3.6 
*END

*D_NET *149 0.00232588
*CONN
*I *1950:B1 I *D sky130_fd_sc_hd__a21o_2
*I *1951:B1 I *D sky130_fd_sc_hd__a21oi_4
*I *1927:X O *D sky130_fd_sc_hd__o21a_2
*CAP
1 *1950:B1 0.000177622
2 *1951:B1 7.7185e-05
3 *1927:X 0.000400523
4 *149:8 0.00065533
5 *1950:B1 *1650:B2 0
6 *1950:B1 *1951:A1 0
7 *1950:B1 *173:8 0.000218998
8 *1950:B1 *218:12 0
9 *1951:B1 *1950:A2 0
10 *1951:B1 *1951:A1 0
11 *1951:B1 *170:10 0
12 *1951:B1 *173:8 9.71067e-05
13 *149:8 *171:8 0.000198939
14 *149:8 *413:70 4.36563e-05
15 *2080:A *1950:B1 0.000276441
16 *139:18 *1950:B1 0.000180083
*RES
1 *1927:X *149:8 8.535 
2 *149:8 *1951:B1 5.235 
3 *149:8 *1950:B1 8.775 
*END

*D_NET *150 0.00250717
*CONN
*I *1939:B1 I *D sky130_fd_sc_hd__o2bb2a_2
*I *1940:A1 I *D sky130_fd_sc_hd__o21a_4
*I *1941:A1 I *D sky130_fd_sc_hd__o21ai_2
*I *1928:X O *D sky130_fd_sc_hd__and2_2
*CAP
1 *1939:B1 0.000166457
2 *1940:A1 0
3 *1941:A1 8.33116e-05
4 *1928:X 0.000172537
5 *150:23 0.000454214
6 *150:10 0.000543606
7 *1939:B1 *1940:A2 8.57024e-05
8 *1939:B1 *1940:B1 0
9 *1939:B1 *2072:A 3.96653e-05
10 *1939:B1 *160:23 0.000183745
11 *1941:A1 *1857:A 0
12 *1941:A1 *1941:A2 0
13 *1941:A1 *1955:C 9.24127e-05
14 *150:10 *1857:A 0
15 *150:10 *1955:C 1.1561e-05
16 *150:10 *154:12 0
17 *150:10 *171:8 4.82863e-05
18 *150:10 *174:10 6.36578e-05
19 *150:10 *428:12 3.85884e-05
20 *150:10 *428:18 8.08153e-06
21 *150:10 *533:18 7.23533e-05
22 *150:23 *1857:A 8.65905e-05
23 *150:23 *1940:A2 0.000275553
24 *1952:B1 *150:10 8.08439e-05
*RES
1 *1928:X *150:10 7.725 
2 *150:10 *1941:A1 5.49 
3 *150:10 *150:23 7.28 
4 *150:23 *1940:A1 1.6 
5 *150:23 *1939:B1 9.23 
*END

*D_NET *151 0.00232535
*CONN
*I *1931:C I *D sky130_fd_sc_hd__nand3b_4
*I *1929:Y O *D sky130_fd_sc_hd__nand2b_2
*CAP
1 *1931:C 0.000737242
2 *1929:Y 0.000737242
3 *1931:C *1880:A 2.49909e-05
4 *1931:C *1892:A1 4.70343e-05
5 *1931:C *1892:B1 4.70343e-05
6 *1931:C *1924:A2 2.47173e-05
7 *1931:C *1929:A_N 9.2741e-05
8 *1931:C *1929:B 8.34281e-06
9 *1931:C *1932:A1 2.75145e-05
10 *1931:C *1932:B1 0.000570816
11 *1931:C *533:37 7.67415e-06
*RES
1 *1929:Y *1931:C 17.67 
*END

*D_NET *152 0.000330661
*CONN
*I *1931:B I *D sky130_fd_sc_hd__nand3b_4
*I *1930:Y O *D sky130_fd_sc_hd__nand2b_4
*CAP
1 *1931:B 3.74192e-05
2 *1930:Y 3.74192e-05
3 *1931:B *1892:B1 0.000140912
4 *1931:B *1930:B 1.94636e-05
5 *1893:B *1931:B 9.54469e-05
*RES
1 *1930:Y *1931:B 8.835 
*END

*D_NET *153 0.00195707
*CONN
*I *2097:A I *D sky130_fd_sc_hd__buf_2
*I *1940:B1 I *D sky130_fd_sc_hd__o21a_4
*I *1931:Y O *D sky130_fd_sc_hd__nand3b_4
*CAP
1 *2097:A 0
2 *1940:B1 0.000502607
3 *1931:Y 0.000384147
4 *153:10 0.000886754
5 *1940:B1 *2072:A 0.000127865
6 *153:10 *1930:B 0
7 *153:10 *1931:A_N 5.56984e-05
8 *1939:B1 *1940:B1 0
9 *1994:A *1940:B1 0
10 *1994:A *153:10 0
11 *2028:A *1940:B1 0
*RES
1 *1931:Y *153:10 9.87 
2 *153:10 *1940:B1 11.85 
3 *153:10 *2097:A 3.6 
*END

*D_NET *154 0.00448067
*CONN
*I *1939:B2 I *D sky130_fd_sc_hd__o2bb2a_2
*I *1933:B1 I *D sky130_fd_sc_hd__a21oi_2
*I *1940:A2 I *D sky130_fd_sc_hd__o21a_4
*I *1941:A2 I *D sky130_fd_sc_hd__o21ai_2
*I *1932:Y O *D sky130_fd_sc_hd__o21ai_2
*CAP
1 *1939:B2 0.00014199
2 *1933:B1 0
3 *1940:A2 7.73131e-05
4 *1941:A2 0.000277161
5 *1932:Y 0.000677649
6 *154:36 0.000179331
7 *154:12 0.000493861
8 *154:10 0.000854377
9 *1939:B2 *1939:A1_N 1.16527e-05
10 *1939:B2 *160:23 0.000158965
11 *1939:B2 *533:12 0.000118294
12 *1940:A2 *2072:A 0.000274659
13 *1941:A2 *1856:A2 0.000142661
14 *1941:A2 *1856:B1 0
15 *1941:A2 *1857:A 5.42473e-05
16 *1941:A2 *1941:B1 0.000122155
17 *154:10 *1924:A2 4.01778e-05
18 *154:10 *1930:B 0
19 *154:10 *1932:B1 7.68414e-06
20 *154:10 *1949:A2 0
21 *154:10 *1949:B1 0.000140905
22 *154:10 *428:8 0
23 *154:10 *428:12 0
24 *154:10 *504:14 4.85494e-05
25 *154:10 *533:12 0
26 *154:10 *533:37 0.000198939
27 *154:12 *1856:B1 0
28 *154:12 *1949:A2 0
29 *154:12 *428:12 0
30 *154:12 *461:12 0
31 *154:36 *533:12 5.05521e-05
32 *1939:B1 *1940:A2 8.57024e-05
33 *1941:A1 *1941:A2 0
34 *2029:A *154:10 0
35 *114:10 *154:10 4.82863e-05
36 *150:10 *154:12 0
37 *150:23 *1940:A2 0.000275553
*RES
1 *1932:Y *154:10 13.65 
2 *154:10 *154:12 2.145 
3 *154:12 *1941:A2 9.21 
4 *154:12 *1940:A2 6.81 
5 *154:10 *154:36 2.795 
6 *154:36 *1933:B1 1.6 
7 *154:36 *1939:B2 4.825 
*END

*D_NET *155 0.000279747
*CONN
*I *1949:B1 I *D sky130_fd_sc_hd__a211oi_4
*I *1933:Y O *D sky130_fd_sc_hd__a21oi_2
*CAP
1 *1949:B1 6.94211e-05
2 *1933:Y 6.94211e-05
3 *1949:B1 *1949:A2 0
4 *154:10 *1949:B1 0.000140905
*RES
1 *1933:Y *1949:B1 7.235 
*END

*D_NET *156 0.0022793
*CONN
*I *1943:B I *D sky130_fd_sc_hd__nand3b_4
*I *1942:B I *D sky130_fd_sc_hd__and3b_2
*I *1934:Y O *D sky130_fd_sc_hd__nand2b_2
*CAP
1 *1943:B 0.000143241
2 *1942:B 0.000242085
3 *1934:Y 0.000424798
4 *156:10 0.000810124
5 *1942:B *1855:B 0
6 *1942:B *1942:C 0.000116084
7 *1942:B *1943:C 0.000143266
8 *1942:B *164:12 0
9 *1942:B *496:10 0
10 *1943:B *1935:B 5.07419e-05
11 *156:10 *1855:B 0
12 *156:10 *1938:B1 0.000103827
13 *156:10 *399:28 0.000245133
14 *156:10 *428:35 0
15 *156:10 *496:10 0
*RES
1 *1934:Y *156:10 9.975 
2 *156:10 *1942:B 7.665 
3 *156:10 *1943:B 5.79 
*END

*D_NET *157 0.000898079
*CONN
*I *1942:C I *D sky130_fd_sc_hd__and3b_2
*I *1943:C I *D sky130_fd_sc_hd__nand3b_4
*I *1935:Y O *D sky130_fd_sc_hd__nand2b_4
*CAP
1 *1942:C 0.000142508
2 *1943:C 6.80088e-05
3 *1935:Y 0
4 *157:4 0.000210516
5 *1942:C *1942:A_N 7.60965e-05
6 *1943:C *1935:B 0.000141599
7 *1943:C *1942:A_N 0
8 *1942:B *1942:C 0.000116084
9 *1942:B *1943:C 0.000143266
*RES
1 *1935:Y *157:4 1.6 
2 *157:4 *1943:C 7.745 
3 *157:4 *1942:C 4.87375 
*END

*D_NET *158 0.00328714
*CONN
*I *1948:A1 I *D sky130_fd_sc_hd__o2111ai_4
*I *1854:A1 I *D sky130_fd_sc_hd__o22ai_2
*I *1944:A1 I *D sky130_fd_sc_hd__o21a_4
*I *1936:X O *D sky130_fd_sc_hd__and2_2
*CAP
1 *1948:A1 0
2 *1854:A1 0.000337852
3 *1944:A1 0.000269658
4 *1936:X 0.000345294
5 *158:23 0.000337852
6 *158:10 0.000614952
7 *1854:A1 *1948:A2 5.4155e-06
8 *1854:A1 *159:34 0.000294541
9 *1854:A1 *496:10 4.82919e-05
10 *1944:A1 *1948:B1 0
11 *158:10 *1936:A 5.83121e-06
12 *158:10 *1936:B 0.00015847
13 *158:10 *428:24 0.000312983
14 *158:10 *532:21 9.1354e-05
15 S[5] *158:10 0
16 *1991:A *1854:A1 0.000122331
17 *1991:A *1944:A1 0.000332816
18 *1991:A *158:10 9.50342e-06
19 *2027:A *1944:A1 0
*RES
1 *1936:X *158:10 10.8 
2 *158:10 *1944:A1 8.67 
3 *158:10 *158:23 2 
4 *158:23 *1854:A1 7.945 
5 *158:23 *1948:A1 1.6 
*END

*D_NET *159 0.00324807
*CONN
*I *1854:A2 I *D sky130_fd_sc_hd__o22ai_2
*I *1938:B1 I *D sky130_fd_sc_hd__a21oi_2
*I *1948:A2 I *D sky130_fd_sc_hd__o2111ai_4
*I *1944:A2 I *D sky130_fd_sc_hd__o21a_4
*I *1937:Y O *D sky130_fd_sc_hd__o21ai_4
*CAP
1 *1854:A2 0
2 *1938:B1 0.000131772
3 *1948:A2 1.88809e-05
4 *1944:A2 0.000165838
5 *1937:Y 0
6 *159:34 0.000513028
7 *159:23 0.000636148
8 *159:6 0.000401849
9 *1938:B1 *1854:B2 6.23206e-05
10 *1938:B1 *1855:B 1.70935e-05
11 *1938:B1 *399:28 0.000124895
12 *1944:A2 *1944:B1 0.000163992
13 *1944:A2 *2069:A 0
14 *1944:A2 *166:10 0.000185411
15 *159:23 *166:10 0.0001752
16 S[5] *1944:A2 2.50049e-05
17 S[5] *159:23 0.000100528
18 *1854:A1 *1948:A2 5.4155e-06
19 *1854:A1 *159:34 0.000294541
20 *1991:A *159:34 0.000122331
21 *156:10 *1938:B1 0.000103827
*RES
1 *1937:Y *159:6 3.6 
2 *159:6 *1944:A2 7.485 
3 *159:6 *159:23 6.665 
4 *159:23 *1948:A2 1.96 
5 *159:23 *159:34 7.365 
6 *159:34 *1938:B1 8.885 
7 *159:34 *1854:A2 1.6 
*END

*D_NET *160 0.00226062
*CONN
*I *1949:A2 I *D sky130_fd_sc_hd__a211oi_4
*I *1939:A1_N I *D sky130_fd_sc_hd__o2bb2a_2
*I *1856:A1 I *D sky130_fd_sc_hd__o41a_4
*I *1938:Y O *D sky130_fd_sc_hd__a21oi_2
*CAP
1 *1949:A2 0.000100111
2 *1939:A1_N 2.92169e-06
3 *1856:A1 0
4 *1938:Y 0.000281492
5 *160:23 0.000307589
6 *160:10 0.000486048
7 *1939:A1_N *1939:A2_N 7.00889e-06
8 *1949:A2 *461:12 3.50033e-05
9 *1949:A2 *533:12 0.00011852
10 *160:10 *1856:A3 9.28013e-05
11 *160:10 *1856:A4 4.82919e-05
12 *160:10 *1941:B1 2.41376e-05
13 *160:10 *2114:A 2.75229e-05
14 *160:10 *399:28 0.000135652
15 *160:23 *1939:A2_N 4.35348e-05
16 *160:23 *1941:B1 0.000166962
17 *160:23 *2072:A 0
18 *160:23 *461:12 2.86623e-05
19 *1939:B1 *160:23 0.000183745
20 *1939:B2 *1939:A1_N 1.16527e-05
21 *1939:B2 *160:23 0.000158965
22 *1949:B1 *1949:A2 0
23 *154:10 *1949:A2 0
24 *154:12 *1949:A2 0
*RES
1 *1938:Y *160:10 7.845 
2 *160:10 *1856:A1 3.6 
3 *160:10 *160:23 7.67 
4 *160:23 *1939:A1_N 1.7125 
5 *160:23 *1949:A2 7.745 
*END

*D_NET *161 0.000660845
*CONN
*I *1856:B1 I *D sky130_fd_sc_hd__o41a_4
*I *1939:X O *D sky130_fd_sc_hd__o2bb2a_2
*CAP
1 *1856:B1 0.000269641
2 *1939:X 0.000269641
3 *1856:B1 *1856:A2 5.05437e-05
4 *1856:B1 *1856:A4 5.48366e-05
5 *1856:B1 *1941:B1 1.61831e-05
6 *1941:A2 *1856:B1 0
7 *154:12 *1856:B1 0
*RES
1 *1939:X *1856:B1 11.775 
*END

*D_NET *162 0.0039472
*CONN
*I *2093:A I *D sky130_fd_sc_hd__buf_2
*I *1955:B I *D sky130_fd_sc_hd__nand4_4
*I *1948:D1 I *D sky130_fd_sc_hd__o2111ai_4
*I *1940:X O *D sky130_fd_sc_hd__o21a_4
*CAP
1 *2093:A 0
2 *1955:B 0
3 *1948:D1 0.000134251
4 *1940:X 9.40053e-05
5 *162:16 0.00155511
6 *162:8 0.00151486
7 *1948:D1 *1853:A 0.00016308
8 *1948:D1 *2069:A 3.58811e-05
9 *1948:D1 *166:10 7.0348e-05
10 *1948:D1 *170:10 0.000298442
11 *162:8 *2072:A 7.4589e-05
12 *162:16 *2072:A 6.63219e-06
13 *2028:A *162:16 0
*RES
1 *1940:X *162:8 5.745 
2 *162:8 *162:16 3.77597 
3 *162:16 *1948:D1 8.34 
4 *162:16 *1955:B 3.6 
5 *162:8 *2093:A 3.6 
*END

*D_NET *163 0.000978866
*CONN
*I *1856:A2 I *D sky130_fd_sc_hd__o41a_4
*I *1941:Y O *D sky130_fd_sc_hd__o21ai_2
*CAP
1 *1856:A2 0.00036504
2 *1941:Y 0.00036504
3 *1856:A2 *1856:A3 3.90732e-05
4 *1856:A2 *1941:B1 1.6508e-05
5 *1856:B1 *1856:A2 5.05437e-05
6 *1941:A2 *1856:A2 0.000142661
*RES
1 *1941:Y *1856:A2 9.335 
*END

*D_NET *164 0.00149446
*CONN
*I *1856:A3 I *D sky130_fd_sc_hd__o41a_4
*I *1854:B1 I *D sky130_fd_sc_hd__o22ai_2
*I *1942:X O *D sky130_fd_sc_hd__and3b_2
*CAP
1 *1856:A3 0.000304384
2 *1854:B1 0
3 *1942:X 0.00020032
4 *164:12 0.000504705
5 *1856:A3 *1854:B2 0.000113745
6 *1856:A3 *1855:A 0
7 *1856:A3 *1856:A4 1.67131e-05
8 *1856:A3 *1941:B1 8.65905e-05
9 *1856:A3 *2072:A 0
10 *164:12 *1854:B2 5.53249e-06
11 *164:12 *1855:A 0
12 *164:12 *1855:B 6.31891e-05
13 *164:12 *2071:A 6.74079e-05
14 *1856:A2 *1856:A3 3.90732e-05
15 *1942:B *164:12 0
16 *160:10 *1856:A3 9.28013e-05
*RES
1 *1942:X *164:12 7.575 
2 *164:12 *1854:B1 3.6 
3 *164:12 *1856:A3 9.72 
*END

*D_NET *165 0.00192261
*CONN
*I *1948:B1 I *D sky130_fd_sc_hd__o2111ai_4
*I *1944:B1 I *D sky130_fd_sc_hd__o21a_4
*I *1943:Y O *D sky130_fd_sc_hd__nand3b_4
*CAP
1 *1948:B1 9.14623e-05
2 *1944:B1 6.43721e-05
3 *1943:Y 8.83964e-05
4 *165:6 0.000244231
5 *1944:B1 *1937:A1 8.40269e-05
6 *1944:B1 *1937:B1 1.91597e-05
7 *165:6 *1935:B 0.0001249
8 *165:6 *1937:A1 0.000225586
9 *165:6 *1937:B1 0.000184987
10 *165:6 *496:29 8.36862e-05
11 *165:6 *532:15 8.23457e-05
12 S[5] *1944:B1 0.000162318
13 S[5] *1948:B1 0.000180675
14 *1944:A1 *1948:B1 0
15 *1944:A2 *1944:B1 0.000163992
16 *2027:A *1944:B1 4.66108e-05
17 *2027:A *1948:B1 2.92496e-05
18 *2027:A *165:6 4.66108e-05
*RES
1 *1943:Y *165:6 5.5 
2 *165:6 *1944:B1 8.285 
3 *165:6 *1948:B1 7.745 
*END

*D_NET *166 0.00211128
*CONN
*I *2095:A I *D sky130_fd_sc_hd__buf_2
*I *1955:A I *D sky130_fd_sc_hd__nand4_4
*I *1944:X O *D sky130_fd_sc_hd__o21a_4
*CAP
1 *2095:A 0.00012719
2 *1955:A 3.63983e-05
3 *1944:X 0.000423595
4 *166:10 0.000587183
5 *1955:A *1955:C 8.65961e-05
6 *2095:A *1853:A 7.00914e-05
7 *2095:A *1936:B 0
8 *2095:A *170:10 0
9 *2095:A *177:14 0.000141599
10 *166:10 *1853:A 9.02455e-05
11 *166:10 *2069:A 0
12 *166:10 *2070:A 0
13 S[5] *166:10 0.000117419
14 *1944:A2 *166:10 0.000185411
15 *1948:D1 *166:10 7.0348e-05
16 *159:23 *166:10 0.0001752
*RES
1 *1944:X *166:10 13.095 
2 *166:10 *1955:A 4.395 
3 *166:10 *2095:A 6.45 
*END

*D_NET *167 0.000472047
*CONN
*I *1954:A2 I *D sky130_fd_sc_hd__a21oi_4
*I *1945:Y O *D sky130_fd_sc_hd__nand2b_2
*CAP
1 *1954:A2 0.000175642
2 *1945:Y 0.000175642
3 *1954:A2 *1852:B1 0
4 *1954:A2 *1945:A_N 0
5 *1954:A2 *1947:B1 5.63405e-05
6 *1954:A2 *1953:B1 6.4422e-05
7 *1990:A *1954:A2 0
*RES
1 *1945:Y *1954:A2 10.62 
*END

*D_NET *168 0.000703837
*CONN
*I *1947:B1 I *D sky130_fd_sc_hd__a21oi_4
*I *1946:Y O *D sky130_fd_sc_hd__o21ai_4
*CAP
1 *1947:B1 0.000152972
2 *1946:Y 0.000152972
3 *1947:B1 *431:38 0
4 *1947:B1 *530:25 0
5 *1954:A2 *1947:B1 5.63405e-05
6 *1990:A *1947:B1 0.000341552
*RES
1 *1946:Y *1947:B1 11.13 
*END

*D_NET *169 0.00238797
*CONN
*I *1852:B1 I *D sky130_fd_sc_hd__a21oi_4
*I *1948:C1 I *D sky130_fd_sc_hd__o2111ai_4
*I *1954:B1 I *D sky130_fd_sc_hd__a21oi_4
*I *1947:Y O *D sky130_fd_sc_hd__a21oi_4
*CAP
1 *1852:B1 0.000255563
2 *1948:C1 0.000281345
3 *1954:B1 0
4 *1947:Y 0.000235105
5 *169:19 0.000611152
6 *169:10 0.000309349
7 *1852:B1 *1853:B 0
8 *1852:B1 *176:10 0.000185411
9 *1948:C1 *170:10 3.94592e-05
10 *1948:C1 *495:8 0.000138799
11 *169:10 *2069:A 0
12 *169:10 *530:6 0.00023635
13 *169:19 *2069:A 0
14 *169:19 *176:10 9.54399e-05
15 *1954:A2 *1852:B1 0
16 *1990:A *1852:B1 0
17 *1990:A *169:10 0
18 *1990:A *169:19 0
*RES
1 *1947:Y *169:10 7.665 
2 *169:10 *1954:B1 3.6 
3 *169:10 *169:19 1.635 
4 *169:19 *1948:C1 8.205 
5 *169:19 *1852:B1 8.295 
*END

*D_NET *170 0.00220968
*CONN
*I *1950:A2 I *D sky130_fd_sc_hd__a21o_2
*I *1951:A2 I *D sky130_fd_sc_hd__a21oi_4
*I *1948:Y O *D sky130_fd_sc_hd__o2111ai_4
*CAP
1 *1950:A2 0.0001597
2 *1951:A2 1.8547e-05
3 *1948:Y 0.000428907
4 *170:10 0.000607154
5 *1950:A2 *1650:B1 5.843e-05
6 *1950:A2 *1950:A1 0.000183043
7 *1950:A2 *1951:A1 0.000116151
8 *1951:A2 *1951:A1 1.16578e-05
9 *1951:A2 *177:14 4.82863e-05
10 *170:10 *1853:A 7.26629e-05
11 *170:10 *2069:A 0.000136313
12 *170:10 *176:10 0
13 *170:10 *177:14 0
14 *1948:C1 *170:10 3.94592e-05
15 *1948:D1 *170:10 0.000298442
16 *1951:B1 *1950:A2 0
17 *1951:B1 *170:10 0
18 *1952:A1 *1950:A2 0
19 *2095:A *170:10 0
20 *139:18 *1950:A2 3.09233e-05
*RES
1 *1948:Y *170:10 12.24 
2 *170:10 *1951:A2 4.05 
3 *170:10 *1950:A2 7.53 
*END

*D_NET *171 0.00229466
*CONN
*I *1950:A1 I *D sky130_fd_sc_hd__a21o_2
*I *1951:A1 I *D sky130_fd_sc_hd__a21oi_4
*I *1949:Y O *D sky130_fd_sc_hd__a211oi_4
*CAP
1 *1950:A1 5.50596e-05
2 *1951:A1 0.000154877
3 *1949:Y 0.000392105
4 *171:8 0.000602041
5 *1950:A1 *218:12 9.68709e-05
6 *1951:A1 *177:14 6.90876e-05
7 *1951:A1 *218:12 5.53249e-06
8 *171:8 *1923:A 7.13336e-05
9 *171:8 *1927:A1 3.72916e-05
10 *171:8 *413:70 6.31208e-05
11 *171:8 *499:10 1.17309e-05
12 *1949:C1 *171:8 9.09379e-05
13 *1950:A2 *1950:A1 0.000183043
14 *1950:A2 *1951:A1 0.000116151
15 *1950:B1 *1951:A1 0
16 *1951:A2 *1951:A1 1.16578e-05
17 *1951:B1 *1951:A1 0
18 *1952:A2 *171:8 8.65961e-05
19 *149:8 *171:8 0.000198939
20 *150:10 *171:8 4.82863e-05
*RES
1 *1949:Y *171:8 11.64 
2 *171:8 *1951:A1 6.84 
3 *171:8 *1950:A1 5.745 
*END

*D_NET *172 0.000240532
*CONN
*I *1650:B2 I *D sky130_fd_sc_hd__o2bb2ai_4
*I *1950:X O *D sky130_fd_sc_hd__a21o_2
*CAP
1 *1650:B2 8.25002e-05
2 *1950:X 8.25002e-05
3 *1650:B2 *218:12 7.55313e-05
4 *1950:B1 *1650:B2 0
*RES
1 *1950:X *1650:B2 8.835 
*END

*D_NET *173 0.00301706
*CONN
*I *1864:A1 I *D sky130_fd_sc_hd__o211a_2
*I *1649:A1 I *D sky130_fd_sc_hd__a22oi_4
*I *2083:A I *D sky130_fd_sc_hd__buf_2
*I *1951:Y O *D sky130_fd_sc_hd__a21oi_4
*CAP
1 *1864:A1 0.000336556
2 *1649:A1 0
3 *2083:A 0.000189457
4 *1951:Y 0.000299459
5 *173:10 0.000189457
6 *173:8 0.000636014
7 *1864:A1 *1867:A3 0.0001138
8 *1864:A1 *430:14 0
9 *2083:A *1649:B1 4.82919e-05
10 *2083:A *217:16 0.000200156
11 *2083:A *430:14 0.00026475
12 *173:8 *1649:B1 0
13 *173:8 *1650:A2_N 0
14 *173:8 *2115:A 0.000134516
15 *173:8 *218:12 0
16 *1649:A2 *1864:A1 4.61744e-05
17 *1649:A2 *173:8 4.18603e-06
18 *1922:A *1864:A1 0.000238137
19 *1950:B1 *173:8 0.000218998
20 *1951:B1 *173:8 9.71067e-05
21 *143:16 *1864:A1 0
*RES
1 *1951:Y *173:8 9.57 
2 *173:8 *173:10 2 
3 *173:10 *2083:A 6.91 
4 *173:10 *1649:A1 1.6 
5 *173:8 *1864:A1 10.2975 
*END

*D_NET *174 0.0018153
*CONN
*I *1857:B I *D sky130_fd_sc_hd__xnor2_2
*I *1955:C I *D sky130_fd_sc_hd__nand4_4
*I *1952:Y O *D sky130_fd_sc_hd__a21oi_4
*CAP
1 *1857:B 3.37454e-05
2 *1955:C 0.000469518
3 *1952:Y 6.94364e-05
4 *174:10 0.0005727
5 *1955:C *428:18 3.09233e-05
6 *1955:C *428:24 0.000163019
7 *174:10 *428:18 0.000158975
8 S[5] *1955:C 6.27529e-05
9 *1941:A1 *1955:C 9.24127e-05
10 *1955:A *1955:C 8.65961e-05
11 *150:10 *1955:C 1.1561e-05
12 *150:10 *174:10 6.36578e-05
*RES
1 *1952:Y *174:10 5.43 
2 *174:10 *1955:C 12.075 
3 *174:10 *1857:B 4.05 
*END

*D_NET *175 0.000371496
*CONN
*I *1954:A1 I *D sky130_fd_sc_hd__a21oi_4
*I *1953:Y O *D sky130_fd_sc_hd__a21oi_2
*CAP
1 *1954:A1 0.000182832
2 *1953:Y 0.000182832
3 *1954:A1 *530:25 5.83121e-06
*RES
1 *1953:Y *1954:A1 5.735 
*END

*D_NET *176 0.00116087
*CONN
*I *1955:D I *D sky130_fd_sc_hd__nand4_4
*I *2087:A I *D sky130_fd_sc_hd__buf_2
*I *1954:Y O *D sky130_fd_sc_hd__a21oi_4
*CAP
1 *1955:D 3.30556e-05
2 *2087:A 2.56183e-05
3 *1954:Y 0.000263157
4 *176:10 0.000321831
5 *1955:D *2069:A 4.47209e-05
6 *1955:D *449:6 5.83121e-06
7 *2087:A *1851:A 5.83121e-06
8 *2087:A *2069:A 4.80285e-05
9 *2087:A *449:6 4.21973e-05
10 *176:10 *1852:A1 8.97486e-05
11 *176:10 *2069:A 0
12 *1852:B1 *176:10 0.000185411
13 *169:19 *176:10 9.54399e-05
14 *170:10 *176:10 0
*RES
1 *1954:Y *176:10 11.06 
2 *176:10 *2087:A 2.395 
3 *176:10 *1955:D 2.395 
*END

*D_NET *177 0.00269623
*CONN
*I *1646:B1 I *D sky130_fd_sc_hd__a21oi_4
*I *1647:A1 I *D sky130_fd_sc_hd__o21ai_4
*I *1955:Y O *D sky130_fd_sc_hd__nand4_4
*CAP
1 *1646:B1 0
2 *1647:A1 0.000357253
3 *1955:Y 0.000715782
4 *177:14 0.00107303
5 *1647:A1 *1646:A2 5.53249e-06
6 *1647:A1 *1648:B 1.32017e-05
7 *1647:A1 *1649:B2 0
8 *1647:A1 *214:10 0.000272458
9 *177:14 *1936:B 0
10 *177:14 *428:18 0
11 *1951:A1 *177:14 6.90876e-05
12 *1951:A2 *177:14 4.82863e-05
13 *2095:A *177:14 0.000141599
14 *170:10 *177:14 0
*RES
1 *1955:Y *177:14 16.82 
2 *177:14 *1647:A1 12.305 
3 *177:14 *1646:B1 1.6 
*END

*D_NET *178 0.00122128
*CONN
*I *1613:C I *D sky130_fd_sc_hd__nand3b_4
*I *1956:Y O *D sky130_fd_sc_hd__nand2b_2
*CAP
1 *1613:C 0.000343212
2 *1956:Y 0.000343212
3 *1613:C *1613:B 0.000361365
4 *1613:C *1956:B 9.50342e-06
5 *1613:C *182:8 0.000163992
6 *1613:C *417:14 0
*RES
1 *1956:Y *1613:C 14.505 
*END

*D_NET *179 0.00112086
*CONN
*I *1613:B I *D sky130_fd_sc_hd__nand3b_4
*I *1611:Y O *D sky130_fd_sc_hd__nand2b_4
*CAP
1 *1613:B 0.000379747
2 *1611:Y 0.000379747
3 *1613:C *1613:B 0.000361365
*RES
1 *1611:Y *1613:B 14.22 
*END

*D_NET *180 0.000954004
*CONN
*I *1640:A1_N I *D sky130_fd_sc_hd__o2bb2ai_4
*I *1615:B I *D sky130_fd_sc_hd__nand2_4
*I *1612:Y O *D sky130_fd_sc_hd__nand2_2
*CAP
1 *1640:A1_N 0.00011148
2 *1615:B 8.88497e-05
3 *1612:Y 0.000139038
4 *180:14 0.000339368
5 *1640:A1_N *1616:A 4.77757e-05
6 *1640:A1_N *417:12 8.53255e-05
7 *180:14 *1956:A_N 1.52418e-05
8 *180:14 *417:12 0.000126926
*RES
1 *1612:Y *180:14 6.24 
2 *180:14 *1615:B 4.74 
3 *180:14 *1640:A1_N 5.94 
*END

*D_NET *181 0.00564998
*CONN
*I *2111:A I *D sky130_fd_sc_hd__buf_2
*I *2117:A I *D sky130_fd_sc_hd__buf_6
*I *1642:A1_N I *D sky130_fd_sc_hd__o2bb2ai_4
*I *1639:C I *D sky130_fd_sc_hd__nand4_4
*I *1613:Y O *D sky130_fd_sc_hd__nand3b_4
*CAP
1 *2111:A 0
2 *2117:A 0.000109055
3 *1642:A1_N 0.000498312
4 *1639:C 5.0162e-05
5 *1613:Y 8.51933e-05
6 *181:35 0.000788899
7 *181:20 0.000999426
8 *181:10 0.000852925
9 *1639:C *1622:B 4.66108e-05
10 *1639:C *1639:D 2.34602e-05
11 *1642:A1_N *1642:A2_N 0.000411154
12 *1642:A1_N *1849:B2 2.75229e-05
13 *1642:A1_N *207:8 0.000169545
14 *2117:A *1844:B 0
15 *2117:A *1847:B1_N 4.19967e-05
16 *2117:A *2112:A 0
17 *181:20 *1614:B1 6.41593e-05
18 *181:20 *1622:A 0.000157595
19 *181:20 *1630:A 0.000131246
20 *181:20 *1634:A 0.000339893
21 *181:20 *1844:B 0.00013521
22 *181:20 *1882:A 0.00010479
23 *181:20 *2043:A 0
24 *181:20 *2112:A 9.87459e-05
25 *181:20 *198:8 9.27326e-05
26 *181:20 *202:12 6.97118e-05
27 *181:35 *1622:B 0.000107205
28 *181:35 *1639:A 3.05373e-05
29 *181:35 *1847:B1_N 1.82476e-05
30 *181:35 *2112:A 0
31 *1642:B2 *1642:A1_N 8.58063e-05
32 *2009:A *181:10 5.92849e-05
33 *104:21 *2117:A 5.05521e-05
*RES
1 *1613:Y *181:10 7.235 
2 *181:10 *181:20 20.41 
3 *181:20 *1639:C 2.665 
4 *181:20 *181:35 5.3 
5 *181:35 *1642:A1_N 10.98 
6 *181:35 *2117:A 5.775 
7 *181:10 *2111:A 1.6 
*END

*D_NET *182 0.00187275
*CONN
*I *1640:A2_N I *D sky130_fd_sc_hd__o2bb2ai_4
*I *2101:A I *D sky130_fd_sc_hd__buf_2
*I *1614:X O *D sky130_fd_sc_hd__o21a_4
*CAP
1 *1640:A2_N 9.27953e-05
2 *2101:A 0.000254403
3 *1614:X 0.000160576
4 *182:8 0.000507774
5 *1640:A2_N *1616:A 0.000122337
6 *1640:A2_N *1616:B 8.49205e-05
7 *1640:A2_N *1956:B 7.4538e-05
8 *1640:A2_N *183:8 7.44453e-05
9 *2101:A *1615:A 0.000179256
10 *182:8 *1956:B 0.000113745
11 *182:8 *183:8 4.39656e-05
12 *182:8 *417:12 0
13 *182:8 *417:14 0
14 *1613:C *182:8 0.000163992
*RES
1 *1614:X *182:8 7.785 
2 *182:8 *2101:A 8.36625 
3 *182:8 *1640:A2_N 6.375 
*END

*D_NET *183 0.00442152
*CONN
*I *1622:B I *D sky130_fd_sc_hd__nand3_4
*I *1639:D I *D sky130_fd_sc_hd__nand4_4
*I *1616:B I *D sky130_fd_sc_hd__nand2_4
*I *1615:Y O *D sky130_fd_sc_hd__nand2_4
*CAP
1 *1622:B 0.000292688
2 *1639:D 5.57937e-05
3 *1616:B 0.000200014
4 *1615:Y 8.44839e-05
5 *183:25 0.00130002
6 *183:8 0.00123604
7 *1616:B *1616:A 2.16833e-05
8 *1622:B *1639:A 0
9 *1622:B *2112:A 0.000139238
10 *183:8 *1956:B 0
11 *183:8 *417:12 0.0001274
12 *183:25 *1617:A 4.80285e-05
13 *183:25 *1633:A 4.16353e-05
14 *183:25 *1956:B 0
15 *183:25 *185:8 0.000222746
16 *183:25 *188:10 9.02199e-05
17 *183:25 *201:10 7.35729e-05
18 *183:25 *417:12 6.36578e-05
19 *183:25 *502:30 4.36934e-05
20 *1639:C *1622:B 4.66108e-05
21 *1639:C *1639:D 2.34602e-05
22 *1640:A2_N *1616:B 8.49205e-05
23 *1640:A2_N *183:8 7.44453e-05
24 *181:35 *1622:B 0.000107205
25 *182:8 *183:8 4.39656e-05
*RES
1 *1615:Y *183:8 6.255 
2 *183:8 *1616:B 6.825 
3 *183:8 *183:25 14.525 
4 *183:25 *1639:D 2.92 
5 *183:25 *1622:B 9.755 
*END

*D_NET *184 0.000466595
*CONN
*I *1846:B I *D sky130_fd_sc_hd__xnor2_2
*I *1616:Y O *D sky130_fd_sc_hd__nand2_4
*CAP
1 *1846:B 0.000233297
2 *1616:Y 0.000233297
*RES
1 *1616:Y *1846:B 6.425 
*END

*D_NET *185 0.00123429
*CONN
*I *1620:A2 I *D sky130_fd_sc_hd__o21bai_4
*I *1640:B1 I *D sky130_fd_sc_hd__o2bb2ai_4
*I *1617:X O *D sky130_fd_sc_hd__and2_4
*CAP
1 *1620:A2 0
2 *1640:B1 0.000131031
3 *1617:X 0.000153638
4 *185:8 0.000284668
5 *1640:B1 *1640:B2 0.000200035
6 *1640:B1 *208:10 4.80285e-05
7 *1640:B1 *502:12 0.000104136
8 *185:8 *188:10 9.0009e-05
9 *183:25 *185:8 0.000222746
*RES
1 *1617:X *185:8 5.515 
2 *185:8 *1640:B1 8.795 
3 *185:8 *1620:A2 1.6 
*END

*D_NET *186 0.000899018
*CONN
*I *1620:A1 I *D sky130_fd_sc_hd__o21bai_4
*I *1618:Y O *D sky130_fd_sc_hd__nor2_4
*CAP
1 *1620:A1 0.000279463
2 *1618:Y 0.000279463
3 *1620:A1 *1618:A 0
4 *1620:A1 *1618:B 0.000118091
5 *1620:A1 *1633:B 4.18603e-06
6 *1620:A1 *1843:A2 6.02202e-05
7 *1620:A1 *1844:A 0
8 *1620:A1 *2099:A 0
9 *1620:A1 *502:12 0.000157595
*RES
1 *1618:Y *1620:A1 12.375 
*END

*D_NET *187 0.00153851
*CONN
*I *1621:A2 I *D sky130_fd_sc_hd__o211a_4
*I *1843:A1 I *D sky130_fd_sc_hd__a21oi_2
*I *1640:B2 I *D sky130_fd_sc_hd__o2bb2ai_4
*I *1619:Y O *D sky130_fd_sc_hd__o21ai_4
*CAP
1 *1621:A2 5.22608e-05
2 *1843:A1 1.85694e-05
3 *1640:B2 0.000222035
4 *1619:Y 9.15386e-05
5 *187:23 8.93915e-05
6 *187:6 0.000332135
7 *1621:A2 *1621:A1 8.40269e-05
8 *1621:A2 *1621:C1 1.61831e-05
9 *1621:A2 *1843:A2 2.30292e-05
10 *1621:A2 *1844:A 0.000186388
11 *1621:A2 *502:16 2.16833e-05
12 *1640:B2 *502:12 5.96729e-05
13 *1843:A1 *502:16 9.53428e-06
14 *187:6 *502:16 9.28507e-05
15 *187:23 *1844:A 1.16578e-05
16 *187:23 *502:16 2.75229e-05
17 *1640:B1 *1640:B2 0.000200035
*RES
1 *1619:Y *187:6 3.085 
2 *187:6 *1640:B2 10.085 
3 *187:6 *187:23 0.45 
4 *187:23 *1843:A1 1.96 
5 *187:23 *1621:A2 3.79 
*END

*D_NET *188 0.00157489
*CONN
*I *2099:A I *D sky130_fd_sc_hd__buf_2
*I *1621:B1 I *D sky130_fd_sc_hd__o211a_4
*I *1620:Y O *D sky130_fd_sc_hd__o21bai_4
*CAP
1 *2099:A 0.000208991
2 *1621:B1 0
3 *1620:Y 0.000391933
4 *188:10 0.000600923
5 *2099:A *1843:A2 5.0751e-05
6 *2099:A *420:18 0
7 *2099:A *420:20 0
8 *188:10 *1633:A 4.82919e-05
9 *188:10 *1844:A 9.37731e-05
10 *188:10 *420:20 0
11 *1620:A1 *2099:A 0
12 *183:25 *188:10 9.02199e-05
13 *185:8 *188:10 9.0009e-05
*RES
1 *1620:Y *188:10 10.08 
2 *188:10 *1621:B1 3.6 
3 *188:10 *2099:A 6.885 
*END

*D_NET *189 0.00161673
*CONN
*I *1639:B I *D sky130_fd_sc_hd__nand4_4
*I *2085:A I *D sky130_fd_sc_hd__buf_6
*I *1621:X O *D sky130_fd_sc_hd__o211a_4
*CAP
1 *1639:B 0.000109945
2 *2085:A 0.000273191
3 *1621:X 5.41251e-05
4 *189:8 0.000437261
5 *1639:B *1622:A 0.000208477
6 *1639:B *1844:B 0.000208477
7 *2085:A *1622:A 0.000163019
8 *2085:A *420:18 0
9 *2085:A *420:20 0
10 *2085:A *446:8 0.000130714
11 *189:8 *1621:C1 0
12 *1636:B1 *1639:B 8.73389e-06
13 *1636:B1 *189:8 1.1392e-05
14 *104:21 *1639:B 1.1392e-05
*RES
1 *1621:X *189:8 2.41 
2 *189:8 *2085:A 10.76 
3 *189:8 *1639:B 8.795 
*END

*D_NET *190 0.00101409
*CONN
*I *1847:B1_N I *D sky130_fd_sc_hd__a21boi_4
*I *1849:B2 I *D sky130_fd_sc_hd__a22oi_2
*I *1622:Y O *D sky130_fd_sc_hd__nand3_4
*CAP
1 *1847:B1_N 0.000185893
2 *1849:B2 1.17375e-05
3 *1622:Y 4.33562e-05
4 *190:8 0.000240986
5 *1847:B1_N *1844:B 0
6 *1847:B1_N *1847:A1 7.33465e-05
7 *1847:B1_N *2088:A 6.99988e-05
8 *1847:B1_N *208:10 1.71013e-05
9 *1847:B1_N *420:18 1.83847e-05
10 *1849:B2 *207:8 4.82919e-05
11 *190:8 *1639:A 0.000140912
12 *190:8 *208:10 7.63125e-05
13 *1642:A1_N *1849:B2 2.75229e-05
14 *2117:A *1847:B1_N 4.19967e-05
15 *181:35 *1847:B1_N 1.82476e-05
*RES
1 *1622:Y *190:8 5.235 
2 *190:8 *1849:B2 4.05 
3 *190:8 *1847:B1_N 7.98 
*END

*D_NET *191 0.00203141
*CONN
*I *1626:A I *D sky130_fd_sc_hd__nand2_2
*I *1643:A2 I *D sky130_fd_sc_hd__a32oi_2
*I *1628:B I *D sky130_fd_sc_hd__nand3_2
*I *1623:Y O *D sky130_fd_sc_hd__nand2b_2
*CAP
1 *1626:A 0.000200774
2 *1643:A2 8.24027e-05
3 *1628:B 0.000154885
4 *1623:Y 3.89769e-05
5 *191:21 0.000364351
6 *191:6 0.000275037
7 *1626:A *1626:B 0.000200079
8 *1626:A *1644:A1 0
9 *1626:A *1644:A2 0.000139238
10 *1626:A *1648:A 0
11 *1626:A *1953:A1 0
12 *1626:A *192:23 1.01911e-05
13 *1626:A *494:10 0
14 *1628:B *1623:A_N 7.47457e-05
15 *1643:A2 *1627:A2 3.63661e-05
16 *1643:A2 *1643:A3 0.000120655
17 *1643:A2 *1644:B1 8.8266e-05
18 *191:21 *192:23 4.94531e-05
19 *191:21 *195:14 1.88602e-05
20 *191:21 *494:10 0
21 *103:8 *1643:A2 0.000177127
*RES
1 *1623:Y *191:6 2.05 
2 *191:6 *1628:B 4.405 
3 *191:6 *191:21 3.38 
4 *191:21 *1643:A2 6.465 
5 *191:21 *1626:A 8.04 
*END

*D_NET *192 0.00253799
*CONN
*I *1626:B I *D sky130_fd_sc_hd__nand2_2
*I *1643:A3 I *D sky130_fd_sc_hd__a32oi_2
*I *1628:C I *D sky130_fd_sc_hd__nand3_2
*I *1624:Y O *D sky130_fd_sc_hd__nand2b_4
*CAP
1 *1626:B 0.000119223
2 *1643:A3 2.85626e-05
3 *1628:C 0
4 *1624:Y 0.000469078
5 *192:23 0.000257392
6 *192:14 0.000578684
7 *1626:B *2074:A 0.00019564
8 *1643:A3 *1627:A2 0.000120655
9 *192:14 *2073:A 7.21296e-06
10 *192:14 *2074:A 7.63204e-05
11 *192:14 *431:24 4.65698e-05
12 *192:14 *431:30 7.99757e-05
13 *192:14 *494:10 0
14 *192:23 *2074:A 0.000101351
15 *192:23 *195:14 1.88602e-05
16 *192:23 *494:10 0
17 S[8] *192:14 5.80846e-05
18 S[9] *192:14 0
19 *1626:A *1626:B 0.000200079
20 *1626:A *192:23 1.01911e-05
21 *1643:A2 *1643:A3 0.000120655
22 *1995:A *192:14 0
23 *191:21 *192:23 4.94531e-05
*RES
1 *1624:Y *192:14 10.785 
2 *192:14 *1628:C 3.6 
3 *192:14 *192:23 2.4 
4 *192:23 *1643:A3 4.74 
5 *192:23 *1626:B 7.785 
*END

*D_NET *193 0.00162158
*CONN
*I *1629:A1 I *D sky130_fd_sc_hd__o21a_2
*I *1638:A2 I *D sky130_fd_sc_hd__o2111a_2
*I *1625:X O *D sky130_fd_sc_hd__and2_2
*CAP
1 *1629:A1 0
2 *1638:A2 0.000267952
3 *1625:X 0.000213019
4 *193:8 0.000480972
5 *1638:A2 *1637:A 1.34361e-05
6 *1638:A2 *1641:A2_N 0.000164679
7 *1638:A2 *1848:A 7.53115e-05
8 *1638:A2 *1848:B 0.000274675
9 *193:8 *1629:B1 8.49205e-05
10 *193:8 *1850:B 4.66108e-05
*RES
1 *1625:X *193:8 4.825 
2 *193:8 *1638:A2 11.54 
3 *193:8 *1629:A1 1.6 
*END

*D_NET *194 0.000463959
*CONN
*I *1644:A2 I *D sky130_fd_sc_hd__a22oi_4
*I *1626:Y O *D sky130_fd_sc_hd__nand2_2
*CAP
1 *1644:A2 0.000139024
2 *1626:Y 0.000139024
3 *1644:A2 *1953:A1 0
4 *1644:A2 *207:8 4.66742e-05
5 *1626:A *1644:A2 0.000139238
*RES
1 *1626:Y *1644:A2 9.63 
*END

*D_NET *195 0.00300205
*CONN
*I *1629:A2 I *D sky130_fd_sc_hd__o21a_2
*I *1638:A1 I *D sky130_fd_sc_hd__o2111a_2
*I *1627:Y O *D sky130_fd_sc_hd__o21ai_2
*CAP
1 *1629:A2 7.29707e-05
2 *1638:A1 0.000171439
3 *1627:Y 0.00091064
4 *195:14 0.00115505
5 *1629:A2 *1849:A2 8.09021e-06
6 *1629:A2 *1850:A 0.000106575
7 *1629:A2 *202:12 3.60648e-06
8 *1638:A1 *1638:D1 8.1871e-05
9 *1638:A1 *1850:A 9.04519e-05
10 *1638:A1 *202:12 6.89058e-05
11 *1638:A1 *500:10 8.58007e-05
12 *1638:A1 *536:18 4.66108e-05
13 *104:42 *1629:A2 0.000162318
14 *191:21 *195:14 1.88602e-05
15 *192:23 *195:14 1.88602e-05
*RES
1 *1627:Y *195:14 6.38543 
2 *195:14 *1638:A1 7.7925 
3 *195:14 *1629:A2 5.8725 
*END

*D_NET *196 0.00315103
*CONN
*I *1629:B1 I *D sky130_fd_sc_hd__o21a_2
*I *1638:D1 I *D sky130_fd_sc_hd__o2111a_2
*I *1628:Y O *D sky130_fd_sc_hd__nand3_2
*CAP
1 *1629:B1 0.000163914
2 *1638:D1 0.000363623
3 *1628:Y 0.000432067
4 *196:6 0.000959603
5 *1629:B1 *1850:A 0.000152667
6 *1629:B1 *1850:B 0.000240189
7 *1638:D1 *1637:A 4.66108e-05
8 *1638:D1 *203:16 8.49205e-05
9 *1638:D1 *500:10 0.000235566
10 *1638:D1 *536:18 6.39355e-05
11 *196:6 *1623:A_N 7.92464e-06
12 *196:6 *500:10 0.00016624
13 *1628:A *196:6 3.45679e-05
14 *1638:A1 *1638:D1 8.1871e-05
15 *1995:A *196:6 3.24055e-05
16 *193:8 *1629:B1 8.49205e-05
*RES
1 *1628:Y *196:6 6.88 
2 *196:6 *1638:D1 7.945 
3 *196:6 *1629:B1 9.815 
*END

*D_NET *197 0.00107715
*CONN
*I *1850:B I *D sky130_fd_sc_hd__xor2_2
*I *1629:X O *D sky130_fd_sc_hd__o21a_2
*CAP
1 *1850:B 0.000257611
2 *1629:X 0.000257611
3 *1850:B *1850:A 8.98657e-05
4 *1850:B *535:10 4.19967e-05
5 S[3] *1850:B 0.000143266
6 *1629:B1 *1850:B 0.000240189
7 *2030:A *1850:B 0
8 *193:8 *1850:B 4.66108e-05
*RES
1 *1629:X *1850:B 11.51 
*END

*D_NET *198 0.00133276
*CONN
*I *1636:A2 I *D sky130_fd_sc_hd__o21ai_4
*I *1635:A_N I *D sky130_fd_sc_hd__nand3b_2
*I *1630:Y O *D sky130_fd_sc_hd__nor2_4
*CAP
1 *1636:A2 4.87209e-05
2 *1635:A_N 0.000130693
3 *1630:Y 8.75458e-05
4 *198:8 0.00026696
5 *1635:A_N *1635:B 6.65066e-05
6 *1635:A_N *201:10 8.08153e-06
7 *1635:A_N *491:8 0.0001249
8 *1636:A2 *1630:A 0
9 *1636:A2 *201:10 5.72091e-05
10 *1986:A *1635:A_N 0.00012657
11 *1997:A *1635:A_N 0.00021451
12 *1997:A *1636:A2 0.000108329
13 *2021:A *1635:A_N 0
14 *181:20 *198:8 9.27326e-05
*RES
1 *1630:Y *198:8 5.085 
2 *198:8 *1635:A_N 7.95 
3 *198:8 *1636:A2 5.235 
*END

*D_NET *199 0.000919208
*CONN
*I *1634:A I *D sky130_fd_sc_hd__nand2_4
*I *1631:X O *D sky130_fd_sc_hd__or2_4
*CAP
1 *1634:A 0.000119711
2 *1631:X 0.000119711
3 *1634:A *1882:A 0.000339893
4 *181:20 *1634:A 0.000339893
*RES
1 *1631:X *1634:A 11.58 
*END

*D_NET *200 0.00153141
*CONN
*I *1636:A1 I *D sky130_fd_sc_hd__o21ai_4
*I *1632:X O *D sky130_fd_sc_hd__and2_4
*CAP
1 *1636:A1 0.000488685
2 *1632:X 0.000488685
3 *1636:A1 *1630:B 6.23541e-06
4 *1636:A1 *1632:B 0.000307547
5 *1636:A1 *437:10 2.68464e-05
6 *1636:A1 *502:12 2.30292e-05
7 *1636:A1 *514:12 0.000137312
8 *1997:A *1636:A1 5.30673e-05
*RES
1 *1632:X *1636:A1 14.655 
*END

*D_NET *201 0.00223946
*CONN
*I *1634:B I *D sky130_fd_sc_hd__nand2_4
*I *1635:B I *D sky130_fd_sc_hd__nand3b_2
*I *1633:Y O *D sky130_fd_sc_hd__nand2_2
*CAP
1 *1634:B 0
2 *1635:B 0.00019614
3 *1633:Y 0.000366109
4 *201:10 0.000562249
5 *1635:B *1882:A 4.21973e-05
6 *1635:B *203:16 3.41811e-06
7 *1635:B *491:8 0.000100323
8 *201:10 *1630:A 0
9 *201:10 *1633:A 0.000124895
10 *201:10 *1633:B 0
11 *201:10 *1844:A 0
12 *201:10 *420:24 0.000338226
13 *1635:A_N *1635:B 6.65066e-05
14 *1635:A_N *201:10 8.08153e-06
15 *1636:A2 *201:10 5.72091e-05
16 *1986:A *1635:B 1.61831e-05
17 *2021:A *1635:B 8.97642e-05
18 *2021:A *201:10 0.000194588
19 *183:25 *201:10 7.35729e-05
*RES
1 *1633:Y *201:10 12.75 
2 *201:10 *1635:B 7.935 
3 *201:10 *1634:B 3.6 
*END

*D_NET *202 0.0048994
*CONN
*I *1642:B1 I *D sky130_fd_sc_hd__o2bb2ai_4
*I *1643:B1 I *D sky130_fd_sc_hd__a32oi_2
*I *1849:A2 I *D sky130_fd_sc_hd__a22oi_2
*I *1641:B1 I *D sky130_fd_sc_hd__o2bb2a_4
*I *1634:Y O *D sky130_fd_sc_hd__nand2_4
*CAP
1 *1642:B1 0.000144989
2 *1643:B1 2.87238e-05
3 *1849:A2 0.000194281
4 *1641:B1 0.000413539
5 *1634:Y 0.000726283
6 *202:45 0.000553506
7 *202:12 0.000954309
8 *1642:B1 *1644:B1 0
9 *1642:B1 *1644:B2 9.24049e-05
10 *1642:B1 *207:8 4.82919e-05
11 *1642:B1 *500:10 0.000308275
12 *1643:B1 *1644:B1 0
13 *1643:B1 *500:10 5.16348e-05
14 *1849:A2 *1642:A2_N 4.82919e-05
15 *1849:A2 *207:8 4.82919e-05
16 *1849:A2 *536:18 0.000207967
17 *202:12 *1848:A 0.00011557
18 *202:12 *1848:B 4.11729e-05
19 *202:12 *1850:A 0
20 *202:12 *536:18 0.00011398
21 *202:45 *1627:A2 0.000118081
22 *202:45 *535:10 0.000132415
23 S[0] *202:12 0.000163199
24 *1629:A2 *1849:A2 8.09021e-06
25 *1629:A2 *202:12 3.60648e-06
26 *1638:A1 *202:12 6.89058e-05
27 *1643:B2 *202:45 4.19342e-05
28 *104:42 *1849:A2 0.000201946
29 *181:20 *202:12 6.97118e-05
*RES
1 *1634:Y *202:12 16.02 
2 *202:12 *1641:B1 4.05 
3 *202:12 *1849:A2 8.94 
4 *1641:B1 *202:45 8.46 
5 *202:45 *1643:B1 4.215 
6 *202:45 *1642:B1 7.725 
*END

*D_NET *203 0.00303444
*CONN
*I *1638:B1 I *D sky130_fd_sc_hd__o2111a_2
*I *1637:A I *D sky130_fd_sc_hd__nand2_2
*I *1635:Y O *D sky130_fd_sc_hd__nand3b_2
*CAP
1 *1638:B1 0
2 *1637:A 0.000102937
3 *1635:Y 0.000660146
4 *203:16 0.000763083
5 *1637:A *1637:B 5.3023e-05
6 *1637:A *1848:B 0.000316813
7 *1637:A *1849:B1 0.000208491
8 *1637:A *536:18 4.82863e-05
9 *203:16 *1848:A 0.000203762
10 *203:16 *1848:B 3.31204e-05
11 *203:16 *536:18 7.40446e-05
12 *1635:B *203:16 3.41811e-06
13 *1638:A2 *1637:A 1.34361e-05
14 *1638:D1 *1637:A 4.66108e-05
15 *1638:D1 *203:16 8.49205e-05
16 *1996:A *203:16 0.000177119
17 *2031:A *203:16 0.000245229
*RES
1 *1635:Y *203:16 16.055 
2 *203:16 *1637:A 9.98 
3 *203:16 *1638:B1 1.6 
*END

*D_NET *204 0.00190447
*CONN
*I *1638:C1 I *D sky130_fd_sc_hd__o2111a_2
*I *1637:B I *D sky130_fd_sc_hd__nand2_2
*I *1636:Y O *D sky130_fd_sc_hd__o21ai_4
*CAP
1 *1638:C1 4.98455e-05
2 *1637:B 0.000206403
3 *1636:Y 0.000327524
4 *204:10 0.000583772
5 *1637:B *1639:A 0.000119521
6 *1637:B *1849:B1 2.60908e-05
7 *1637:B *2043:A 0
8 *1637:B *479:10 0.000164686
9 *204:10 *536:18 0.000152581
10 *1637:A *1637:B 5.3023e-05
11 *2031:A *1638:C1 8.65961e-05
12 *2031:A *204:10 0.000134429
*RES
1 *1636:Y *204:10 6.655 
2 *204:10 *1637:B 10.295 
3 *204:10 *1638:C1 2.395 
*END

*D_NET *205 0.0012071
*CONN
*I *1848:B I *D sky130_fd_sc_hd__xor2_2
*I *1637:Y O *D sky130_fd_sc_hd__nand2_2
*CAP
1 *1848:B 0.000202145
2 *1637:Y 0.000202145
3 *1848:B *1848:A 1.23331e-05
4 S[0] *1848:B 8.53113e-06
5 *1637:A *1848:B 0.000316813
6 *1638:A2 *1848:B 0.000274675
7 *2031:A *1848:B 0.000116165
8 *202:12 *1848:B 4.11729e-05
9 *203:16 *1848:B 3.31204e-05
*RES
1 *1637:Y *1848:B 11.7125 
*END

*D_NET *206 0.0009864
*CONN
*I *1639:A I *D sky130_fd_sc_hd__nand4_4
*I *1638:X O *D sky130_fd_sc_hd__o2111a_2
*CAP
1 *1639:A 0.000317136
2 *1638:X 0.000317136
3 *1639:A *1847:A1 0
4 *1639:A *2043:A 0
5 *1639:A *2112:A 0
6 *1639:A *208:10 8.09021e-06
7 *1639:A *479:10 0
8 *1639:A *536:18 5.30673e-05
9 *1622:B *1639:A 0
10 *1637:B *1639:A 0.000119521
11 *181:35 *1639:A 3.05373e-05
12 *190:8 *1639:A 0.000140912
*RES
1 *1638:X *1639:A 13.71 
*END

*D_NET *207 0.00390059
*CONN
*I *1648:A I *D sky130_fd_sc_hd__nand3_4
*I *2113:A I *D sky130_fd_sc_hd__buf_6
*I *1639:Y O *D sky130_fd_sc_hd__nand4_4
*CAP
1 *1648:A 0.000204309
2 *2113:A 0
3 *1639:Y 0.000855634
4 *207:8 0.00105994
5 *1648:A *1648:B 0.000102125
6 *1648:A *1953:A1 0.000141858
7 *1648:A *2110:A 0.000210151
8 *207:8 *1642:A2_N 0.0001854
9 *207:8 *1644:B2 0.000120655
10 *207:8 *1850:A 0.000456013
11 *1626:A *1648:A 0
12 *1642:A1_N *207:8 0.000169545
13 *1642:B1 *207:8 4.82919e-05
14 *1642:B2 *207:8 0.000203402
15 *1644:A2 *207:8 4.66742e-05
16 *1849:A2 *207:8 4.82919e-05
17 *1849:B2 *207:8 4.82919e-05
*RES
1 *1639:Y *207:8 18.625 
2 *207:8 *2113:A 1.6 
3 *207:8 *1648:A 10.925 
*END

*D_NET *208 0.00348314
*CONN
*I *2088:A I *D sky130_fd_sc_hd__buf_6
*I *1642:A2_N I *D sky130_fd_sc_hd__o2bb2ai_4
*I *1640:Y O *D sky130_fd_sc_hd__o2bb2ai_4
*CAP
1 *2088:A 4.7109e-05
2 *1642:A2_N 0.000114045
3 *1640:Y 0.000813649
4 *208:10 0.000974803
5 *2088:A *1847:A1 0.000136877
6 *208:10 *1622:C 4.99619e-05
7 *208:10 *1844:B 0.000266164
8 *208:10 *1847:A1 0.000183745
9 *208:10 *2043:A 3.24055e-05
10 *1639:A *208:10 8.09021e-06
11 *1640:B1 *208:10 4.80285e-05
12 *1642:A1_N *1642:A2_N 0.000411154
13 *1847:B1_N *2088:A 6.99988e-05
14 *1847:B1_N *208:10 1.71013e-05
15 *1849:A2 *1642:A2_N 4.82919e-05
16 *190:8 *208:10 7.63125e-05
17 *207:8 *1642:A2_N 0.0001854
*RES
1 *1640:Y *208:10 16.545 
2 *208:10 *1642:A2_N 7.515 
3 *208:10 *2088:A 5.235 
*END

*D_NET *209 0.000975278
*CONN
*I *1849:B1 I *D sky130_fd_sc_hd__a22oi_2
*I *1641:X O *D sky130_fd_sc_hd__o2bb2a_4
*CAP
1 *1849:B1 0.000168069
2 *1641:X 0.000168069
3 *1849:B1 *1641:A1_N 2.05056e-05
4 *1849:B1 *1641:A2_N 0
5 *1849:B1 *1847:A1 0.000185411
6 *1849:B1 *479:6 7.00889e-06
7 *1849:B1 *479:10 0.000186099
8 *1637:A *1849:B1 0.000208491
9 *1637:B *1849:B1 2.60908e-05
10 *1849:A1 *1849:B1 5.53249e-06
*RES
1 *1641:X *1849:B1 12.345 
*END

*D_NET *210 0.000515908
*CONN
*I *1644:B2 I *D sky130_fd_sc_hd__a22oi_4
*I *1642:Y O *D sky130_fd_sc_hd__o2bb2ai_4
*CAP
1 *1644:B2 0.000151424
2 *1642:Y 0.000151424
3 *1644:B2 *1644:B1 0
4 *1644:B2 *2073:A 0
5 *1642:B1 *1644:B2 9.24049e-05
6 *207:8 *1644:B2 0.000120655
*RES
1 *1642:Y *1644:B2 10.23 
*END

*D_NET *211 0.000868346
*CONN
*I *1644:B1 I *D sky130_fd_sc_hd__a22oi_4
*I *1643:Y O *D sky130_fd_sc_hd__a32oi_2
*CAP
1 *1644:B1 0.000146909
2 *1643:Y 0.000146909
3 *1644:B1 *1627:A2 0.000278111
4 *1644:B1 *2073:A 0.000162325
5 *1642:B1 *1644:B1 0
6 *1643:A2 *1644:B1 8.8266e-05
7 *1643:B1 *1644:B1 0
8 *1644:B2 *1644:B1 0
9 *103:8 *1644:B1 4.58257e-05
*RES
1 *1643:Y *1644:B1 11.61 
*END

*D_NET *212 0.00322987
*CONN
*I *2115:A I *D sky130_fd_sc_hd__buf_2
*I *1648:B I *D sky130_fd_sc_hd__nand3_4
*I *2081:A I *D sky130_fd_sc_hd__buf_2
*I *1644:Y O *D sky130_fd_sc_hd__a22oi_4
*CAP
1 *2115:A 0.000220878
2 *1648:B 0.000467104
3 *2081:A 2.60329e-05
4 *1644:Y 0.000317396
5 *212:6 0.000589655
6 *1648:B *1645:A 2.75145e-05
7 *1648:B *1646:A2 0.000164686
8 *1648:B *1851:B 4.40899e-05
9 *1648:B *1953:A1 0.000165841
10 *1648:B *214:10 0.000166346
11 *2115:A *1650:A1_N 6.90876e-05
12 *2115:A *1650:A2_N 0
13 *2115:A *216:6 2.30292e-05
14 *2115:A *413:70 0.000460265
15 *212:6 *1644:A1 0.00011577
16 *1647:A1 *1648:B 1.32017e-05
17 *1648:A *1648:B 0.000102125
18 *1648:C *2115:A 0.000122331
19 *173:8 *2115:A 0.000134516
*RES
1 *1644:Y *212:6 6.535 
2 *212:6 *2081:A 2.0875 
3 *212:6 *1648:B 12.965 
4 *1648:B *2115:A 13.44 
*END

*D_NET *213 0.000667498
*CONN
*I *1852:A2 I *D sky130_fd_sc_hd__a21oi_4
*I *1851:B I *D sky130_fd_sc_hd__xor2_2
*I *1645:Y O *D sky130_fd_sc_hd__nand2_8
*CAP
1 *1852:A2 0.00015178
2 *1851:B 0.000253065
3 *1645:Y 0.000101285
4 *1851:B *1645:A 9.07449e-05
5 *1851:B *1953:A1 0
6 *1851:B *2069:A 2.65337e-05
7 *1852:A2 *1852:A1 0
8 *1648:B *1851:B 4.40899e-05
*RES
1 *1645:Y *1851:B 7.9775 
2 *1851:B *1852:A2 7.94 
*END

*D_NET *214 0.00254722
*CONN
*I *1858:A2 I *D sky130_fd_sc_hd__o21a_2
*I *1864:A2 I *D sky130_fd_sc_hd__o211a_2
*I *1859:C I *D sky130_fd_sc_hd__nor3_2
*I *1646:Y O *D sky130_fd_sc_hd__a21oi_4
*CAP
1 *1858:A2 0.000133316
2 *1864:A2 0
3 *1859:C 0.000109878
4 *1646:Y 0.000260709
5 *214:23 0.000306161
6 *214:10 0.000543432
7 *1858:A2 *1858:A1 6.03947e-06
8 *1858:A2 *1858:B1 4.40414e-05
9 *1859:C *1859:B 8.49205e-05
10 *1859:C *2110:A 4.16262e-05
11 *1859:C *413:70 2.05056e-05
12 *214:10 *1646:A1 4.99619e-05
13 *214:10 *1649:B2 0
14 *214:10 *1859:A 3.09164e-05
15 *214:10 *2110:A 0
16 *214:10 *413:70 0
17 *214:23 *1649:B2 0
18 *214:23 *1859:A 0.000108322
19 *214:23 *1864:B1 5.4003e-05
20 *214:23 *462:19 0.000181369
21 *1647:A1 *214:10 0.000272458
22 *1648:B *214:10 0.000166346
23 *141:10 *1859:C 4.82919e-05
24 *142:24 *1858:A2 8.49205e-05
25 *143:16 *214:23 0
*RES
1 *1646:Y *214:10 9.705 
2 *214:10 *1859:C 5.775 
3 *214:10 *214:23 5.93 
4 *214:23 *1864:A2 1.6 
5 *214:23 *1858:A2 4.045 
*END

*D_NET *215 0.000876845
*CONN
*I *1649:B1 I *D sky130_fd_sc_hd__a22oi_4
*I *1650:A2_N I *D sky130_fd_sc_hd__o2bb2ai_4
*I *1647:Y O *D sky130_fd_sc_hd__o21ai_4
*CAP
1 *1649:B1 9.32805e-05
2 *1650:A2_N 0.000135884
3 *1647:Y 0
4 *215:6 0.000229165
5 *1649:B1 *430:14 4.82919e-05
6 *1650:A2_N *1649:B2 5.11148e-06
7 *1648:C *1650:A2_N 0.000132842
8 *2083:A *1649:B1 4.82919e-05
9 *2115:A *1650:A2_N 0
10 *143:16 *1649:B1 0.000152127
11 *143:16 *1650:A2_N 3.18519e-05
12 *173:8 *1649:B1 0
13 *173:8 *1650:A2_N 0
*RES
1 *1647:Y *215:6 3.6 
2 *215:6 *1650:A2_N 6 
3 *215:6 *1649:B1 5.94 
*END

*D_NET *216 0.00117417
*CONN
*I *1650:A1_N I *D sky130_fd_sc_hd__o2bb2ai_4
*I *1649:B2 I *D sky130_fd_sc_hd__a22oi_4
*I *1648:Y O *D sky130_fd_sc_hd__nand3_4
*CAP
1 *1650:A1_N 9.68471e-05
2 *1649:B2 0.000234521
3 *1648:Y 3.54409e-05
4 *216:6 0.000366809
5 *1647:A1 *1649:B2 0
6 *1648:C *1649:B2 7.09999e-05
7 *1648:C *1650:A1_N 8.65961e-05
8 *1648:C *216:6 4.82863e-05
9 *1650:A2_N *1649:B2 5.11148e-06
10 *2115:A *1650:A1_N 6.90876e-05
11 *2115:A *216:6 2.30292e-05
12 *143:16 *1649:B2 0.000137446
13 *214:10 *1649:B2 0
14 *214:23 *1649:B2 0
*RES
1 *1648:Y *216:6 2.395 
2 *216:6 *1649:B2 10.04 
3 *216:6 *1650:A1_N 3.79 
*END

*D_NET *217 0.00835598
*CONN
*I *2079:A I *D sky130_fd_sc_hd__buf_2
*I *1684:B1 I *D sky130_fd_sc_hd__o22ai_4
*I *1869:B I *D sky130_fd_sc_hd__or2_4
*I *1649:Y O *D sky130_fd_sc_hd__a22oi_4
*CAP
1 *2079:A 0
2 *1684:B1 0.000633404
3 *1869:B 0
4 *1649:Y 0.001654
5 *217:20 0.000967371
6 *217:16 0.00198797
7 *1684:B1 *1678:B 0
8 *1684:B1 *1684:A1 7.60965e-05
9 *1684:B1 *1684:A2 0.000116158
10 *1684:B1 *1875:A1 7.63125e-05
11 *1684:B1 *222:10 0
12 *1684:B1 *226:30 0
13 *1684:B1 *248:12 0.000152824
14 *1684:B1 *248:22 0.000131763
15 *1684:B1 *409:10 0
16 *1684:B1 *542:12 4.16262e-05
17 *217:16 *1663:A1 0.000248254
18 *217:16 *1880:A 7.06865e-05
19 *217:16 *1889:B 7.24866e-05
20 *217:16 *1890:B 0
21 *217:16 *1899:B1 0
22 *217:16 *1902:A1 0.000562369
23 *217:16 *2046:A 4.82863e-05
24 *217:16 *218:12 0
25 *217:16 *232:10 0.000139245
26 *217:16 *427:8 0.00024756
27 *217:16 *430:14 6.5058e-05
28 *217:16 *503:48 0
29 *217:16 *564:14 0.000163204
30 *217:20 *1678:B 0
31 *217:20 *1871:A2 6.55328e-05
32 *217:20 *1872:B 0
33 *217:20 *222:10 0
34 *217:20 *232:10 0
35 *1900:B1 *217:16 0.000191166
36 *1903:B *217:16 0.000158754
37 *1905:C1 *217:16 0
38 *2083:A *217:16 0.000200156
39 *2090:A *217:16 1.52862e-05
40 *102:10 *217:16 0.000270409
*RES
1 *1649:Y *217:16 37.79 
2 *217:16 *217:20 7.715 
3 *217:20 *1869:B 3.6 
4 *217:20 *1684:B1 16.335 
5 *217:16 *2079:A 1.6 
*END

*D_NET *218 0.00562527
*CONN
*I *1683:B2 I *D sky130_fd_sc_hd__a22oi_4
*I *2084:A I *D sky130_fd_sc_hd__buf_4
*I *1650:Y O *D sky130_fd_sc_hd__o2bb2ai_4
*CAP
1 *1683:B2 0.000668105
2 *2084:A 5.66458e-05
3 *1650:Y 0.00117823
4 *218:12 0.00190298
5 *1683:B2 *1676:A 7.25036e-05
6 *1683:B2 *1677:C 0
7 *1683:B2 *1683:A1 4.82919e-05
8 *1683:B2 *244:21 0
9 *1683:B2 *435:22 0
10 *1683:B2 *460:23 0
11 *218:12 *1867:A1 5.84902e-05
12 *218:12 *1867:A3 6.02447e-05
13 *218:12 *1868:B 0.000140912
14 *218:12 *1870:B 8.08439e-05
15 *218:12 *1902:A2 0
16 *218:12 *232:10 0
17 *218:12 *430:14 0.000438807
18 *218:12 *435:22 0
19 *218:12 *460:23 0
20 *1649:A2 *218:12 0
21 *1650:B2 *218:12 7.55313e-05
22 *1867:A2 *218:12 0.000139843
23 *1904:A1 *218:12 9.16315e-05
24 *1904:A2 *218:12 0.0001032
25 *1917:A2 *218:12 0.000117832
26 *1950:A1 *218:12 9.68709e-05
27 *1950:B1 *218:12 0
28 *1951:A1 *218:12 5.53249e-06
29 *119:10 *218:12 0.000288769
30 *125:10 *218:12 0
31 *139:18 *218:12 0
32 *173:8 *218:12 0
33 *217:16 *218:12 0
*RES
1 *1650:Y *218:12 31.035 
2 *218:12 *2084:A 4.395 
3 *218:12 *1683:B2 14.43 
*END

*D_NET *219 0.00239281
*CONN
*I *1656:A1 I *D sky130_fd_sc_hd__o21bai_2
*I *1651:X O *D sky130_fd_sc_hd__and2_4
*CAP
1 *1656:A1 0.000841656
2 *1651:X 0.000841656
3 *1656:A1 *1651:A 0.000160635
4 *1656:A1 *1652:A 0.000196376
5 *1656:A1 *1656:A2 3.01435e-05
6 *1656:A1 *1656:B1_N 0.000122331
7 *1656:A1 *1658:B 4.36241e-05
8 *1656:A1 *433:14 0.00015639
*RES
1 *1651:X *1656:A1 13.94 
*END

*D_NET *220 0.00183719
*CONN
*I *1655:A1 I *D sky130_fd_sc_hd__a21oi_2
*I *1657:C I *D sky130_fd_sc_hd__nand3_4
*I *1652:Y O *D sky130_fd_sc_hd__nand2_2
*CAP
1 *1655:A1 0.000287308
2 *1657:C 0
3 *1652:Y 0.000113967
4 *220:8 0.000401275
5 *1655:A1 *1655:B1 4.82863e-05
6 *1655:A1 *2049:A 0.000475258
7 *1655:A1 *520:10 0.000291
8 *220:8 *1651:B 0
9 *220:8 *1652:B 5.19573e-05
10 *220:8 *1656:B1_N 0.000138277
11 *220:8 *457:21 0
12 *220:8 *520:10 9.50342e-06
13 S[15] *1655:A1 0
14 S[15] *220:8 0
15 *2015:A *1655:A1 1.73877e-05
16 *2015:A *220:8 2.96556e-06
*RES
1 *1652:Y *220:8 6 
2 *220:8 *1657:C 3.6 
3 *220:8 *1655:A1 11.49 
*END

*D_NET *221 0.000393278
*CONN
*I *1656:A2 I *D sky130_fd_sc_hd__o21bai_2
*I *1653:Y O *D sky130_fd_sc_hd__nor2_2
*CAP
1 *1656:A2 0.000167488
2 *1653:Y 0.000167488
3 *1656:A2 *1652:B 0
4 *1656:A1 *1656:A2 3.01435e-05
5 *2001:A *1656:A2 2.81572e-05
*RES
1 *1653:Y *1656:A2 9.99 
*END

*D_NET *222 0.00161022
*CONN
*I *1655:A2 I *D sky130_fd_sc_hd__a21oi_2
*I *1657:A I *D sky130_fd_sc_hd__nand3_4
*I *1654:X O *D sky130_fd_sc_hd__or2_4
*CAP
1 *1655:A2 8.02422e-05
2 *1657:A 0.000174489
3 *1654:X 0.000255027
4 *222:10 0.000509759
5 *1655:A2 *225:17 0
6 *1655:A2 *409:10 8.87475e-05
7 *1657:A *226:14 0.000122325
8 *1657:A *226:24 0.000201508
9 *222:10 *1658:A 0
10 *222:10 *1871:B1 5.30673e-05
11 *222:10 *1872:A 0.000119521
12 *222:10 *225:17 0
13 *222:10 *409:10 5.53249e-06
14 *1684:B1 *222:10 0
15 *217:20 *222:10 0
*RES
1 *1654:X *222:10 8.58 
2 *222:10 *1657:A 7.17 
3 *222:10 *1655:A2 5.49 
*END

*D_NET *223 0.00144811
*CONN
*I *1679:B1 I *D sky130_fd_sc_hd__a21oi_2
*I *1873:B1 I *D sky130_fd_sc_hd__a31oi_4
*I *1655:Y O *D sky130_fd_sc_hd__a21oi_2
*CAP
1 *1679:B1 0.000110135
2 *1873:B1 0.000205491
3 *1655:Y 0.00010608
4 *223:10 0.000421706
5 *1679:B1 *1679:A1 0.000160658
6 *1679:B1 *1680:A1 1.83756e-05
7 *1873:B1 *1873:A1 0.000154098
8 *1873:B1 *238:16 8.40269e-05
9 *223:10 *1679:A1 2.14129e-05
10 *223:10 *2049:A 4.99619e-05
11 *223:10 *225:17 0.000116165
12 *223:10 *409:10 0
*RES
1 *1655:Y *223:10 5.685 
2 *223:10 *1873:B1 7.5 
3 *223:10 *1679:B1 5.94 
*END

*D_NET *224 0.000484619
*CONN
*I *1658:B I *D sky130_fd_sc_hd__nand2_4
*I *1656:Y O *D sky130_fd_sc_hd__o21bai_2
*CAP
1 *1658:B 0.000157073
2 *1656:Y 0.000157073
3 *1658:B *1651:B 0
4 *1658:B *1652:A 5.84828e-05
5 *1658:B *1656:B1_N 6.83659e-05
6 *1656:A1 *1658:B 4.36241e-05
*RES
1 *1656:Y *1658:B 6.425 
*END

*D_NET *225 0.00162127
*CONN
*I *1679:A1 I *D sky130_fd_sc_hd__a21oi_2
*I *1873:A3 I *D sky130_fd_sc_hd__a31oi_4
*I *1658:A I *D sky130_fd_sc_hd__nand2_4
*I *1657:Y O *D sky130_fd_sc_hd__nand3_4
*CAP
1 *1679:A1 0.000114332
2 *1873:A3 0
3 *1658:A 6.79421e-05
4 *1657:Y 0
5 *225:17 0.00031416
6 *225:6 0.00026777
7 *1658:A *1872:A 0
8 *1658:A *226:14 0.000138544
9 *1658:A *433:29 2.92496e-05
10 *1679:A1 *1874:A 4.82919e-05
11 *1679:A1 *238:16 0.000163019
12 *1679:A1 *433:12 1.65105e-05
13 *225:17 *226:14 3.09164e-05
14 *225:17 *409:10 0
15 *225:17 *433:12 0.000132301
16 *1655:A2 *225:17 0
17 *1679:B1 *1679:A1 0.000160658
18 *222:10 *1658:A 0
19 *222:10 *225:17 0
20 *223:10 *1679:A1 2.14129e-05
21 *223:10 *225:17 0.000116165
*RES
1 *1657:Y *225:6 3.6 
2 *225:6 *1658:A 5.235 
3 *225:6 *225:17 4.44 
4 *225:17 *1873:A3 3.6 
5 *225:17 *1679:A1 6.795 
*END

*D_NET *226 0.00311291
*CONN
*I *2109:A I *D sky130_fd_sc_hd__buf_2
*I *1677:A I *D sky130_fd_sc_hd__nor4_2
*I *2108:A I *D sky130_fd_sc_hd__buf_2
*I *1678:D I *D sky130_fd_sc_hd__or4_4
*I *1658:Y O *D sky130_fd_sc_hd__nand2_4
*CAP
1 *2109:A 0
2 *1677:A 0
3 *2108:A 0
4 *1678:D 3.37516e-05
5 *1658:Y 0.000120248
6 *226:30 0.000285305
7 *226:24 0.00060079
8 *226:14 0.000469485
9 *1678:D *1678:B 5.83121e-06
10 *226:14 *1651:B 4.99619e-05
11 *226:14 *433:12 7.44375e-05
12 *226:14 *433:14 4.82919e-05
13 *226:14 *457:21 7.21296e-06
14 *226:24 *1869:A 0.000236107
15 *226:30 *1678:A 1.07797e-05
16 *226:30 *1678:B 0.000515099
17 *226:30 *248:22 0.000162318
18 *1657:A *226:14 0.000122325
19 *1657:A *226:24 0.000201508
20 *1658:A *226:14 0.000138544
21 *1684:B1 *226:30 0
22 *225:17 *226:14 3.09164e-05
*RES
1 *1658:Y *226:14 9.08 
2 *226:14 *226:24 6.9 
3 *226:24 *226:30 10.48 
4 *226:30 *1678:D 2.05 
5 *226:30 *2108:A 1.6 
6 *226:24 *1677:A 1.6 
7 *226:14 *2109:A 1.6 
*END

*D_NET *227 0.00273983
*CONN
*I *1663:A1 I *D sky130_fd_sc_hd__o21bai_4
*I *1659:X O *D sky130_fd_sc_hd__and2_4
*CAP
1 *1663:A1 0.000692066
2 *1659:X 0.000692066
3 *1663:A1 *1664:A 1.47347e-05
4 *1663:A1 *1664:B 0.000379712
5 *1663:A1 *425:10 4.82919e-05
6 *1663:A1 *425:57 2.59926e-05
7 *1663:A1 *503:48 0.000388784
8 *1903:B *1663:A1 0.000249928
9 *217:16 *1663:A1 0.000248254
*RES
1 *1659:X *1663:A1 18.87 
*END

*D_NET *228 0.000637033
*CONN
*I *1662:C I *D sky130_fd_sc_hd__nand3b_4
*I *1660:Y O *D sky130_fd_sc_hd__nand2_2
*CAP
1 *1662:C 0.000154899
2 *1660:Y 0.000154899
3 *1662:C *1663:B1_N 0
4 *1662:C *509:10 0
5 *2004:A *1662:C 7.21296e-06
6 *2006:A *1662:C 0.000320023
*RES
1 *1660:Y *1662:C 10.665 
*END

*D_NET *229 0.00104894
*CONN
*I *1663:A2 I *D sky130_fd_sc_hd__o21bai_4
*I *1662:A_N I *D sky130_fd_sc_hd__nand3b_4
*I *1661:Y O *D sky130_fd_sc_hd__nor2_4
*CAP
1 *1663:A2 6.16083e-05
2 *1662:A_N 0.000120065
3 *1661:Y 6.47972e-05
4 *229:8 0.000246471
5 *1663:A2 *1663:B1_N 8.31299e-05
6 *1663:A2 *505:12 0
7 *229:8 *1663:B1_N 6.71803e-06
8 *229:8 *509:10 0.000105068
9 *2006:A *1662:A_N 0.000198945
10 *2035:A *1662:A_N 1.93834e-05
11 *2035:A *1663:A2 4.58785e-05
12 *2035:A *229:8 9.68787e-05
*RES
1 *1661:Y *229:8 5.8725 
2 *229:8 *1662:A_N 6.1125 
3 *229:8 *1663:A2 5.3625 
*END

*D_NET *230 0.00160917
*CONN
*I *2094:A I *D sky130_fd_sc_hd__buf_2
*I *1664:B I *D sky130_fd_sc_hd__nand2_4
*I *1662:Y O *D sky130_fd_sc_hd__nand3b_4
*CAP
1 *2094:A 0
2 *1664:B 0.000129191
3 *1662:Y 0.000175962
4 *230:12 0.000305153
5 *1664:B *1664:A 8.88715e-05
6 *1664:B *1896:A_N 0
7 *1664:B *425:57 5.05437e-05
8 *230:12 *505:12 0.000111316
9 *230:12 *564:14 0.000207783
10 *1663:A1 *1664:B 0.000379712
11 *2006:A *230:12 0.000160641
*RES
1 *1662:Y *230:12 9.485 
2 *230:12 *1664:B 5.53 
3 *230:12 *2094:A 1.6 
*END

*D_NET *231 0.00066363
*CONN
*I *1664:A I *D sky130_fd_sc_hd__nand2_4
*I *1663:Y O *D sky130_fd_sc_hd__o21bai_4
*CAP
1 *1664:A 0.000222796
2 *1663:Y 0.000222796
3 *1664:A *457:10 0.000114433
4 *1663:A1 *1664:A 1.47347e-05
5 *1664:B *1664:A 8.88715e-05
*RES
1 *1663:Y *1664:A 7.46 
*END

*D_NET *232 0.0035225
*CONN
*I *1678:B I *D sky130_fd_sc_hd__or4_4
*I *2096:A I *D sky130_fd_sc_hd__buf_2
*I *1664:Y O *D sky130_fd_sc_hd__nand2_4
*CAP
1 *1678:B 0.000376452
2 *2096:A 2.32169e-05
3 *1664:Y 0.000409435
4 *232:10 0.000809104
5 *1678:B *1678:A 0.000401737
6 *1678:B *1678:C 1.82559e-05
7 *1678:B *244:21 0.000229904
8 *1678:B *460:23 0.000135641
9 *2096:A *460:8 2.75229e-05
10 *232:10 *1870:A 4.70256e-05
11 *232:10 *1897:B 0.000315527
12 *232:10 *425:57 4.60584e-05
13 *232:10 *460:23 2.24423e-05
14 *1678:D *1678:B 5.83121e-06
15 *1684:B1 *1678:B 0
16 *217:16 *232:10 0.000139245
17 *217:20 *1678:B 0
18 *217:20 *232:10 0
19 *218:12 *232:10 0
20 *226:30 *1678:B 0.000515099
*RES
1 *1664:Y *232:10 10.575 
2 *232:10 *2096:A 4.05 
3 *232:10 *1678:B 14.79 
*END

*D_NET *233 0.00123725
*CONN
*I *1669:A1 I *D sky130_fd_sc_hd__o21bai_2
*I *1665:X O *D sky130_fd_sc_hd__and2_4
*CAP
1 *1669:A1 0.000456778
2 *1665:X 0.000456778
3 *1669:A1 *1665:A 0
4 *1669:A1 *1666:B 2.68721e-05
5 *1669:A1 *1668:A_N 9.50342e-06
6 *1669:A1 *1839:B 4.80285e-05
7 *1669:A1 *1968:A 0
8 *1669:A1 *235:8 0.000156842
9 *1669:A1 *390:12 4.13171e-05
10 *1669:A1 *493:16 4.11293e-05
*RES
1 *1665:X *1669:A1 14.67 
*END

*D_NET *234 0.000625398
*CONN
*I *1668:C I *D sky130_fd_sc_hd__nand3b_2
*I *1666:Y O *D sky130_fd_sc_hd__nand2_2
*CAP
1 *1668:C 0.000199183
2 *1666:Y 0.000199183
3 *1668:C *1666:A 4.82863e-05
4 *1668:C *1666:B 0.000178745
5 *1668:C *1668:B 0
*RES
1 *1666:Y *1668:C 10.32 
*END

*D_NET *235 0.000854709
*CONN
*I *1669:A2 I *D sky130_fd_sc_hd__o21bai_2
*I *1668:A_N I *D sky130_fd_sc_hd__nand3b_2
*I *1667:Y O *D sky130_fd_sc_hd__nor2_2
*CAP
1 *1669:A2 0
2 *1668:A_N 8.48001e-05
3 *1667:Y 3.33165e-05
4 *235:8 0.000118117
5 *1668:A_N *1666:A 3.09164e-05
6 *1668:A_N *1666:B 0.00015997
7 *1668:A_N *1968:A 0
8 *1668:A_N *237:10 0
9 *1668:A_N *432:23 4.66108e-05
10 *1668:A_N *433:12 4.82863e-05
11 *235:8 *1666:B 0.000166346
12 *1669:A1 *1668:A_N 9.50342e-06
13 *1669:A1 *235:8 0.000156842
*RES
1 *1667:Y *235:8 5.49 
2 *235:8 *1668:A_N 5.94 
3 *235:8 *1669:A2 3.6 
*END

*D_NET *236 0.00154766
*CONN
*I *1680:B1_N I *D sky130_fd_sc_hd__a21boi_2
*I *1670:A I *D sky130_fd_sc_hd__nand2_2
*I *1668:Y O *D sky130_fd_sc_hd__nand3b_2
*CAP
1 *1680:B1_N 8.08635e-05
2 *1670:A 0.000102397
3 *1668:Y 0.00023166
4 *236:6 0.00041492
5 *1670:A *1680:A1 0.000164679
6 *1680:B1_N *248:12 0.00012657
7 *1680:B1_N *542:12 9.92913e-05
8 *236:6 *1680:A2 0.000124895
9 *236:6 *433:12 0.0001947
10 *236:6 *542:12 7.68414e-06
*RES
1 *1668:Y *236:6 5.5 
2 *236:6 *1670:A 7.94 
3 *236:6 *1680:B1_N 4.135 
*END

*D_NET *237 0.00158241
*CONN
*I *1680:A2 I *D sky130_fd_sc_hd__a21boi_2
*I *1670:B I *D sky130_fd_sc_hd__nand2_2
*I *1669:Y O *D sky130_fd_sc_hd__o21bai_2
*CAP
1 *1680:A2 3.40295e-05
2 *1670:B 0.000192878
3 *1669:Y 0.000311297
4 *237:10 0.000538204
5 *1670:B *1666:A 0
6 *1670:B *1680:A1 2.39642e-05
7 *1670:B *238:10 0.000152474
8 *1670:B *433:12 6.63617e-05
9 *1680:A2 *1968:A 4.99619e-05
10 *1680:A2 *542:12 4.9253e-06
11 *237:10 *1666:A 0
12 *237:10 *1680:A1 0
13 *237:10 *1968:A 7.89767e-05
14 *237:10 *433:12 4.43871e-06
15 *1668:A_N *237:10 0
16 *236:6 *1680:A2 0.000124895
*RES
1 *1669:Y *237:10 8.355 
2 *237:10 *1670:B 7.65 
3 *237:10 *1680:A2 4.74 
*END

*D_NET *238 0.00488139
*CONN
*I *1874:A I *D sky130_fd_sc_hd__xnor2_2
*I *1678:C I *D sky130_fd_sc_hd__or4_4
*I *1677:C I *D sky130_fd_sc_hd__nor4_2
*I *1875:A2 I *D sky130_fd_sc_hd__o31ai_4
*I *1670:Y O *D sky130_fd_sc_hd__nand2_2
*CAP
1 *1874:A 0.000437966
2 *1678:C 5.34895e-05
3 *1677:C 0.000237232
4 *1875:A2 2.56275e-05
5 *1670:Y 0.000184855
6 *238:29 0.000462045
7 *238:16 0.000619765
8 *238:10 0.00104563
9 *1677:C *1676:A 0
10 *1677:C *1677:D 5.4155e-06
11 *1677:C *1678:A 0.000221373
12 *1677:C *1869:A 3.02252e-05
13 *1677:C *1876:B 0.000141606
14 *1677:C *241:8 0
15 *1677:C *244:21 0.000177745
16 *1677:C *460:23 2.0514e-05
17 *1678:C *1678:A 7.06865e-05
18 *1678:C *241:8 0
19 *1874:A *1874:B 8.65961e-05
20 *1875:A2 *1875:A3 9.53428e-06
21 *1875:A2 *248:22 3.26889e-05
22 *238:10 *1680:A1 0
23 *238:10 *433:12 0.000103974
24 *238:16 *1873:A1 0.000125284
25 *238:16 *1875:A3 0.000127476
26 *238:16 *433:12 0.000101317
27 *238:29 *1875:A3 9.27255e-06
28 *238:29 *248:22 8.5002e-05
29 *1670:B *238:10 0.000152474
30 *1678:B *1678:C 1.82559e-05
31 *1679:A1 *1874:A 4.82919e-05
32 *1679:A1 *238:16 0.000163019
33 *1683:B2 *1677:C 0
34 *1873:B1 *238:16 8.40269e-05
*RES
1 *1670:Y *238:10 7.23 
2 *238:10 *238:16 10.46 
3 *238:16 *1875:A2 2.215 
4 *238:16 *238:29 4.19 
5 *238:29 *1677:C 9.45 
6 *238:29 *1678:C 4.64625 
7 *238:10 *1874:A 9.93 
*END

*D_NET *239 0.00140797
*CONN
*I *1674:A1 I *D sky130_fd_sc_hd__a21oi_2
*I *1673:C I *D sky130_fd_sc_hd__nand3_4
*I *1675:A1 I *D sky130_fd_sc_hd__a21o_2
*I *1671:Y O *D sky130_fd_sc_hd__nand2_2
*CAP
1 *1674:A1 0
2 *1673:C 8.88345e-05
3 *1675:A1 4.7336e-05
4 *1671:Y 6.24057e-05
5 *239:21 0.000161746
6 *239:10 0.000182653
7 *1673:C *1672:A 2.66445e-05
8 *1673:C *1673:B 0.000207797
9 *1673:C *241:8 3.25831e-05
10 *1673:C *435:22 0
11 *1675:A1 *1675:B1 4.66108e-05
12 *1675:A1 *240:15 7.60965e-05
13 *239:10 *1675:B1 2.92496e-05
14 *239:10 *435:22 6.28765e-05
15 *239:21 *1673:A 4.80285e-05
16 *239:21 *1675:B1 0.000234685
17 *239:21 *240:15 8.18542e-05
18 *239:21 *542:27 1.85674e-05
*RES
1 *1671:Y *239:10 6.98 
2 *239:10 *1675:A1 2.74 
3 *239:10 *239:21 2.535 
4 *239:21 *1673:C 8 
5 *239:21 *1674:A1 1.6 
*END

*D_NET *240 0.00152209
*CONN
*I *1673:A I *D sky130_fd_sc_hd__nand3_4
*I *1674:A2 I *D sky130_fd_sc_hd__a21oi_2
*I *1675:A2 I *D sky130_fd_sc_hd__a21o_2
*I *1672:X O *D sky130_fd_sc_hd__or2_4
*CAP
1 *1673:A 0.000204862
2 *1674:A2 0
3 *1675:A2 2.08101e-05
4 *1672:X 1.72301e-05
5 *240:15 0.0002826
6 *240:6 0.000115778
7 *1673:A *1673:B 0.000232015
8 *1673:A *1675:B1 8.34281e-06
9 *1673:A *1684:B2 0
10 *1673:A *252:12 0.000120624
11 *1675:A2 *1672:A 0
12 *240:6 *1672:A 4.99619e-05
13 *240:15 *1672:A 0.000263884
14 *1675:A1 *240:15 7.60965e-05
15 *239:21 *1673:A 4.80285e-05
16 *239:21 *240:15 8.18542e-05
*RES
1 *1672:X *240:6 2.05 
2 *240:6 *1675:A2 1.96 
3 *240:6 *240:15 2.865 
4 *240:15 *1674:A2 1.6 
5 *240:15 *1673:A 10.37 
*END

*D_NET *241 0.00144264
*CONN
*I *1681:A I *D sky130_fd_sc_hd__and2_2
*I *1682:A I *D sky130_fd_sc_hd__nand2_2
*I *1676:A I *D sky130_fd_sc_hd__nand2_4
*I *1673:Y O *D sky130_fd_sc_hd__nand3_4
*CAP
1 *1681:A 2.9853e-05
2 *1682:A 0
3 *1676:A 0.000134207
4 *1673:Y 0.000205026
5 *241:8 0.00030938
6 *1676:A *1683:A2 0.000141599
7 *1676:A *1683:B1 4.82919e-05
8 *1676:A *244:8 4.99619e-05
9 *1676:A *435:22 0.000204603
10 *241:8 *1684:B2 0
11 *241:8 *435:22 0.000214629
12 *1673:C *241:8 3.25831e-05
13 *1677:C *1676:A 0
14 *1677:C *241:8 0
15 *1678:C *241:8 0
16 *1683:B2 *1676:A 7.25036e-05
*RES
1 *1673:Y *241:8 8.04 
2 *241:8 *1676:A 8.235 
3 *241:8 *1682:A 3.6 
4 *1673:Y *1681:A 3.65 
*END

*D_NET *242 0.000764788
*CONN
*I *1684:A1 I *D sky130_fd_sc_hd__o22ai_4
*I *1674:Y O *D sky130_fd_sc_hd__a21oi_2
*CAP
1 *1684:A1 0.000122015
2 *1674:Y 0.000122015
3 *1684:A1 *1674:B1 4.99619e-05
4 *1684:A1 *542:12 0.000394699
5 *1684:B1 *1684:A1 7.60965e-05
*RES
1 *1674:Y *1684:A1 7.115 
*END

*D_NET *243 0.00158615
*CONN
*I *1683:A1 I *D sky130_fd_sc_hd__a22oi_4
*I *1676:B I *D sky130_fd_sc_hd__nand2_4
*I *1675:X O *D sky130_fd_sc_hd__a21o_2
*CAP
1 *1683:A1 2.2266e-05
2 *1676:B 6.58681e-05
3 *1675:X 0.000315165
4 *243:8 0.000403299
5 *1676:B *1683:B1 0.000185411
6 *1676:B *435:22 0.000113972
7 *243:8 *435:22 0.000431876
8 *1683:B2 *1683:A1 4.82919e-05
*RES
1 *1675:X *243:8 11.1 
2 *243:8 *1676:B 6 
3 *243:8 *1683:A1 4.05 
*END

*D_NET *244 0.00248545
*CONN
*I *1678:A I *D sky130_fd_sc_hd__or4_4
*I *1876:A I *D sky130_fd_sc_hd__xnor2_2
*I *1677:D I *D sky130_fd_sc_hd__nor4_2
*I *1676:Y O *D sky130_fd_sc_hd__nand2_4
*CAP
1 *1678:A 0.00015849
2 *1876:A 3.76639e-05
3 *1677:D 8.47581e-06
4 *1676:Y 0.000170331
5 *244:21 0.00039152
6 *244:8 0.000374173
7 *1678:A *1684:B2 4.9253e-06
8 *244:8 *1683:B1 8.82557e-05
9 *244:21 *1869:A 2.05056e-05
10 *244:21 *460:23 6.35104e-05
11 *1676:A *244:8 4.99619e-05
12 *1677:C *1677:D 5.4155e-06
13 *1677:C *1678:A 0.000221373
14 *1677:C *244:21 0.000177745
15 *1678:B *1678:A 0.000401737
16 *1678:B *244:21 0.000229904
17 *1678:C *1678:A 7.06865e-05
18 *1683:B2 *244:21 0
19 *226:30 *1678:A 1.07797e-05
*RES
1 *1676:Y *244:8 4.48 
2 *244:8 *1677:D 1.96 
3 *244:8 *244:21 6.485 
4 *244:21 *1876:A 4.05 
5 *244:21 *1678:A 8.67 
*END

*D_NET *245 0.000891009
*CONN
*I *1683:B1 I *D sky130_fd_sc_hd__a22oi_4
*I *1677:Y O *D sky130_fd_sc_hd__nor4_2
*CAP
1 *1683:B1 0.000284525
2 *1677:Y 0.000284525
3 *1683:B1 *251:12 0
4 *1676:A *1683:B1 4.82919e-05
5 *1676:B *1683:B1 0.000185411
6 *244:8 *1683:B1 8.82557e-05
*RES
1 *1677:Y *1683:B1 12.555 
*END

*D_NET *246 0.000688996
*CONN
*I *1684:B2 I *D sky130_fd_sc_hd__o22ai_4
*I *1678:X O *D sky130_fd_sc_hd__or4_4
*CAP
1 *1684:B2 0.000309265
2 *1678:X 0.000309265
3 *1684:B2 *1684:A2 0
4 *1684:B2 *248:12 0
5 *1684:B2 *248:22 0
6 *1684:B2 *252:12 6.55406e-05
7 *1673:A *1684:B2 0
8 *1678:A *1684:B2 4.9253e-06
9 *241:8 *1684:B2 0
*RES
1 *1678:X *1684:B2 12.015 
*END

*D_NET *247 0.000790034
*CONN
*I *1680:A1 I *D sky130_fd_sc_hd__a21boi_2
*I *1679:Y O *D sky130_fd_sc_hd__a21oi_2
*CAP
1 *1680:A1 0.000288741
2 *1679:Y 0.000288741
3 *1680:A1 *1968:A 5.53249e-06
4 *1670:A *1680:A1 0.000164679
5 *1670:B *1680:A1 2.39642e-05
6 *1679:B1 *1680:A1 1.83756e-05
7 *237:10 *1680:A1 0
8 *238:10 *1680:A1 0
*RES
1 *1679:Y *1680:A1 11.67 
*END

*D_NET *248 0.00232962
*CONN
*I *1681:B I *D sky130_fd_sc_hd__and2_2
*I *1875:B1 I *D sky130_fd_sc_hd__o31ai_4
*I *1682:B I *D sky130_fd_sc_hd__nand2_2
*I *1680:Y O *D sky130_fd_sc_hd__a21boi_2
*CAP
1 *1681:B 0
2 *1875:B1 0
3 *1682:B 0.000118738
4 *1680:Y 0.000326494
5 *248:22 0.000431793
6 *248:12 0.00063955
7 *248:12 *1684:A2 4.05358e-05
8 *248:12 *542:12 7.43306e-05
9 *248:22 *1875:A3 7.00889e-06
10 *1680:B1_N *248:12 0.00012657
11 *1684:B1 *248:12 0.000152824
12 *1684:B1 *248:22 0.000131763
13 *1684:B2 *248:12 0
14 *1684:B2 *248:22 0
15 *1875:A2 *248:22 3.26889e-05
16 *226:30 *248:22 0.000162318
17 *238:29 *248:22 8.5002e-05
*RES
1 *1680:Y *248:12 9.84 
2 *248:12 *248:22 8.57 
3 *248:22 *1682:B 3.43 
4 *248:22 *1875:B1 1.6 
5 *248:12 *1681:B 3.6 
*END

*D_NET *249 0.000295677
*CONN
*I *1684:A2 I *D sky130_fd_sc_hd__o22ai_4
*I *1681:X O *D sky130_fd_sc_hd__and2_2
*CAP
1 *1684:A2 6.94913e-05
2 *1681:X 6.94913e-05
3 *1684:B1 *1684:A2 0.000116158
4 *1684:B2 *1684:A2 0
5 *248:12 *1684:A2 4.05358e-05
*RES
1 *1681:X *1684:A2 8.835 
*END

*D_NET *250 0.000411489
*CONN
*I *1683:A2 I *D sky130_fd_sc_hd__a22oi_4
*I *1682:Y O *D sky130_fd_sc_hd__nand2_2
*CAP
1 *1683:A2 0.000134945
2 *1682:Y 0.000134945
3 *1683:A2 *1876:B 0
4 *1676:A *1683:A2 0.000141599
*RES
1 *1682:Y *1683:A2 9.63 
*END

*D_NET *251 0.00602349
*CONN
*I *1709:B2 I *D sky130_fd_sc_hd__o2bb2a_2
*I *1699:A2 I *D sky130_fd_sc_hd__o21ai_2
*I *1724:A1 I *D sky130_fd_sc_hd__o21bai_4
*I *1813:A1 I *D sky130_fd_sc_hd__o21bai_4
*I *1683:Y O *D sky130_fd_sc_hd__a22oi_4
*CAP
1 *1709:B2 0
2 *1699:A2 0.000132626
3 *1724:A1 0
4 *1813:A1 0.000293161
5 *1683:Y 0.000600718
6 *251:16 0.000706998
7 *251:14 0.000576841
8 *251:12 0.000631096
9 *1699:A2 *1699:A1 0.00011852
10 *1699:A2 *258:10 0.00036366
11 *1699:A2 *434:32 0.000519808
12 *1813:A1 *1721:A 7.63047e-05
13 *1813:A1 *1721:B 5.72091e-05
14 *1813:A1 *1723:C 0
15 *1813:A1 *1724:A2 0.000154273
16 *1813:A1 *2053:A 9.79303e-05
17 *1813:A1 *252:20 9.24127e-05
18 *1813:A1 *272:19 0
19 *251:12 *1690:A 6.52265e-05
20 *251:12 *1717:B 3.57349e-05
21 *251:12 *258:10 0.000232116
22 *251:12 *263:25 1.34503e-05
23 *251:14 *1717:B 0.000148977
24 *251:14 *258:10 0.00015896
25 *251:16 *1717:B 0.000471307
26 *251:16 *258:10 4.82863e-05
27 *251:16 *282:6 0.000427876
28 *1683:B1 *251:12 0
*RES
1 *1683:Y *251:12 15.365 
2 *251:12 *251:14 1.485 
3 *251:14 *251:16 8.385 
4 *251:16 *1813:A1 13.355 
5 *251:16 *1724:A1 1.6 
6 *251:14 *1699:A2 11.57 
7 *251:12 *1709:B2 1.6 
*END

*D_NET *252 0.0056831
*CONN
*I *1691:B I *D sky130_fd_sc_hd__xnor2_2
*I *1812:A1 I *D sky130_fd_sc_hd__a21oi_4
*I *2078:A I *D sky130_fd_sc_hd__buf_2
*I *1775:A2 I *D sky130_fd_sc_hd__a21boi_4
*I *1684:Y O *D sky130_fd_sc_hd__o22ai_4
*CAP
1 *1691:B 3.18756e-05
2 *1812:A1 7.45347e-05
3 *2078:A 0
4 *1775:A2 0.000238672
5 *1684:Y 0.00146078
6 *252:20 0.00030588
7 *252:16 0.000407102
8 *252:12 0.00175801
9 *1691:B *1691:A 9.50342e-06
10 *1691:B *1823:B 2.92496e-05
11 *1775:A2 *1718:A 1.83847e-05
12 *1812:A1 *1812:B1 0
13 *1812:A1 *2053:A 0.000156842
14 *252:12 *1823:B 3.57349e-05
15 *252:12 *2051:A 8.65905e-05
16 *252:16 *1823:B 0.000582874
17 *252:20 *2053:A 0.000208491
18 *1673:A *252:12 0.000120624
19 *1684:B2 *252:12 6.55406e-05
20 *1813:A1 *252:20 9.24127e-05
*RES
1 *1684:Y *252:12 26.405 
2 *252:12 *252:16 7.28 
3 *252:16 *252:20 4.4 
4 *252:20 *1775:A2 5.155 
5 *252:20 *2078:A 1.6 
6 *252:16 *1812:A1 5.49 
7 *252:12 *1691:B 6.215 
*END

*D_NET *253 0.000385328
*CONN
*I *1689:A1 I *D sky130_fd_sc_hd__o21bai_2
*I *1685:X O *D sky130_fd_sc_hd__and2_2
*CAP
1 *1689:A1 0.000124267
2 *1685:X 0.000124267
3 *1689:A1 *1685:A 2.75145e-05
4 *1689:A1 *1685:B 8.8266e-05
5 *1689:A1 *1689:A2 0
6 *1689:A1 *377:10 2.10134e-05
*RES
1 *1685:X *1689:A1 5.39 
*END

*D_NET *254 0.000234445
*CONN
*I *1688:C I *D sky130_fd_sc_hd__nand3b_2
*I *1686:Y O *D sky130_fd_sc_hd__nand2_2
*CAP
1 *1688:C 9.39465e-05
2 *1686:Y 9.39465e-05
3 *1688:C *1686:A 0
4 *1688:C *256:10 4.65515e-05
*RES
1 *1686:Y *1688:C 4.7 
*END

*D_NET *255 0.000860093
*CONN
*I *1689:A2 I *D sky130_fd_sc_hd__o21bai_2
*I *1688:A_N I *D sky130_fd_sc_hd__nand3b_2
*I *1687:Y O *D sky130_fd_sc_hd__nor2_2
*CAP
1 *1689:A2 6.18216e-05
2 *1688:A_N 5.13411e-05
3 *1687:Y 2.32437e-05
4 *255:6 0.000136406
5 *1688:A_N *2052:A 0.000136884
6 *1688:A_N *256:10 5.42473e-05
7 *1689:A2 *1685:A 2.30292e-05
8 *1689:A2 *1687:B 0
9 *1689:A2 *1689:B1_N 7.23635e-05
10 *1689:A2 *434:18 8.40269e-05
11 *255:6 *1685:A 4.35432e-05
12 *255:6 *1689:B1_N 4.99619e-05
13 *255:6 *434:18 0.000123225
14 *1689:A1 *1689:A2 0
*RES
1 *1687:Y *255:6 2.74 
2 *255:6 *1688:A_N 7.235 
3 *255:6 *1689:A2 3.1 
*END

*D_NET *256 0.00420724
*CONN
*I *1699:B1 I *D sky130_fd_sc_hd__o21ai_2
*I *1707:A I *D sky130_fd_sc_hd__nand4_2
*I *1690:A I *D sky130_fd_sc_hd__nand2_2
*I *1708:B1 I *D sky130_fd_sc_hd__o31ai_2
*I *1688:Y O *D sky130_fd_sc_hd__nand3b_2
*CAP
1 *1699:B1 0
2 *1707:A 0.000254051
3 *1690:A 3.30939e-05
4 *1708:B1 0.000173897
5 *1688:Y 0.000379243
6 *256:14 0.000280336
7 *256:12 0.000480677
8 *256:10 0.000532524
9 *1690:A *1717:B 4.82919e-05
10 *1690:A *263:25 0.000160641
11 *1707:A *2052:A 9.27495e-05
12 *1707:A *273:12 4.80285e-05
13 *1708:B1 *1695:A 0.00015829
14 *1708:B1 *259:20 8.53113e-06
15 *1708:B1 *263:10 0.000199062
16 *1708:B1 *264:10 0.000175454
17 *256:10 *1686:B 6.55328e-05
18 *256:10 *1700:A 9.428e-05
19 *256:10 *1700:B 0.000166346
20 *256:10 *2052:A 0
21 *256:10 *434:32 0.000125207
22 *256:10 *510:10 0
23 *256:10 *510:14 0
24 *256:12 *1698:B 6.23206e-05
25 *256:12 *1700:A 8.08439e-05
26 *256:12 *2052:A 0
27 *256:12 *264:10 1.22762e-05
28 *256:12 *434:32 0.000155139
29 *256:14 *264:10 2.54606e-05
30 *256:14 *273:12 0.000113797
31 *256:14 *434:32 6.57032e-05
32 *1688:A_N *256:10 5.42473e-05
33 *1688:C *256:10 4.65515e-05
34 *105:12 *1708:B1 4.94404e-05
35 *251:12 *1690:A 6.52265e-05
*RES
1 *1688:Y *256:10 11.565 
2 *256:10 *256:12 4.44 
3 *256:12 *256:14 2.145 
4 *256:14 *1708:B1 9.57 
5 *256:14 *1690:A 5.085 
6 *256:12 *1707:A 7.86 
7 *256:10 *1699:B1 3.6 
*END

*D_NET *257 0.00133996
*CONN
*I *1707:B I *D sky130_fd_sc_hd__nand4_2
*I *1690:B I *D sky130_fd_sc_hd__nand2_2
*I *1689:Y O *D sky130_fd_sc_hd__o21bai_2
*CAP
1 *1707:B 0
2 *1690:B 0.000112737
3 *1689:Y 0.000351393
4 *257:8 0.00046413
5 *1690:B *1698:A 5.53249e-06
6 *1690:B *263:25 0.000113191
7 *257:8 *1698:A 7.34364e-05
8 *257:8 *2051:A 0
9 *257:8 *2052:A 0.000219536
*RES
1 *1689:Y *257:8 11.355 
2 *257:8 *1690:B 6 
3 *257:8 *1707:B 3.6 
*END

*D_NET *258 0.00376183
*CONN
*I *1699:A1 I *D sky130_fd_sc_hd__o21ai_2
*I *1691:A I *D sky130_fd_sc_hd__xnor2_2
*I *1723:A I *D sky130_fd_sc_hd__or4_4
*I *1690:Y O *D sky130_fd_sc_hd__nand2_2
*CAP
1 *1699:A1 5.93762e-05
2 *1691:A 0.000207677
3 *1723:A 0.000159732
4 *1690:Y 0.000437139
5 *258:14 0.000648681
6 *258:10 0.000777787
7 *1723:A *1723:B 0.000131815
8 *1723:A *1723:C 1.61831e-05
9 *258:10 *1710:B 0.000141599
10 *258:14 *1723:B 0.000250798
11 *1691:B *1691:A 9.50342e-06
12 *1699:A2 *1699:A1 0.00011852
13 *1699:A2 *258:10 0.00036366
14 *251:12 *258:10 0.000232116
15 *251:14 *258:10 0.00015896
16 *251:16 *258:10 4.82863e-05
*RES
1 *1690:Y *258:10 11.685 
2 *258:10 *258:14 5.9 
3 *258:14 *1723:A 4.045 
4 *258:14 *1691:A 9.02 
5 *258:10 *1699:A1 4.98 
*END

*D_NET *259 0.00142723
*CONN
*I *1695:A I *D sky130_fd_sc_hd__nor2_2
*I *1708:A3 I *D sky130_fd_sc_hd__o31ai_2
*I *1696:A1 I *D sky130_fd_sc_hd__o21ai_2
*I *1692:X O *D sky130_fd_sc_hd__and2_2
*CAP
1 *1695:A 0.000139105
2 *1708:A3 3.06671e-05
3 *1696:A1 0.000141215
4 *1692:X 3.65315e-05
5 *259:20 0.000274455
6 *1695:A *263:10 0.000149759
7 *1696:A1 *1694:B 8.57024e-05
8 *1708:A3 *1697:A_N 0.000119756
9 *259:20 *1697:C 0
10 *259:20 *263:10 0.000139238
11 *259:20 *264:10 0
12 *1696:B1 *259:20 2.42236e-05
13 *1708:A2 *1708:A3 4.82863e-05
14 *1708:B1 *1695:A 0.00015829
15 *1708:B1 *259:20 8.53113e-06
16 *105:12 *1708:A3 7.14699e-05
*RES
1 *1692:X *1696:A1 3.995 
2 *1696:A1 *259:20 5.745 
3 *259:20 *1708:A3 4.74 
4 *259:20 *1695:A 6.63 
*END

*D_NET *260 0.000580241
*CONN
*I *1697:C I *D sky130_fd_sc_hd__nand3b_2
*I *1693:Y O *D sky130_fd_sc_hd__nand2_2
*CAP
1 *1697:C 0.00020937
2 *1693:Y 0.00020937
3 *1697:C *1693:A 9.5433e-05
4 *1697:C *264:10 5.16418e-05
5 *1697:C *434:38 0
6 *1697:C *511:14 1.44259e-05
7 *1697:C *564:18 0
8 *1696:B1 *1697:C 0
9 *259:20 *1697:C 0
*RES
1 *1693:Y *1697:C 11.13 
*END

*D_NET *261 0.00200851
*CONN
*I *1696:A2 I *D sky130_fd_sc_hd__o21ai_2
*I *1695:B I *D sky130_fd_sc_hd__nor2_2
*I *1708:A1 I *D sky130_fd_sc_hd__o31ai_2
*I *1697:A_N I *D sky130_fd_sc_hd__nand3b_2
*I *1694:Y O *D sky130_fd_sc_hd__nor2_2
*CAP
1 *1696:A2 0.000191175
2 *1695:B 7.74737e-05
3 *1708:A1 0
4 *1697:A_N 0.000203399
5 *1694:Y 0
6 *261:10 0.000203399
7 *261:8 0.000183681
8 *261:4 0.000297382
9 *1695:B *1709:A2_N 0.000161623
10 *1695:B *1719:A2 0
11 *1696:A2 *1694:B 0.000187122
12 *1697:A_N *1719:A1 3.74359e-05
13 *1697:A_N *1719:C1 4.66108e-05
14 *1697:A_N *264:10 1.08758e-05
15 *1697:A_N *274:6 8.40269e-05
16 *1697:A_N *564:14 0
17 *261:8 *1709:A2_N 5.16418e-05
18 *261:8 *1719:A2 0
19 *261:8 *434:32 5.92269e-05
20 *1708:A2 *1697:A_N 2.59295e-05
21 *1708:A3 *1697:A_N 0.000119756
22 *105:12 *1697:A_N 6.77501e-05
*RES
1 *1694:Y *261:4 1.6 
2 *261:4 *261:8 3.89 
3 *261:8 *261:10 2 
4 *261:10 *1697:A_N 5.875 
5 *261:10 *1708:A1 1.6 
6 *261:8 *1695:B 5.49 
7 *261:4 *1696:A2 5.185 
*END

*D_NET *262 0.000708033
*CONN
*I *1719:A2 I *D sky130_fd_sc_hd__o211ai_2
*I *1695:Y O *D sky130_fd_sc_hd__nor2_2
*CAP
1 *1719:A2 0.000354017
2 *1695:Y 0.000354017
3 *1719:A2 *272:8 0
4 *1719:A2 *284:10 0
5 *1695:B *1719:A2 0
6 *261:8 *1719:A2 0
*RES
1 *1695:Y *1719:A2 11.445 
*END

*D_NET *263 0.00322113
*CONN
*I *1698:A I *D sky130_fd_sc_hd__nand2_2
*I *1707:C I *D sky130_fd_sc_hd__nand4_2
*I *1709:A1_N I *D sky130_fd_sc_hd__o2bb2a_2
*I *1696:Y O *D sky130_fd_sc_hd__o21ai_2
*CAP
1 *1698:A 0.000195077
2 *1707:C 0
3 *1709:A1_N 3.60508e-05
4 *1696:Y 0.000194547
5 *263:25 0.000452996
6 *263:10 0.000488517
7 *1698:A *1698:B 1.86911e-05
8 *1698:A *2052:A 9.54399e-05
9 *1709:A1_N *1709:A2_N 7.50953e-06
10 *1709:A1_N *1717:B 8.4854e-05
11 *263:10 *434:32 0.000471833
12 *263:25 *1698:B 5.53249e-06
13 *263:25 *1717:B 3.63661e-05
14 *263:25 *264:10 0.000119447
15 *1690:A *263:25 0.000160641
16 *1690:B *1698:A 5.53249e-06
17 *1690:B *263:25 0.000113191
18 *1695:A *263:10 0.000149759
19 *1696:B1 *263:10 0.000159957
20 *1708:B1 *263:10 0.000199062
21 *251:12 *263:25 1.34503e-05
22 *257:8 *1698:A 7.34364e-05
23 *259:20 *263:10 0.000139238
*RES
1 *1696:Y *263:10 13.1 
2 *263:10 *1709:A1_N 2.4025 
3 *263:10 *263:25 7.535 
4 *263:25 *1707:C 3.6 
5 *263:25 *1698:A 7.08 
*END

*D_NET *264 0.00171654
*CONN
*I *1698:B I *D sky130_fd_sc_hd__nand2_2
*I *1707:D I *D sky130_fd_sc_hd__nand4_2
*I *1697:Y O *D sky130_fd_sc_hd__nand3b_2
*CAP
1 *1698:B 5.25701e-05
2 *1707:D 0
3 *1697:Y 0.00042586
4 *264:10 0.00047843
5 *1698:B *2052:A 0.000117832
6 *264:10 *1719:A1 8.73389e-06
7 *264:10 *1883:A 0
8 *264:10 *273:12 5.83373e-05
9 *264:10 *564:18 0
10 *1697:A_N *264:10 1.08758e-05
11 *1697:C *264:10 5.16418e-05
12 *1698:A *1698:B 1.86911e-05
13 *1708:B1 *264:10 0.000175454
14 *105:12 *264:10 9.30787e-05
15 *256:12 *1698:B 6.23206e-05
16 *256:12 *264:10 1.22762e-05
17 *256:14 *264:10 2.54606e-05
18 *259:20 *264:10 0
19 *263:25 *1698:B 5.53249e-06
20 *263:25 *264:10 0.000119447
*RES
1 *1697:Y *264:10 12.825 
2 *264:10 *1707:D 3.6 
3 *264:10 *1698:B 5.49 
*END

*D_NET *265 0.00162659
*CONN
*I *1700:A I *D sky130_fd_sc_hd__xnor2_2
*I *1723:B I *D sky130_fd_sc_hd__or4_4
*I *1698:Y O *D sky130_fd_sc_hd__nand2_2
*CAP
1 *1700:A 8.6321e-05
2 *1723:B 0.000312227
3 *1698:Y 0.000398548
4 *1700:A *2052:A 0.000169591
5 *1723:B *1723:C 6.53668e-05
6 *1723:B *1723:D 3.67967e-05
7 *1723:A *1723:B 0.000131815
8 *256:10 *1700:A 9.428e-05
9 *256:12 *1700:A 8.08439e-05
10 *258:14 *1723:B 0.000250798
*RES
1 *1698:Y *1723:B 10.22 
2 *1698:Y *1700:A 10.62 
*END

*D_NET *266 0.000352256
*CONN
*I *1700:B I *D sky130_fd_sc_hd__xnor2_2
*I *1699:Y O *D sky130_fd_sc_hd__o21ai_2
*CAP
1 *1700:B 3.91498e-05
2 *1699:Y 3.91498e-05
3 *1700:B *434:32 0.000107611
4 *256:10 *1700:B 0.000166346
*RES
1 *1699:Y *1700:B 9.09 
*END

*D_NET *267 0.000656965
*CONN
*I *1704:A_N I *D sky130_fd_sc_hd__nand3b_2
*I *1705:A1 I *D sky130_fd_sc_hd__o21bai_4
*I *1701:Y O *D sky130_fd_sc_hd__nor2_2
*CAP
1 *1704:A_N 0.000155579
2 *1705:A1 0
3 *1701:Y 6.09617e-05
4 *267:8 0.00021654
5 *1704:A_N *270:8 4.80285e-05
6 *1704:A_N *288:12 0.000108447
7 *267:8 *288:12 6.74079e-05
*RES
1 *1701:Y *267:8 4.98 
2 *267:8 *1705:A1 3.6 
3 *267:8 *1704:A_N 6.795 
*END

*D_NET *268 0.000439136
*CONN
*I *1705:A2 I *D sky130_fd_sc_hd__o21bai_4
*I *1702:X O *D sky130_fd_sc_hd__and2_2
*CAP
1 *1705:A2 0.000116175
2 *1702:X 0.000116175
3 *1705:A2 *1701:B 8.8266e-05
4 *1705:A2 *1704:C 0
5 *1705:A2 *288:12 0.00011852
6 *1705:A2 *415:14 0
*RES
1 *1702:X *1705:A2 9.375 
*END

*D_NET *269 0.000490502
*CONN
*I *1704:B I *D sky130_fd_sc_hd__nand3b_2
*I *1703:Y O *D sky130_fd_sc_hd__nand2_2
*CAP
1 *1704:B 0.000212606
2 *1703:Y 0.000212606
3 *1704:B *1704:C 6.52906e-05
4 *1704:B *288:12 0
5 *1704:B *424:12 0
*RES
1 *1703:Y *1704:B 10.83 
*END

*D_NET *270 0.00252336
*CONN
*I *1706:A I *D sky130_fd_sc_hd__nand2_4
*I *1720:A I *D sky130_fd_sc_hd__nand3_2
*I *1722:A1 I *D sky130_fd_sc_hd__a31oi_2
*I *1704:Y O *D sky130_fd_sc_hd__nand3b_2
*CAP
1 *1706:A 0
2 *1720:A 1.55137e-05
3 *1722:A1 0.000226964
4 *1704:Y 0.000362561
5 *270:14 0.000502615
6 *270:8 0.000622698
7 *1720:A *1720:B 5.05521e-05
8 *1720:A *1722:A3 7.57202e-05
9 *1722:A1 *1720:B 9.66021e-05
10 *1722:A1 *1722:A2 4.99619e-05
11 *1722:A1 *1722:A3 0.000467962
12 *270:14 *1706:B 4.18603e-06
13 *270:14 *272:8 0
14 *1704:A_N *270:8 4.80285e-05
*RES
1 *1704:Y *270:8 6.805 
2 *270:8 *270:14 8.185 
3 *270:14 *1722:A1 7.225 
4 *270:14 *1720:A 2.395 
5 *270:8 *1706:A 1.6 
*END

*D_NET *271 0.0011634
*CONN
*I *1719:B1 I *D sky130_fd_sc_hd__o211ai_2
*I *1706:B I *D sky130_fd_sc_hd__nand2_4
*I *1705:Y O *D sky130_fd_sc_hd__o21bai_4
*CAP
1 *1719:B1 5.75603e-05
2 *1706:B 0.000536873
3 *1705:Y 0.000479312
4 *1706:B *272:8 3.24046e-05
5 *1719:B1 *1719:C1 5.30673e-05
6 *270:14 *1706:B 4.18603e-06
*RES
1 *1705:Y *1706:B 14.625 
2 *1706:B *1719:B1 4.34 
*END

*D_NET *272 0.00233757
*CONN
*I *1723:C I *D sky130_fd_sc_hd__or4_4
*I *1710:A I *D sky130_fd_sc_hd__xor2_2
*I *1717:A I *D sky130_fd_sc_hd__nor2_4
*I *1706:Y O *D sky130_fd_sc_hd__nand2_4
*CAP
1 *1723:C 0.000143758
2 *1710:A 0.000216844
3 *1717:A 2.2266e-05
4 *1706:Y 0.000315463
5 *272:19 0.000476047
6 *272:8 0.000453174
7 *1717:A *282:6 4.82919e-05
8 *1723:C *1721:A 4.91927e-05
9 *1723:C *1723:D 0.000178609
10 *272:8 *1721:B 7.81876e-05
11 *272:8 *284:10 0.000141938
12 *272:19 *1721:A 2.97004e-06
13 *272:19 *1721:B 9.68787e-05
14 *1706:B *272:8 3.24046e-05
15 *1719:A2 *272:8 0
16 *1723:A *1723:C 1.61831e-05
17 *1723:B *1723:C 6.53668e-05
18 *1813:A1 *1723:C 0
19 *1813:A1 *272:19 0
20 *270:14 *272:8 0
*RES
1 *1706:Y *272:8 10.08 
2 *272:8 *1717:A 4.05 
3 *272:8 *272:19 2.4 
4 *272:19 *1710:A 6.81 
5 *272:19 *1723:C 7.11375 
*END

*D_NET *273 0.00172492
*CONN
*I *1709:B1 I *D sky130_fd_sc_hd__o2bb2a_2
*I *1717:B I *D sky130_fd_sc_hd__nor2_4
*I *1707:Y O *D sky130_fd_sc_hd__nand4_2
*CAP
1 *1709:B1 0
2 *1717:B 0.000212306
3 *1707:Y 0.000112659
4 *273:12 0.000324965
5 *1717:B *1709:A2_N 2.92907e-05
6 *1690:A *1717:B 4.82919e-05
7 *1707:A *273:12 4.80285e-05
8 *1709:A1_N *1717:B 8.4854e-05
9 *251:12 *1717:B 3.57349e-05
10 *251:14 *1717:B 0.000148977
11 *251:16 *1717:B 0.000471307
12 *256:14 *273:12 0.000113797
13 *263:25 *1717:B 3.63661e-05
14 *264:10 *273:12 5.83373e-05
*RES
1 *1707:Y *273:12 7.775 
2 *273:12 *1717:B 7.93 
3 *273:12 *1709:B1 1.6 
*END

*D_NET *274 0.0020977
*CONN
*I *1709:A2_N I *D sky130_fd_sc_hd__o2bb2a_2
*I *1719:C1 I *D sky130_fd_sc_hd__o211ai_2
*I *1708:Y O *D sky130_fd_sc_hd__o31ai_2
*CAP
1 *1709:A2_N 0.000287573
2 *1719:C1 0.000332431
3 *1708:Y 4.17432e-05
4 *274:6 0.000661748
5 *1709:A2_N *434:32 0.000275388
6 *1719:C1 *1719:A1 6.5048e-05
7 *1695:B *1709:A2_N 0.000161623
8 *1697:A_N *1719:C1 4.66108e-05
9 *1697:A_N *274:6 8.40269e-05
10 *1709:A1_N *1709:A2_N 7.50953e-06
11 *1717:B *1709:A2_N 2.92907e-05
12 *1719:B1 *1719:C1 5.30673e-05
13 *261:8 *1709:A2_N 5.16418e-05
*RES
1 *1708:Y *274:6 2.395 
2 *274:6 *1719:C1 6.88 
3 *274:6 *1709:A2_N 12.365 
*END

*D_NET *275 0.000338338
*CONN
*I *1710:B I *D sky130_fd_sc_hd__xor2_2
*I *1709:X O *D sky130_fd_sc_hd__o2bb2a_2
*CAP
1 *1710:B 9.83693e-05
2 *1709:X 9.83693e-05
3 *258:10 *1710:B 0.000141599
*RES
1 *1709:X *1710:B 7.6325 
*END

*D_NET *276 0.00128854
*CONN
*I *1713:A I *D sky130_fd_sc_hd__nand3_2
*I *1714:A1 I *D sky130_fd_sc_hd__a21oi_2
*I *1715:A1 I *D sky130_fd_sc_hd__a21o_2
*I *1711:X O *D sky130_fd_sc_hd__or2_2
*CAP
1 *1713:A 0
2 *1714:A1 0.00020867
3 *1715:A1 1.57356e-05
4 *1711:X 3.73356e-05
5 *276:17 0.000287207
6 *276:6 0.000131609
7 *1714:A1 *1714:B1 1.82667e-05
8 *1714:A1 *277:6 5.83121e-06
9 *1714:A1 *277:19 0.000202381
10 *1714:A1 *280:18 8.53113e-06
11 *1714:A1 *330:10 0
12 *276:6 *1712:A 1.52352e-05
13 *276:6 *1715:A2 2.86975e-05
14 *276:17 *1713:B 5.4155e-06
15 *276:17 *1713:C 0.000170466
16 *276:17 *1715:A2 0.000103198
17 *276:17 *280:18 4.99619e-05
*RES
1 *1711:X *276:6 2.395 
2 *276:6 *1715:A1 1.96 
3 *276:6 *276:17 2.535 
4 *276:17 *1714:A1 9.41 
5 *276:17 *1713:A 1.6 
*END

*D_NET *277 0.00138915
*CONN
*I *1713:B I *D sky130_fd_sc_hd__nand3_2
*I *1715:A2 I *D sky130_fd_sc_hd__a21o_2
*I *1714:A2 I *D sky130_fd_sc_hd__a21oi_2
*I *1712:Y O *D sky130_fd_sc_hd__nand2_2
*CAP
1 *1713:B 4.28161e-05
2 *1715:A2 0.000146988
3 *1714:A2 0
4 *1712:Y 3.13159e-05
5 *277:19 0.000333592
6 *277:6 0.000175104
7 *1713:B *1713:C 2.4269e-05
8 *1715:A2 *1712:A 8.52845e-05
9 *1715:A2 *1713:C 1.19928e-05
10 *1715:A2 *280:18 4.82863e-05
11 *277:6 *1714:B1 8.65905e-05
12 *277:19 *1714:B1 4.66108e-05
13 *277:19 *1773:B 0
14 *277:19 *280:18 1.07797e-05
15 *277:19 *330:10 0
16 *1714:A1 *277:6 5.83121e-06
17 *1714:A1 *277:19 0.000202381
18 *276:6 *1715:A2 2.86975e-05
19 *276:17 *1713:B 5.4155e-06
20 *276:17 *1715:A2 0.000103198
*RES
1 *1712:Y *277:6 2.395 
2 *277:6 *1714:A2 1.6 
3 *277:6 *277:19 6.85 
4 *277:19 *1715:A2 4.465 
5 *277:19 *1713:B 2.41 
*END

*D_NET *278 0.0020081
*CONN
*I *1716:A I *D sky130_fd_sc_hd__nand2_2
*I *1722:A2 I *D sky130_fd_sc_hd__a31oi_2
*I *1773:C I *D sky130_fd_sc_hd__nand4_4
*I *1713:Y O *D sky130_fd_sc_hd__nand3_2
*CAP
1 *1716:A 0.000214794
2 *1722:A2 0.000168749
3 *1773:C 0.000267708
4 *1713:Y 0.000220221
5 *278:8 0.000441884
6 *1716:A *1772:A1 0.000187766
7 *1716:A *286:8 3.09164e-05
8 *1716:A *288:12 0
9 *1716:A *333:10 0
10 *1716:A *424:12 6.22834e-05
11 *1773:C *1772:A2 0.000120186
12 *1773:C *286:8 0.000120186
13 *1773:C *288:12 0
14 *1773:C *424:12 2.68721e-05
15 *278:8 *1713:C 4.99619e-05
16 *278:8 *2100:A 4.66108e-05
17 *1722:A1 *1722:A2 4.99619e-05
*RES
1 *1713:Y *278:8 5.17 
2 *278:8 *1773:C 7.49 
3 *278:8 *1722:A2 4.585 
4 *1773:C *1716:A 11.835 
*END

*D_NET *279 0.000751427
*CONN
*I *1722:B1 I *D sky130_fd_sc_hd__a31oi_2
*I *1714:Y O *D sky130_fd_sc_hd__a21oi_2
*CAP
1 *1722:B1 0.000323171
2 *1714:Y 0.000323171
3 *1722:B1 *1714:B1 4.99619e-05
4 *1722:B1 *288:12 0
5 *1722:B1 *424:12 5.51245e-05
*RES
1 *1714:Y *1722:B1 12.045 
*END

*D_NET *280 0.00165236
*CONN
*I *1773:A I *D sky130_fd_sc_hd__nand4_4
*I *1716:B I *D sky130_fd_sc_hd__nand2_2
*I *1715:X O *D sky130_fd_sc_hd__a21o_2
*CAP
1 *1773:A 0
2 *1716:B 0.000482114
3 *1715:X 0.000283485
4 *280:18 0.000765598
5 *1716:B *1772:B1 0
6 *1716:B *332:8 0
7 *1716:B *424:12 0
8 *280:18 *1712:A 0
9 *280:18 *1715:B1 3.60024e-06
10 *280:18 *1773:B 0
11 *1714:A1 *280:18 8.53113e-06
12 *1715:A2 *280:18 4.82863e-05
13 *276:17 *280:18 4.99619e-05
14 *277:19 *280:18 1.07797e-05
*RES
1 *1715:X *280:18 10.325 
2 *280:18 *1716:B 12.995 
3 *280:18 *1773:A 1.6 
*END

*D_NET *281 0.00204843
*CONN
*I *1723:D I *D sky130_fd_sc_hd__or4_4
*I *1721:A I *D sky130_fd_sc_hd__xnor2_2
*I *1716:Y O *D sky130_fd_sc_hd__nand2_2
*CAP
1 *1723:D 0.000161918
2 *1721:A 0.000115982
3 *1716:Y 0.000457036
4 *281:6 0.000734935
5 *1723:D *1724:A2 7.57202e-05
6 *281:6 *1724:A2 0.000158965
7 *1723:B *1723:D 3.67967e-05
8 *1723:C *1721:A 4.91927e-05
9 *1723:C *1723:D 0.000178609
10 *1813:A1 *1721:A 7.63047e-05
11 *272:19 *1721:A 2.97004e-06
*RES
1 *1716:Y *281:6 8.26 
2 *281:6 *1721:A 8.03 
3 *281:6 *1723:D 4.81 
*END

*D_NET *282 0.00204971
*CONN
*I *1718:B I *D sky130_fd_sc_hd__nand2_2
*I *1773:D I *D sky130_fd_sc_hd__nand4_4
*I *1717:Y O *D sky130_fd_sc_hd__nor2_4
*CAP
1 *1718:B 0.000101184
2 *1773:D 0.000249294
3 *1717:Y 0.000281821
4 *282:6 0.000632299
5 *1718:B *1718:A 5.53249e-06
6 *1718:B *1720:B 6.73751e-05
7 *1718:B *1724:A2 0
8 *1718:B *288:12 0
9 *1718:B *333:10 0
10 *1773:D *1724:B1_N 7.5396e-05
11 *282:6 *1724:A2 0.000160635
12 *1717:A *282:6 4.82919e-05
13 *251:16 *282:6 0.000427876
*RES
1 *1717:Y *282:6 7.915 
2 *282:6 *1773:D 5.89 
3 *282:6 *1718:B 7.745 
*END

*D_NET *283 0.00114782
*CONN
*I *1720:B I *D sky130_fd_sc_hd__nand3_2
*I *1718:Y O *D sky130_fd_sc_hd__nand2_2
*CAP
1 *1720:B 0.000398865
2 *1718:Y 0.000398865
3 *1720:B *1721:B 0
4 *1720:B *1722:A3 3.23663e-05
5 *1720:B *1724:A2 0.000103192
6 *1720:B *288:12 0
7 *1718:B *1720:B 6.73751e-05
8 *1720:A *1720:B 5.05521e-05
9 *1722:A1 *1720:B 9.66021e-05
*RES
1 *1718:Y *1720:B 14.1 
*END

*D_NET *284 0.00183148
*CONN
*I *1720:C I *D sky130_fd_sc_hd__nand3_2
*I *1722:A3 I *D sky130_fd_sc_hd__a31oi_2
*I *1719:Y O *D sky130_fd_sc_hd__o211ai_2
*CAP
1 *1720:C 0
2 *1722:A3 0.000365546
3 *1719:Y 0.000191203
4 *284:10 0.000556748
5 *1719:A2 *284:10 0
6 *1720:A *1722:A3 7.57202e-05
7 *1720:B *1722:A3 3.23663e-05
8 *1722:A1 *1722:A3 0.000467962
9 *272:8 *284:10 0.000141938
*RES
1 *1719:Y *284:10 9.53 
2 *284:10 *1722:A3 8.965 
3 *284:10 *1720:C 1.6 
*END

*D_NET *285 0.000528639
*CONN
*I *1721:B I *D sky130_fd_sc_hd__xnor2_2
*I *1720:Y O *D sky130_fd_sc_hd__nand3_2
*CAP
1 *1721:B 0.000148182
2 *1720:Y 0.000148182
3 *1721:B *1724:A2 0
4 *1720:B *1721:B 0
5 *1813:A1 *1721:B 5.72091e-05
6 *272:8 *1721:B 7.81876e-05
7 *272:19 *1721:B 9.68787e-05
*RES
1 *1720:Y *1721:B 10.875 
*END

*D_NET *286 0.00123124
*CONN
*I *1772:A1 I *D sky130_fd_sc_hd__a21oi_2
*I *1724:B1_N I *D sky130_fd_sc_hd__o21bai_4
*I *1722:Y O *D sky130_fd_sc_hd__a31oi_2
*CAP
1 *1772:A1 5.71813e-05
2 *1724:B1_N 0.00016909
3 *1722:Y 6.36948e-05
4 *286:8 0.000289966
5 *1724:B1_N *333:10 0.00012657
6 *1772:A1 *1772:A2 8.68724e-05
7 *1772:A1 *424:12 1.01661e-05
8 *286:8 *1772:A2 1.34361e-05
9 *286:8 *288:12 0
10 *1716:A *1772:A1 0.000187766
11 *1716:A *286:8 3.09164e-05
12 *1773:C *286:8 0.000120186
13 *1773:D *1724:B1_N 7.5396e-05
*RES
1 *1722:Y *286:8 5.235 
2 *286:8 *1724:B1_N 7.2 
3 *286:8 *1772:A1 5.745 
*END

*D_NET *287 0.00142839
*CONN
*I *1724:A2 I *D sky130_fd_sc_hd__o21bai_4
*I *1723:X O *D sky130_fd_sc_hd__or4_4
*CAP
1 *1724:A2 0.000340622
2 *1723:X 0.000340622
3 *1724:A2 *1718:A 2.03321e-05
4 *1724:A2 *2053:A 7.4027e-05
5 *1718:B *1724:A2 0
6 *1720:B *1724:A2 0.000103192
7 *1721:B *1724:A2 0
8 *1723:D *1724:A2 7.57202e-05
9 *1813:A1 *1724:A2 0.000154273
10 *281:6 *1724:A2 0.000158965
11 *282:6 *1724:A2 0.000160635
*RES
1 *1723:X *1724:A2 14.535 
*END

*D_NET *288 0.00772594
*CONN
*I *1752:B1 I *D sky130_fd_sc_hd__a22oi_4
*I *1731:A I *D sky130_fd_sc_hd__xnor2_2
*I *1738:A2 I *D sky130_fd_sc_hd__a21boi_2
*I *1762:B1 I *D sky130_fd_sc_hd__a2bb2oi_2
*I *1724:Y O *D sky130_fd_sc_hd__o21bai_4
*CAP
1 *1752:B1 0.000307754
2 *1731:A 0
3 *1738:A2 0.000115966
4 *1762:B1 0.000230119
5 *1724:Y 0.00129485
6 *288:41 0.000762241
7 *288:31 0.00139336
8 *288:12 0.0019643
9 *1738:A2 *1739:B 0.000189426
10 *1752:B1 *1752:A2 0.000198339
11 *1752:B1 *415:14 0.000128358
12 *1762:B1 *1762:B2 5.12969e-06
13 *1762:B1 *1771:A3 4.77719e-05
14 *1762:B1 *321:16 0.000191531
15 *288:12 *1704:C 0
16 *288:12 *1771:A3 0.000305545
17 *288:12 *1772:B1 4.82919e-05
18 *288:12 *415:14 0
19 *288:31 *312:8 0
20 *288:31 *321:16 0
21 *288:41 *1739:A 0
22 *288:41 *1739:B 0
23 *288:41 *1749:A 0.000114326
24 *288:41 *1752:A2 0.000134249
25 *288:41 *312:8 0
26 *1704:A_N *288:12 0.000108447
27 *1704:B *288:12 0
28 *1705:A2 *288:12 0.00011852
29 *1716:A *288:12 0
30 *1718:B *288:12 0
31 *1720:B *288:12 0
32 *1722:B1 *288:12 0
33 *1773:C *288:12 0
34 *267:8 *288:12 6.74079e-05
35 *286:8 *288:12 0
*RES
1 *1724:Y *288:12 27.02 
2 *288:12 *1762:B1 5.65 
3 *288:12 *288:31 8.225 
4 *288:31 *288:41 13.25 
5 *288:41 *1738:A2 8.195 
6 *288:41 *1731:A 1.6 
7 *288:31 *1752:B1 8.895 
*END

*D_NET *289 0.00213318
*CONN
*I *1729:A1 I *D sky130_fd_sc_hd__o21bai_4
*I *1725:X O *D sky130_fd_sc_hd__and2_4
*CAP
1 *1729:A1 0.000579206
2 *1725:X 0.000579206
3 *1729:A1 *1728:A_N 2.8185e-05
4 *1729:A1 *1728:B 0.000162325
5 *1729:A1 *1736:A2 0
6 *1729:A1 *2054:A 5.00786e-05
7 *1729:A1 *291:8 0.000112631
8 *1729:A1 *293:8 4.82863e-05
9 *1729:A1 *416:14 0.000184845
10 *1729:A1 *448:10 6.28498e-05
11 *1975:A *1729:A1 2.04591e-05
12 *2010:A *1729:A1 0.000305105
*RES
1 *1725:X *1729:A1 18.27 
*END

*D_NET *290 0.0011267
*CONN
*I *1728:C I *D sky130_fd_sc_hd__nand3b_2
*I *1726:Y O *D sky130_fd_sc_hd__nand2_2
*CAP
1 *1728:C 0.000337527
2 *1726:Y 0.000337527
3 *1728:C *1726:A 0.000201503
4 *1728:C *1728:A_N 9.50342e-06
5 *1728:C *1733:B 0
6 *1728:C *1736:A2 0.000139238
7 *1728:C *1845:A1 5.39718e-05
8 *1728:C *2054:A 0
9 *1728:C *414:10 4.74304e-05
*RES
1 *1726:Y *1728:C 13.725 
*END

*D_NET *291 0.00114234
*CONN
*I *1729:A2 I *D sky130_fd_sc_hd__o21bai_4
*I *1728:A_N I *D sky130_fd_sc_hd__nand3b_2
*I *1727:Y O *D sky130_fd_sc_hd__nor2_2
*CAP
1 *1729:A2 0
2 *1728:A_N 0.000133599
3 *1727:Y 0.00020514
4 *291:8 0.000338739
5 *1728:A_N *1733:B 0
6 *1728:A_N *1736:A2 8.24404e-05
7 *291:8 *293:8 0.000232105
8 *1728:C *1728:A_N 9.50342e-06
9 *1729:A1 *1728:A_N 2.8185e-05
10 *1729:A1 *291:8 0.000112631
*RES
1 *1727:Y *291:8 5.86 
2 *291:8 *1728:A_N 8.285 
3 *291:8 *1729:A2 1.6 
*END

*D_NET *292 0.00386597
*CONN
*I *1749:A I *D sky130_fd_sc_hd__nand2_2
*I *1750:A I *D sky130_fd_sc_hd__nand4_4
*I *1730:A I *D sky130_fd_sc_hd__nand2_2
*I *1738:B1_N I *D sky130_fd_sc_hd__a21boi_2
*I *1728:Y O *D sky130_fd_sc_hd__nand3b_2
*CAP
1 *1749:A 0.000167251
2 *1750:A 3.64016e-05
3 *1730:A 3.239e-05
4 *1738:B1_N 4.55688e-05
5 *1728:Y 0.00039134
6 *292:36 0.000752821
7 *292:21 0.000698252
8 *292:10 0.000553602
9 *1738:B1_N *1738:A1 4.94457e-05
10 *1738:B1_N *293:8 1.34594e-05
11 *292:10 *1728:B 8.23457e-05
12 *292:10 *1739:B 0
13 *292:10 *417:8 8.53113e-06
14 *292:10 *454:10 0
15 *292:21 *1738:A1 5.39961e-05
16 *292:21 *1739:B 0
17 *292:21 *1750:B 2.07184e-05
18 *292:21 *293:21 0.000131408
19 *292:21 *454:10 0
20 *292:36 *1735:A2 0
21 *292:36 *1735:B1 0
22 *292:36 *1750:B 0.000327296
23 *292:36 *2055:A 0
24 *292:36 *2056:A 3.43783e-05
25 *292:36 *298:30 0.000194267
26 *292:36 *299:25 0.00015817
27 *292:36 *453:12 0
28 *292:36 *454:10 0
29 *288:41 *1749:A 0.000114326
*RES
1 *1728:Y *292:10 8.88 
2 *292:10 *1738:B1_N 4.395 
3 *292:10 *292:21 2.655 
4 *292:21 *1730:A 4.05 
5 *292:21 *292:36 10.94 
6 *292:36 *1750:A 2.215 
7 *292:36 *1749:A 8.12 
*END

*D_NET *293 0.00297306
*CONN
*I *1750:B I *D sky130_fd_sc_hd__nand4_4
*I *1730:B I *D sky130_fd_sc_hd__nand2_2
*I *1738:A1 I *D sky130_fd_sc_hd__a21boi_2
*I *1729:Y O *D sky130_fd_sc_hd__o21bai_4
*CAP
1 *1750:B 0.000276904
2 *1730:B 9.68284e-05
3 *1738:A1 0.000183041
4 *1729:Y 0.000261252
5 *293:21 0.000443384
6 *293:8 0.000513945
7 *1730:B *1731:B 4.66108e-05
8 *1730:B *2055:A 4.70919e-05
9 *1738:A1 *1739:B 0
10 *1750:B *1739:B 0
11 *1750:B *1750:C 4.66108e-05
12 *1750:B *2056:A 0.000122312
13 *1750:B *298:30 2.90115e-05
14 *1750:B *299:25 2.93517e-05
15 *293:21 *1739:B 0
16 *1729:A1 *293:8 4.82863e-05
17 *1738:B1_N *1738:A1 4.94457e-05
18 *1738:B1_N *293:8 1.34594e-05
19 *291:8 *293:8 0.000232105
20 *292:21 *1738:A1 5.39961e-05
21 *292:21 *1750:B 2.07184e-05
22 *292:21 *293:21 0.000131408
23 *292:36 *1750:B 0.000327296
*RES
1 *1729:Y *293:8 7.845 
2 *293:8 *1738:A1 6.735 
3 *293:8 *293:21 1.635 
4 *293:21 *1730:B 5.445 
5 *293:21 *1750:B 9.975 
*END

*D_NET *294 0.000295502
*CONN
*I *1731:B I *D sky130_fd_sc_hd__xnor2_2
*I *1730:Y O *D sky130_fd_sc_hd__nand2_2
*CAP
1 *1731:B 0.00011195
2 *1730:Y 0.00011195
3 *1731:B *2055:A 2.49909e-05
4 *1730:B *1731:B 4.66108e-05
*RES
1 *1730:Y *1731:B 5.03 
*END

*D_NET *295 0.00176066
*CONN
*I *1736:A1 I *D sky130_fd_sc_hd__o21bai_4
*I *1732:Y O *D sky130_fd_sc_hd__nor2_2
*CAP
1 *1736:A1 0.000299019
2 *1732:Y 0.000299019
3 *1736:A1 *1735:B1 9.50342e-06
4 *1736:A1 *1743:A 0.000507241
5 *1736:A1 *1760:A1 5.24617e-05
6 *1736:A1 *1760:A2 8.40213e-05
7 *1736:A1 *1959:A 0
8 *1736:A1 *302:16 6.12936e-05
9 *1736:A1 *309:14 0.000120655
10 *1736:A1 *418:12 0.000147954
11 *1736:A1 *453:12 5.43129e-05
12 S[21] *1736:A1 0.000125182
*RES
1 *1732:Y *1736:A1 16.44 
*END

*D_NET *296 0.00220999
*CONN
*I *1736:A2 I *D sky130_fd_sc_hd__o21bai_4
*I *1733:X O *D sky130_fd_sc_hd__and2_4
*CAP
1 *1736:A2 0.000698262
2 *1733:X 0.000698262
3 *1736:A2 *1733:B 0
4 *1736:A2 *414:10 7.06865e-05
5 *1736:A2 *418:12 8.57297e-05
6 *1736:A2 *418:18 5.4256e-05
7 *1736:A2 *516:12 0.000183072
8 S[1] *1736:A2 0.000198046
9 *1728:A_N *1736:A2 8.24404e-05
10 *1728:C *1736:A2 0.000139238
11 *1729:A1 *1736:A2 0
12 *1975:A *1736:A2 0
13 *2010:A *1736:A2 0
*RES
1 *1733:X *1736:A2 19.86 
*END

*D_NET *297 0.00118635
*CONN
*I *1735:B1 I *D sky130_fd_sc_hd__o21ai_2
*I *1734:Y O *D sky130_fd_sc_hd__a21boi_2
*CAP
1 *1735:B1 0.000366331
2 *1734:Y 0.000366331
3 *1735:B1 *1734:A1 0.000213913
4 *1735:B1 *2055:A 5.16418e-05
5 *1735:B1 *2092:A 0.000161529
6 *1735:B1 *418:12 0
7 *1735:B1 *453:12 1.71013e-05
8 *1736:A1 *1735:B1 9.50342e-06
9 *292:36 *1735:B1 0
*RES
1 *1734:Y *1735:B1 13.32 
*END

*D_NET *298 0.00145942
*CONN
*I *1749:B I *D sky130_fd_sc_hd__nand2_2
*I *1737:A I *D sky130_fd_sc_hd__nand2_2
*I *1750:C I *D sky130_fd_sc_hd__nand4_4
*I *1735:Y O *D sky130_fd_sc_hd__o21ai_2
*CAP
1 *1749:B 5.93459e-05
2 *1737:A 0
3 *1750:C 0.000321164
4 *1735:Y 0.00014892
5 *298:30 0.00023159
6 *1749:B *518:10 0.000122801
7 *1750:C *1735:A2 1.16578e-05
8 *1750:C *1750:D 0
9 *1750:C *299:12 6.90876e-05
10 *1750:C *299:25 8.57321e-05
11 *298:30 *1739:A 0.000139238
12 *298:30 *1750:D 0
13 *1750:B *1750:C 4.66108e-05
14 *1750:B *298:30 2.90115e-05
15 *292:36 *298:30 0.000194267
*RES
1 *1735:Y *1750:C 6.44 
2 *1750:C *298:30 9.425 
3 *298:30 *1737:A 1.6 
4 *298:30 *1749:B 2.74 
*END

*D_NET *299 0.00318044
*CONN
*I *1760:B2 I *D sky130_fd_sc_hd__a22oi_2
*I *1752:A1 I *D sky130_fd_sc_hd__a22oi_4
*I *1737:B I *D sky130_fd_sc_hd__nand2_2
*I *1750:D I *D sky130_fd_sc_hd__nand4_4
*I *1736:Y O *D sky130_fd_sc_hd__o21bai_4
*CAP
1 *1760:B2 0.000234073
2 *1752:A1 0
3 *1737:B 8.75545e-05
4 *1750:D 2.08101e-05
5 *1736:Y 0.000485685
6 *299:40 0.000405672
7 *299:25 0.000423229
8 *299:12 0.000670571
9 *1737:B *518:10 8.52845e-05
10 *1760:B2 *1753:A 0
11 *1760:B2 *1760:B1 4.22809e-05
12 *1760:B2 *1884:A 6.02409e-05
13 *1760:B2 *453:38 0
14 *299:12 *1734:A1 9.02259e-05
15 *299:12 *1735:A2 4.82919e-05
16 *299:25 *1732:B 0
17 *299:25 *2056:A 0.00011099
18 *1750:B *299:25 2.93517e-05
19 *1750:C *1750:D 0
20 *1750:C *299:12 6.90876e-05
21 *1750:C *299:25 8.57321e-05
22 *2013:A *1760:B2 3.63701e-06
23 *2013:A *299:25 0
24 *2013:A *299:40 6.95482e-05
25 *292:36 *299:25 0.00015817
26 *298:30 *1750:D 0
*RES
1 *1736:Y *299:12 8.395 
2 *299:12 *1750:D 1.96 
3 *299:12 *299:25 5.81 
4 *299:25 *1737:B 5.085 
5 *299:25 *299:40 3.3 
6 *299:40 *1752:A1 3.6 
7 *299:40 *1760:B2 7.635 
*END

*D_NET *300 0.000889635
*CONN
*I *1739:A I *D sky130_fd_sc_hd__xor2_2
*I *1737:Y O *D sky130_fd_sc_hd__nand2_2
*CAP
1 *1739:A 0.000262125
2 *1737:Y 0.000262125
3 *1739:A *312:8 0.000226147
4 *288:41 *1739:A 0
5 *298:30 *1739:A 0.000139238
*RES
1 *1737:Y *1739:A 12.435 
*END

*D_NET *301 0.000706889
*CONN
*I *1739:B I *D sky130_fd_sc_hd__xor2_2
*I *1738:Y O *D sky130_fd_sc_hd__a21boi_2
*CAP
1 *1739:B 0.000258732
2 *1738:Y 0.000258732
3 *1738:A1 *1739:B 0
4 *1738:A2 *1739:B 0.000189426
5 *1750:B *1739:B 0
6 *288:41 *1739:B 0
7 *292:10 *1739:B 0
8 *292:21 *1739:B 0
9 *293:21 *1739:B 0
*RES
1 *1738:Y *1739:B 10.295 
*END

*D_NET *302 0.0018053
*CONN
*I *1744:A I *D sky130_fd_sc_hd__nor2_2
*I *1747:A1 I *D sky130_fd_sc_hd__o21bai_4
*I *1740:Y O *D sky130_fd_sc_hd__nor2_2
*CAP
1 *1744:A 1.08493e-05
2 *1747:A1 0.00033162
3 *1740:Y 0.000244088
4 *302:16 0.000586557
5 *1744:A *1744:B 9.53428e-06
6 *1747:A1 *1744:B 0.000182797
7 *1747:A1 *309:14 0.000139398
8 *302:16 *1740:A 4.82919e-05
9 *302:16 *1744:B 5.27243e-05
10 *302:16 *1760:A2 0.000123477
11 *302:16 *309:14 1.46744e-05
12 *1736:A1 *302:16 6.12936e-05
*RES
1 *1740:Y *302:16 6.445 
2 *302:16 *1747:A1 7.69 
3 *302:16 *1744:A 1.96 
*END

*D_NET *303 0.00120502
*CONN
*I *1745:A I *D sky130_fd_sc_hd__nand3_2
*I *1746:A1 I *D sky130_fd_sc_hd__a21oi_2
*I *1741:X O *D sky130_fd_sc_hd__or2_4
*CAP
1 *1745:A 0.000121965
2 *1746:A1 5.06058e-05
3 *1741:X 7.49649e-05
4 *303:6 0.000247535
5 *1745:A *1746:A2 0
6 *1745:A *1746:B1 0.000201335
7 *1745:A *466:10 0.000138551
8 *1746:A1 *426:6 1.4389e-05
9 *303:6 *1746:B1 8.40269e-05
10 *303:6 *308:14 0.000122337
11 *303:6 *426:6 3.0807e-05
12 *1977:A *1745:A 0.000118504
*RES
1 *1741:X *303:6 3.43 
2 *303:6 *1746:A1 2.41 
3 *303:6 *1745:A 9.53 
*END

*D_NET *304 0.00177284
*CONN
*I *1744:B I *D sky130_fd_sc_hd__nor2_2
*I *1747:A2 I *D sky130_fd_sc_hd__o21bai_4
*I *1742:X O *D sky130_fd_sc_hd__and2_2
*CAP
1 *1744:B 0.00028214
2 *1747:A2 0
3 *1742:X 0.000254645
4 *304:12 0.000536786
5 *304:12 *1742:A 1.08758e-05
6 *304:12 *1742:B 7.42335e-05
7 *304:12 *1743:B 5.21528e-05
8 *304:12 *305:10 0.000284219
9 S[23] *304:12 3.27343e-05
10 *1744:A *1744:B 9.53428e-06
11 *1747:A1 *1744:B 0.000182797
12 *302:16 *1744:B 5.27243e-05
*RES
1 *1742:X *304:12 10.505 
2 *304:12 *1747:A2 1.6 
3 *304:12 *1744:B 6.565 
*END

*D_NET *305 0.00266761
*CONN
*I *1746:A2 I *D sky130_fd_sc_hd__a21oi_2
*I *1745:B I *D sky130_fd_sc_hd__nand3_2
*I *1743:Y O *D sky130_fd_sc_hd__nand2_2
*CAP
1 *1746:A2 0.000262535
2 *1745:B 2.11983e-05
3 *1743:Y 0.000707733
4 *305:10 0.000991466
5 *1745:B *1745:C 4.82919e-05
6 *1746:A2 *1746:B1 0
7 *1746:A2 *2057:A 0.000107716
8 *1746:A2 *426:6 2.11084e-05
9 *305:10 *1742:B 0
10 *305:10 *1743:B 0
11 *305:10 *1959:A 0
12 *305:10 *418:12 0
13 *305:10 *421:10 0
14 *305:10 *459:10 4.49498e-05
15 S[22] *1746:A2 0
16 *1745:A *1746:A2 0
17 *1972:A *305:10 0
18 *1977:A *1746:A2 8.09021e-06
19 *1977:A *305:10 0.000120346
20 *2011:A *305:10 4.99619e-05
21 *304:12 *305:10 0.000284219
*RES
1 *1743:Y *305:10 16.14 
2 *305:10 *1745:B 4.05 
3 *305:10 *1746:A2 8.58 
*END

*D_NET *306 0.00086529
*CONN
*I *1760:A2 I *D sky130_fd_sc_hd__a22oi_2
*I *1744:Y O *D sky130_fd_sc_hd__nor2_2
*CAP
1 *1760:A2 0.000213968
2 *1744:Y 0.000213968
3 *1760:A2 *1740:A 4.82919e-05
4 *1760:A2 *1760:B1 0
5 *1760:A2 *312:8 0
6 *1760:A2 *313:8 8.63479e-05
7 *1760:A2 *453:38 9.52156e-05
8 *1736:A1 *1760:A2 8.40213e-05
9 *302:16 *1760:A2 0.000123477
*RES
1 *1744:Y *1760:A2 11.865 
*END

*D_NET *307 0.00184953
*CONN
*I *1761:C I *D sky130_fd_sc_hd__and3_2
*I *1748:A I *D sky130_fd_sc_hd__nand2_4
*I *1745:Y O *D sky130_fd_sc_hd__nand3_2
*CAP
1 *1761:C 0.00023706
2 *1748:A 0.000142494
3 *1745:Y 0.000354084
4 *307:14 0.000733638
5 *1748:A *1741:B 0
6 *1748:A *1743:A 3.02917e-05
7 *1748:A *1961:A 0
8 *1748:A *422:79 9.50342e-06
9 *1761:C *1741:B 3.49733e-05
10 *1761:C *1743:A 0
11 *1761:C *1753:A 0.000116165
12 *1761:C *1761:A 8.57024e-05
13 *1761:C *512:10 4.21973e-05
14 *307:14 *1743:A 1.67513e-05
15 *307:14 *2057:A 4.66742e-05
*RES
1 *1745:Y *307:14 8.4525 
2 *307:14 *1748:A 5.9025 
3 *307:14 *1761:C 7.8075 
*END

*D_NET *308 0.00347952
*CONN
*I *1762:A1_N I *D sky130_fd_sc_hd__a2bb2oi_2
*I *1771:A1 I *D sky130_fd_sc_hd__o31ai_2
*I *1746:Y O *D sky130_fd_sc_hd__a21oi_2
*CAP
1 *1762:A1_N 0
2 *1771:A1 0.000170159
3 *1746:Y 0.00114623
4 *308:14 0.00131639
5 *1771:A1 *1762:A2_N 3.50152e-06
6 *1771:A1 *1771:A3 8.79005e-05
7 *1771:A1 *321:16 7.14197e-05
8 *308:14 *1712:B 2.75145e-05
9 *308:14 *1741:B 0.000124895
10 *308:14 *1763:B 0.000162318
11 *308:14 *1770:A 0.00011557
12 *308:14 *321:16 5.72791e-05
13 *308:14 *426:6 7.40137e-05
14 *303:6 *308:14 0.000122337
*RES
1 *1746:Y *308:14 22.19 
2 *308:14 *1771:A1 4.84 
3 *308:14 *1762:A1_N 1.6 
*END

*D_NET *309 0.00298193
*CONN
*I *1748:B I *D sky130_fd_sc_hd__nand2_4
*I *1761:B I *D sky130_fd_sc_hd__and3_2
*I *1747:Y O *D sky130_fd_sc_hd__o21bai_4
*CAP
1 *1748:B 0.00039156
2 *1761:B 0
3 *1747:Y 0.000520452
4 *309:14 0.000912013
5 *1748:B *1741:B 0
6 *1748:B *2058:A 0.000162409
7 *1748:B *310:10 0.00010388
8 *309:14 *1732:B 7.23602e-05
9 *309:14 *1742:A 0.00015639
10 *309:14 *1743:A 0.000197415
11 *309:14 *1761:A 0.000156879
12 *309:14 *2058:A 3.38425e-05
13 *1736:A1 *309:14 0.000120655
14 *1747:A1 *309:14 0.000139398
15 *302:16 *309:14 1.46744e-05
*RES
1 *1747:Y *309:14 14.825 
2 *309:14 *1761:B 1.6 
3 *309:14 *1748:B 13.25 
*END

*D_NET *310 0.00111592
*CONN
*I *1770:B I *D sky130_fd_sc_hd__nor3_4
*I *1753:B I *D sky130_fd_sc_hd__xor2_2
*I *1748:Y O *D sky130_fd_sc_hd__nand2_4
*CAP
1 *1770:B 0.000189762
2 *1753:B 0.000167212
3 *1748:Y 6.14913e-05
4 *310:10 0.000418465
5 *1770:B *1770:A 5.58286e-05
6 *310:10 *1741:B 0.000119285
7 *1748:B *310:10 0.00010388
*RES
1 *1748:Y *310:10 8 
2 *310:10 *1753:B 2.1375 
3 *310:10 *1770:B 4.48 
*END

*D_NET *311 0.000956835
*CONN
*I *1760:B1 I *D sky130_fd_sc_hd__a22oi_2
*I *1752:A2 I *D sky130_fd_sc_hd__a22oi_4
*I *1749:Y O *D sky130_fd_sc_hd__nand2_2
*CAP
1 *1760:B1 8.07273e-05
2 *1752:A2 0.000191618
3 *1749:Y 0.000110891
4 *1752:A2 *312:8 0
5 *1752:A2 *415:14 0.000115522
6 *1760:B1 *312:8 8.32079e-05
7 *1760:B1 *453:38 0
8 *1752:B1 *1752:A2 0.000198339
9 *1760:A2 *1760:B1 0
10 *1760:B2 *1760:B1 4.22809e-05
11 *288:41 *1752:A2 0.000134249
*RES
1 *1749:Y *1752:A2 10.665 
2 *1752:A2 *1760:B1 9.09 
*END

*D_NET *312 0.00288638
*CONN
*I *1770:A I *D sky130_fd_sc_hd__nor3_4
*I *1751:A I *D sky130_fd_sc_hd__inv_2
*I *1750:Y O *D sky130_fd_sc_hd__nand4_4
*CAP
1 *1770:A 0.000407508
2 *1751:A 8.83777e-05
3 *1750:Y 0.000452742
4 *312:8 0.000948628
5 *1770:A *1740:B 0
6 *1770:A *1741:B 0
7 *1770:A *1762:B2 0
8 *1770:A *1763:B 0.000162318
9 *1770:A *321:16 0.000164686
10 *312:8 *1740:B 0
11 *312:8 *321:16 0.000181369
12 *1739:A *312:8 0.000226147
13 *1752:A2 *312:8 0
14 *1760:A2 *312:8 0
15 *1760:B1 *312:8 8.32079e-05
16 *1770:B *1770:A 5.58286e-05
17 *288:31 *312:8 0
18 *288:41 *312:8 0
19 *308:14 *1770:A 0.00011557
*RES
1 *1750:Y *312:8 12.12 
2 *312:8 *1751:A 4.74 
3 *312:8 *1770:A 11.325 
*END

*D_NET *313 0.00258514
*CONN
*I *1761:A I *D sky130_fd_sc_hd__and3_2
*I *1752:B2 I *D sky130_fd_sc_hd__a22oi_4
*I *1751:Y O *D sky130_fd_sc_hd__inv_2
*CAP
1 *1761:A 0.000187397
2 *1752:B2 9.037e-05
3 *1751:Y 0.000287577
4 *313:8 0.000565344
5 *1752:B2 *1732:B 0.000285042
6 *1752:B2 *1753:A 0.00028573
7 *1761:A *1732:B 6.45236e-05
8 *1761:A *1743:A 0
9 *1761:A *1753:A 0.000422773
10 *1761:A *2058:A 1.91597e-05
11 *1761:A *512:10 4.82919e-05
12 *1760:A2 *313:8 8.63479e-05
13 *1761:C *1761:A 8.57024e-05
14 *309:14 *1761:A 0.000156879
*RES
1 *1751:Y *313:8 6.81 
2 *313:8 *1752:B2 7.02 
3 *313:8 *1761:A 9.705 
*END

*D_NET *314 0.00211653
*CONN
*I *1753:A I *D sky130_fd_sc_hd__xor2_2
*I *1752:Y O *D sky130_fd_sc_hd__a22oi_4
*CAP
1 *1753:A 0.000305734
2 *1752:Y 0.000305734
3 *1753:A *1732:B 1.27404e-05
4 *1753:A *1741:B 0.000101564
5 *1753:A *1742:A 0.000304934
6 *1753:A *1743:A 0
7 *1753:A *453:38 0.000245206
8 *1752:B2 *1753:A 0.00028573
9 *1760:B2 *1753:A 0
10 *1761:A *1753:A 0.000422773
11 *1761:C *1753:A 0.000116165
12 *2013:A *1753:A 1.59477e-05
*RES
1 *1752:Y *1753:A 17.505 
*END

*D_NET *315 0.00129687
*CONN
*I *1757:B I *D sky130_fd_sc_hd__and3_2
*I *1758:B I *D sky130_fd_sc_hd__nand3_2
*I *1756:A1 I *D sky130_fd_sc_hd__a21o_2
*I *1754:Y O *D sky130_fd_sc_hd__nand2b_2
*CAP
1 *1757:B 8.24665e-05
2 *1758:B 0
3 *1756:A1 0.000128257
4 *1754:Y 3.89481e-05
5 *315:10 0.000160965
6 *315:8 0.000154123
7 *1756:A1 *1756:A2 1.61831e-05
8 *1756:A1 *316:12 0
9 *1757:B *1771:A2 0.00012657
10 *1757:B *421:37 0.000271142
11 *315:8 *1759:B 6.55406e-05
12 *315:8 *1771:A2 9.54399e-05
13 *315:10 *1759:B 1.52184e-05
14 *315:10 *316:12 0
15 *315:10 *317:10 0
16 *1756:B1 *1756:A1 0.000142015
*RES
1 *1754:Y *315:8 4.98 
2 *315:8 *315:10 0.615 
3 *315:10 *1756:A1 5.775 
4 *315:10 *1758:B 3.6 
5 *315:8 *1757:B 6.135 
*END

*D_NET *316 0.00199416
*CONN
*I *1756:A2 I *D sky130_fd_sc_hd__a21o_2
*I *1758:C I *D sky130_fd_sc_hd__nand3_2
*I *1757:C I *D sky130_fd_sc_hd__and3_2
*I *1755:Y O *D sky130_fd_sc_hd__nand2_2
*CAP
1 *1756:A2 9.97211e-05
2 *1758:C 0
3 *1757:C 0.000216618
4 *1755:Y 4.05336e-05
5 *316:12 0.000361672
6 *316:6 0.000285309
7 *1756:A2 *317:10 5.05437e-05
8 *1756:A2 *415:14 0.000267037
9 *1757:C *421:37 9.20835e-05
10 *316:6 *317:10 1.47347e-05
11 *316:6 *415:14 0.000124007
12 *316:12 *1754:A_N 7.12228e-06
13 *316:12 *317:10 0.000139252
14 *316:12 *518:10 2.7881e-05
15 *1756:A1 *1756:A2 1.61831e-05
16 *1756:A1 *316:12 0
17 *1756:B1 *1756:A2 4.99619e-05
18 *1756:B1 *1757:C 3.66286e-05
19 *1756:B1 *316:12 0
20 *106:15 *1757:C 0.000164874
21 *315:10 *316:12 0
*RES
1 *1755:Y *316:6 2.74 
2 *316:6 *316:12 6.4 
3 *316:12 *1757:C 5.515 
4 *316:12 *1758:C 1.6 
5 *316:6 *1756:A2 4.84 
*END

*D_NET *317 0.00179933
*CONN
*I *1759:A I *D sky130_fd_sc_hd__nand2_2
*I *1771:B1 I *D sky130_fd_sc_hd__o31ai_2
*I *1756:X O *D sky130_fd_sc_hd__a21o_2
*CAP
1 *1759:A 0.000182183
2 *1771:B1 0
3 *1756:X 0.000243361
4 *317:10 0.000425544
5 *1759:A *1759:B 8.05681e-05
6 *1759:A *1772:B1 0.000116853
7 *1759:A *415:14 0
8 *1759:A *512:10 9.2741e-05
9 *317:10 *1754:A_N 0.000317507
10 *317:10 *1754:B 7.21296e-06
11 *317:10 *1759:B 0.000128827
12 *317:10 *415:14 0
13 *1756:A2 *317:10 5.05437e-05
14 *315:10 *317:10 0
15 *316:6 *317:10 1.47347e-05
16 *316:12 *317:10 0.000139252
*RES
1 *1756:X *317:10 10.2 
2 *317:10 *1771:B1 3.6 
3 *317:10 *1759:A 7.845 
*END

*D_NET *318 0.000785538
*CONN
*I *1771:A2 I *D sky130_fd_sc_hd__o31ai_2
*I *1757:X O *D sky130_fd_sc_hd__and3_2
*CAP
1 *1771:A2 0.000240438
2 *1757:X 0.000240438
3 *1771:A2 *1759:B 8.26527e-05
4 *1757:B *1771:A2 0.00012657
5 *315:8 *1771:A2 9.54399e-05
*RES
1 *1757:X *1771:A2 11.76 
*END

*D_NET *319 0.000925703
*CONN
*I *1759:B I *D sky130_fd_sc_hd__nand2_2
*I *1758:Y O *D sky130_fd_sc_hd__nand3_2
*CAP
1 *1759:B 0.000276448
2 *1758:Y 0.000276448
3 *1759:B *1772:B1 0
4 *1759:A *1759:B 8.05681e-05
5 *1771:A2 *1759:B 8.26527e-05
6 *315:8 *1759:B 6.55406e-05
7 *315:10 *1759:B 1.52184e-05
8 *317:10 *1759:B 0.000128827
*RES
1 *1758:Y *1759:B 13.425 
*END

*D_NET *320 0.000833096
*CONN
*I *1763:A I *D sky130_fd_sc_hd__xor2_2
*I *1770:C I *D sky130_fd_sc_hd__nor3_4
*I *1759:Y O *D sky130_fd_sc_hd__nand2_2
*CAP
1 *1763:A 0
2 *1770:C 0.00023854
3 *1759:Y 9.77939e-05
4 *320:6 0.000336334
5 *1770:C *330:10 1.77595e-05
6 *320:6 *512:10 0.000142669
*RES
1 *1759:Y *320:6 3.775 
2 *320:6 *1770:C 9.23 
3 *320:6 *1763:A 1.6 
*END

*D_NET *321 0.00196589
*CONN
*I *1771:A3 I *D sky130_fd_sc_hd__o31ai_2
*I *1762:A2_N I *D sky130_fd_sc_hd__a2bb2oi_2
*I *1760:Y O *D sky130_fd_sc_hd__a22oi_2
*CAP
1 *1771:A3 0.000119848
2 *1762:A2_N 1.20781e-05
3 *1760:Y 0.00026796
4 *321:16 0.000399886
5 *321:16 *1762:B2 8.50369e-06
6 *321:16 *1884:A 4.66108e-05
7 *1762:B1 *1771:A3 4.77719e-05
8 *1762:B1 *321:16 0.000191531
9 *1770:A *321:16 0.000164686
10 *1771:A1 *1762:A2_N 3.50152e-06
11 *1771:A1 *1771:A3 8.79005e-05
12 *1771:A1 *321:16 7.14197e-05
13 *288:12 *1771:A3 0.000305545
14 *288:31 *321:16 0
15 *308:14 *321:16 5.72791e-05
16 *312:8 *321:16 0.000181369
*RES
1 *1760:Y *321:16 12.17 
2 *321:16 *1762:A2_N 1.96 
3 *321:16 *1771:A3 5.17 
*END

*D_NET *322 0.000506204
*CONN
*I *1762:B2 I *D sky130_fd_sc_hd__a2bb2oi_2
*I *1761:X O *D sky130_fd_sc_hd__and3_2
*CAP
1 *1762:B2 0.000208468
2 *1761:X 0.000208468
3 *1762:B2 *1740:B 5.39961e-05
4 *1762:B2 *1741:B 2.16389e-05
5 *1762:B1 *1762:B2 5.12969e-06
6 *1770:A *1762:B2 0
7 *321:16 *1762:B2 8.50369e-06
*RES
1 *1761:X *1762:B2 10.77 
*END

*D_NET *323 0.00049354
*CONN
*I *1763:B I *D sky130_fd_sc_hd__xor2_2
*I *1762:Y O *D sky130_fd_sc_hd__a2bb2oi_2
*CAP
1 *1763:B 6.38658e-05
2 *1762:Y 6.38658e-05
3 *1763:B *512:10 4.11729e-05
4 *1770:A *1763:B 0.000162318
5 *308:14 *1763:B 0.000162318
*RES
1 *1762:Y *1763:B 7.8875 
*END

*D_NET *324 0.00129608
*CONN
*I *1766:A1 I *D sky130_fd_sc_hd__o21a_2
*I *1768:C I *D sky130_fd_sc_hd__or3_2
*I *1767:C I *D sky130_fd_sc_hd__nor3_2
*I *1764:X O *D sky130_fd_sc_hd__and2_4
*CAP
1 *1766:A1 0.000220813
2 *1768:C 6.46628e-05
3 *1767:C 0
4 *1764:X 0.000102065
5 *324:12 6.46628e-05
6 *324:10 0.000322878
7 *1766:A1 *1766:A2 5.83373e-05
8 *1766:A1 *338:12 1.4399e-05
9 *1768:C *1768:A 7.66083e-05
10 *1768:C *325:19 8.65961e-05
11 *324:10 *325:10 0
12 *324:10 *327:8 2.68721e-05
13 *324:10 *422:122 6.35104e-05
14 *324:10 *513:14 4.99619e-05
15 *1767:B *1766:A1 6.28498e-05
16 *1767:B *324:10 9.50342e-06
17 *107:14 *1766:A1 7.23602e-05
*RES
1 *1764:X *324:10 5.685 
2 *324:10 *324:12 2 
3 *324:12 *1767:C 1.6 
4 *324:12 *1768:C 3.085 
5 *324:10 *1766:A1 7.245 
*END

*D_NET *325 0.00186817
*CONN
*I *1768:A I *D sky130_fd_sc_hd__or3_2
*I *1766:A2 I *D sky130_fd_sc_hd__o21a_2
*I *1767:A I *D sky130_fd_sc_hd__nor3_2
*I *1765:Y O *D sky130_fd_sc_hd__nor2_2
*CAP
1 *1768:A 3.53432e-05
2 *1766:A2 6.03438e-05
3 *1767:A 0
4 *1765:Y 0.000190696
5 *325:19 0.000195621
6 *325:10 0.000290629
7 *1766:A2 *339:10 0.000113797
8 *1768:A *339:10 4.82919e-05
9 *325:10 *1765:B 0.000111505
10 *325:10 *327:8 3.24046e-05
11 *325:10 *422:58 5.53249e-06
12 *325:10 *422:64 0.000100536
13 *325:10 *422:75 9.76522e-05
14 *325:10 *422:79 6.47516e-05
15 *325:10 *422:122 3.4222e-05
16 *325:19 *339:10 0.000232105
17 *1766:A1 *1766:A2 5.83373e-05
18 *1768:B *1768:A 2.30292e-05
19 *1768:C *1768:A 7.66083e-05
20 *1768:C *325:19 8.65961e-05
21 *107:14 *1766:A2 1.01661e-05
22 *324:10 *325:10 0
*RES
1 *1765:Y *325:10 11.06 
2 *325:10 *1767:A 1.6 
3 *325:10 *325:19 2.535 
4 *325:19 *1766:A2 7.235 
5 *325:19 *1768:A 2.74 
*END

*D_NET *326 0.00130328
*CONN
*I *1784:A_N I *D sky130_fd_sc_hd__nand4b_4
*I *1769:A I *D sky130_fd_sc_hd__or2_2
*I *1766:X O *D sky130_fd_sc_hd__o21a_2
*CAP
1 *1784:A_N 0.000186379
2 *1769:A 9.71884e-06
3 *1766:X 0.000133124
4 *326:10 0.000329221
5 *1769:A *329:6 4.82919e-05
6 *1769:A *422:45 4.82919e-05
7 *1784:A_N *1785:B 4.82863e-05
8 *1784:A_N *1885:A 1.83756e-05
9 *1784:A_N *1961:A 5.0053e-05
10 *1784:A_N *342:12 1.70935e-05
11 *1784:A_N *422:45 0.000114753
12 *1784:A_N *519:10 2.4997e-05
13 *326:10 *327:8 2.88519e-05
14 *326:10 *338:12 0.000124895
15 *326:10 *422:45 1.52184e-05
16 *326:10 *422:58 9.30717e-05
17 *326:10 *519:10 1.26626e-05
*RES
1 *1766:X *326:10 6.12 
2 *326:10 *1769:A 4.05 
3 *326:10 *1784:A_N 7.83 
*END

*D_NET *327 0.00206707
*CONN
*I *1785:A I *D sky130_fd_sc_hd__nand2_2
*I *1769:B I *D sky130_fd_sc_hd__or2_2
*I *1767:Y O *D sky130_fd_sc_hd__nor3_2
*CAP
1 *1785:A 0.000259708
2 *1769:B 0
3 *1767:Y 0.000182886
4 *327:8 0.000442594
5 *1785:A *338:12 9.70048e-05
6 *1785:A *338:21 6.65891e-05
7 *1785:A *338:38 7.33465e-05
8 *1785:A *422:45 0.000576509
9 *327:8 *338:12 9.3062e-06
10 *327:8 *422:45 8.53113e-06
11 *327:8 *422:58 0
12 *1767:B *327:8 7.4027e-05
13 *107:10 *327:8 5.46798e-05
14 *107:14 *327:8 0.000133763
15 *324:10 *327:8 2.68721e-05
16 *325:10 *327:8 3.24046e-05
17 *326:10 *327:8 2.88519e-05
*RES
1 *1767:Y *327:8 8.04 
2 *327:8 *1769:B 3.6 
3 *327:8 *1785:A 11.475 
*END

*D_NET *328 0.00257741
*CONN
*I *1784:B I *D sky130_fd_sc_hd__nand4b_4
*I *1782:B1 I *D sky130_fd_sc_hd__o21ai_4
*I *1768:X O *D sky130_fd_sc_hd__or3_2
*CAP
1 *1784:B 0.000694761
2 *1782:B1 0
3 *1768:X 0.00050073
4 *328:12 0.00119549
5 *1784:B *1782:A2 1.61461e-05
6 *1784:B *1783:A 1.77595e-05
7 *1784:B *1783:B 4.70326e-05
8 *1784:B *1784:D 3.45679e-05
9 *1784:B *1785:B 4.71333e-05
10 *1784:B *2060:A 1.42885e-05
11 *328:12 *1782:A2 9.50342e-06
*RES
1 *1768:X *328:12 10.335 
2 *328:12 *1782:B1 3.6 
3 *328:12 *1784:B 12.42 
*END

*D_NET *329 0.00330295
*CONN
*I *1798:A I *D sky130_fd_sc_hd__nor4_2
*I *1776:A I *D sky130_fd_sc_hd__xor2_4
*I *1782:A1 I *D sky130_fd_sc_hd__o21ai_4
*I *1769:X O *D sky130_fd_sc_hd__or2_2
*CAP
1 *1798:A 0.000117138
2 *1776:A 0.000313963
3 *1782:A1 0
4 *1769:X 0.000366757
5 *329:17 0.000724665
6 *329:6 0.000660322
7 *1776:A *1776:B 9.63964e-05
8 *1776:A *1781:A 0.000445239
9 *1798:A *1798:B 9.05377e-05
10 *329:6 *1777:A 5.83121e-06
11 *329:6 *422:45 3.96653e-05
12 *329:17 *1782:A2 0.0003175
13 *329:17 *1798:B 3.50033e-05
14 *329:17 *339:10 0
15 *1769:A *329:6 4.82919e-05
16 *107:10 *329:6 4.16353e-05
*RES
1 *1769:X *329:6 7.225 
2 *329:6 *1782:A1 1.6 
3 *329:6 *329:17 7.58 
4 *329:17 *1776:A 9.6 
5 *329:17 *1798:A 5.94 
*END

*D_NET *330 0.00224473
*CONN
*I *1773:B I *D sky130_fd_sc_hd__nand4_4
*I *2100:A I *D sky130_fd_sc_hd__buf_2
*I *1770:Y O *D sky130_fd_sc_hd__nor3_4
*CAP
1 *1773:B 7.61926e-05
2 *2100:A 2.61242e-05
3 *1770:Y 0.000656163
4 *330:10 0.00075848
5 *1773:B *1772:B1 0.000164686
6 *330:10 *1703:B 3.64998e-06
7 *330:10 *1772:B1 0.000495061
8 *1714:A1 *330:10 0
9 *1770:C *330:10 1.77595e-05
10 *277:19 *1773:B 0
11 *277:19 *330:10 0
12 *278:8 *2100:A 4.66108e-05
13 *280:18 *1773:B 0
*RES
1 *1770:Y *330:10 13.905 
2 *330:10 *2100:A 4.05 
3 *330:10 *1773:B 5.49 
*END

*D_NET *331 0.00283279
*CONN
*I *1772:B1 I *D sky130_fd_sc_hd__a21oi_2
*I *1771:Y O *D sky130_fd_sc_hd__o31ai_2
*CAP
1 *1772:B1 0.00040689
2 *1771:Y 0.00040689
3 *1772:B1 *1703:B 0.00013994
4 *1772:B1 *415:14 0
5 *1772:B1 *424:12 0.000891854
6 *1772:B1 *424:18 0.000162325
7 *1716:B *1772:B1 0
8 *1759:A *1772:B1 0.000116853
9 *1759:B *1772:B1 0
10 *1773:B *1772:B1 0.000164686
11 *288:12 *1772:B1 4.82919e-05
12 *330:10 *1772:B1 0.000495061
*RES
1 *1771:Y *1772:B1 21.27 
*END

*D_NET *332 0.00116747
*CONN
*I *1809:A1 I *D sky130_fd_sc_hd__o21ai_2
*I *1775:B1_N I *D sky130_fd_sc_hd__a21boi_4
*I *1772:Y O *D sky130_fd_sc_hd__a21oi_2
*CAP
1 *1809:A1 0.000151322
2 *1775:B1_N 2.12116e-05
3 *1772:Y 0.000147143
4 *332:8 0.000319677
5 *1775:B1_N *335:10 4.82863e-05
6 *1809:A1 *424:12 0.000186099
7 *332:8 *424:12 0.000293726
8 *1716:B *332:8 0
*RES
1 *1772:Y *332:8 7.02 
2 *332:8 *1775:B1_N 4.05 
3 *332:8 *1809:A1 6.54 
*END

*D_NET *333 0.00210372
*CONN
*I *1810:A I *D sky130_fd_sc_hd__nor2_2
*I *1811:A I *D sky130_fd_sc_hd__or2_4
*I *1774:A I *D sky130_fd_sc_hd__inv_2
*I *1773:Y O *D sky130_fd_sc_hd__nand4_4
*CAP
1 *1810:A 5.95401e-05
2 *1811:A 3.37454e-05
3 *1774:A 0
4 *1773:Y 0.000291279
5 *333:19 0.00040774
6 *333:10 0.000605733
7 *1810:A *1809:B1 1.26626e-05
8 *1810:A *1812:A2 4.7043e-05
9 *1810:A *2103:A 0
10 *1810:A *362:10 0.000132096
11 *333:10 *1718:A 0
12 *333:19 *1718:A 0
13 *333:19 *1775:A1 0.000143266
14 *333:19 *1809:A2 0.000231571
15 *333:19 *1812:A2 2.97004e-06
16 *333:19 *2103:A 0
17 *333:19 *362:10 9.50342e-06
18 *333:19 *424:12 0
19 *1716:A *333:10 0
20 *1718:B *333:10 0
21 *1724:B1_N *333:10 0.00012657
*RES
1 *1773:Y *333:10 8.16 
2 *333:10 *1774:A 3.6 
3 *333:10 *333:19 6.48 
4 *333:19 *1811:A 4.05 
5 *333:19 *1810:A 5.49 
*END

*D_NET *334 0.000277641
*CONN
*I *1775:A1 I *D sky130_fd_sc_hd__a21boi_4
*I *1774:Y O *D sky130_fd_sc_hd__inv_2
*CAP
1 *1775:A1 6.71875e-05
2 *1774:Y 6.71875e-05
3 *1775:A1 *424:12 0
4 *333:19 *1775:A1 0.000143266
*RES
1 *1774:Y *1775:A1 8.835 
*END

*D_NET *335 0.00260585
*CONN
*I *2077:A I *D sky130_fd_sc_hd__buf_2
*I *2076:A I *D sky130_fd_sc_hd__buf_6
*I *1798:D I *D sky130_fd_sc_hd__nor4_2
*I *2042:A I *D sky130_fd_sc_hd__buf_6
*I *1775:Y O *D sky130_fd_sc_hd__a21boi_4
*CAP
1 *2077:A 7.84639e-05
2 *2076:A 4.10005e-05
3 *1798:D 0
4 *2042:A 0.000102407
5 *1775:Y 0.000511403
6 *335:30 0.000200154
7 *335:21 0.000225312
8 *335:10 0.000758433
9 *2076:A *1804:B1 2.937e-05
10 *2076:A *1806:A_N 1.34503e-05
11 *2077:A *1803:A1 0.000204456
12 *2077:A *1804:B1 0.00015829
13 *2077:A *1806:B 4.66108e-05
14 *2077:A *356:10 4.66108e-05
15 *335:10 *1782:A2 0
16 *335:30 *1803:A1 0.000141599
17 *1775:B1_N *335:10 4.82863e-05
*RES
1 *1775:Y *335:10 10.935 
2 *335:10 *2042:A 5.085 
3 *335:10 *335:21 2.4 
4 *335:21 *1798:D 3.6 
5 *335:21 *335:30 1.89 
6 *335:30 *2076:A 4.395 
7 *335:30 *2077:A 6.45 
*END

*D_NET *336 0.000921482
*CONN
*I *1779:A I *D sky130_fd_sc_hd__or3b_4
*I *1780:A1 I *D sky130_fd_sc_hd__o21bai_2
*I *1777:Y O *D sky130_fd_sc_hd__nor2_2
*CAP
1 *1779:A 0
2 *1780:A1 0.000154271
3 *1777:Y 0.000127343
4 *336:10 0.000281614
5 *1780:A1 *1777:B 4.24292e-06
6 *1780:A1 *1779:B 0.00015997
7 *1780:A1 *1780:A2 4.82919e-05
8 *1780:A1 *1780:B1_N 0
9 *1780:A1 *337:6 3.83041e-05
10 *1780:A1 *521:10 2.97004e-06
11 *336:10 *1777:B 6.7449e-05
12 *336:10 *1779:B 9.50342e-06
13 *336:10 *519:10 2.75229e-05
14 *2014:A *336:10 0
*RES
1 *1777:Y *336:10 6.195 
2 *336:10 *1780:A1 6.54 
3 *336:10 *1779:A 3.6 
*END

*D_NET *337 0.000924601
*CONN
*I *1779:B I *D sky130_fd_sc_hd__or3b_4
*I *1780:A2 I *D sky130_fd_sc_hd__o21bai_2
*I *1778:X O *D sky130_fd_sc_hd__and2_2
*CAP
1 *1779:B 5.48259e-05
2 *1780:A2 5.63887e-05
3 *1778:X 3.25731e-05
4 *337:6 0.000143788
5 *1779:B *1777:B 8.71079e-05
6 *1780:A2 *339:10 4.66108e-05
7 *337:6 *1778:B 8.65961e-05
8 *337:6 *339:10 0.000160641
9 *1780:A1 *1779:B 0.00015997
10 *1780:A1 *1780:A2 4.82919e-05
11 *1780:A1 *337:6 3.83041e-05
12 *336:10 *1779:B 9.50342e-06
*RES
1 *1778:X *337:6 3.085 
2 *337:6 *1780:A2 2.755 
3 *337:6 *1779:B 7.49 
*END

*D_NET *338 0.00712102
*CONN
*I *1800:A1 I *D sky130_fd_sc_hd__a31o_2
*I *1799:A1 I *D sky130_fd_sc_hd__a31oi_2
*I *1795:B1 I *D sky130_fd_sc_hd__o2111ai_2
*I *1786:B1 I *D sky130_fd_sc_hd__o211ai_2
*I *1781:A I *D sky130_fd_sc_hd__nand2_2
*I *1784:C I *D sky130_fd_sc_hd__nand4b_4
*I *1779:X O *D sky130_fd_sc_hd__or3b_4
*CAP
1 *1800:A1 0.000271071
2 *1799:A1 1.8855e-05
3 *1795:B1 4.41513e-05
4 *1786:B1 4.44806e-05
5 *1781:A 0.000101607
6 *1784:C 0
7 *1779:X 0.000512365
8 *338:64 0.000467087
9 *338:42 0.000263058
10 *338:38 0.000687044
11 *338:21 0.000513398
12 *338:12 0.000588699
13 *1781:A *1776:B 0.000105275
14 *1781:A *1781:B 0.000310968
15 *1781:A *574:8 5.12969e-06
16 *1786:B1 *1795:A1 0.000108329
17 *1786:B1 *1961:A 0.00016163
18 *1786:B1 *342:12 5.16348e-05
19 *1795:B1 *1795:A1 7.58604e-05
20 *1795:B1 *1796:A 1.07797e-05
21 *1795:B1 *1961:A 4.21314e-05
22 *1799:A1 *1806:B 9.13949e-06
23 *1800:A1 *1798:C 0.000202095
24 *1800:A1 *1800:B1 0.000185299
25 *1800:A1 *1806:B 0.000136255
26 *1800:A1 *436:6 4.39207e-05
27 *338:12 *339:10 0.000189291
28 *338:12 *481:10 0.00010072
29 *338:21 *1781:B 8.34505e-05
30 *338:21 *2060:A 0
31 *338:21 *339:10 5.53249e-06
32 *338:38 *1800:A3 0
33 *338:38 *1804:A1 0
34 *338:38 *2060:A 0
35 *338:38 *422:45 0
36 *338:42 *1795:A1 4.66108e-05
37 *338:42 *1795:C1 4.66108e-05
38 *338:42 *1799:A2 0.000186388
39 *338:64 *1799:A2 0.000272473
40 *338:64 *1806:B 3.04704e-05
41 *1766:A1 *338:12 1.4399e-05
42 *1776:A *1781:A 0.000445239
43 *1785:A *338:12 9.70048e-05
44 *1785:A *338:21 6.65891e-05
45 *1785:A *338:38 7.33465e-05
46 *1980:A *338:12 0.000274659
47 *107:10 *338:12 9.37731e-05
48 *326:10 *338:12 0.000124895
49 *327:8 *338:12 9.3062e-06
*RES
1 *1779:X *338:12 14.55 
2 *338:12 *1784:C 3.6 
3 *338:12 *338:21 2.145 
4 *338:21 *1781:A 8.31 
5 *338:21 *338:38 7.715 
6 *338:38 *338:42 4.865 
7 *338:42 *1786:B1 5.49 
8 *338:42 *1795:B1 4.665 
9 *338:38 *338:64 3.21 
10 *338:64 *1799:A1 1.96 
11 *338:64 *1800:A1 10.97 
*END

*D_NET *339 0.00480568
*CONN
*I *1781:B I *D sky130_fd_sc_hd__nand2_2
*I *1784:D I *D sky130_fd_sc_hd__nand4b_4
*I *1785:B I *D sky130_fd_sc_hd__nand2_2
*I *1780:Y O *D sky130_fd_sc_hd__o21bai_2
*CAP
1 *1781:B 0.000153181
2 *1784:D 3.76328e-05
3 *1785:B 0.000383216
4 *1780:Y 0.000668366
5 *339:12 0.000420849
6 *339:10 0.000821548
7 *1781:B *1776:B 0.000310968
8 *1781:B *2060:A 0
9 *1785:B *342:12 0.000342247
10 *1785:B *422:45 0.000137777
11 *339:10 *1778:B 4.35348e-05
12 *1766:A2 *339:10 0.000113797
13 *1768:A *339:10 4.82919e-05
14 *1768:B *339:10 0.00015639
15 *1780:A2 *339:10 4.66108e-05
16 *1781:A *1781:B 0.000310968
17 *1784:A_N *1785:B 4.82863e-05
18 *1784:B *1784:D 3.45679e-05
19 *1784:B *1785:B 4.71333e-05
20 *107:10 *339:10 9.29751e-06
21 *107:14 *339:10 0
22 *325:19 *339:10 0.000232105
23 *329:17 *339:10 0
24 *337:6 *339:10 0.000160641
25 *338:12 *339:10 0.000189291
26 *338:21 *1781:B 8.34505e-05
27 *338:21 *339:10 5.53249e-06
*RES
1 *1780:Y *339:10 15.885 
2 *339:10 *339:12 2 
3 *339:12 *1785:B 13.55 
4 *339:12 *1784:D 2.395 
5 *339:10 *1781:B 8.355 
*END

*D_NET *340 0.00103055
*CONN
*I *1798:B I *D sky130_fd_sc_hd__nor4_2
*I *1783:A I *D sky130_fd_sc_hd__xnor2_4
*I *1781:Y O *D sky130_fd_sc_hd__nand2_2
*CAP
1 *1798:B 0.000169799
2 *1783:A 0.000181007
3 *1781:Y 0
4 *340:6 0.000350807
5 *1783:A *1782:A2 0.000136778
6 *1798:B *1798:C 4.8854e-05
7 *1784:B *1783:A 1.77595e-05
8 *1798:A *1798:B 9.05377e-05
9 *329:17 *1798:B 3.50033e-05
*RES
1 *1781:Y *340:6 3.6 
2 *340:6 *1783:A 6.93 
3 *340:6 *1798:B 7.05 
*END

*D_NET *341 0.000475792
*CONN
*I *1783:B I *D sky130_fd_sc_hd__xnor2_4
*I *1782:Y O *D sky130_fd_sc_hd__o21ai_4
*CAP
1 *1783:B 0.000155467
2 *1782:Y 0.000155467
3 *1783:B *1782:A2 0.000117825
4 *1784:B *1783:B 4.70326e-05
*RES
1 *1782:Y *1783:B 9.99 
*END

*D_NET *342 0.0059818
*CONN
*I *1795:A1 I *D sky130_fd_sc_hd__o2111ai_2
*I *1806:A_N I *D sky130_fd_sc_hd__nand3b_2
*I *1804:A1 I *D sky130_fd_sc_hd__o311ai_4
*I *1786:A1 I *D sky130_fd_sc_hd__o211ai_2
*I *1784:Y O *D sky130_fd_sc_hd__nand4b_4
*CAP
1 *1795:A1 0.000228334
2 *1806:A_N 0.000523851
3 *1804:A1 0.00026891
4 *1786:A1 0.000154461
5 *1784:Y 0.000198872
6 *342:29 0.00101855
7 *342:14 0.000380255
8 *342:12 0.000427206
9 *1786:A1 *1786:A2 1.85674e-05
10 *1786:A1 *1795:A2 4.82919e-05
11 *1786:A1 *2060:A 3.93106e-05
12 *1786:A1 *436:6 0.000119756
13 *1795:A1 *1796:A 0.000116158
14 *1795:A1 *343:30 1.15688e-05
15 *1804:A1 *1800:A3 7.3664e-05
16 *1804:A1 *348:17 8.42239e-05
17 *1804:A1 *422:45 0
18 *1806:A_N *1804:B1 0.000566367
19 *1806:A_N *1806:C 1.85674e-05
20 *1806:A_N *436:6 1.60203e-05
21 *342:12 *1961:A 0.000512325
22 *342:12 *343:8 6.62102e-05
23 *342:12 *343:30 2.23407e-05
24 *342:12 *422:45 0
25 *342:29 *436:6 0.000412761
26 *1784:A_N *342:12 1.70935e-05
27 *1785:B *342:12 0.000342247
28 *1786:B1 *1795:A1 0.000108329
29 *1786:B1 *342:12 5.16348e-05
30 *1795:B1 *1795:A1 7.58604e-05
31 *2076:A *1806:A_N 1.34503e-05
32 *338:38 *1804:A1 0
33 *338:42 *1795:A1 4.66108e-05
*RES
1 *1784:Y *342:12 10.89 
2 *342:12 *342:14 2 
3 *342:14 *1786:A1 4.495 
4 *342:14 *342:29 4.26 
5 *342:29 *1804:A1 10.16 
6 *342:29 *1806:A_N 8.785 
7 *342:12 *1795:A1 8.115 
*END

*D_NET *343 0.00298743
*CONN
*I *1799:A2 I *D sky130_fd_sc_hd__a31oi_2
*I *1795:C1 I *D sky130_fd_sc_hd__o2111ai_2
*I *1786:C1 I *D sky130_fd_sc_hd__o211ai_2
*I *1800:A2 I *D sky130_fd_sc_hd__a31o_2
*I *1785:Y O *D sky130_fd_sc_hd__nand2_2
*CAP
1 *1799:A2 9.53837e-05
2 *1795:C1 4.60032e-05
3 *1786:C1 0
4 *1800:A2 0.000148302
5 *1785:Y 5.8526e-05
6 *343:30 0.000200566
7 *343:10 0.000148302
8 *343:8 0.000117705
9 *1799:A2 *1806:B 0.000360947
10 *1800:A2 *1786:A2 0
11 *1800:A2 *1800:A3 4.89295e-05
12 *1800:A2 *2060:A 0.000462039
13 *1800:A2 *436:6 0.000264719
14 *343:8 *422:45 0.000138544
15 *343:30 *1796:A 0.000116158
16 *343:30 *422:45 0.000175713
17 *1795:A1 *343:30 1.15688e-05
18 *338:42 *1795:C1 4.66108e-05
19 *338:42 *1799:A2 0.000186388
20 *338:64 *1799:A2 0.000272473
21 *342:12 *343:8 6.62102e-05
22 *342:12 *343:30 2.23407e-05
*RES
1 *1785:Y *343:8 5.235 
2 *343:8 *343:10 2 
3 *343:10 *1800:A2 6.91 
4 *343:10 *1786:C1 1.6 
5 *343:8 *343:30 4.145 
6 *343:30 *1795:C1 2.41 
7 *343:30 *1799:A2 5.845 
*END

*D_NET *344 0.0016288
*CONN
*I *1796:A I *D sky130_fd_sc_hd__nand2_2
*I *1786:Y O *D sky130_fd_sc_hd__o211ai_2
*CAP
1 *1796:A 0.000291894
2 *1786:Y 0.000291894
3 *1796:A *1788:A 0
4 *1796:A *1789:B 2.86623e-05
5 *1796:A *1797:A 0.000141599
6 *1796:A *1961:A 0.000131837
7 *1796:A *346:6 0.000115762
8 *1796:A *346:19 4.80285e-05
9 *1796:A *351:10 0.000134538
10 *1796:A *422:6 0.00019637
11 *1796:A *422:45 5.12017e-06
12 *1795:A1 *1796:A 0.000116158
13 *1795:B1 *1796:A 1.07797e-05
14 *343:30 *1796:A 0.000116158
*RES
1 *1786:Y *1796:A 16.05 
*END

*D_NET *345 0.0034779
*CONN
*I *1792:A1 I *D sky130_fd_sc_hd__a21o_2
*I *1790:C I *D sky130_fd_sc_hd__nand3_2
*I *1791:A1 I *D sky130_fd_sc_hd__a21oi_2
*I *1789:A I *D sky130_fd_sc_hd__nand2_2
*I *1787:Y O *D sky130_fd_sc_hd__nand2_2
*CAP
1 *1792:A1 0
2 *1790:C 1.42229e-05
3 *1791:A1 0.000126814
4 *1789:A 0.000291735
5 *1787:Y 0
6 *345:42 0.000101453
7 *345:21 0.000641484
8 *345:4 0.000719174
9 *1789:A *1789:B 0
10 *1789:A *1793:B 0
11 *1789:A *537:8 9.52646e-05
12 *1790:C *1792:A2 4.99619e-05
13 *1790:C *1792:B1 2.05056e-05
14 *1791:A1 *1791:B1 4.77757e-05
15 *1791:A1 *1792:A2 9.31255e-05
16 *1791:A1 *1794:B 2.15152e-05
17 *1791:A1 *348:17 6.89716e-05
18 *1791:A1 *484:8 2.16389e-05
19 *345:21 *1793:A 0.000238843
20 *345:21 *1794:A 3.23663e-05
21 *345:21 *1794:B 0.000273966
22 *345:21 *352:28 0.00031227
23 *345:42 *1792:A2 2.0514e-05
24 *345:42 *1792:B1 2.73681e-05
25 *345:42 *1794:B 0.000160115
26 *345:42 *352:28 9.8816e-05
*RES
1 *1787:Y *345:4 1.6 
2 *345:4 *1789:A 10.265 
3 *345:4 *345:21 9.09 
4 *345:21 *1791:A1 8.45 
5 *345:21 *345:42 3 
6 *345:42 *1790:C 2.395 
7 *345:42 *1792:A1 1.6 
*END

*D_NET *346 0.00335363
*CONN
*I *1792:A2 I *D sky130_fd_sc_hd__a21o_2
*I *1791:A2 I *D sky130_fd_sc_hd__a21oi_2
*I *1790:A I *D sky130_fd_sc_hd__nand3_2
*I *1789:B I *D sky130_fd_sc_hd__nand2_2
*I *1788:X O *D sky130_fd_sc_hd__or2_2
*CAP
1 *1792:A2 0.000183662
2 *1791:A2 0
3 *1790:A 0.00011151
4 *1789:B 0.000198621
5 *1788:X 0.000136238
6 *346:34 0.000249023
7 *346:19 0.000415856
8 *346:6 0.000573845
9 *1789:B *1793:B 9.3062e-06
10 *1789:B *1961:A 3.09233e-05
11 *1789:B *351:10 0
12 *1789:B *537:12 0.000309729
13 *1790:A *1791:B1 9.5433e-05
14 *1790:A *1794:A 4.66108e-05
15 *1790:A *1794:B 4.66108e-05
16 *1790:A *348:17 2.50049e-05
17 *1790:A *351:10 0
18 *1790:A *484:8 4.14369e-05
19 *1792:A2 *1791:B1 6.41532e-05
20 *1792:A2 *1792:B1 8.65961e-05
21 *1792:A2 *352:28 5.11434e-05
22 *346:6 *1797:B 5.05437e-05
23 *346:6 *422:6 6.47326e-05
24 *346:19 *422:45 0.000158066
25 *346:34 *1791:B1 4.85359e-05
26 *1789:A *1789:B 0
27 *1790:C *1792:A2 4.99619e-05
28 *1791:A1 *1792:A2 9.31255e-05
29 *1796:A *1789:B 2.86623e-05
30 *1796:A *346:6 0.000115762
31 *1796:A *346:19 4.80285e-05
32 *345:42 *1792:A2 2.0514e-05
*RES
1 *1788:X *346:6 4.81 
2 *346:6 *1789:B 10.04 
3 *346:6 *346:19 4.245 
4 *346:19 *1790:A 8.195 
5 *346:19 *346:34 1.14 
6 *346:34 *1791:A2 1.6 
7 *346:34 *1792:A2 9.77 
*END

*D_NET *347 0.000262441
*CONN
*I *1793:B I *D sky130_fd_sc_hd__xnor2_2
*I *1789:Y O *D sky130_fd_sc_hd__nand2_2
*CAP
1 *1793:B 8.84071e-05
2 *1789:Y 8.84071e-05
3 *1793:B *537:12 7.63204e-05
4 *1789:A *1793:B 0
5 *1789:B *1793:B 9.3062e-06
*RES
1 *1789:Y *1793:B 9.09 
*END

*D_NET *348 0.00195887
*CONN
*I *1799:A3 I *D sky130_fd_sc_hd__a31oi_2
*I *1800:A3 I *D sky130_fd_sc_hd__a31o_2
*I *1794:A I *D sky130_fd_sc_hd__nand2_2
*I *1790:Y O *D sky130_fd_sc_hd__nand3_2
*CAP
1 *1799:A3 0
2 *1800:A3 0.000149359
3 *1794:A 6.98195e-05
4 *1790:Y 0
5 *348:17 0.000429905
6 *348:4 0.000350366
7 *1794:A *1793:A 0.000269927
8 *1794:A *1794:B 9.23169e-05
9 *1794:A *484:36 4.66108e-05
10 *1800:A3 *436:6 4.77757e-05
11 *348:17 *1791:B1 9.37731e-05
12 *348:17 *422:45 0
13 *348:17 *484:8 2.92496e-05
14 *1790:A *1794:A 4.66108e-05
15 *1790:A *348:17 2.50049e-05
16 *1791:A1 *348:17 6.89716e-05
17 *1800:A2 *1800:A3 4.89295e-05
18 *1804:A1 *1800:A3 7.3664e-05
19 *1804:A1 *348:17 8.42239e-05
20 *338:38 *1800:A3 0
21 *345:21 *1794:A 3.23663e-05
*RES
1 *1790:Y *348:4 1.6 
2 *348:4 *1794:A 4.48 
3 *348:4 *348:17 7.715 
4 *348:17 *1800:A3 6.45 
5 *348:17 *1799:A3 3.6 
*END

*D_NET *349 0.00114525
*CONN
*I *1799:B1 I *D sky130_fd_sc_hd__a31oi_2
*I *1800:B1 I *D sky130_fd_sc_hd__a31o_2
*I *1791:Y O *D sky130_fd_sc_hd__a21oi_2
*CAP
1 *1799:B1 2.2266e-05
2 *1800:B1 0.000140878
3 *1791:Y 0.000167439
4 *349:8 0.000330582
5 *1799:B1 *1806:B 4.82919e-05
6 *1800:B1 *1798:C 2.15594e-05
7 *1800:B1 *436:6 4.77719e-05
8 *349:8 *1798:C 9.24127e-05
9 *349:8 *352:28 8.87475e-05
10 *1800:A1 *1800:B1 0.000185299
*RES
1 *1791:Y *349:8 7.275 
2 *349:8 *1800:B1 6.45 
3 *349:8 *1799:B1 4.05 
*END

*D_NET *350 0.00140189
*CONN
*I *1794:B I *D sky130_fd_sc_hd__nand2_2
*I *1792:X O *D sky130_fd_sc_hd__a21o_2
*CAP
1 *1794:B 0.000305847
2 *1792:X 0.000305847
3 *1794:B *1790:B 0
4 *1794:B *1792:B1 5.26491e-05
5 *1794:B *352:28 0.00012891
6 *1794:B *484:36 1.41165e-05
7 *1790:A *1794:B 4.66108e-05
8 *1791:A1 *1794:B 2.15152e-05
9 *1794:A *1794:B 9.23169e-05
10 *345:21 *1794:B 0.000273966
11 *345:42 *1794:B 0.000160115
*RES
1 *1792:X *1794:B 14.205 
*END

*D_NET *351 0.00337554
*CONN
*I *1806:B I *D sky130_fd_sc_hd__nand3b_2
*I *1795:D1 I *D sky130_fd_sc_hd__o2111ai_2
*I *1793:Y O *D sky130_fd_sc_hd__xnor2_2
*CAP
1 *1806:B 0.000666701
2 *1795:D1 0
3 *1793:Y 0.000185825
4 *351:10 0.000852526
5 *1806:B *1803:A1 0
6 *1806:B *1807:B1 0.000233691
7 *1806:B *356:10 0.000209078
8 *351:10 *1797:A 0.000141599
9 *351:10 *422:45 0.000319862
10 *1789:B *351:10 0
11 *1790:A *351:10 0
12 *1796:A *351:10 0.000134538
13 *1799:A1 *1806:B 9.13949e-06
14 *1799:A2 *1806:B 0.000360947
15 *1799:B1 *1806:B 4.82919e-05
16 *1800:A1 *1806:B 0.000136255
17 *2077:A *1806:B 4.66108e-05
18 *338:64 *1806:B 3.04704e-05
*RES
1 *1793:Y *351:10 11.06 
2 *351:10 *1795:D1 1.6 
3 *351:10 *1806:B 19.385 
*END

*D_NET *352 0.00407253
*CONN
*I *1804:A2 I *D sky130_fd_sc_hd__o311ai_4
*I *1798:C I *D sky130_fd_sc_hd__nor4_2
*I *1796:B I *D sky130_fd_sc_hd__nand2_2
*I *1794:Y O *D sky130_fd_sc_hd__nand2_2
*CAP
1 *1804:A2 0
2 *1798:C 0.000447745
3 *1796:B 0.000239651
4 *1794:Y 0.000873645
5 *352:28 0.00108174
6 *1796:B *1787:A 0
7 *1796:B *1787:B 0
8 *1796:B *1793:A 0.000311288
9 *1796:B *1961:A 5.53249e-06
10 *1796:B *522:10 0
11 *1796:B *537:12 6.81237e-05
12 *1792:A2 *352:28 5.11434e-05
13 *1794:B *352:28 0.00012891
14 *1798:B *1798:C 4.8854e-05
15 *1800:A1 *1798:C 0.000202095
16 *1800:B1 *1798:C 2.15594e-05
17 *345:21 *352:28 0.00031227
18 *345:42 *352:28 9.8816e-05
19 *349:8 *1798:C 9.24127e-05
20 *349:8 *352:28 8.87475e-05
*RES
1 *1794:Y *1796:B 11.7 
2 *1794:Y *352:28 13.485 
3 *352:28 *1798:C 11.16 
4 *352:28 *1804:A2 3.6 
*END

*D_NET *353 0.000476005
*CONN
*I *1797:A I *D sky130_fd_sc_hd__nand2_2
*I *1795:Y O *D sky130_fd_sc_hd__o2111ai_2
*CAP
1 *1797:A 9.64031e-05
2 *1795:Y 9.64031e-05
3 *1796:A *1797:A 0.000141599
4 *351:10 *1797:A 0.000141599
*RES
1 *1795:Y *1797:A 9.63 
*END

*D_NET *354 0.000455831
*CONN
*I *1797:B I *D sky130_fd_sc_hd__nand2_2
*I *1796:Y O *D sky130_fd_sc_hd__nand2_2
*CAP
1 *1797:B 0.000133025
2 *1796:Y 0.000133025
3 *1797:B *1961:A 0.000139238
4 *346:6 *1797:B 5.05437e-05
*RES
1 *1796:Y *1797:B 9.63 
*END

*D_NET *355 0.000752539
*CONN
*I *1803:A1 I *D sky130_fd_sc_hd__o21bai_2
*I *1798:Y O *D sky130_fd_sc_hd__nor4_2
*CAP
1 *1803:A1 0.000203242
2 *1798:Y 0.000203242
3 *1803:A1 *1807:B1 0
4 *1806:B *1803:A1 0
5 *2077:A *1803:A1 0.000204456
6 *335:30 *1803:A1 0.000141599
*RES
1 *1798:Y *1803:A1 11.13 
*END

*D_NET *356 0.00205411
*CONN
*I *1807:B1 I *D sky130_fd_sc_hd__o21a_2
*I *1803:A2 I *D sky130_fd_sc_hd__o21bai_2
*I *1799:Y O *D sky130_fd_sc_hd__a31oi_2
*CAP
1 *1807:B1 0.000248299
2 *1803:A2 0
3 *1799:Y 0.000245997
4 *356:10 0.000494296
5 *1807:B1 *1806:C 0.00019057
6 *1807:B1 *1808:B1 2.11084e-05
7 *1807:B1 *362:6 0.000315527
8 *356:10 *1804:A3 4.89295e-05
9 *1803:A1 *1807:B1 0
10 *1806:B *1807:B1 0.000233691
11 *1806:B *356:10 0.000209078
12 *2077:A *356:10 4.66108e-05
*RES
1 *1799:Y *356:10 6.22 
2 *356:10 *1803:A2 1.6 
3 *356:10 *1807:B1 12.35 
*END

*D_NET *357 0.00185219
*CONN
*I *1804:B1 I *D sky130_fd_sc_hd__o311ai_4
*I *1800:X O *D sky130_fd_sc_hd__a31o_2
*CAP
1 *1804:B1 0.000338257
2 *1800:X 0.000338257
3 *1804:B1 *1804:A3 0.000114326
4 *1804:B1 *1805:A 0
5 *1804:B1 *436:6 0.000307327
6 *1806:A_N *1804:B1 0.000566367
7 *2076:A *1804:B1 2.937e-05
8 *2077:A *1804:B1 0.00015829
*RES
1 *1800:X *1804:B1 16.155 
*END

*D_NET *358 0.00147071
*CONN
*I *1808:A2 I *D sky130_fd_sc_hd__a21oi_2
*I *1807:A2 I *D sky130_fd_sc_hd__o21a_2
*I *1802:B I *D sky130_fd_sc_hd__xor2_2
*I *1801:X O *D sky130_fd_sc_hd__xor2_2
*CAP
1 *1808:A2 0
2 *1807:A2 0.000154954
3 *1802:B 0
4 *1801:X 0.000177938
5 *358:17 0.000250586
6 *358:8 0.00027357
7 *1807:A2 *1809:B1 0.000164686
8 *1807:A2 *1810:B 3.64998e-06
9 *1807:A2 *362:6 4.65515e-05
10 *358:8 *1814:B 0
11 *358:8 *424:12 0
12 *358:8 *487:10 7.34286e-05
13 *358:17 *1809:B1 4.21314e-05
14 *358:17 *424:12 0
15 *358:17 *487:18 0.000141606
16 *1983:A *358:8 0.000141606
*RES
1 *1801:X *358:8 7.53 
2 *358:8 *1802:B 2 
3 *358:8 *358:17 2.34 
4 *358:17 *1807:A2 6.63 
5 *358:17 *1808:A2 3.6 
*END

*D_NET *359 0.00120547
*CONN
*I *1803:B1_N I *D sky130_fd_sc_hd__o21bai_2
*I *1806:C I *D sky130_fd_sc_hd__nand3b_2
*I *1804:C1 I *D sky130_fd_sc_hd__o311ai_4
*I *1802:X O *D sky130_fd_sc_hd__xor2_2
*CAP
1 *1803:B1_N 0
2 *1806:C 0.000219778
3 *1804:C1 7.53009e-05
4 *1802:X 7.50173e-05
5 *359:17 0.000310054
6 *359:6 0.000240594
7 *1804:C1 *1805:B 1.83847e-05
8 *1806:C *424:12 0
9 *359:17 *1805:A 5.72004e-05
10 *359:17 *424:12 0
11 *1806:A_N *1806:C 1.85674e-05
12 *1807:B1 *1806:C 0.00019057
*RES
1 *1802:X *359:6 2.74 
2 *359:6 *1804:C1 2.74 
3 *359:6 *359:17 3.89 
4 *359:17 *1806:C 7.935 
5 *359:17 *1803:B1_N 3.6 
*END

*D_NET *360 0.000743612
*CONN
*I *1805:A I *D sky130_fd_sc_hd__nand2_4
*I *1803:Y O *D sky130_fd_sc_hd__o21bai_2
*CAP
1 *1805:A 0.00028345
2 *1803:Y 0.00028345
3 *1805:A *1801:B 0
4 *1805:A *1805:B 0.000119512
5 *1805:A *424:12 0
6 *1804:B1 *1805:A 0
7 *359:17 *1805:A 5.72004e-05
*RES
1 *1803:Y *1805:A 12.915 
*END

*D_NET *361 0.00073925
*CONN
*I *1805:B I *D sky130_fd_sc_hd__nand2_4
*I *1804:Y O *D sky130_fd_sc_hd__o311ai_4
*CAP
1 *1805:B 0.000300676
2 *1804:Y 0.000300676
3 *1804:C1 *1805:B 1.83847e-05
4 *1805:A *1805:B 0.000119512
*RES
1 *1804:Y *1805:B 12.105 
*END

*D_NET *362 0.00232187
*CONN
*I *1810:B I *D sky130_fd_sc_hd__nor2_2
*I *1811:B I *D sky130_fd_sc_hd__or2_4
*I *1809:A2 I *D sky130_fd_sc_hd__o21ai_2
*I *1806:Y O *D sky130_fd_sc_hd__nand3b_2
*CAP
1 *1810:B 0.000105847
2 *1811:B 0
3 *1809:A2 0.000195353
4 *1806:Y 0.00026082
5 *362:10 0.000228424
6 *362:6 0.000399738
7 *1809:A2 *1809:B1 0.000210151
8 *1809:A2 *365:8 5.05437e-05
9 *1809:A2 *424:12 0
10 *362:10 *1809:B1 0.000132096
11 *1807:A2 *1810:B 3.64998e-06
12 *1807:A2 *362:6 4.65515e-05
13 *1807:B1 *362:6 0.000315527
14 *1810:A *362:10 0.000132096
15 *333:19 *1809:A2 0.000231571
16 *333:19 *362:10 9.50342e-06
*RES
1 *1806:Y *362:6 6.19 
2 *362:6 *362:10 3.635 
3 *362:10 *1809:A2 8.445 
4 *362:10 *1811:B 3.6 
5 *362:6 *1810:B 3.1 
*END

*D_NET *363 0.000281634
*CONN
*I *1808:B1 I *D sky130_fd_sc_hd__a21oi_2
*I *1807:X O *D sky130_fd_sc_hd__o21a_2
*CAP
1 *1808:B1 9.65588e-05
2 *1807:X 9.65588e-05
3 *1808:B1 *1807:A1 0
4 *1808:B1 *424:12 6.74079e-05
5 *1807:B1 *1808:B1 2.11084e-05
*RES
1 *1807:X *1808:B1 9.03 
*END

*D_NET *364 0.00139043
*CONN
*I *1809:B1 I *D sky130_fd_sc_hd__o21ai_2
*I *1808:Y O *D sky130_fd_sc_hd__a21oi_2
*CAP
1 *1809:B1 0.000285131
2 *1808:Y 0.000285131
3 *1809:B1 *1807:A1 0.000210151
4 *1809:B1 *424:12 0
5 *1809:B1 *487:18 4.82863e-05
6 *1807:A2 *1809:B1 0.000164686
7 *1809:A2 *1809:B1 0.000210151
8 *1810:A *1809:B1 1.26626e-05
9 *358:17 *1809:B1 4.21314e-05
10 *362:10 *1809:B1 0.000132096
*RES
1 *1808:Y *1809:B1 14.64 
*END

*D_NET *365 0.00120226
*CONN
*I *2103:A I *D sky130_fd_sc_hd__buf_2
*I *1813:B1_N I *D sky130_fd_sc_hd__o21bai_4
*I *1809:Y O *D sky130_fd_sc_hd__o21ai_2
*CAP
1 *2103:A 0.000376313
2 *1813:B1_N 0
3 *1809:Y 8.73558e-05
4 *365:8 0.000463669
5 *2103:A *1812:A2 0.000118527
6 *2103:A *1813:A2 0.000105849
7 *2103:A *2053:A 0
8 *1809:A2 *365:8 5.05437e-05
9 *1810:A *2103:A 0
10 *333:19 *2103:A 0
*RES
1 *1809:Y *365:8 3.1 
2 *365:8 *1813:B1_N 1.6 
3 *365:8 *2103:A 12.41 
*END

*D_NET *366 0.000495949
*CONN
*I *1812:A2 I *D sky130_fd_sc_hd__a21oi_4
*I *1810:Y O *D sky130_fd_sc_hd__nor2_2
*CAP
1 *1812:A2 0.000139561
2 *1810:Y 0.000139561
3 *1812:A2 *1813:A2 4.82863e-05
4 *1810:A *1812:A2 4.7043e-05
5 *2103:A *1812:A2 0.000118527
6 *333:19 *1812:A2 2.97004e-06
*RES
1 *1810:Y *1812:A2 10.065 
*END

*D_NET *367 0.000450878
*CONN
*I *1813:A2 I *D sky130_fd_sc_hd__o21bai_4
*I *1811:X O *D sky130_fd_sc_hd__or2_4
*CAP
1 *1813:A2 0.000148372
2 *1811:X 0.000148372
3 *1813:A2 *2053:A 0
4 *1812:A2 *1813:A2 4.82863e-05
5 *2103:A *1813:A2 0.000105849
*RES
1 *1811:X *1813:A2 10.245 
*END

*D_NET *368 0.000862481
*CONN
*I *1818:B2 I *D sky130_fd_sc_hd__o22ai_2
*I *1817:A I *D sky130_fd_sc_hd__xnor2_2
*I *1812:Y O *D sky130_fd_sc_hd__a21oi_4
*CAP
1 *1818:B2 0.000220159
2 *1817:A 0
3 *1812:Y 0.000150764
4 *368:10 0.000370923
5 *1818:B2 *1818:A2 4.18603e-06
6 *1818:B2 *1823:A 0
7 *1818:B2 *2053:A 0
8 *1818:B2 *2063:A 0
9 *1818:B2 *372:10 0
10 *368:10 *1812:B1 2.66935e-05
11 *368:10 *1823:A 0
12 *368:10 *2053:A 0
13 *1984:A *1818:B2 8.97564e-05
*RES
1 *1812:Y *368:10 5.775 
2 *368:10 *1817:A 3.6 
3 *368:10 *1818:B2 7.785 
*END

*D_NET *369 0.00156552
*CONN
*I *1823:B I *D sky130_fd_sc_hd__nand3_4
*I *1813:Y O *D sky130_fd_sc_hd__o21bai_4
*CAP
1 *1823:B 0.000456737
2 *1813:Y 0.000456737
3 *1823:B *1823:C 4.18603e-06
4 *1823:B *2050:A 0
5 *1691:B *1823:B 2.92496e-05
6 *252:12 *1823:B 3.57349e-05
7 *252:16 *1823:B 0.000582874
*RES
1 *1813:Y *1823:B 16.35 
*END

*D_NET *370 0.00339543
*CONN
*I *1824:B1 I *D sky130_fd_sc_hd__a21o_2
*I *1818:A2 I *D sky130_fd_sc_hd__o22ai_2
*I *1815:B I *D sky130_fd_sc_hd__xor2_2
*I *1814:Y O *D sky130_fd_sc_hd__xnor2_2
*CAP
1 *1824:B1 0.000322106
2 *1818:A2 0.000125139
3 *1815:B 0.000286017
4 *1814:Y 7.02269e-05
5 *370:25 0.000663035
6 *1815:B *1819:A 4.66108e-05
7 *1815:B *2053:A 0.000116151
8 *1818:A2 *1819:A 0
9 *1824:B1 *1819:A 0
10 *1824:B1 *1821:B 4.24575e-05
11 *1824:B1 *1824:A1 4.21973e-05
12 *1824:B1 *1825:B2 4.82919e-05
13 *1824:B1 *1887:A 0.000263817
14 *1824:B1 *2063:A 9.38034e-05
15 *1824:B1 *490:14 6.77501e-05
16 *1824:B1 *510:10 7.17811e-05
17 *370:25 *1815:A 2.30292e-05
18 *370:25 *1819:B 0.000120655
19 *370:25 *371:12 0.000158066
20 S[28] *1824:B1 1.34594e-05
21 *1818:A1 *1818:A2 0.000130065
22 *1818:A1 *1824:B1 5.02217e-05
23 *1818:B2 *1818:A2 4.18603e-06
24 *1825:A2 *1824:B1 0.000124007
25 *1825:B1 *1824:B1 0.000309607
26 *1984:A *1818:A2 0
27 *2019:A *1815:B 0.000117825
28 *108:6 *1824:B1 8.49205e-05
*RES
1 *1814:Y *1815:B 7.43 
2 *1815:B *370:25 5.8625 
3 *370:25 *1818:A2 6.255 
4 *370:25 *1824:B1 16.69 
*END

*D_NET *371 0.00185553
*CONN
*I *1818:B1 I *D sky130_fd_sc_hd__o22ai_2
*I *1816:A I *D sky130_fd_sc_hd__inv_2
*I *1815:X O *D sky130_fd_sc_hd__xor2_2
*CAP
1 *1818:B1 0
2 *1816:A 7.65268e-05
3 *1815:X 0.000441971
4 *371:12 0.000518498
5 *1816:A *2053:A 0
6 *1816:A *372:10 4.9253e-06
7 *1816:A *489:10 9.11723e-05
8 *371:12 *1815:A 1.34594e-05
9 *371:12 *1886:A 3.67779e-05
10 *371:12 *489:10 9.9535e-05
11 *1984:A *1816:A 0.000162325
12 *1984:A *371:12 0.000252275
13 *370:25 *371:12 0.000158066
*RES
1 *1815:X *371:12 10.77 
2 *371:12 *1816:A 5.94 
3 *371:12 *1818:B1 3.6 
*END

*D_NET *372 0.00104907
*CONN
*I *1817:B I *D sky130_fd_sc_hd__xnor2_2
*I *1823:A I *D sky130_fd_sc_hd__nand3_4
*I *1816:Y O *D sky130_fd_sc_hd__inv_2
*CAP
1 *1817:B 0
2 *1823:A 0.000173968
3 *1816:Y 0.000291942
4 *372:10 0.00046591
5 *1823:A *1812:B1 0
6 *1823:A *1823:C 0
7 *372:10 *1823:C 0
8 *372:10 *2063:A 6.5525e-05
9 *372:10 *489:10 2.56868e-05
10 *1816:A *372:10 4.9253e-06
11 *1818:B2 *1823:A 0
12 *1818:B2 *372:10 0
13 *1984:A *372:10 2.11084e-05
14 *368:10 *1823:A 0
*RES
1 *1816:Y *372:10 7.755 
2 *372:10 *1823:A 6.285 
3 *372:10 *1817:B 3.6 
*END

*D_NET *373 0.00186281
*CONN
*I *1822:A I *D sky130_fd_sc_hd__xnor2_2
*I *1818:Y O *D sky130_fd_sc_hd__o22ai_2
*CAP
1 *1822:A 0.000626328
2 *1818:Y 0.000626328
3 *1822:A *1887:A 0.000111285
4 *1822:A *2052:A 0
5 *1822:A *510:10 0.000118752
6 S[16] *1822:A 0.000196376
7 *1820:A *1822:A 3.09233e-05
8 *109:21 *1822:A 0.000152814
*RES
1 *1818:Y *1822:A 18.24 
*END

*D_NET *374 0.00237555
*CONN
*I *1824:A1 I *D sky130_fd_sc_hd__a21o_2
*I *1821:B I *D sky130_fd_sc_hd__xor2_2
*I *1820:B I *D sky130_fd_sc_hd__xor2_2
*I *1825:A1 I *D sky130_fd_sc_hd__o22a_2
*I *1819:Y O *D sky130_fd_sc_hd__xnor2_2
*CAP
1 *1824:A1 0.000195371
2 *1821:B 5.37807e-05
3 *1820:B 0.000171838
4 *1825:A1 2.05022e-05
5 *1819:Y 0.000218041
6 *374:20 0.000225619
7 *374:18 0.00039291
8 *1820:B *1887:A 0.000245206
9 *1820:B *2050:A 0.000166346
10 *1820:B *2063:A 0
11 *1820:B *510:10 0
12 *1821:B *1887:A 0.000156949
13 *1824:A1 *1825:B2 0.000108886
14 *374:18 *1825:B2 0.000125862
15 S[16] *1820:B 6.65804e-05
16 S[16] *1821:B 1.65192e-05
17 *1824:B1 *1821:B 4.24575e-05
18 *1824:B1 *1824:A1 4.21973e-05
19 *1825:A2 *1824:A1 5.95442e-05
20 *1825:A2 *374:18 8.60345e-06
21 *1825:B1 *1820:B 2.59981e-05
22 *1825:B1 *1821:B 3.23391e-05
*RES
1 *1819:Y *1825:A1 3.65 
2 *1819:Y *374:18 4.12 
3 *374:18 *374:20 2 
4 *374:20 *1820:B 6.695 
5 *374:20 *1821:B 3.7775 
6 *374:18 *1824:A1 4.12 
*END

*D_NET *375 0.000666603
*CONN
*I *1823:C I *D sky130_fd_sc_hd__nand3_4
*I *1820:X O *D sky130_fd_sc_hd__xor2_2
*CAP
1 *1823:C 0.000220474
2 *1820:X 0.000220474
3 *1823:C *2050:A 0.000221468
4 *1823:C *2063:A 0
5 *1823:A *1823:C 0
6 *1823:B *1823:C 4.18603e-06
7 *372:10 *1823:C 0
*RES
1 *1820:X *1823:C 12.09 
*END

*D_NET *376 0.000117431
*CONN
*I *1822:B I *D sky130_fd_sc_hd__xnor2_2
*I *1821:X O *D sky130_fd_sc_hd__xor2_2
*CAP
1 *1822:B 5.87157e-05
2 *1821:X 5.87157e-05
*RES
1 *1821:X *1822:B 3.995 
*END

*D_NET *377 0.00501019
*CONN
*I *1841:A2 I *D sky130_fd_sc_hd__a21oi_4
*I *1835:A1_N I *D sky130_fd_sc_hd__o2bb2ai_4
*I *1833:A2 I *D sky130_fd_sc_hd__a211oi_4
*I *1832:C1 I *D sky130_fd_sc_hd__o211a_4
*I *1823:Y O *D sky130_fd_sc_hd__nand3_4
*CAP
1 *1841:A2 0.000188901
2 *1835:A1_N 0
3 *1833:A2 0.000485019
4 *1832:C1 0
5 *1823:Y 0.000886485
6 *377:47 0.000555723
7 *377:10 0.00100468
8 *1833:A2 *1826:B 7.1301e-06
9 *1833:A2 *1831:A1 2.14129e-05
10 *1833:A2 *1832:A2 0.000141606
11 *1833:A2 *1836:B 5.97393e-05
12 *1833:A2 *380:8 0.000140912
13 *1833:A2 *380:12 0.000165432
14 *1833:A2 *385:10 9.50342e-06
15 *1841:A2 *2067:A 9.16315e-05
16 *1841:A2 *435:63 0.000111909
17 *1841:A2 *508:10 0
18 *377:10 *1685:A 0.000334479
19 *377:10 *1685:B 5.07419e-05
20 *377:10 *1826:B 0.00011741
21 *377:10 *2051:A 0
22 *377:10 *380:8 0.000163992
23 *377:10 *434:91 4.70343e-05
24 *377:47 *1828:A 3.72916e-05
25 *377:47 *1830:A 1.19928e-05
26 *377:47 *2067:A 9.24127e-05
27 *377:47 *382:6 0.0001249
28 *377:47 *382:19 0.00012657
29 *377:47 *508:10 0
30 S[31] *1841:A2 4.18603e-06
31 *1689:A1 *377:10 2.10134e-05
32 *1987:A *1841:A2 8.08153e-06
*RES
1 *1823:Y *377:10 16.935 
2 *377:10 *1832:C1 3.6 
3 *377:10 *1833:A2 7.68 
4 *1833:A2 *377:47 10.095 
5 *377:47 *1835:A1_N 3.6 
6 *377:47 *1841:A2 7.575 
*END

*D_NET *378 0.000558997
*CONN
*I *1825:B2 I *D sky130_fd_sc_hd__o22a_2
*I *1824:X O *D sky130_fd_sc_hd__a21o_2
*CAP
1 *1825:B2 8.98078e-05
2 *1824:X 8.98078e-05
3 *1824:A1 *1825:B2 0.000108886
4 *1824:B1 *1825:B2 4.82919e-05
5 *1825:A2 *1825:B2 8.50777e-05
6 *1825:B1 *1825:B2 1.12643e-05
7 *374:18 *1825:B2 0.000125862
*RES
1 *1824:X *1825:B2 5.93375 
*END

*D_NET *379 0.00512744
*CONN
*I *1834:A I *D sky130_fd_sc_hd__and2_2
*I *1835:A2_N I *D sky130_fd_sc_hd__o2bb2ai_4
*I *1833:A1 I *D sky130_fd_sc_hd__a211oi_4
*I *1832:B1 I *D sky130_fd_sc_hd__o211a_4
*I *1825:X O *D sky130_fd_sc_hd__o22a_2
*CAP
1 *1834:A 0.000203138
2 *1835:A2_N 0.000320681
3 *1833:A1 5.22304e-05
4 *1832:B1 0
5 *1825:X 0.000818667
6 *379:27 0.000491257
7 *379:23 0.000527278
8 *379:16 0.00102446
9 *1833:A1 *1828:A 4.66108e-05
10 *1833:A1 *380:12 8.65905e-05
11 *1834:A *1829:A 0.000113247
12 *1834:A *1829:B 4.80285e-05
13 *1834:A *383:6 9.80943e-06
14 *1834:A *492:6 0.000136838
15 *1834:A *492:12 2.75145e-05
16 *1835:A2_N *1831:A1 0
17 *1835:A2_N *1831:B1 0.000235573
18 *1835:A2_N *1833:B1 0
19 *1835:A2_N *1836:B 0
20 *1835:A2_N *435:22 0
21 *379:16 *1832:A2 1.16578e-05
22 *379:16 *1836:A 4.66108e-05
23 *379:16 *2051:A 0
24 *379:16 *381:6 4.66108e-05
25 *379:16 *553:10 0.000298435
26 *379:23 *1829:A 2.75145e-05
27 *379:23 *1832:A2 0.000107415
28 *379:23 *1833:B1 3.23663e-05
29 *379:23 *383:6 5.98073e-05
30 *379:27 *1829:A 0.000114492
31 *379:27 *380:8 0
32 *379:27 *435:22 0
33 S[30] *1835:A2_N 8.65961e-05
34 *1825:A2 *379:16 0.000154005
*RES
1 *1825:X *379:16 17.525 
2 *379:16 *1832:B1 1.6 
3 *379:16 *379:23 4.245 
4 *379:23 *379:27 4.145 
5 *379:27 *1833:A1 4.74 
6 *379:27 *1835:A2_N 9.21 
7 *379:23 *1834:A 6.19 
*END

*D_NET *380 0.00328569
*CONN
*I *1831:A1 I *D sky130_fd_sc_hd__a21oi_2
*I *1828:A I *D sky130_fd_sc_hd__and2_2
*I *1829:A I *D sky130_fd_sc_hd__and3_2
*I *1826:X O *D sky130_fd_sc_hd__or2_2
*CAP
1 *1831:A1 0.000227752
2 *1828:A 0.000106489
3 *1829:A 0.000118407
4 *1826:X 0.000127002
5 *380:12 0.00041537
6 *380:8 0.000545228
7 *1828:A *1830:B 0
8 *1829:A *1833:B1 0
9 *1829:A *383:6 0.000232999
10 *1831:A1 *1826:B 2.16389e-05
11 *1831:A1 *1827:B 0.000193324
12 *1831:A1 *1831:B1 4.35348e-05
13 *1831:A1 *1833:B1 1.94892e-05
14 *1831:A1 *1836:A 0.000122337
15 *1831:A1 *1836:B 5.13029e-05
16 *1831:A1 *381:14 2.04648e-05
17 *1831:A1 *385:10 8.1552e-05
18 *380:8 *1833:B1 3.68682e-05
19 S[30] *1831:A1 4.43871e-06
20 *1833:A1 *1828:A 4.66108e-05
21 *1833:A1 *380:12 8.65905e-05
22 *1833:A2 *1831:A1 2.14129e-05
23 *1833:A2 *380:8 0.000140912
24 *1833:A2 *380:12 0.000165432
25 *1834:A *1829:A 0.000113247
26 *1835:A2_N *1831:A1 0
27 *377:10 *380:8 0.000163992
28 *377:47 *1828:A 3.72916e-05
29 *379:23 *1829:A 2.75145e-05
30 *379:27 *1829:A 0.000114492
31 *379:27 *380:8 0
*RES
1 *1826:X *380:8 7.02 
2 *380:8 *380:12 5.21 
3 *380:12 *1829:A 9.155 
4 *380:12 *1828:A 3.445 
5 *380:8 *1831:A1 9.39 
*END

*D_NET *381 0.00310568
*CONN
*I *1831:A2 I *D sky130_fd_sc_hd__a21oi_2
*I *1828:B I *D sky130_fd_sc_hd__and2_2
*I *1829:B I *D sky130_fd_sc_hd__and3_2
*I *1827:Y O *D sky130_fd_sc_hd__nand2_2
*CAP
1 *1831:A2 2.08101e-05
2 *1828:B 0
3 *1829:B 0.000127349
4 *1827:Y 3.43734e-05
5 *381:14 0.000837819
6 *381:6 0.000765653
7 *1829:B *1831:B1 2.30797e-05
8 *1829:B *435:22 0.000228508
9 *1829:B *492:12 0.000116158
10 *1829:B *508:10 4.84472e-05
11 *381:6 *1827:B 3.00381e-05
12 *381:14 *1827:B 1.97045e-05
13 *381:14 *1831:B1 0.000511421
14 *381:14 *1836:A 1.34594e-05
15 *381:14 *385:10 8.40213e-05
16 *381:14 *435:22 0.000129735
17 *1831:A1 *381:14 2.04648e-05
18 *1834:A *1829:B 4.80285e-05
19 *379:16 *381:6 4.66108e-05
*RES
1 *1827:Y *381:6 2.395 
2 *381:6 *381:14 12.38 
3 *381:14 *1829:B 7.05 
4 *381:14 *1828:B 3.6 
5 *381:6 *1831:A2 1.96 
*END

*D_NET *382 0.00232142
*CONN
*I *1840:A2_N I *D sky130_fd_sc_hd__a2bb2o_2
*I *1835:B2 I *D sky130_fd_sc_hd__o2bb2ai_4
*I *1830:B I *D sky130_fd_sc_hd__nand2_2
*I *1828:X O *D sky130_fd_sc_hd__and2_2
*CAP
1 *1840:A2_N 0.000184769
2 *1835:B2 3.37585e-05
3 *1830:B 1.85694e-05
4 *1828:X 2.24758e-05
5 *382:19 0.000552592
6 *382:6 0.00037511
7 *1830:B *1830:A 9.53428e-06
8 *1840:A2_N *1840:A1_N 0.000327327
9 *1840:A2_N *1841:A1 0
10 *1840:A2_N *492:43 8.53113e-06
11 *382:6 *1830:A 7.35813e-05
12 *382:19 *1830:A 2.30292e-05
13 *382:19 *1841:A1 0
14 *382:19 *1842:A1 0
15 *382:19 *1842:A2 0.000204026
16 *382:19 *384:6 5.05437e-05
17 *382:19 *492:43 0.000186099
18 *1828:A *1830:B 0
19 *1987:A *1840:A2_N 0
20 *1988:A *1840:A2_N 0
21 *2033:A *1840:A2_N 0
22 *377:47 *382:6 0.0001249
23 *377:47 *382:19 0.00012657
*RES
1 *1828:X *382:6 2.74 
2 *382:6 *1830:B 1.96 
3 *382:6 *382:19 9.425 
4 *382:19 *1835:B2 4.05 
5 *382:19 *1840:A2_N 7.785 
*END

*D_NET *383 0.0016671
*CONN
*I *1832:A1 I *D sky130_fd_sc_hd__o211a_4
*I *1833:B1 I *D sky130_fd_sc_hd__a211oi_4
*I *1829:X O *D sky130_fd_sc_hd__and3_2
*CAP
1 *1832:A1 2.89361e-05
2 *1833:B1 0.000154734
3 *1829:X 0.000372494
4 *383:6 0.000556164
5 *1832:A1 *1832:A2 1.85674e-05
6 *1833:B1 *1832:A2 1.16578e-05
7 *383:6 *492:6 8.65961e-05
8 *383:6 *492:12 4.66108e-05
9 *1829:A *1833:B1 0
10 *1829:A *383:6 0.000232999
11 *1831:A1 *1833:B1 1.94892e-05
12 *1834:A *383:6 9.80943e-06
13 *1835:A2_N *1833:B1 0
14 *379:23 *1833:B1 3.23663e-05
15 *379:23 *383:6 5.98073e-05
16 *380:8 *1833:B1 3.68682e-05
*RES
1 *1829:X *383:6 6.535 
2 *383:6 *1833:B1 6.43 
3 *383:6 *1832:A1 2.215 
*END

*D_NET *384 0.00103178
*CONN
*I *1842:A2 I *D sky130_fd_sc_hd__a41oi_4
*I *1834:B I *D sky130_fd_sc_hd__and2_2
*I *1830:Y O *D sky130_fd_sc_hd__nand2_2
*CAP
1 *1842:A2 0.000198764
2 *1834:B 7.4887e-05
3 *1830:Y 4.53302e-05
4 *384:6 0.000318981
5 *1834:B *508:10 0
6 *1842:A2 *1842:A3 0
7 *1987:A *1834:B 0.000139245
8 *382:19 *1842:A2 0.000204026
9 *382:19 *384:6 5.05437e-05
*RES
1 *1830:Y *384:6 2.395 
2 *384:6 *1834:B 7.235 
3 *384:6 *1842:A2 5.17 
*END

*D_NET *385 0.00128054
*CONN
*I *1833:C1 I *D sky130_fd_sc_hd__a211oi_4
*I *1832:A2 I *D sky130_fd_sc_hd__o211a_4
*I *1831:Y O *D sky130_fd_sc_hd__a21oi_2
*CAP
1 *1833:C1 0
2 *1832:A2 0.000151484
3 *1831:Y 7.47899e-05
4 *385:10 0.000226274
5 *1832:A2 *1826:B 0.000143266
6 *385:10 *1826:B 0.000150446
7 *385:10 *1831:B1 4.66108e-05
8 *385:10 *1836:A 2.16833e-05
9 *1831:A1 *385:10 8.1552e-05
10 *1832:A1 *1832:A2 1.85674e-05
11 *1833:A2 *1832:A2 0.000141606
12 *1833:A2 *385:10 9.50342e-06
13 *1833:B1 *1832:A2 1.16578e-05
14 *379:16 *1832:A2 1.16578e-05
15 *379:23 *1832:A2 0.000107415
16 *381:14 *385:10 8.40213e-05
*RES
1 *1831:Y *385:10 6.285 
2 *385:10 *1832:A2 7.425 
3 *385:10 *1833:C1 3.6 
*END

*D_NET *386 0.00117196
*CONN
*I *1836:A I *D sky130_fd_sc_hd__nor2_4
*I *1832:X O *D sky130_fd_sc_hd__o211a_4
*CAP
1 *1836:A 0.000159626
2 *1832:X 0.000159626
3 *1836:A *1826:B 0.000214281
4 *1836:A *1831:B1 4.82919e-05
5 *1836:A *2051:A 0.000386045
6 *1831:A1 *1836:A 0.000122337
7 *379:16 *1836:A 4.66108e-05
8 *381:14 *1836:A 1.34594e-05
9 *385:10 *1836:A 2.16833e-05
*RES
1 *1832:X *1836:A 13.23 
*END

*D_NET *387 0.000788532
*CONN
*I *1836:B I *D sky130_fd_sc_hd__nor2_4
*I *1833:Y O *D sky130_fd_sc_hd__a211oi_4
*CAP
1 *1836:B 0.000338745
2 *1833:Y 0.000338745
3 *1831:A1 *1836:B 5.13029e-05
4 *1833:A2 *1836:B 5.97393e-05
5 *1835:A2_N *1836:B 0
*RES
1 *1833:Y *1836:B 11.715 
*END

*D_NET *388 0.00114062
*CONN
*I *1841:A1 I *D sky130_fd_sc_hd__a21oi_4
*I *1834:X O *D sky130_fd_sc_hd__and2_2
*CAP
1 *1841:A1 0.000311407
2 *1834:X 0.000311407
3 *1841:A1 *1842:A1 0.000105068
4 *1841:A1 *1842:B1 0.000178496
5 *1841:A1 *435:63 8.65961e-05
6 *1841:A1 *492:6 8.8266e-05
7 *1841:A1 *492:43 0
8 *1840:A2_N *1841:A1 0
9 *1987:A *1841:A1 5.93761e-05
10 *382:19 *1841:A1 0
*RES
1 *1834:X *1841:A1 14.25 
*END

*D_NET *389 0.000293412
*CONN
*I *1842:A1 I *D sky130_fd_sc_hd__a41oi_4
*I *1835:Y O *D sky130_fd_sc_hd__o2bb2ai_4
*CAP
1 *1842:A1 9.41721e-05
2 *1835:Y 9.41721e-05
3 *1842:A1 *492:43 0
4 *1841:A1 *1842:A1 0.000105068
5 *382:19 *1842:A1 0
*RES
1 *1835:Y *1842:A1 9.345 
*END

*D_NET *390 0.00109949
*CONN
*I *1877:A2 I *D sky130_fd_sc_hd__o21bai_4
*I *1839:B I *D sky130_fd_sc_hd__or2_2
*I *1838:B I *D sky130_fd_sc_hd__nand2_2
*I *1837:Y O *D sky130_fd_sc_hd__xnor2_2
*CAP
1 *1877:A2 0.00010242
2 *1839:B 9.38559e-05
3 *1838:B 0
4 *1837:Y 8.614e-05
5 *390:12 0.000235924
6 *390:8 0.000330629
7 *1839:B *1838:A 9.42091e-06
8 *1839:B *1839:A 1.12578e-05
9 *1839:B *391:10 6.2727e-05
10 *1839:B *493:16 7.22354e-05
11 *390:8 *1968:A 0
12 *390:8 *2075:A 0
13 *390:8 *493:10 0
14 *390:12 *1665:A 5.53249e-06
15 *390:12 *1968:A 0
16 *390:12 *493:16 0
17 *1669:A1 *1839:B 4.80285e-05
18 *1669:A1 *390:12 4.13171e-05
*RES
1 *1837:Y *390:8 4.98 
2 *390:8 *390:12 4.4 
3 *390:12 *1838:B 1.6 
4 *390:12 *1839:B 4.15 
5 *390:8 *1877:A2 5.085 
*END

*D_NET *391 0.00189289
*CONN
*I *1842:A3 I *D sky130_fd_sc_hd__a41oi_4
*I *1840:B1 I *D sky130_fd_sc_hd__a2bb2o_2
*I *1838:Y O *D sky130_fd_sc_hd__nand2_2
*CAP
1 *1842:A3 2.08101e-05
2 *1840:B1 0.000293368
3 *1838:Y 0.000253923
4 *391:10 0.0005681
5 *1840:B1 *1840:A1_N 2.97209e-05
6 *1840:B1 *1840:B2 0
7 *1840:B1 *1841:B1 7.89611e-05
8 *1840:B1 *1877:B1_N 0.000116853
9 *1840:B1 *492:43 7.5431e-05
10 *391:10 *1838:A 5.72201e-06
11 *391:10 *1839:A 0.000117989
12 *391:10 *392:6 0.000199833
13 *1839:B *391:10 6.2727e-05
14 *1842:A2 *1842:A3 0
15 *1988:A *1840:B1 6.9451e-05
*RES
1 *1838:Y *391:10 6.91 
2 *391:10 *1840:B1 12.02 
3 *391:10 *1842:A3 1.96 
*END

*D_NET *392 0.0015718
*CONN
*I *1842:A4 I *D sky130_fd_sc_hd__a41oi_4
*I *1840:B2 I *D sky130_fd_sc_hd__a2bb2o_2
*I *1839:X O *D sky130_fd_sc_hd__or2_2
*CAP
1 *1842:A4 0
2 *1840:B2 0.000486535
3 *1839:X 8.07621e-05
4 *392:6 0.000567297
5 *1840:B2 *2075:A 0
6 *1840:B2 *492:43 0
7 *1840:B2 *542:12 0
8 carryOut *1840:B2 7.43523e-05
9 *1840:B1 *1840:B2 0
10 *1988:A *1840:B2 0.000163019
11 *391:10 *392:6 0.000199833
*RES
1 *1839:X *392:6 3.43 
2 *392:6 *1840:B2 14.12 
3 *392:6 *1842:A4 1.6 
*END

*D_NET *393 0.000680213
*CONN
*I *1841:B1 I *D sky130_fd_sc_hd__a21oi_4
*I *1840:X O *D sky130_fd_sc_hd__a2bb2o_2
*CAP
1 *1841:B1 0.000203989
2 *1840:X 0.000203989
3 *1841:B1 *1840:A1_N 0.000193273
4 *1840:B1 *1841:B1 7.89611e-05
*RES
1 *1840:X *1841:B1 10.665 
*END

*D_NET *394 0.0022476
*CONN
*I *1877:B1_N I *D sky130_fd_sc_hd__o21bai_4
*I *1842:B1 I *D sky130_fd_sc_hd__a41oi_4
*I *1841:Y O *D sky130_fd_sc_hd__a21oi_4
*CAP
1 *1877:B1_N 0.000196356
2 *1842:B1 0.000372841
3 *1841:Y 0
4 *394:4 0.000569198
5 *1842:B1 *435:63 0.000421961
6 *1877:B1_N *1840:A1_N 6.5525e-05
7 *1877:B1_N *492:43 5.53249e-06
8 *1840:B1 *1877:B1_N 0.000116853
9 *1841:A1 *1842:B1 0.000178496
10 *1987:A *1842:B1 0.000320834
*RES
1 *1841:Y *394:4 1.6 
2 *394:4 *1842:B1 13.175 
3 *394:4 *1877:B1_N 9.155 
*END

*D_NET *395 0.00116178
*CONN
*I *1844:A I *D sky130_fd_sc_hd__nor2_4
*I *1843:Y O *D sky130_fd_sc_hd__a21oi_2
*CAP
1 *1844:A 0.000365224
2 *1843:Y 0.000365224
3 *1844:A *1621:C1 2.36616e-05
4 *1844:A *1633:B 0.000115847
5 *1844:A *420:24 0
6 *1620:A1 *1844:A 0
7 *1621:A2 *1844:A 0.000186388
8 *187:23 *1844:A 1.16578e-05
9 *188:10 *1844:A 9.37731e-05
10 *201:10 *1844:A 0
*RES
1 *1843:Y *1844:A 13.395 
*END

*D_NET *396 0.000223722
*CONN
*I *1846:A I *D sky130_fd_sc_hd__xnor2_2
*I *1845:X O *D sky130_fd_sc_hd__mux2_1
*CAP
1 *1846:A 0.000111861
2 *1845:X 0.000111861
3 *1846:A *2054:A 0
4 *1846:A *471:12 0
*RES
1 *1845:X *1846:A 8.835 
*END

*D_NET *397 0.0030371
*CONN
*I *1848:A I *D sky130_fd_sc_hd__xor2_2
*I *1847:Y O *D sky130_fd_sc_hd__a21boi_4
*CAP
1 *1848:A 0.00041318
2 *1847:Y 0.00041318
3 *1848:A *1641:A2_N 0.000488957
4 *1848:A *1847:A1 4.47125e-05
5 *1848:A *1847:A2 0.00023437
6 *1848:A *1850:A 0
7 *1848:A *501:26 0.00014881
8 *1848:A *536:18 0.000886918
9 *1638:A2 *1848:A 7.53115e-05
10 *1848:B *1848:A 1.23331e-05
11 *202:12 *1848:A 0.00011557
12 *203:16 *1848:A 0.000203762
*RES
1 *1847:Y *1848:A 21.57 
*END

*D_NET *398 0.00210341
*CONN
*I *1850:A I *D sky130_fd_sc_hd__xor2_2
*I *1849:Y O *D sky130_fd_sc_hd__a22oi_2
*CAP
1 *1850:A 0.000572756
2 *1849:Y 0.000572756
3 *1850:A *535:10 0
4 *1629:A2 *1850:A 0.000106575
5 *1629:B1 *1850:A 0.000152667
6 *1638:A1 *1850:A 9.04519e-05
7 *1848:A *1850:A 0
8 *1850:B *1850:A 8.98657e-05
9 *104:42 *1850:A 6.23206e-05
10 *202:12 *1850:A 0
11 *207:8 *1850:A 0.000456013
*RES
1 *1849:Y *1850:A 19.2 
*END

*D_NET *399 0.00294309
*CONN
*I *2114:A I *D sky130_fd_sc_hd__buf_6
*I *1854:B2 I *D sky130_fd_sc_hd__o22ai_2
*I *1853:B I *D sky130_fd_sc_hd__xnor2_2
*I *1852:Y O *D sky130_fd_sc_hd__a21oi_4
*CAP
1 *2114:A 4.57242e-05
2 *1854:B2 6.98394e-05
3 *1853:B 0.000704871
4 *1852:Y 0.000122772
5 *399:28 0.000697662
6 *1854:B2 *1855:B 3.25831e-05
7 *399:28 *1856:A4 4.99619e-05
8 *399:28 *1936:B 6.52265e-05
9 *399:28 *1938:A1 0.000185017
10 *399:28 *2070:A 1.7386e-05
11 *399:28 *428:24 0.000200615
12 *399:28 *428:31 3.66286e-05
13 *1852:B1 *1853:B 0
14 *1856:A3 *1854:B2 0.000113745
15 *1938:B1 *1854:B2 6.23206e-05
16 *1938:B1 *399:28 0.000124895
17 *156:10 *399:28 0.000245133
18 *160:10 *2114:A 2.75229e-05
19 *160:10 *399:28 0.000135652
20 *164:12 *1854:B2 5.53249e-06
*RES
1 *1852:Y *1853:B 5.06 
2 *1853:B *399:28 13.825 
3 *399:28 *1854:B2 8 
4 *399:28 *2114:A 2.395 
*END

*D_NET *400 0.000606204
*CONN
*I *1855:B I *D sky130_fd_sc_hd__xor2_2
*I *1854:Y O *D sky130_fd_sc_hd__o22ai_2
*CAP
1 *1855:B 0.000246669
2 *1854:Y 0.000246669
3 *1854:B2 *1855:B 3.25831e-05
4 *1938:B1 *1855:B 1.70935e-05
5 *1942:B *1855:B 0
6 *156:10 *1855:B 0
7 *164:12 *1855:B 6.31891e-05
*RES
1 *1854:Y *1855:B 9.8675 
*END

*D_NET *401 0.000385095
*CONN
*I *1857:A I *D sky130_fd_sc_hd__xnor2_2
*I *1856:X O *D sky130_fd_sc_hd__o41a_4
*CAP
1 *1857:A 0.000122129
2 *1856:X 0.000122129
3 *1941:A1 *1857:A 0
4 *1941:A2 *1857:A 5.42473e-05
5 *150:10 *1857:A 0
6 *150:23 *1857:A 8.65905e-05
*RES
1 *1856:X *1857:A 9.63 
*END

*D_NET *402 0.00269108
*CONN
*I *1862:A2 I *D sky130_fd_sc_hd__o21a_2
*I *1865:A2 I *D sky130_fd_sc_hd__a21oi_4
*I *1861:C I *D sky130_fd_sc_hd__nor3_2
*I *1860:A I *D sky130_fd_sc_hd__nor2_2
*I *1858:X O *D sky130_fd_sc_hd__o21a_2
*CAP
1 *1862:A2 0
2 *1865:A2 0.000177401
3 *1861:C 2.43002e-05
4 *1860:A 0.0002726
5 *1858:X 0.00018591
6 *402:27 0.000267477
7 *402:10 0.000338376
8 *402:8 0.00018591
9 *1860:A *1912:B 7.26551e-05
10 *1860:A *2074:A 0.000286162
11 *1860:A *413:24 0
12 *1860:A *413:37 3.00381e-05
13 *1860:A *431:12 6.01449e-05
14 *402:27 *2074:A 0.000103185
15 *1861:B *402:27 4.70343e-05
16 *1862:A1 *402:8 0.000160635
17 *1919:A1 *1860:A 0.00011852
18 *136:12 *1860:A 0
19 *137:6 *1861:C 2.75145e-05
20 *137:6 *1865:A2 0.000253954
21 *142:18 *1860:A 2.97004e-06
22 *142:18 *402:27 2.75538e-05
23 *142:24 *402:8 4.87417e-05
*RES
1 *1858:X *402:8 4.825 
2 *402:8 *402:10 2 
3 *402:10 *1860:A 10.47 
4 *402:10 *402:27 4.145 
5 *402:27 *1861:C 2.05 
6 *402:27 *1865:A2 5.5 
7 *402:8 *1862:A2 1.6 
*END

*D_NET *403 0.000980426
*CONN
*I *1860:B I *D sky130_fd_sc_hd__nor2_2
*I *1859:Y O *D sky130_fd_sc_hd__nor3_2
*CAP
1 *1860:B 0.000233842
2 *1859:Y 0.000233842
3 *1860:B *2040:A 0.000116853
4 *1860:B *2074:A 0
5 *1860:B *413:37 0.000160483
6 *1860:B *431:12 0.000198945
7 *141:10 *1860:B 3.64622e-05
*RES
1 *1859:Y *1860:B 12.24 
*END

*D_NET *404 0.000301684
*CONN
*I *1863:A I *D sky130_fd_sc_hd__nor2_2
*I *1861:Y O *D sky130_fd_sc_hd__nor3_2
*CAP
1 *1863:A 8.89969e-05
2 *1861:Y 8.89969e-05
3 *1863:A *1863:B 4.91189e-05
4 *1863:A *2074:A 2.46089e-05
5 *137:6 *1863:A 4.99619e-05
*RES
1 *1861:Y *1863:A 9.03 
*END

*D_NET *405 0.000580149
*CONN
*I *1863:B I *D sky130_fd_sc_hd__nor2_2
*I *1862:X O *D sky130_fd_sc_hd__o21a_2
*CAP
1 *1863:B 0.000123082
2 *1862:X 0.000123082
3 *1863:B *2074:A 0
4 *1861:B *1863:B 0.000133763
5 *1863:A *1863:B 4.91189e-05
6 *136:12 *1863:B 0.000141599
7 *142:18 *1863:B 9.50342e-06
*RES
1 *1862:X *1863:B 10.62 
*END

*D_NET *406 0.00233443
*CONN
*I *1867:A3 I *D sky130_fd_sc_hd__o31a_2
*I *1864:X O *D sky130_fd_sc_hd__o211a_2
*CAP
1 *1867:A3 0.000615908
2 *1864:X 0.000615908
3 *1867:A3 *1965:A 0.000199062
4 *1649:A2 *1867:A3 1.4389e-05
5 *1864:A1 *1867:A3 0.0001138
6 *1867:A2 *1867:A3 0.000318473
7 *1922:A *1867:A3 0.000278117
8 *139:18 *1867:A3 0.000118527
9 *218:12 *1867:A3 6.02447e-05
*RES
1 *1864:X *1867:A3 20.355 
*END

*D_NET *407 0.000828085
*CONN
*I *1866:B I *D sky130_fd_sc_hd__xnor2_2
*I *1865:Y O *D sky130_fd_sc_hd__a21oi_4
*CAP
1 *1866:B 0.000383233
2 *1865:Y 0.000383233
3 *1866:B *1866:A 0
4 *1921:B *1866:B 0
5 *1921:D *1866:B 0
6 *126:10 *1866:B 0
7 *137:6 *1866:B 4.99619e-05
8 *137:17 *1866:B 1.16578e-05
9 *143:8 *1866:B 0
*RES
1 *1865:Y *1866:B 13.365 
*END

*D_NET *408 0.00030154
*CONN
*I *1868:B I *D sky130_fd_sc_hd__xor2_2
*I *1867:X O *D sky130_fd_sc_hd__o31a_2
*CAP
1 *1868:B 4.12163e-05
2 *1867:X 4.12163e-05
3 *1868:B *430:14 7.81954e-05
4 *218:12 *1868:B 0.000140912
*RES
1 *1867:X *1868:B 7.235 
*END

*D_NET *409 0.00197026
*CONN
*I *1873:A1 I *D sky130_fd_sc_hd__a31oi_4
*I *1875:A3 I *D sky130_fd_sc_hd__o31ai_4
*I *1869:X O *D sky130_fd_sc_hd__or2_4
*CAP
1 *1873:A1 0.000324856
2 *1875:A3 0.000202655
3 *1869:X 0.000194143
4 *409:10 0.000721655
5 *1655:A2 *409:10 8.87475e-05
6 *1684:B1 *409:10 0
7 *1873:B1 *1873:A1 0.000154098
8 *1875:A2 *1875:A3 9.53428e-06
9 *222:10 *409:10 5.53249e-06
10 *223:10 *409:10 0
11 *225:17 *409:10 0
12 *238:16 *1873:A1 0.000125284
13 *238:16 *1875:A3 0.000127476
14 *238:29 *1875:A3 9.27255e-06
15 *248:22 *1875:A3 7.00889e-06
*RES
1 *1869:X *409:10 9.275 
2 *409:10 *1875:A3 5.17 
3 *409:10 *1873:A1 7.24 
*END

*D_NET *410 0.000418616
*CONN
*I *1872:B I *D sky130_fd_sc_hd__xnor2_2
*I *1871:Y O *D sky130_fd_sc_hd__o21ai_2
*CAP
1 *1872:B 0.000102401
2 *1871:Y 0.000102401
3 *1872:B *1871:A2 3.89528e-05
4 *1872:B *1872:A 0
5 *1872:B *2046:A 8.65961e-05
6 *1872:B *564:14 8.8266e-05
7 *217:20 *1872:B 0
*RES
1 *1871:Y *1872:B 9.63 
*END

*D_NET *411 0.000385112
*CONN
*I *1874:B I *D sky130_fd_sc_hd__xnor2_2
*I *1873:Y O *D sky130_fd_sc_hd__a31oi_4
*CAP
1 *1874:B 0.000149258
2 *1873:Y 0.000149258
3 *1874:B *1679:A2 0
4 *1874:B *433:12 0
5 *1874:A *1874:B 8.65961e-05
*RES
1 *1873:Y *1874:B 9.885 
*END

*D_NET *412 0.000349067
*CONN
*I *1876:B I *D sky130_fd_sc_hd__xnor2_2
*I *1875:Y O *D sky130_fd_sc_hd__o31ai_4
*CAP
1 *1876:B 0.00010373
2 *1875:Y 0.00010373
3 *1677:C *1876:B 0.000141606
4 *1683:A2 *1876:B 0
*RES
1 *1875:Y *1876:B 9.285 
*END

*D_NET *413 0.0156748
*CONN
*I *1755:A I *D sky130_fd_sc_hd__nand2_2
*I *1909:A1 I *D sky130_fd_sc_hd__a21oi_2
*I *1923:A I *D sky130_fd_sc_hd__nand2_2
*I *1902:A1 I *D sky130_fd_sc_hd__a21oi_2
*I *1953:A1 I *D sky130_fd_sc_hd__a21oi_2
*I *1918:A1 I *D sky130_fd_sc_hd__a21oi_2
*I *1878:Y O *D sky130_fd_sc_hd__inv_2
*CAP
1 *1755:A 0.000258222
2 *1909:A1 0
3 *1923:A 0.00025729
4 *1902:A1 0.000802859
5 *1953:A1 0.000723521
6 *1918:A1 0
7 *1878:Y 0.000146564
8 *413:70 0.00228907
9 *413:37 0.00235855
10 *413:24 0.00107472
11 *413:12 0.00102941
12 *413:10 0.000765574
13 *1755:A *415:14 3.45588e-05
14 *1902:A1 *1650:B1 3.67779e-05
15 *1902:A1 *1880:A 0.000226828
16 *1902:A1 *1902:B1 0.000108608
17 *1902:A1 *1927:A1 5.98004e-06
18 *1902:A1 *1965:A 0.000406264
19 *1923:A *1927:A1 9.60752e-05
20 *1953:A1 *1644:A1 0
21 *1953:A1 *1646:A1 4.38278e-05
22 *1953:A1 *1945:A_N 0
23 *1953:A1 *2074:A 0
24 *1953:A1 *2110:A 0.000162325
25 *1953:A1 *431:38 0.0001032
26 *1953:A1 *431:49 8.68724e-05
27 *1953:A1 *494:10 0
28 *1953:A1 *530:25 8.40269e-05
29 *413:10 *2037:A 5.05437e-05
30 *413:10 *420:8 0
31 *413:10 *469:12 0
32 *413:12 *420:8 0
33 *413:12 *469:12 0
34 *413:12 *469:22 7.75325e-05
35 *413:12 *536:47 0
36 *413:24 *1912:B 0
37 *413:24 *1914:A1 0.000863044
38 *413:24 *1914:A2 0.000109386
39 *413:24 *2089:A 2.30292e-05
40 *413:24 *431:12 0
41 *413:24 *451:6 8.40213e-05
42 *413:24 *536:47 0
43 *413:37 *1918:B1 0.000164874
44 *413:37 *431:12 3.19431e-05
45 *413:70 *1859:B 3.9442e-05
46 *413:70 *2040:A 9.40517e-05
47 *413:70 *2074:A 0
48 *413:70 *2110:A 0.000237039
49 *1626:A *1953:A1 0
50 *1644:A2 *1953:A1 0
51 *1648:A *1953:A1 0.000141858
52 *1648:B *1953:A1 0.000165841
53 *1851:B *1953:A1 0
54 *1859:C *413:70 2.05056e-05
55 *1860:A *413:24 0
56 *1860:A *413:37 3.00381e-05
57 *1860:B *413:37 0.000160483
58 *1914:B1 *413:24 0.000126717
59 *1919:A1 *413:24 0
60 *1919:A1 *413:37 4.47125e-05
61 *1920:A1 *413:24 0.00027042
62 *1920:A2 *413:24 2.05056e-05
63 *2090:A *1902:A1 0.00013994
64 *2115:A *413:70 0.000460265
65 *136:12 *413:24 2.75707e-05
66 *139:18 *1902:A1 0.000154353
67 *141:10 *413:70 0.00010511
68 *142:14 *413:24 0.000151266
69 *148:10 *1902:A1 3.86607e-05
70 *149:8 *413:70 4.36563e-05
71 *171:8 *1923:A 7.13336e-05
72 *171:8 *413:70 6.31208e-05
73 *214:10 *413:70 0
74 *217:16 *1902:A1 0.000562369
*RES
1 *1878:Y *413:10 5.775 
2 *413:10 *413:12 6.48 
3 *413:12 *413:24 22.53 
4 *413:24 *1918:A1 1.6 
5 *413:24 *413:37 9.38 
6 *413:37 *1953:A1 21.82 
7 *413:37 *413:70 23.94 
8 *413:70 *1902:A1 26.075 
9 *413:70 *1923:A 5.08 
10 *413:12 *1909:A1 3.6 
11 *413:10 *1755:A 7.5 
*END

*D_NET *414 0.0024579
*CONN
*I *1619:B1 I *D sky130_fd_sc_hd__o21ai_4
*I *1620:B1_N I *D sky130_fd_sc_hd__o21bai_4
*I *1845:A1 I *D sky130_fd_sc_hd__mux2_1
*I *1971:X O *D sky130_fd_sc_hd__clkdlybuf4s25_1
*CAP
1 *1619:B1 6.01177e-05
2 *1620:B1_N 8.47102e-05
3 *1845:A1 3.43418e-05
4 *1971:X 0.000256488
5 *414:23 0.000648864
6 *414:10 0.000794866
7 *1619:B1 *502:20 5.30281e-05
8 *1620:B1_N *502:30 7.21412e-05
9 *1845:A1 *2054:A 5.20968e-05
10 *414:10 *2054:A 1.71013e-05
11 *414:23 *1621:C1 0.000135392
12 *414:23 *502:20 2.01504e-05
13 *414:23 *502:30 4.77757e-05
14 *414:23 *515:8 8.73389e-06
15 *1728:C *1845:A1 5.39718e-05
16 *1728:C *414:10 4.74304e-05
17 *1736:A2 *414:10 7.06865e-05
18 *2010:A *414:10 0
*RES
1 *1971:X *414:10 7.32 
2 *414:10 *1845:A1 4.725 
3 *414:10 *414:23 9.35 
4 *414:23 *1620:B1_N 7.235 
5 *414:23 *1619:B1 2.755 
*END

*D_NET *415 0.0054514
*CONN
*I *1704:C I *D sky130_fd_sc_hd__nand3b_2
*I *1705:B1_N I *D sky130_fd_sc_hd__o21bai_4
*I *1972:X O *D sky130_fd_sc_hd__clkdlybuf4s25_1
*CAP
1 *1704:C 0.000275757
2 *1705:B1_N 0
3 *1972:X 0.00182478
4 *415:14 0.00210054
5 *1704:C *424:12 0
6 *415:14 *1754:A_N 0
7 *415:14 *1754:B 7.54567e-05
8 *415:14 *424:18 0
9 *415:14 *459:10 0.000315527
10 *415:14 *469:12 7.45968e-05
11 *415:14 *518:10 0
12 *1704:B *1704:C 6.52906e-05
13 *1705:A2 *1704:C 0
14 *1705:A2 *415:14 0
15 *1752:A2 *415:14 0.000115522
16 *1752:B1 *415:14 0.000128358
17 *1755:A *415:14 3.45588e-05
18 *1756:A2 *415:14 0.000267037
19 *1759:A *415:14 0
20 *1772:B1 *415:14 0
21 *1976:A *415:14 4.99619e-05
22 *288:12 *1704:C 0
23 *288:12 *415:14 0
24 *316:6 *415:14 0.000124007
25 *317:10 *415:14 0
*RES
1 *1972:X *415:14 33.27 
2 *415:14 *1705:B1_N 3.6 
3 *415:14 *1704:C 8.28 
*END

*D_NET *416 0.00276453
*CONN
*I *1727:A I *D sky130_fd_sc_hd__nor2_2
*I *2036:A I *D sky130_fd_sc_hd__buf_8
*I *1725:A I *D sky130_fd_sc_hd__and2_4
*I *2106:A I *D sky130_fd_sc_hd__buf_2
*I *1958:X O *D sky130_fd_sc_hd__buf_8
*CAP
1 *1727:A 0
2 *2036:A 0
3 *1725:A 4.03735e-05
4 *2106:A 0.000246541
5 *1958:X 0.000226944
6 *416:14 0.000413045
7 *416:12 0.000171981
8 *416:10 0.000272794
9 *1725:A *1725:B 4.82863e-05
10 *1725:A *1726:B 2.96426e-05
11 *1725:A *1845:S 0.000162311
12 *2106:A *1956:B 6.57653e-06
13 *2106:A *471:12 0.000162659
14 *416:10 *1727:B 5.53249e-06
15 *416:10 *2055:A 3.64998e-06
16 *416:10 *418:18 8.8266e-05
17 *416:10 *448:10 0.000152364
18 *416:10 *454:10 6.44959e-05
19 *416:12 *1727:B 9.16315e-05
20 *416:12 *1728:B 0.000153794
21 *416:12 *448:10 9.50342e-06
22 *416:14 *1725:B 3.05295e-05
23 *416:14 *1727:B 7.53115e-05
24 *416:14 *1728:B 8.53113e-06
25 *416:14 *1956:B 8.09021e-06
26 *416:14 *471:12 8.08153e-06
27 *416:14 *515:10 9.87538e-05
28 *1729:A1 *416:14 0.000184845
29 *1975:A *416:10 0
*RES
1 *1958:X *416:10 8.265 
2 *416:10 *416:12 1.89 
3 *416:12 *416:14 4.44 
4 *416:14 *2106:A 8.085 
5 *416:14 *1725:A 5.085 
6 *416:12 *2036:A 3.6 
7 *416:10 *1727:A 3.6 
*END

*D_NET *417 0.00395658
*CONN
*I *2102:A I *D sky130_fd_sc_hd__buf_6
*I *1619:A1 I *D sky130_fd_sc_hd__o21ai_4
*I *1617:A I *D sky130_fd_sc_hd__and2_4
*I *1612:A I *D sky130_fd_sc_hd__nand2_2
*I *1614:A2 I *D sky130_fd_sc_hd__o21a_4
*I *1611:A_N I *D sky130_fd_sc_hd__nand2b_4
*I *2036:X O *D sky130_fd_sc_hd__buf_8
*CAP
1 *2102:A 0.000563351
2 *1619:A1 0
3 *1617:A 1.99025e-05
4 *1612:A 0
5 *1614:A2 9.89142e-05
6 *1611:A_N 8.06797e-05
7 *2036:X 0
8 *417:14 0.000306143
9 *417:12 0.000393176
10 *417:10 0.000413693
11 *417:8 0.000280079
12 *417:4 0.000716266
13 *1611:A_N *1611:B 0.000201508
14 *1614:A2 *1611:B 8.64421e-05
15 *1614:A2 *1614:B1 8.64421e-05
16 *1617:A *1845:S 4.99619e-05
17 *1617:A *502:30 3.66286e-05
18 *2102:A *1618:B 9.90903e-05
19 *417:8 *1618:A 0
20 *417:8 *1956:B 0
21 *417:8 *454:10 0
22 *417:10 *1618:A 0
23 *417:10 *1956:B 0
24 *417:10 *502:30 6.44307e-05
25 *417:12 *1956:B 0
26 *417:12 *514:42 0
27 *417:14 *514:42 0
28 *1613:C *417:14 0
29 *1640:A1_N *417:12 8.53255e-05
30 *2009:A *417:12 0
31 *180:14 *417:12 0.000126926
32 *182:8 *417:12 0
33 *182:8 *417:14 0
34 *183:8 *417:12 0.0001274
35 *183:25 *1617:A 4.80285e-05
36 *183:25 *417:12 6.36578e-05
37 *292:10 *417:8 8.53113e-06
*RES
1 *2036:X *417:4 1.6 
2 *417:4 *417:8 4.4 
3 *417:8 *417:10 2.4 
4 *417:10 *417:12 6.225 
5 *417:12 *417:14 1.89 
6 *417:14 *1611:A_N 5.43 
7 *417:14 *1614:A2 5.535 
8 *417:12 *1612:A 3.6 
9 *417:10 *1617:A 4.395 
10 *417:8 *1619:A1 3.6 
11 *417:4 *2102:A 8.2 
*END

*D_NET *418 0.00479206
*CONN
*I *2091:A I *D sky130_fd_sc_hd__buf_2
*I *2092:A I *D sky130_fd_sc_hd__buf_2
*I *1958:A I *D sky130_fd_sc_hd__buf_8
*I *1733:A I *D sky130_fd_sc_hd__and2_4
*I *1959:X O *D sky130_fd_sc_hd__buf_8
*CAP
1 *2091:A 0.000116364
2 *2092:A 0.000145589
3 *1958:A 0
4 *1733:A 0.000347247
5 *1959:X 8.49786e-05
6 *418:18 0.000630382
7 *418:12 0.000849318
8 *418:8 0.000621938
9 *1733:A *1733:B 0.000531687
10 *2091:A *1760:A1 0.000234674
11 *2091:A *421:37 1.33434e-05
12 *2091:A *453:12 2.49909e-05
13 *2092:A *1734:A1 8.65961e-05
14 *418:8 *421:37 0.000163204
15 *418:12 *1734:A1 4.32877e-05
16 *418:12 *1959:A 0
17 *418:12 *516:12 0
18 *418:18 *2055:A 0
19 *418:18 *454:10 0
20 S[1] *1733:A 8.40269e-05
21 S[20] *418:12 0.000106819
22 S[21] *418:12 6.59682e-05
23 *1735:B1 *2092:A 0.000161529
24 *1735:B1 *418:12 0
25 *1736:A1 *418:12 0.000147954
26 *1736:A2 *418:12 8.57297e-05
27 *1736:A2 *418:18 5.4256e-05
28 *1975:A *418:18 8.53113e-06
29 *1978:A *418:8 9.53753e-05
30 *305:10 *418:12 0
31 *416:10 *418:18 8.8266e-05
*RES
1 *1959:X *418:8 4.135 
2 *418:8 *418:12 10.52 
3 *418:12 *418:18 6.845 
4 *418:18 *1733:A 13.07 
5 *418:18 *1958:A 1.6 
6 *418:12 *2092:A 6.48 
7 *418:8 *2091:A 4.12 
*END

*D_NET *419 0.00137371
*CONN
*I *2037:A I *D sky130_fd_sc_hd__buf_8
*I *1878:A I *D sky130_fd_sc_hd__inv_2
*I *1754:B I *D sky130_fd_sc_hd__nand2b_2
*I *1960:X O *D sky130_fd_sc_hd__buf_4
*CAP
1 *2037:A 5.55591e-05
2 *1878:A 0
3 *1754:B 0.000173905
4 *1960:X 0
5 *419:21 0.000259147
6 *419:4 0.000377493
7 *1754:B *1754:A_N 0.000212082
8 *419:21 *2104:A 0.000162311
9 *317:10 *1754:B 7.21296e-06
10 *413:10 *2037:A 5.05437e-05
11 *415:14 *1754:B 7.54567e-05
*RES
1 *1960:X *419:4 1.6 
2 *419:4 *1754:B 9.575 
3 *419:4 *419:21 3.57 
4 *419:21 *1878:A 1.6 
5 *419:21 *2037:A 2.74 
*END

*D_NET *420 0.010731
*CONN
*I *2089:A I *D sky130_fd_sc_hd__buf_2
*I *1910:A1 I *D sky130_fd_sc_hd__o21ai_2
*I *1843:B1 I *D sky130_fd_sc_hd__a21oi_2
*I *1633:A I *D sky130_fd_sc_hd__nand2_2
*I *1631:A I *D sky130_fd_sc_hd__or2_4
*I *1630:A I *D sky130_fd_sc_hd__nor2_4
*I *1632:A I *D sky130_fd_sc_hd__and2_4
*I *2037:X O *D sky130_fd_sc_hd__buf_8
*CAP
1 *2089:A 0.000126445
2 *1910:A1 0.000436803
3 *1843:B1 0.000513891
4 *1633:A 9.52548e-05
5 *1631:A 0
6 *1630:A 0.000259079
7 *1632:A 0.000178412
8 *2037:X 0.00058754
9 *420:34 0.000611548
10 *420:24 0.000329692
11 *420:20 0.000396022
12 *420:18 0.00147574
13 *420:12 0.00140889
14 *420:8 0.000869357
15 *1630:A *1614:B1 4.77719e-05
16 *1630:A *1630:B 0.000294428
17 *1630:A *502:12 1.07797e-05
18 *1632:A *1632:B 0.000381366
19 *1632:A *526:31 1.83756e-05
20 *1843:B1 *1618:A 1.94892e-05
21 *1843:B1 *1621:C1 0.000497878
22 *1910:A1 *1847:A1 4.60584e-05
23 *1910:A1 *1847:A2 4.43682e-05
24 *1910:A1 *1910:A2 9.46416e-05
25 *1910:A1 *501:32 7.10578e-05
26 *420:8 *1906:A 0
27 *420:8 *1911:A1 3.23391e-05
28 *420:8 *469:22 0
29 *420:8 *536:47 4.19797e-05
30 *420:8 *536:72 0
31 *420:12 *1911:A1 0.000103192
32 *420:12 *536:33 5.51158e-05
33 *420:12 *536:72 0
34 *420:18 *1843:A2 9.60582e-07
35 *420:18 *1847:A1 9.66106e-05
36 *420:18 *2116:A 2.49909e-05
37 *420:20 *1622:A 0
38 *420:20 *1882:A 0
39 *420:34 *1631:B 0.000164454
40 *420:34 *526:31 3.45679e-05
41 *1636:A2 *1630:A 0
42 *1636:B1 *420:20 4.7043e-05
43 *1636:B1 *420:24 0.000142037
44 *1844:A *420:24 0
45 *1847:B1_N *420:18 1.83847e-05
46 *1920:A1 *2089:A 0.00019637
47 *1920:A2 *420:8 5.85071e-05
48 *1920:A2 *420:12 2.97004e-06
49 *1997:A *1630:A 0
50 *2021:A *420:34 0.000189259
51 *2085:A *420:18 0
52 *2085:A *420:20 0
53 *2099:A *420:18 0
54 *2099:A *420:20 0
55 *181:20 *1630:A 0.000131246
56 *183:25 *1633:A 4.16353e-05
57 *188:10 *1633:A 4.82919e-05
58 *188:10 *420:20 0
59 *201:10 *1630:A 0
60 *201:10 *1633:A 0.000124895
61 *201:10 *420:24 0.000338226
62 *413:10 *420:8 0
63 *413:12 *420:8 0
64 *413:24 *2089:A 2.30292e-05
*RES
1 *2037:X *420:8 13.65 
2 *420:8 *420:12 5.42 
3 *420:12 *420:18 11.84 
4 *420:18 *420:20 2.655 
5 *420:20 *420:24 6.185 
6 *420:24 *420:34 4.74 
7 *420:34 *1632:A 5.5 
8 *420:34 *1630:A 11.225 
9 *420:24 *1631:A 1.6 
10 *420:20 *1633:A 5.775 
11 *420:18 *1843:B1 14.44 
12 *420:12 *1910:A1 7.6 
13 *420:8 *2089:A 6.135 
*END

*D_NET *421 0.00488479
*CONN
*I *2104:A I *D sky130_fd_sc_hd__buf_2
*I *1960:A I *D sky130_fd_sc_hd__buf_4
*I *1959:A I *D sky130_fd_sc_hd__buf_8
*I *1961:X O *D sky130_fd_sc_hd__buf_8
*CAP
1 *2104:A 0.000113224
2 *1960:A 0
3 *1959:A 3.77755e-05
4 *1961:X 0.000257934
5 *421:37 0.00121538
6 *421:10 0.00139787
7 *421:10 *1760:A1 0
8 *421:10 *466:16 6.37245e-05
9 *421:10 *517:8 2.75145e-05
10 *421:37 *1760:A1 0.0001049
11 *421:37 *1884:A 0.000677109
12 *1736:A1 *1959:A 0
13 *1756:B1 *421:37 4.82863e-05
14 *1757:B *421:37 0.000271142
15 *1757:C *421:37 9.20835e-05
16 *2091:A *421:37 1.33434e-05
17 *106:6 *421:37 2.33708e-05
18 *106:15 *421:37 0.000215618
19 *305:10 *1959:A 0
20 *305:10 *421:10 0
21 *418:8 *421:37 0.000163204
22 *418:12 *1959:A 0
23 *419:21 *2104:A 0.000162311
*RES
1 *1961:X *421:10 7.98 
2 *421:10 *1959:A 4.215 
3 *421:10 *421:37 19.895 
4 *421:37 *1960:A 1.6 
5 *421:37 *2104:A 3.775 
*END

*D_NET *422 0.0124162
*CONN
*I *1778:A I *D sky130_fd_sc_hd__and2_2
*I *1712:A I *D sky130_fd_sc_hd__nand2_2
*I *1711:A I *D sky130_fd_sc_hd__or2_2
*I *1741:A I *D sky130_fd_sc_hd__or2_4
*I *1765:A I *D sky130_fd_sc_hd__nor2_2
*I *1743:A I *D sky130_fd_sc_hd__nand2_2
*I *1764:A I *D sky130_fd_sc_hd__and2_4
*I *1777:A I *D sky130_fd_sc_hd__nor2_2
*I *1787:A I *D sky130_fd_sc_hd__nand2_2
*I *1788:A I *D sky130_fd_sc_hd__or2_2
*I *1962:X O *D sky130_fd_sc_hd__clkbuf_2
*CAP
1 *1778:A 0
2 *1712:A 0.000347341
3 *1711:A 2.08101e-05
4 *1741:A 0
5 *1765:A 0
6 *1743:A 0.00109932
7 *1764:A 0
8 *1777:A 9.55916e-05
9 *1787:A 6.93275e-05
10 *1788:A 6.28256e-05
11 *1962:X 0.000936347
12 *422:122 0.000799486
13 *422:79 0.00119749
14 *422:75 0.000195162
15 *422:73 0.000584227
16 *422:64 0.000136686
17 *422:58 0.000228
18 *422:45 0.000911198
19 *422:6 0.000400108
20 *1712:A *1712:B 1.34503e-05
21 *1712:A *1714:B1 6.69608e-06
22 *1712:A *1715:B1 4.21484e-05
23 *1712:A *426:6 1.31297e-05
24 *1712:A *426:23 9.22308e-05
25 *1743:A *1732:B 6.15171e-05
26 *1743:A *1760:A1 0
27 *1743:A *1765:B 1.16578e-05
28 *1743:A *1961:A 0
29 *1743:A *453:12 0.000173789
30 *1743:A *466:16 0
31 *1743:A *516:12 9.4087e-05
32 *1743:A *516:34 8.88799e-05
33 *1777:A *519:10 4.65515e-05
34 *1787:A *1787:B 4.91189e-05
35 *1787:A *537:12 0
36 *422:58 *519:10 0.000325667
37 *422:64 *1764:B 4.82919e-05
38 *422:64 *1765:B 3.09164e-05
39 *422:64 *519:10 0.000159957
40 *422:73 *1764:B 4.82863e-05
41 *422:73 *513:14 4.21973e-05
42 *422:79 *1741:B 0
43 *422:79 *1765:B 0
44 *422:122 *1712:B 3.10907e-05
45 *422:122 *513:14 0.000289823
46 *1715:A2 *1712:A 8.52845e-05
47 *1736:A1 *1743:A 0.000507241
48 *1748:A *1743:A 3.02917e-05
49 *1748:A *422:79 9.50342e-06
50 *1753:A *1743:A 0
51 *1761:A *1743:A 0
52 *1761:C *1743:A 0
53 *1769:A *422:45 4.82919e-05
54 *1784:A_N *422:45 0.000114753
55 *1785:A *422:45 0.000576509
56 *1785:B *422:45 0.000137777
57 *1796:A *1788:A 0
58 *1796:A *422:6 0.00019637
59 *1796:A *422:45 5.12017e-06
60 *1796:B *1787:A 0
61 *1804:A1 *422:45 0
62 *2007:A *1743:A 4.39014e-05
63 *2011:A *1743:A 9.90902e-05
64 *2012:A *1743:A 0
65 *107:10 *1777:A 8.23457e-05
66 *107:10 *422:45 0.000111455
67 *276:6 *1712:A 1.52352e-05
68 *280:18 *1712:A 0
69 *307:14 *1743:A 1.67513e-05
70 *309:14 *1743:A 0.000197415
71 *324:10 *422:122 6.35104e-05
72 *325:10 *422:58 5.53249e-06
73 *325:10 *422:64 0.000100536
74 *325:10 *422:75 9.76522e-05
75 *325:10 *422:79 6.47516e-05
76 *325:10 *422:122 3.4222e-05
77 *326:10 *422:45 1.52184e-05
78 *326:10 *422:58 9.30717e-05
79 *327:8 *422:45 8.53113e-06
80 *327:8 *422:58 0
81 *329:6 *1777:A 5.83121e-06
82 *329:6 *422:45 3.96653e-05
83 *338:38 *422:45 0
84 *342:12 *422:45 0
85 *343:8 *422:45 0.000138544
86 *343:30 *422:45 0.000175713
87 *346:6 *422:6 6.47326e-05
88 *346:19 *422:45 0.000158066
89 *348:17 *422:45 0
90 *351:10 *422:45 0.000319862
*RES
1 *1962:X *422:6 5.155 
2 *422:6 *1788:A 2.41 
3 *422:6 *1787:A 6.98 
4 *1962:X *422:45 23.165 
5 *422:45 *1777:A 3.445 
6 *422:45 *422:58 5.93 
7 *422:58 *422:64 4.595 
8 *422:64 *1764:A 1.6 
9 *422:64 *422:73 3.14 
10 *422:73 *422:75 2.145 
11 *422:75 *422:79 3.89 
12 *422:79 *1743:A 27.86 
13 *422:79 *1765:A 1.6 
14 *422:75 *1741:A 3.6 
15 *422:73 *422:122 8.15 
16 *422:122 *1711:A 1.96 
17 *422:122 *1712:A 10.79 
18 *422:58 *1778:A 3.6 
*END

*D_NET *423 0.00279077
*CONN
*I *1819:A I *D sky130_fd_sc_hd__xnor2_2
*I *1814:A I *D sky130_fd_sc_hd__xnor2_2
*I *2038:A I *D sky130_fd_sc_hd__buf_2
*I *1963:X O *D sky130_fd_sc_hd__dlymetal6s2s_1
*CAP
1 *1819:A 0.000359346
2 *1814:A 0
3 *2038:A 8.34096e-05
4 *1963:X 4.71524e-05
5 *423:23 0.000483968
6 *423:8 0.000255184
7 *1819:A *1819:B 0.000149228
8 *1819:A *1886:A 8.40213e-05
9 *2038:A *424:12 0
10 *2038:A *487:10 3.72916e-05
11 *423:23 *1819:B 0.000161829
12 *1815:B *1819:A 4.66108e-05
13 *1818:A2 *1819:A 0
14 *1824:B1 *1819:A 0
15 *1983:A *2038:A 0.000163019
16 *1983:A *423:8 0.000183057
17 *1984:A *1819:A 0.000136877
18 *2018:A *2038:A 0.000229872
19 *2018:A *423:8 0.000175214
20 *108:6 *1819:A 0.000194694
*RES
1 *1963:X *423:8 5.745 
2 *423:8 *2038:A 6.63 
3 *423:8 *423:23 4.52 
4 *423:23 *1814:A 1.6 
5 *423:23 *1819:A 13.205 
*END

*D_NET *424 0.00593432
*CONN
*I *1801:A I *D sky130_fd_sc_hd__xor2_2
*I *1703:A I *D sky130_fd_sc_hd__nand2_2
*I *1702:A I *D sky130_fd_sc_hd__and2_2
*I *1701:A I *D sky130_fd_sc_hd__nor2_2
*I *2038:X O *D sky130_fd_sc_hd__buf_2
*CAP
1 *1801:A 0.000137841
2 *1703:A 3.37454e-05
3 *1702:A 0
4 *1701:A 0.000169588
5 *2038:X 0
6 *424:18 0.000327286
7 *424:12 0.00141316
8 *424:6 0.00135955
9 *1701:A *1701:B 0.00013973
10 *1701:A *1702:B 5.4155e-06
11 *1701:A *512:25 4.60584e-05
12 *1801:A *1801:B 4.40643e-05
13 *424:12 *1772:A2 0.000300109
14 *424:12 *1801:B 2.97004e-06
15 *424:12 *1807:A1 0
16 *424:18 *512:25 0.000198945
17 *1704:B *424:12 0
18 *1704:C *424:12 0
19 *1716:A *424:12 6.22834e-05
20 *1716:B *424:12 0
21 *1722:B1 *424:12 5.51245e-05
22 *1772:A1 *424:12 1.01661e-05
23 *1772:B1 *424:12 0.000891854
24 *1772:B1 *424:18 0.000162325
25 *1773:C *424:12 2.68721e-05
26 *1775:A1 *424:12 0
27 *1805:A *424:12 0
28 *1806:C *424:12 0
29 *1808:B1 *424:12 6.74079e-05
30 *1809:A1 *424:12 0.000186099
31 *1809:A2 *424:12 0
32 *1809:B1 *424:12 0
33 *2018:A *1801:A 0
34 *2018:A *424:12 0
35 *2038:A *424:12 0
36 *332:8 *424:12 0.000293726
37 *333:19 *424:12 0
38 *358:8 *424:12 0
39 *358:17 *424:12 0
40 *359:17 *424:12 0
41 *415:14 *424:18 0
*RES
1 *2038:X *424:6 3.6 
2 *424:6 *424:12 27.945 
3 *424:12 *424:18 5.72 
4 *424:18 *1701:A 5.185 
5 *424:18 *1702:A 1.6 
6 *424:12 *1703:A 4.05 
7 *424:6 *1801:A 6.03 
*END

*D_NET *425 0.00823964
*CONN
*I *1897:B I *D sky130_fd_sc_hd__nand2b_2
*I *1896:A_N I *D sky130_fd_sc_hd__nand2b_4
*I *1899:A1 I *D sky130_fd_sc_hd__o21ai_4
*I *1892:A1 I *D sky130_fd_sc_hd__o21ai_2
*I *1889:A I *D sky130_fd_sc_hd__and2_4
*I *1964:X O *D sky130_fd_sc_hd__buf_8
*CAP
1 *1897:B 0.000280162
2 *1896:A_N 2.08101e-05
3 *1899:A1 0
4 *1892:A1 0.000338434
5 *1889:A 0.000196494
6 *1964:X 0.000542353
7 *425:57 0.00061504
8 *425:16 0.000885275
9 *425:12 0.00037618
10 *425:10 0.000882252
11 *1889:A *1889:B 0
12 *1889:A *1890:B 4.9968e-05
13 *1892:A1 *1892:B1 0
14 *1892:A1 *1930:B 0
15 *1897:B *503:48 0.000132351
16 *1897:B *503:50 7.5277e-05
17 *425:10 *1659:B 0.000503702
18 *425:10 *1964:A 4.41506e-05
19 *425:12 *429:32 5.16348e-05
20 *425:12 *503:48 0
21 *425:16 *1890:B 5.605e-05
22 *425:16 *1900:A1 0
23 *425:16 *1900:A2 9.49116e-05
24 *425:16 *429:32 0.000149759
25 *425:16 *429:34 0.000649937
26 *425:16 *429:38 0.000118527
27 *425:16 *503:35 3.60451e-05
28 *425:16 *503:48 0
29 *425:57 *429:32 0.00013994
30 *425:57 *433:39 0
31 *425:57 *503:48 5.05437e-05
32 *1663:A1 *425:10 4.82919e-05
33 *1663:A1 *425:57 2.59926e-05
34 *1664:B *1896:A_N 0
35 *1664:B *425:57 5.05437e-05
36 *1894:B1 *1892:A1 0.00015896
37 *1903:B *1897:B 4.82919e-05
38 *1905:A2 *425:16 0.00015997
39 *1905:B1 *425:16 6.28765e-05
40 *1917:B1 *1889:A 0.000134314
41 *1931:C *1892:A1 4.70343e-05
42 *111:6 *1889:A 7.92042e-05
43 *111:23 *1889:A 1.34503e-05
44 *111:23 *1892:A1 4.01778e-05
45 *114:10 *1892:A1 0.000312077
46 *116:18 *1889:A 0.000322158
47 *119:10 *1897:B 8.49205e-05
48 *232:10 *1897:B 0.000315527
49 *232:10 *425:57 4.60584e-05
*RES
1 *1964:X *425:10 12.345 
2 *425:10 *425:12 0.615 
3 *425:12 *425:16 12.815 
4 *425:16 *1889:A 10.22 
5 *425:16 *1892:A1 11.795 
6 *425:12 *1899:A1 3.6 
7 *425:10 *425:57 8.105 
8 *425:57 *1896:A_N 1.96 
9 *425:57 *1897:B 8.29 
*END

*D_NET *426 0.00399685
*CONN
*I *1715:B1 I *D sky130_fd_sc_hd__a21o_2
*I *1713:C I *D sky130_fd_sc_hd__nand3_2
*I *1714:B1 I *D sky130_fd_sc_hd__a21oi_2
*I *1973:X O *D sky130_fd_sc_hd__clkdlybuf4s25_1
*CAP
1 *1715:B1 2.64318e-05
2 *1713:C 0.000216754
3 *1714:B1 0.000248655
4 *1973:X 0.00100891
5 *426:23 0.000302903
6 *426:6 0.00131728
7 *426:6 *1712:B 4.82369e-05
8 *426:6 *1741:B 4.10476e-05
9 *426:6 *1746:B1 3.03775e-05
10 *1712:A *1714:B1 6.69608e-06
11 *1712:A *1715:B1 4.21484e-05
12 *1712:A *426:6 1.31297e-05
13 *1712:A *426:23 9.22308e-05
14 *1713:B *1713:C 2.4269e-05
15 *1714:A1 *1714:B1 1.82667e-05
16 *1715:A2 *1713:C 1.19928e-05
17 *1722:B1 *1714:B1 4.99619e-05
18 *1746:A1 *426:6 1.4389e-05
19 *1746:A2 *426:6 2.11084e-05
20 *276:17 *1713:C 0.000170466
21 *277:6 *1714:B1 8.65905e-05
22 *277:19 *1714:B1 4.66108e-05
23 *278:8 *1713:C 4.99619e-05
24 *280:18 *1715:B1 3.60024e-06
25 *303:6 *426:6 3.0807e-05
26 *308:14 *426:6 7.40137e-05
*RES
1 *1973:X *426:6 13.435 
2 *426:6 *1714:B1 5.98 
3 *426:6 *426:23 3.125 
4 *426:23 *1713:C 7.53 
5 *426:23 *1715:B1 4.215 
*END

*D_NET *427 0.00263082
*CONN
*I *2039:A I *D sky130_fd_sc_hd__buf_6
*I *1925:A1 I *D sky130_fd_sc_hd__a21oi_2
*I *1926:A2 I *D sky130_fd_sc_hd__a21oi_2
*I *1927:A1 I *D sky130_fd_sc_hd__o21a_2
*I *1965:X O *D sky130_fd_sc_hd__buf_4
*CAP
1 *2039:A 0.000164875
2 *1925:A1 0.000188207
3 *1926:A2 0
4 *1927:A1 9.90571e-05
5 *1965:X 0
6 *427:23 0.000188207
7 *427:8 0.000257494
8 *427:4 0.000323312
9 *1925:A1 *1880:A 9.02259e-05
10 *1925:A1 *1925:A2 5.4155e-06
11 *1925:A1 *534:6 4.92062e-05
12 *1925:A1 *534:8 7.35813e-05
13 *1927:A1 *1880:A 3.05373e-05
14 *2039:A *1889:B 8.65961e-05
15 *2039:A *504:20 0.000161204
16 *427:8 *1880:A 5.55538e-05
17 *427:8 *1889:B 1.70935e-05
18 *427:8 *1932:A1 0
19 *1893:B *2039:A 0.000200615
20 *1902:A1 *1927:A1 5.98004e-06
21 *1923:A *1927:A1 9.60752e-05
22 *1927:A2 *1927:A1 7.09999e-05
23 *102:10 *1927:A1 1.1561e-05
24 *102:10 *427:8 7.71016e-05
25 *148:10 *1927:A1 9.30717e-05
26 *171:8 *1927:A1 3.72916e-05
27 *217:16 *427:8 0.00024756
*RES
1 *1965:X *427:4 1.6 
2 *427:4 *427:8 6.185 
3 *427:8 *1927:A1 6.645 
4 *427:8 *427:23 2 
5 *427:23 *1926:A2 1.6 
6 *427:23 *1925:A1 5.17 
7 *427:4 *2039:A 5.86 
*END

*D_NET *428 0.0069165
*CONN
*I *1928:A I *D sky130_fd_sc_hd__and2_2
*I *1933:A1 I *D sky130_fd_sc_hd__a21oi_2
*I *1936:A I *D sky130_fd_sc_hd__and2_2
*I *1938:A1 I *D sky130_fd_sc_hd__a21oi_2
*I *1937:A2 I *D sky130_fd_sc_hd__o21ai_4
*I *1935:A_N I *D sky130_fd_sc_hd__nand2b_4
*I *1934:B I *D sky130_fd_sc_hd__nand2b_2
*I *2039:X O *D sky130_fd_sc_hd__buf_6
*CAP
1 *1928:A 0
2 *1933:A1 8.25543e-05
3 *1936:A 3.33983e-05
4 *1938:A1 5.21277e-05
5 *1937:A2 0.000613393
6 *1935:A_N 0.0001628
7 *1934:B 0
8 *2039:X 0.000254739
9 *428:35 0.000992086
10 *428:31 0.000277075
11 *428:24 0.000177705
12 *428:18 0.000418493
13 *428:12 0.000434202
14 *428:8 0.000389943
15 *1933:A1 *533:12 2.66586e-05
16 *1933:A1 *533:18 1.4399e-05
17 *1935:A_N *1942:A_N 3.71091e-05
18 *1935:A_N *496:10 1.73877e-05
19 *1937:A2 *1937:A1 5.33172e-05
20 *1937:A2 *1937:B1 0.000509968
21 *1937:A2 *496:29 0.000100858
22 *1938:A1 *1938:A2 8.65961e-05
23 *428:8 *1891:B 4.54719e-05
24 *428:8 *1924:A1 1.80446e-05
25 *428:8 *429:38 0.000170323
26 *428:8 *504:14 0.00013521
27 *428:8 *533:18 1.34361e-05
28 *428:8 *533:37 9.42224e-05
29 *428:12 *533:18 6.28843e-05
30 *428:18 *1936:B 1.01661e-05
31 *428:18 *533:18 2.77183e-05
32 *428:24 *1936:B 6.6083e-05
33 *428:24 *1938:A2 0.000114912
34 *428:24 *532:21 2.92496e-05
35 *428:24 *532:36 3.74161e-05
36 *428:31 *1938:A2 4.82863e-05
37 *428:35 *496:10 2.67022e-05
38 *428:35 *532:21 0
39 *1925:B1 *428:8 0.000140905
40 *1955:C *428:18 3.09233e-05
41 *1955:C *428:24 0.000163019
42 *1991:A *1935:A_N 0
43 *114:10 *428:8 0
44 *150:10 *428:12 3.85884e-05
45 *150:10 *428:18 8.08153e-06
46 *154:10 *428:8 0
47 *154:10 *428:12 0
48 *154:12 *428:12 0
49 *156:10 *428:35 0
50 *158:10 *1936:A 5.83121e-06
51 *158:10 *428:24 0.000312983
52 *174:10 *428:18 0.000158975
53 *177:14 *428:18 0
54 *399:28 *1938:A1 0.000185017
55 *399:28 *428:24 0.000200615
56 *399:28 *428:31 3.66286e-05
*RES
1 *2039:X *428:8 10.08 
2 *428:8 *428:12 4.4 
3 *428:12 *428:18 6.065 
4 *428:18 *428:24 8.015 
5 *428:24 *1934:B 1.6 
6 *428:24 *428:31 0.45 
7 *428:31 *428:35 5.42 
8 *428:35 *1935:A_N 6.51 
9 *428:35 *1937:A2 11.91 
10 *428:31 *1938:A1 3.445 
11 *428:18 *1936:A 4.05 
12 *428:12 *1933:A1 3.1 
13 *428:8 *1928:A 3.6 
*END

*D_NET *429 0.00653058
*CONN
*I *1929:B I *D sky130_fd_sc_hd__nand2b_2
*I *1957:A I *D sky130_fd_sc_hd__buf_8
*I *1930:A_N I *D sky130_fd_sc_hd__nand2b_4
*I *1932:A1 I *D sky130_fd_sc_hd__o21ai_2
*I *1924:A1 I *D sky130_fd_sc_hd__o21ai_2
*I *1964:A I *D sky130_fd_sc_hd__buf_8
*I *1966:X O *D sky130_fd_sc_hd__buf_8
*CAP
1 *1929:B 5.01475e-05
2 *1957:A 0
3 *1930:A_N 0.000258181
4 *1932:A1 0.000393183
5 *1924:A1 3.37995e-05
6 *1964:A 0.00015821
7 *1966:X 0.000484621
8 *429:38 0.000590626
9 *429:34 0.000682983
10 *429:32 0.000537421
11 *1929:B *1880:A 8.40213e-05
12 *1929:B *1929:A_N 8.40269e-05
13 *1932:A1 *1924:A2 4.99619e-05
14 *1932:A1 *1924:B1 4.43871e-06
15 *1932:A1 *1926:B1 0
16 *1932:A1 *533:37 0
17 *1964:A *1867:A1 0.00015997
18 *1964:A *1965:A 0.000184189
19 *1964:A *1966:A 0
20 *1964:A *511:6 3.1835e-05
21 *429:32 *2105:A 8.6311e-05
22 *429:32 *433:39 7.04021e-05
23 *429:32 *511:6 0.000253946
24 *429:34 *1891:B 0.000161573
25 *429:34 *2105:A 1.34361e-05
26 *429:34 *455:10 9.87538e-05
27 *429:34 *455:20 0.000150959
28 *429:38 *1890:B 0
29 *429:38 *1891:B 0.000116563
30 *429:38 *533:37 0
31 *1916:A1_N *1930:A_N 2.11084e-05
32 *1917:B1 *1930:A_N 0.000120655
33 *1931:C *1929:B 8.34281e-06
34 *1931:C *1932:A1 2.75145e-05
35 *2090:A *1964:A 1.07797e-05
36 *102:10 *1929:B 0.000192907
37 *111:23 *1930:A_N 6.73974e-05
38 *425:10 *1964:A 4.41506e-05
39 *425:12 *429:32 5.16348e-05
40 *425:16 *429:32 0.000149759
41 *425:16 *429:34 0.000649937
42 *425:16 *429:38 0.000118527
43 *425:57 *429:32 0.00013994
44 *427:8 *1932:A1 0
45 *428:8 *1924:A1 1.80446e-05
46 *428:8 *429:38 0.000170323
*RES
1 *1966:X *1964:A 11.04 
2 *1966:X *429:32 11.775 
3 *429:32 *429:34 7.755 
4 *429:34 *429:38 5.0175 
5 *429:38 *1924:A1 4.0875 
6 *429:38 *1932:A1 7.5825 
7 *429:34 *1930:A_N 7.08 
8 *429:32 *1957:A 3.6 
9 *1932:A1 *1929:B 5.03 
*END

*D_NET *430 0.00490887
*CONN
*I *1966:A I *D sky130_fd_sc_hd__buf_8
*I *2107:A I *D sky130_fd_sc_hd__buf_2
*I *2040:A I *D sky130_fd_sc_hd__buf_4
*I *1967:X O *D sky130_fd_sc_hd__buf_6
*CAP
1 *1966:A 5.70527e-05
2 *2107:A 0
3 *2040:A 0.000214007
4 *1967:X 0.00137681
5 *430:14 0.00153377
6 *1966:A *1965:A 0.000103488
7 *1966:A *511:6 3.1835e-05
8 *2040:A *1912:B 3.64998e-06
9 *2040:A *2074:A 0
10 *430:14 *1858:A1 8.65905e-05
11 *430:14 *1866:A 0
12 *430:14 *1902:A2 0
13 *430:14 *444:6 7.14699e-05
14 *430:14 *462:8 2.31229e-05
15 *1649:A2 *430:14 5.02217e-05
16 *1649:B1 *430:14 4.82919e-05
17 *1860:B *2040:A 0.000116853
18 *1862:A1 *2040:A 2.24423e-05
19 *1864:A1 *430:14 0
20 *1868:B *430:14 7.81954e-05
21 *1904:A1 *430:14 0.000163992
22 *1919:B1 *2040:A 6.44047e-05
23 *1921:B *430:14 0
24 *1964:A *1966:A 0
25 *2083:A *430:14 0.00026475
26 *116:18 *430:14 0
27 *126:10 *430:14 0
28 *141:10 *2040:A 0
29 *217:16 *430:14 6.5058e-05
30 *218:12 *430:14 0.000438807
31 *413:70 *2040:A 9.40517e-05
*RES
1 *1967:X *430:14 31.295 
2 *430:14 *2040:A 10.58 
3 *430:14 *2107:A 1.6 
4 *1967:X *1966:A 4.97 
*END

*D_NET *431 0.00769414
*CONN
*I *1623:B I *D sky130_fd_sc_hd__nand2b_2
*I *1913:A1 I *D sky130_fd_sc_hd__o21ai_4
*I *1625:A I *D sky130_fd_sc_hd__and2_2
*I *1624:A_N I *D sky130_fd_sc_hd__nand2b_4
*I *1947:A1 I *D sky130_fd_sc_hd__a21oi_4
*I *1945:B I *D sky130_fd_sc_hd__nand2b_2
*I *1627:A1 I *D sky130_fd_sc_hd__o21ai_2
*I *1946:A1 I *D sky130_fd_sc_hd__o21ai_4
*I *2040:X O *D sky130_fd_sc_hd__buf_4
*CAP
1 *1623:B 0.00010449
2 *1913:A1 5.12763e-05
3 *1625:A 0
4 *1624:A_N 0
5 *1947:A1 3.08966e-05
6 *1945:B 0.00012942
7 *1627:A1 0.000180993
8 *1946:A1 0.00010449
9 *2040:X 0.000303879
10 *431:49 0.000392793
11 *431:38 0.00033724
12 *431:30 0.000751648
13 *431:24 0.000817679
14 *431:18 0.000620101
15 *431:12 0.000623469
16 *1627:A1 *1627:B1 4.82863e-05
17 *1945:B *1945:A_N 8.65961e-05
18 *1947:A1 *530:6 3.83041e-05
19 *1947:A1 *530:14 4.82919e-05
20 *431:12 *1918:B1 0
21 *431:12 *2073:A 0
22 *431:12 *2074:A 0
23 *431:18 *1913:A2 0.00011577
24 *431:18 *1918:B1 2.14129e-05
25 *431:18 *500:10 0.000364639
26 *431:18 *535:10 0.000132723
27 *431:18 *535:23 1.82563e-05
28 *431:24 *1625:B 0.000137571
29 *431:24 *2068:A 7.63125e-05
30 *431:24 *500:10 0.000333702
31 *431:24 *529:19 0.000296775
32 *431:24 *529:32 0.000265637
33 *431:30 *494:10 3.07153e-05
34 *431:30 *530:14 4.60584e-05
35 *431:38 *1945:A_N 0
36 *431:38 *494:10 0
37 *431:38 *530:14 0.000122978
38 *431:38 *530:25 0
39 *431:49 *1945:A_N 0
40 *1860:A *431:12 6.01449e-05
41 *1860:B *431:12 0.000198945
42 *1914:B1 *431:12 0
43 *1914:B1 *431:18 9.50342e-06
44 *1919:A1 *431:12 8.65961e-05
45 *1947:B1 *431:38 0
46 *1953:A1 *431:38 0.0001032
47 *1953:A1 *431:49 8.68724e-05
48 *1989:A *431:30 4.82919e-05
49 *1995:A *431:24 0
50 *2024:A *431:24 0.000153482
51 *2024:A *431:30 4.82863e-05
52 *2030:A *431:24 1.26548e-05
53 *103:8 *1627:A1 9.52646e-05
54 *192:14 *431:24 4.65698e-05
55 *192:14 *431:30 7.99757e-05
56 *413:24 *431:12 0
57 *413:37 *431:12 3.19431e-05
*RES
1 *2040:X *431:12 10.865 
2 *431:12 *431:18 8.96 
3 *431:18 *431:24 12.785 
4 *431:24 *431:30 7.725 
5 *431:30 *431:38 6.995 
6 *431:38 *1946:A1 3.6 
7 *431:38 *431:49 3.89 
8 *431:49 *1627:A1 4.81 
9 *431:49 *1945:B 3.775 
10 *431:30 *1947:A1 2.395 
11 *431:24 *1624:A_N 1.6 
12 *431:18 *1625:A 3.6 
13 *431:12 *1913:A1 2.395 
14 *1946:A1 *1623:B 4.685 
*END

*D_NET *432 0.00236315
*CONN
*I *2041:A I *D sky130_fd_sc_hd__buf_6
*I *1665:A I *D sky130_fd_sc_hd__and2_4
*I *1667:A I *D sky130_fd_sc_hd__nor2_2
*I *1666:A I *D sky130_fd_sc_hd__nand2_2
*I *1968:X O *D sky130_fd_sc_hd__buf_4
*CAP
1 *2041:A 0.000153718
2 *1665:A 7.32823e-05
3 *1667:A 0
4 *1666:A 0.000156148
5 *1968:X 4.81102e-05
6 *432:27 0.00022116
7 *432:23 0.000394946
8 *432:6 0.000297608
9 *1665:A *1665:B 0.000163992
10 *1666:A *1666:B 0.000109136
11 *1666:A *433:12 7.44453e-05
12 *2041:A *433:12 0.000161204
13 *432:6 *433:12 4.80285e-05
14 *432:23 *433:12 5.55342e-05
15 *432:27 *1665:B 3.09233e-05
16 *432:27 *1666:B 0.000189299
17 *432:27 *1668:B 5.42646e-05
18 *432:27 *531:12 0
19 *1668:A_N *1666:A 3.09164e-05
20 *1668:A_N *432:23 4.66108e-05
21 *1668:C *1666:A 4.82863e-05
22 *1669:A1 *1665:A 0
23 *1670:B *1666:A 0
24 *237:10 *1666:A 0
25 *390:12 *1665:A 5.53249e-06
*RES
1 *1968:X *432:6 2.395 
2 *432:6 *1666:A 9.155 
3 *432:6 *432:23 1.485 
4 *432:23 *432:27 5.93 
5 *432:27 *1667:A 3.6 
6 *432:27 *1665:A 5.49 
7 *432:23 *2041:A 4.48 
*END

*D_NET *433 0.010596
*CONN
*I *1652:A I *D sky130_fd_sc_hd__nand2_2
*I *1653:A I *D sky130_fd_sc_hd__nor2_2
*I *1654:A I *D sky130_fd_sc_hd__or2_4
*I *1660:A I *D sky130_fd_sc_hd__nand2_2
*I *1661:A I *D sky130_fd_sc_hd__nor2_4
*I *1659:A I *D sky130_fd_sc_hd__and2_4
*I *1651:A I *D sky130_fd_sc_hd__and2_4
*I *2041:X O *D sky130_fd_sc_hd__buf_6
*CAP
1 *1652:A 6.86354e-05
2 *1653:A 0.000643956
3 *1654:A 0
4 *1660:A 0.000153496
5 *1661:A 1.90984e-05
6 *1659:A 0.000252637
7 *1651:A 0.000101179
8 *2041:X 0.000660377
9 *433:52 0.000461839
10 *433:39 0.000974408
11 *433:31 0.000466179
12 *433:29 0.000776995
13 *433:14 0.000234887
14 *433:12 0.000763334
15 *1651:A *1651:B 0.000171517
16 *1652:A *1651:B 3.96653e-05
17 *1653:A *1653:B 0.000240584
18 *1653:A *1654:B 5.90847e-05
19 *1653:A *1871:B1 2.36716e-05
20 *1653:A *506:8 0.00011964
21 *1653:A *506:34 2.75145e-05
22 *1659:A *1659:B 0.000367844
23 *1659:A *1900:A1 0.000268739
24 *1659:A *2105:A 4.66108e-05
25 *1660:A *1660:B 0.00012757
26 *1661:A *1660:B 4.00541e-06
27 *433:12 *1666:B 0
28 *433:12 *1679:A2 0.000177568
29 *433:12 *2048:A 0
30 *433:12 *457:21 0.000489651
31 *433:14 *1651:B 6.07412e-05
32 *433:29 *1872:A 5.72742e-05
33 *433:29 *457:21 0
34 *433:31 *1872:A 3.04982e-05
35 *433:31 *457:21 0
36 *433:39 *1872:A 6.35622e-05
37 *433:39 *2105:A 2.92496e-05
38 *433:39 *457:10 0
39 *433:39 *457:21 0
40 *433:39 *505:12 0
41 *433:39 *564:14 0.000312188
42 *433:52 *1659:B 9.21168e-05
43 *433:52 *1660:B 6.77501e-05
44 *433:52 *2105:A 4.82919e-05
45 *433:52 *505:27 0.000233032
46 *1656:A1 *1651:A 0.000160635
47 *1656:A1 *1652:A 0.000196376
48 *1656:A1 *433:14 0.00015639
49 *1658:A *433:29 2.92496e-05
50 *1658:B *1652:A 5.84828e-05
51 *1666:A *433:12 7.44453e-05
52 *1668:A_N *433:12 4.82863e-05
53 *1670:B *433:12 6.63617e-05
54 *1679:A1 *433:12 1.65105e-05
55 *1874:B *433:12 0
56 *2000:A *1653:A 5.92345e-05
57 *2041:A *433:12 0.000161204
58 *225:17 *433:12 0.000132301
59 *226:14 *433:12 7.44375e-05
60 *226:14 *433:14 4.82919e-05
61 *236:6 *433:12 0.0001947
62 *237:10 *433:12 4.43871e-06
63 *238:10 *433:12 0.000103974
64 *238:16 *433:12 0.000101317
65 *425:57 *433:39 0
66 *429:32 *433:39 7.04021e-05
67 *432:6 *433:12 4.80285e-05
68 *432:23 *433:12 5.55342e-05
*RES
1 *2041:X *433:12 23.06 
2 *433:12 *433:14 1.485 
3 *433:14 *1651:A 4.495 
4 *433:14 *433:29 3.89 
5 *433:29 *433:31 0.87 
6 *433:31 *433:39 11.075 
7 *433:39 *1659:A 7.69 
8 *433:39 *433:52 5.625 
9 *433:52 *1661:A 1.96 
10 *433:52 *1660:A 4.48 
11 *433:31 *1654:A 3.6 
12 *433:29 *1653:A 12.615 
13 *433:12 *1652:A 3.79 
*END

*D_NET *434 0.0110926
*CONN
*I *1827:A I *D sky130_fd_sc_hd__nand2_2
*I *1671:A I *D sky130_fd_sc_hd__nand2_2
*I *1826:A I *D sky130_fd_sc_hd__or2_2
*I *1672:B I *D sky130_fd_sc_hd__or2_4
*I *1685:B I *D sky130_fd_sc_hd__and2_2
*I *1687:B I *D sky130_fd_sc_hd__nor2_2
*I *1686:B I *D sky130_fd_sc_hd__nand2_2
*I *1694:A I *D sky130_fd_sc_hd__nor2_2
*I *1692:A I *D sky130_fd_sc_hd__and2_2
*I *1693:A I *D sky130_fd_sc_hd__nand2_2
*I *1969:X O *D sky130_fd_sc_hd__buf_4
*CAP
1 *1827:A 0
2 *1671:A 0.000298546
3 *1826:A 0
4 *1672:B 0
5 *1685:B 0.000123316
6 *1687:B 3.38389e-05
7 *1686:B 3.79693e-05
8 *1694:A 0
9 *1692:A 0.000114576
10 *1693:A 4.57928e-05
11 *1969:X 0.000502104
12 *434:91 0.000195775
13 *434:85 0.000708405
14 *434:38 0.000465769
15 *434:32 0.00102623
16 *434:22 0.000796022
17 *434:18 0.000268016
18 *434:12 0.000658746
19 *434:10 0.000626492
20 *1671:A *1826:B 8.65961e-05
21 *1685:B *1672:A 5.4155e-06
22 *1686:B *510:14 6.18754e-05
23 *1687:B *1685:A 4.00541e-06
24 *1692:A *1694:B 0.000117609
25 *1693:A *511:14 5.2089e-05
26 *434:10 *2052:A 0.000133763
27 *434:10 *553:10 0.000141599
28 *434:12 *1689:B1_N 3.09233e-05
29 *434:12 *2052:A 0.000580523
30 *434:12 *553:10 0.000560485
31 *434:18 *1685:A 9.80032e-06
32 *434:18 *1689:B1_N 9.37731e-05
33 *434:18 *2052:A 9.37731e-05
34 *434:22 *1685:A 1.83847e-05
35 *434:32 *2050:A 0
36 *434:32 *510:14 3.24046e-05
37 *434:38 *1694:B 0.000388784
38 *434:85 *1826:B 0.000198939
39 *434:91 *1675:B1 0
40 S[17] *434:10 0.00011577
41 *1689:A1 *1685:B 8.8266e-05
42 *1689:A2 *1687:B 0
43 *1689:A2 *434:18 8.40269e-05
44 *1696:B1 *434:32 0.00012476
45 *1696:B1 *434:38 5.53249e-06
46 *1697:C *1693:A 9.5433e-05
47 *1697:C *434:38 0
48 *1699:A2 *434:32 0.000519808
49 *1700:B *434:32 0.000107611
50 *1709:A2_N *434:32 0.000275388
51 *255:6 *434:18 0.000123225
52 *256:10 *1686:B 6.55328e-05
53 *256:10 *434:32 0.000125207
54 *256:12 *434:32 0.000155139
55 *256:14 *434:32 6.57032e-05
56 *261:8 *434:32 5.92269e-05
57 *263:10 *434:32 0.000471833
58 *377:10 *1685:B 5.07419e-05
59 *377:10 *434:91 4.70343e-05
*RES
1 *1969:X *434:10 11.895 
2 *434:10 *434:12 6.735 
3 *434:12 *434:18 5.3 
4 *434:18 *434:22 2.45 
5 *434:22 *434:32 20.685 
6 *434:32 *434:38 6.17 
7 *434:38 *1693:A 6.98 
8 *434:38 *1692:A 3.355 
9 *434:32 *1694:A 3.6 
10 *434:22 *1686:B 4.98 
11 *434:18 *1687:B 2.215 
12 *434:12 *434:85 6.935 
13 *434:85 *434:91 5.38 
14 *434:91 *1685:B 4.135 
15 *434:91 *1672:B 1.6 
16 *434:85 *1826:A 1.6 
17 *434:85 *1671:A 6.31 
18 *434:10 *1827:A 3.6 
*END

*D_NET *435 0.0133928
*CONN
*I *1837:A I *D sky130_fd_sc_hd__xnor2_2
*I *1968:A I *D sky130_fd_sc_hd__buf_4
*I *1969:A I *D sky130_fd_sc_hd__buf_4
*I *1965:A I *D sky130_fd_sc_hd__buf_4
*I *1967:A I *D sky130_fd_sc_hd__buf_6
*I *1970:X O *D sky130_fd_sc_hd__buf_8
*CAP
1 *1837:A 0
2 *1968:A 0.000377385
3 *1969:A 9.87141e-05
4 *1965:A 0.000728518
5 *1967:A 0
6 *1970:X 0.000144079
7 *435:63 0.00109057
8 *435:48 0.000811898
9 *435:22 0.00215391
10 *435:10 0.00156948
11 *1965:A *1867:A1 9.32213e-05
12 *1965:A *511:6 0.000199017
13 *1968:A *2075:A 0.00013994
14 *1968:A *542:12 0.000831826
15 *435:10 *508:10 5.72091e-05
16 *435:10 *527:10 0.000201503
17 *435:22 *1672:A 0.000120378
18 *435:22 *1675:B1 9.29751e-06
19 *435:22 *1831:B1 2.42236e-05
20 *435:22 *1902:A2 0.000139245
21 *435:22 *508:10 0.000128999
22 S[31] *435:10 0
23 *1668:A_N *1968:A 0
24 *1669:A1 *1968:A 0
25 *1673:C *435:22 0
26 *1676:A *435:22 0.000204603
27 *1676:B *435:22 0.000113972
28 *1680:A1 *1968:A 5.53249e-06
29 *1680:A2 *1968:A 4.99619e-05
30 *1683:B2 *435:22 0
31 *1829:B *435:22 0.000228508
32 *1835:A2_N *435:22 0
33 *1841:A1 *435:63 8.65961e-05
34 *1841:A2 *435:63 0.000111909
35 *1842:B1 *435:63 0.000421961
36 *1867:A2 *1965:A 1.61461e-05
37 *1867:A3 *1965:A 0.000199062
38 *1902:A1 *1965:A 0.000406264
39 *1964:A *1965:A 0.000184189
40 *1966:A *1965:A 0.000103488
41 *1988:A *435:63 0.000272978
42 *2003:A *435:10 0.000164874
43 *2022:A *435:10 1.34503e-05
44 *2090:A *1965:A 0.000469634
45 *125:10 *1965:A 0.000337531
46 *139:18 *1965:A 0.000164679
47 *218:12 *435:22 0
48 *237:10 *1968:A 7.89767e-05
49 *239:10 *435:22 6.28765e-05
50 *241:8 *435:22 0.000214629
51 *243:8 *435:22 0.000431876
52 *379:27 *435:22 0
53 *381:14 *435:22 0.000129735
54 *390:8 *1968:A 0
55 *390:12 *1968:A 0
*RES
1 *1970:X *435:10 7.575 
2 *435:10 *435:22 33.56 
3 *435:22 *1967:A 1.6 
4 *435:22 *1965:A 25.145 
5 *435:10 *435:48 2 
6 *435:48 *1969:A 3.085 
7 *435:48 *435:63 13.005 
8 *435:63 *1968:A 16.1 
9 *435:63 *1837:A 1.6 
*END

*D_NET *436 0.00217223
*CONN
*I *1786:A2 I *D sky130_fd_sc_hd__o211ai_2
*I *1795:A2 I *D sky130_fd_sc_hd__o2111ai_2
*I *2076:X O *D sky130_fd_sc_hd__buf_6
*CAP
1 *1786:A2 1.41956e-05
2 *1795:A2 0.000117528
3 *2076:X 0.000199125
4 *436:6 0.000330849
5 *1795:A2 *1961:A 0.000100544
6 *1795:A2 *2060:A 2.11084e-05
7 *436:6 *2060:A 6.19709e-05
8 *1786:A1 *1786:A2 1.85674e-05
9 *1786:A1 *1795:A2 4.82919e-05
10 *1786:A1 *436:6 0.000119756
11 *1800:A1 *436:6 4.39207e-05
12 *1800:A2 *1786:A2 0
13 *1800:A2 *436:6 0.000264719
14 *1800:A3 *436:6 4.77757e-05
15 *1800:B1 *436:6 4.77719e-05
16 *1804:B1 *436:6 0.000307327
17 *1806:A_N *436:6 1.60203e-05
18 *342:29 *436:6 0.000412761
*RES
1 *2076:X *436:6 9.64 
2 *436:6 *1795:A2 8.195 
3 *436:6 *1786:A2 1.96 
*END

*D_NET *437 0.00167676
*CONN
*I *1614:B1 I *D sky130_fd_sc_hd__o21a_4
*I *1613:A_N I *D sky130_fd_sc_hd__nand3b_4
*I *1974:X O *D sky130_fd_sc_hd__clkdlybuf4s25_1
*CAP
1 *1614:B1 0.000309611
2 *1613:A_N 0.000161439
3 *1974:X 0.000150468
4 *437:10 0.000621519
5 *1613:A_N *1630:B 1.52184e-05
6 *1614:B1 *1611:B 3.73067e-05
7 *1614:B1 *1614:A1 4.66108e-05
8 *437:10 *1630:B 6.36656e-05
9 *437:10 *514:12 4.57056e-05
10 *1614:A2 *1614:B1 8.64421e-05
11 *1630:A *1614:B1 4.77719e-05
12 *1636:A1 *437:10 2.68464e-05
13 *1997:A *1613:A_N 0
14 *2009:A *1613:A_N 0
15 *2009:A *437:10 0
16 *181:20 *1614:B1 6.41593e-05
*RES
1 *1974:X *437:10 6.465 
2 *437:10 *1613:A_N 6.255 
3 *437:10 *1614:B1 8.55 
*END

*D_NET *438 0.000357405
*CONN
*I *1804:A3 I *D sky130_fd_sc_hd__o311ai_4
*I *2077:X O *D sky130_fd_sc_hd__buf_2
*CAP
1 *1804:A3 9.70747e-05
2 *2077:X 9.70747e-05
3 *1804:B1 *1804:A3 0.000114326
4 *356:10 *1804:A3 4.89295e-05
*RES
1 *2077:X *1804:A3 9.03 
*END

*D_NET *439 0.000567275
*CONN
*I *1718:A I *D sky130_fd_sc_hd__nand2_2
*I *2078:X O *D sky130_fd_sc_hd__buf_2
*CAP
1 *1718:A 0.000192419
2 *2078:X 0.000192419
3 *1718:A *2053:A 0.000138188
4 *1718:B *1718:A 5.53249e-06
5 *1724:A2 *1718:A 2.03321e-05
6 *1775:A2 *1718:A 1.83847e-05
7 *333:10 *1718:A 0
8 *333:19 *1718:A 0
*RES
1 *2078:X *1718:A 11.07 
*END

*D_NET *440 0.000197078
*CONN
*I *1871:A2 I *D sky130_fd_sc_hd__o21ai_2
*I *2079:X O *D sky130_fd_sc_hd__buf_2
*CAP
1 *1871:A2 4.62961e-05
2 *2079:X 4.62961e-05
3 *1871:A2 *1872:A 0
4 *1872:B *1871:A2 3.89528e-05
5 *217:20 *1871:A2 6.55328e-05
*RES
1 *2079:X *1871:A2 8.58 
*END

*D_NET *441 0.000303994
*CONN
*I *1650:B1 I *D sky130_fd_sc_hd__o2bb2ai_4
*I *2080:X O *D sky130_fd_sc_hd__buf_2
*CAP
1 *1650:B1 0.000100128
2 *2080:X 0.000100128
3 *1902:A1 *1650:B1 3.67779e-05
4 *1950:A2 *1650:B1 5.843e-05
5 *1952:A1 *1650:B1 0
6 *139:18 *1650:B1 8.53113e-06
7 *148:10 *1650:B1 0
*RES
1 *2080:X *1650:B1 9.03 
*END

*D_NET *442 0.00100104
*CONN
*I *1645:A I *D sky130_fd_sc_hd__nand2_8
*I *2081:X O *D sky130_fd_sc_hd__buf_2
*CAP
1 *1645:A 0.000439904
2 *2081:X 0.000439904
3 *1645:A *1646:A2 2.97004e-06
4 *1648:B *1645:A 2.75145e-05
5 *1851:B *1645:A 9.07449e-05
*RES
1 *2081:X *1645:A 13.53 
*END

*D_NET *443 0.000329083
*CONN
*I *1868:A I *D sky130_fd_sc_hd__xor2_2
*I *2082:X O *D sky130_fd_sc_hd__buf_2
*CAP
1 *1868:A 0.000164542
2 *2082:X 0.000164542
*RES
1 *2082:X *1868:A 5.39 
*END

*D_NET *444 0.00137116
*CONN
*I *1859:B I *D sky130_fd_sc_hd__nor3_2
*I *1858:A1 I *D sky130_fd_sc_hd__o21a_2
*I *2083:X O *D sky130_fd_sc_hd__buf_2
*CAP
1 *1859:B 0.000101686
2 *1858:A1 0.000106524
3 *2083:X 6.3701e-05
4 *444:6 0.000271911
5 *1858:A1 *1858:B1 6.03947e-06
6 *1858:A1 *1864:B1 1.44177e-05
7 *1858:A1 *462:19 2.16389e-05
8 *1859:B *1859:A 0.000137571
9 *1859:B *2110:A 5.05521e-05
10 *1859:B *462:19 0.000110683
11 *1858:A2 *1858:A1 6.03947e-06
12 *1859:C *1859:B 8.49205e-05
13 *1864:C1 *1858:A1 8.53113e-06
14 *1921:C *1858:A1 0.000117825
15 *1921:C *1859:B 1.73877e-05
16 *141:10 *1859:B 5.42303e-05
17 *413:70 *1859:B 3.9442e-05
18 *430:14 *1858:A1 8.65905e-05
19 *430:14 *444:6 7.14699e-05
*RES
1 *2083:X *444:6 2.395 
2 *444:6 *1858:A1 7.88375 
3 *444:6 *1859:B 9.305 
*END

*D_NET *445 0.000297005
*CONN
*I *1870:B I *D sky130_fd_sc_hd__xnor2_2
*I *2084:X O *D sky130_fd_sc_hd__buf_4
*CAP
1 *1870:B 0.000108081
2 *2084:X 0.000108081
3 *1870:B *1870:A 0
4 *1870:B *460:23 0
5 *218:12 *1870:B 8.08439e-05
*RES
1 *2084:X *1870:B 9.285 
*END

*D_NET *446 0.00169057
*CONN
*I *2116:A I *D sky130_fd_sc_hd__buf_6
*I *1622:A I *D sky130_fd_sc_hd__nand3_4
*I *2085:X O *D sky130_fd_sc_hd__buf_6
*CAP
1 *2116:A 2.8043e-05
2 *1622:A 0.000176357
3 *2085:X 7.09791e-05
4 *446:8 0.000275379
5 *1622:A *1844:B 9.51041e-05
6 *1622:A *1882:A 0.00035991
7 *1639:B *1622:A 0.000208477
8 *2085:A *1622:A 0.000163019
9 *2085:A *446:8 0.000130714
10 *181:20 *1622:A 0.000157595
11 *420:18 *2116:A 2.49909e-05
12 *420:20 *1622:A 0
*RES
1 *2085:X *446:8 5.235 
2 *446:8 *1622:A 10.08 
3 *446:8 *2116:A 4.05 
*END

*D_NET *447 0.000581769
*CONN
*I *1866:A I *D sky130_fd_sc_hd__xnor2_2
*I *2086:X O *D sky130_fd_sc_hd__buf_2
*CAP
1 *1866:A 0.000265179
2 *2086:X 0.000265179
3 *1866:A *2044:A 1.08758e-05
4 *1866:B *1866:A 0
5 *126:10 *1866:A 4.05358e-05
6 *430:14 *1866:A 0
*RES
1 *2086:X *1866:A 11.1 
*END

*D_NET *448 0.00129554
*CONN
*I *1729:B1_N I *D sky130_fd_sc_hd__o21bai_4
*I *1728:B I *D sky130_fd_sc_hd__nand3b_2
*I *1975:X O *D sky130_fd_sc_hd__clkdlybuf4s25_1
*CAP
1 *1729:B1_N 0
2 *1728:B 0.000131937
3 *1975:X 0.000181469
4 *448:10 0.000313406
5 *448:10 *2055:A 1.32843e-05
6 *1729:A1 *1728:B 0.000162325
7 *1729:A1 *448:10 6.28498e-05
8 *1975:A *448:10 2.37321e-05
9 *292:10 *1728:B 8.23457e-05
10 *416:10 *448:10 0.000152364
11 *416:12 *1728:B 0.000153794
12 *416:12 *448:10 9.50342e-06
13 *416:14 *1728:B 8.53113e-06
*RES
1 *1975:X *448:10 6.72 
2 *448:10 *1728:B 6.975 
3 *448:10 *1729:B1_N 3.6 
*END

*D_NET *449 0.000805198
*CONN
*I *1852:A1 I *D sky130_fd_sc_hd__a21oi_4
*I *1851:A I *D sky130_fd_sc_hd__xor2_2
*I *2087:X O *D sky130_fd_sc_hd__buf_2
*CAP
1 *1852:A1 0.00012127
2 *1851:A 0.000131188
3 *2087:X 4.81051e-05
4 *449:6 0.000300564
5 *1851:A *2069:A 6.04626e-05
6 *1852:A2 *1852:A1 0
7 *1955:D *449:6 5.83121e-06
8 *2087:A *1851:A 5.83121e-06
9 *2087:A *449:6 4.21973e-05
10 *176:10 *1852:A1 8.97486e-05
*RES
1 *2087:X *449:6 2.395 
2 *449:6 *1851:A 3.79 
3 *449:6 *1852:A1 8 
*END

*D_NET *450 0.00178524
*CONN
*I *1847:A2 I *D sky130_fd_sc_hd__a21boi_4
*I *1641:A2_N I *D sky130_fd_sc_hd__o2bb2a_4
*I *2088:X O *D sky130_fd_sc_hd__buf_6
*CAP
1 *1847:A2 0.000138828
2 *1641:A2_N 0.000184664
3 *2088:X 0
4 *450:6 0.000323491
5 *1641:A2_N *1847:A1 0
6 *1847:A2 *1847:A1 4.82919e-05
7 *1847:A2 *1910:A2 8.65961e-05
8 *1847:A2 *536:33 1.07797e-05
9 *1638:A2 *1641:A2_N 0.000164679
10 *1848:A *1641:A2_N 0.000488957
11 *1848:A *1847:A2 0.00023437
12 *1849:A1 *1641:A2_N 6.02123e-05
13 *1849:B1 *1641:A2_N 0
14 *1910:A1 *1847:A2 4.43682e-05
*RES
1 *2088:X *450:6 3.6 
2 *450:6 *1641:A2_N 9.315 
3 *450:6 *1847:A2 7.485 
*END

*D_NET *451 0.00297402
*CONN
*I *1914:A1 I *D sky130_fd_sc_hd__a21oi_4
*I *1911:A1 I *D sky130_fd_sc_hd__a21oi_2
*I *2089:X O *D sky130_fd_sc_hd__buf_2
*CAP
1 *1914:A1 0.000669559
2 *1911:A1 8.58953e-05
3 *2089:X 6.22102e-05
4 *451:6 0.000817664
5 *1911:A1 *536:47 0.000225175
6 *1914:A1 *1914:A2 3.09179e-05
7 *413:24 *1914:A1 0.000863044
8 *413:24 *451:6 8.40213e-05
9 *420:8 *1911:A1 3.23391e-05
10 *420:12 *1911:A1 0.000103192
*RES
1 *2089:X *451:6 2.395 
2 *451:6 *1911:A1 8.51 
3 *451:6 *1914:A1 10.945 
*END

*D_NET *452 0.0019905
*CONN
*I *1867:A1 I *D sky130_fd_sc_hd__o31a_2
*I *2090:X O *D sky130_fd_sc_hd__buf_2
*CAP
1 *1867:A1 0.000325373
2 *2090:X 0.000325373
3 *1904:A2 *1867:A1 0.000185411
4 *1964:A *1867:A1 0.00015997
5 *1965:A *1867:A1 9.32213e-05
6 *2090:A *1867:A1 6.23206e-05
7 *119:10 *1867:A1 0.000465891
8 *125:10 *1867:A1 0.000314452
9 *218:12 *1867:A1 5.84902e-05
*RES
1 *2090:X *1867:A1 17.64 
*END

*D_NET *453 0.00518336
*CONN
*I *1742:A I *D sky130_fd_sc_hd__and2_2
*I *1740:A I *D sky130_fd_sc_hd__nor2_2
*I *1732:A I *D sky130_fd_sc_hd__nor2_2
*I *1735:A1 I *D sky130_fd_sc_hd__o21ai_2
*I *1734:A1 I *D sky130_fd_sc_hd__a21boi_2
*I *2091:X O *D sky130_fd_sc_hd__buf_2
*CAP
1 *1742:A 0.000492397
2 *1740:A 9.71884e-06
3 *1732:A 0
4 *1735:A1 0
5 *1734:A1 0.000240981
6 *2091:X 0
7 *453:40 9.71884e-06
8 *453:38 0.000625429
9 *453:12 0.000509739
10 *453:4 0.000401791
11 *1734:A1 *1733:B 4.99619e-05
12 *1742:A *1740:B 8.98657e-05
13 *1742:A *1741:B 9.14049e-05
14 *1742:A *2058:A 0.000382758
15 *453:12 *1732:B 0.000351306
16 *453:12 *1735:A2 0.000116158
17 *453:12 *1760:A1 2.39856e-05
18 *453:38 *1740:B 2.97004e-06
19 *453:38 *1760:A1 1.56428e-05
20 S[20] *1734:A1 0.000106819
21 S[23] *1742:A 4.92935e-05
22 *1735:B1 *1734:A1 0.000213913
23 *1735:B1 *453:12 1.71013e-05
24 *1736:A1 *453:12 5.43129e-05
25 *1743:A *453:12 0.000173789
26 *1753:A *1742:A 0.000304934
27 *1753:A *453:38 0.000245206
28 *1760:A2 *1740:A 4.82919e-05
29 *1760:A2 *453:38 9.52156e-05
30 *1760:B1 *453:38 0
31 *1760:B2 *453:38 0
32 *2091:A *453:12 2.49909e-05
33 *2092:A *1734:A1 8.65961e-05
34 *292:36 *453:12 0
35 *299:12 *1734:A1 9.02259e-05
36 *302:16 *1740:A 4.82919e-05
37 *304:12 *1742:A 1.08758e-05
38 *309:14 *1742:A 0.00015639
39 *418:12 *1734:A1 4.32877e-05
*RES
1 *2091:X *453:4 1.6 
2 *453:4 *453:12 10.855 
3 *453:12 *1734:A1 11.75 
4 *453:12 *1735:A1 1.6 
5 *453:4 *453:38 5.36 
6 *453:38 *453:40 2 
7 *453:40 *1732:A 1.6 
8 *453:40 *1740:A 2.05 
9 *453:38 *1742:A 14.295 
*END

*D_NET *454 0.00473281
*CONN
*I *1621:C1 I *D sky130_fd_sc_hd__o211a_4
*I *1956:B I *D sky130_fd_sc_hd__nand2b_2
*I *2092:X O *D sky130_fd_sc_hd__buf_2
*CAP
1 *1621:C1 0.000463548
2 *1956:B 0.000423132
3 *2092:X 0.000406409
4 *454:10 0.00129309
5 *1621:C1 *1621:A1 1.33285e-05
6 *1621:C1 *1843:A2 8.49205e-05
7 *1621:C1 *502:16 0.000309903
8 *1621:C1 *502:20 0.000161101
9 *1621:C1 *502:30 2.01565e-05
10 *1621:C1 *515:8 4.82919e-05
11 *1956:B *1725:B 5.23362e-05
12 *1956:B *515:10 0.000162325
13 *454:10 *1727:B 0.000296088
14 *454:10 *2055:A 2.67022e-05
15 *454:10 *515:10 2.14129e-05
16 *1613:C *1956:B 9.50342e-06
17 *1621:A2 *1621:C1 1.61831e-05
18 *1640:A2_N *1956:B 7.4538e-05
19 *1843:B1 *1621:C1 0.000497878
20 *1844:A *1621:C1 2.36616e-05
21 *1975:A *454:10 0
22 *2106:A *1956:B 6.57653e-06
23 *182:8 *1956:B 0.000113745
24 *183:8 *1956:B 0
25 *183:25 *1956:B 0
26 *189:8 *1621:C1 0
27 *292:10 *454:10 0
28 *292:21 *454:10 0
29 *292:36 *454:10 0
30 *414:23 *1621:C1 0.000135392
31 *416:10 *454:10 6.44959e-05
32 *416:14 *1956:B 8.09021e-06
33 *417:8 *1956:B 0
34 *417:8 *454:10 0
35 *417:10 *1956:B 0
36 *417:12 *1956:B 0
37 *418:18 *454:10 0
*RES
1 *2092:X *454:10 11.295 
2 *454:10 *1956:B 12.12 
3 *454:10 *1621:C1 14.67 
*END

*D_NET *455 0.00377859
*CONN
*I *1898:A1 I *D sky130_fd_sc_hd__o21a_2
*I *2105:A I *D sky130_fd_sc_hd__buf_2
*I *1895:A I *D sky130_fd_sc_hd__nand2_2
*I *1891:A_N I *D sky130_fd_sc_hd__nand2b_4
*I *1890:B I *D sky130_fd_sc_hd__nand2b_2
*I *1957:X O *D sky130_fd_sc_hd__buf_8
*CAP
1 *1898:A1 0.000235245
2 *2105:A 0.000122199
3 *1895:A 1.11194e-05
4 *1891:A_N 0
5 *1890:B 0.000326209
6 *1957:X 0.000276584
7 *455:20 0.000480337
8 *455:10 0.000262596
9 *455:8 0.000260886
10 *1890:B *1889:B 0
11 *1890:B *498:6 7.10578e-05
12 *1895:A *2044:A 4.99619e-05
13 *1895:A *486:10 1.83847e-05
14 *1898:A1 *1898:A2 0.000164352
15 *1898:A1 *503:20 0.000241483
16 *2105:A *1659:B 8.40269e-05
17 *455:8 *503:20 3.45679e-05
18 *455:20 *1891:B 8.53113e-06
19 *455:20 *498:6 4.08514e-05
20 *1659:A *2105:A 4.66108e-05
21 *1889:A *1890:B 4.9968e-05
22 *1905:A2 *1890:B 8.71079e-05
23 *1905:B1 *1890:B 0.000117832
24 *1905:C1 *1890:B 0.000100057
25 *1916:B2 *455:20 0
26 *1993:A *1890:B 0.000123225
27 *1993:A *455:20 8.23457e-05
28 *217:16 *1890:B 0
29 *425:16 *1890:B 5.605e-05
30 *429:32 *2105:A 8.6311e-05
31 *429:34 *2105:A 1.34361e-05
32 *429:34 *455:10 9.87538e-05
33 *429:34 *455:20 0.000150959
34 *429:38 *1890:B 0
35 *433:39 *2105:A 2.92496e-05
36 *433:52 *2105:A 4.82919e-05
*RES
1 *1957:X *455:8 4.395 
2 *455:8 *455:10 2.145 
3 *455:10 *455:20 5.24 
4 *455:20 *1890:B 13.22 
5 *455:20 *1891:A_N 1.6 
6 *455:10 *1895:A 4.05 
7 *455:8 *2105:A 6.54 
8 *1957:X *1898:A1 8.15 
*END

*D_NET *456 0.00077307
*CONN
*I *1855:A I *D sky130_fd_sc_hd__xor2_2
*I *2093:X O *D sky130_fd_sc_hd__buf_2
*CAP
1 *1855:A 0.000386535
2 *2093:X 0.000386535
3 *1855:A *2071:A 0
4 *1855:A *2072:A 0
5 S[6] *1855:A 0
6 S[7] *1855:A 0
7 *1856:A3 *1855:A 0
8 *164:12 *1855:A 0
*RES
1 *2093:X *1855:A 13.11 
*END

*D_NET *457 0.00362475
*CONN
*I *1679:A2 I *D sky130_fd_sc_hd__a21oi_2
*I *1873:A2 I *D sky130_fd_sc_hd__a31oi_4
*I *1871:B1 I *D sky130_fd_sc_hd__o21ai_2
*I *2094:X O *D sky130_fd_sc_hd__buf_2
*CAP
1 *1679:A2 8.6145e-05
2 *1873:A2 0
3 *1871:B1 0.000279181
4 *2094:X 0.000291741
5 *457:21 0.000437736
6 *457:10 0.000922513
7 *1871:B1 *1654:B 0.000124895
8 *1871:B1 *505:12 4.82863e-05
9 *457:10 *505:12 0.000245886
10 *457:21 *1651:B 0.000183738
11 *1653:A *1871:B1 2.36716e-05
12 *1664:A *457:10 0.000114433
13 *1874:B *1679:A2 0
14 *2015:A *457:21 0.000139021
15 *220:8 *457:21 0
16 *222:10 *1871:B1 5.30673e-05
17 *226:14 *457:21 7.21296e-06
18 *433:12 *1679:A2 0.000177568
19 *433:12 *457:21 0.000489651
20 *433:29 *457:21 0
21 *433:31 *457:21 0
22 *433:39 *457:10 0
23 *433:39 *457:21 0
*RES
1 *2094:X *457:10 8.595 
2 *457:10 *1871:B1 8.19 
3 *457:10 *457:21 8.52 
4 *457:21 *1873:A2 3.6 
5 *457:21 *1679:A2 5.745 
*END

*D_NET *458 0.000674848
*CONN
*I *1853:A I *D sky130_fd_sc_hd__xnor2_2
*I *2095:X O *D sky130_fd_sc_hd__buf_2
*CAP
1 *1853:A 0.000139384
2 *2095:X 0.000139384
3 *1948:D1 *1853:A 0.00016308
4 *2095:A *1853:A 7.00914e-05
5 *166:10 *1853:A 9.02455e-05
6 *170:10 *1853:A 7.26629e-05
*RES
1 *2095:X *1853:A 11.07 
*END

*D_NET *459 0.00187468
*CONN
*I *1736:B1_N I *D sky130_fd_sc_hd__o21bai_4
*I *1734:B1_N I *D sky130_fd_sc_hd__a21boi_2
*I *1976:X O *D sky130_fd_sc_hd__clkdlybuf4s25_1
*CAP
1 *1736:B1_N 0
2 *1734:B1_N 0.000133767
3 *1976:X 0.000507241
4 *459:10 0.000641008
5 *1734:B1_N *1733:B 5.53249e-06
6 *1734:B1_N *516:12 0
7 *459:10 *1743:B 0.000140912
8 *459:10 *516:12 0
9 *1976:A *459:10 8.57406e-05
10 *2011:A *459:10 0
11 *305:10 *459:10 4.49498e-05
12 *415:14 *459:10 0.000315527
*RES
1 *1976:X *459:10 11.265 
2 *459:10 *1734:B1_N 5.745 
3 *459:10 *1736:B1_N 3.6 
*END

*D_NET *460 0.00216474
*CONN
*I *1871:A1 I *D sky130_fd_sc_hd__o21ai_2
*I *1869:A I *D sky130_fd_sc_hd__or2_4
*I *1677:B I *D sky130_fd_sc_hd__nor4_2
*I *1870:A I *D sky130_fd_sc_hd__xnor2_2
*I *2096:X O *D sky130_fd_sc_hd__buf_2
*CAP
1 *1871:A1 8.85732e-05
2 *1869:A 0.000197873
3 *1677:B 0
4 *1870:A 6.64575e-05
5 *2096:X 0
6 *460:23 0.000429744
7 *460:8 0.000494177
8 *460:4 0.000284422
9 *1677:C *1869:A 3.02252e-05
10 *1677:C *460:23 2.0514e-05
11 *1678:B *460:23 0.000135641
12 *1683:B2 *460:23 0
13 *1870:B *1870:A 0
14 *1870:B *460:23 0
15 *2096:A *460:8 2.75229e-05
16 *218:12 *460:23 0
17 *226:24 *1869:A 0.000236107
18 *232:10 *1870:A 4.70256e-05
19 *232:10 *460:23 2.24423e-05
20 *244:21 *1869:A 2.05056e-05
21 *244:21 *460:23 6.35104e-05
*RES
1 *2096:X *460:4 1.6 
2 *460:4 *460:8 4.175 
3 *460:8 *1870:A 4.98 
4 *460:8 *460:23 7.145 
5 *460:23 *1677:B 1.6 
6 *460:23 *1869:A 5.53 
7 *460:4 *1871:A1 3.01 
*END

*D_NET *461 0.00343363
*CONN
*I *1949:A1 I *D sky130_fd_sc_hd__a211oi_4
*I *1939:A2_N I *D sky130_fd_sc_hd__o2bb2a_2
*I *1941:B1 I *D sky130_fd_sc_hd__o21ai_2
*I *2097:X O *D sky130_fd_sc_hd__buf_2
*CAP
1 *1949:A1 2.8043e-05
2 *1939:A2_N 6.04177e-05
3 *1941:B1 0.000603194
4 *2097:X 0.000450382
5 *461:12 0.000797699
6 *461:10 0.000612512
7 *1941:B1 *1856:A4 2.75145e-05
8 *1949:A1 *499:10 2.49909e-05
9 *461:10 *1930:B 3.45679e-05
10 *461:10 *533:12 0.000107634
11 *461:12 *533:12 0.000139933
12 *1856:A2 *1941:B1 1.6508e-05
13 *1856:A3 *1941:B1 8.65905e-05
14 *1856:B1 *1941:B1 1.61831e-05
15 *1939:A1_N *1939:A2_N 7.00889e-06
16 *1941:A2 *1941:B1 0.000122155
17 *1949:A2 *461:12 3.50033e-05
18 *2028:A *461:10 0
19 *2028:A *461:12 0
20 *154:12 *461:12 0
21 *160:10 *1941:B1 2.41376e-05
22 *160:23 *1939:A2_N 4.35348e-05
23 *160:23 *1941:B1 0.000166962
24 *160:23 *461:12 2.86623e-05
*RES
1 *2097:X *461:10 9.225 
2 *461:10 *461:12 2.91 
3 *461:12 *1941:B1 12.735 
4 *461:12 *1939:A2_N 4.395 
5 *461:10 *1949:A1 4.05 
*END

*D_NET *462 0.00155376
*CONN
*I *1864:B1 I *D sky130_fd_sc_hd__o211a_2
*I *1858:B1 I *D sky130_fd_sc_hd__o21a_2
*I *1859:A I *D sky130_fd_sc_hd__nor3_2
*I *2098:X O *D sky130_fd_sc_hd__buf_2
*CAP
1 *1864:B1 1.28838e-05
2 *1858:B1 0.000222042
3 *1859:A 3.97946e-05
4 *2098:X 7.09754e-05
5 *462:19 0.000292549
6 *462:8 0.000168393
7 *1858:A1 *1858:B1 6.03947e-06
8 *1858:A1 *1864:B1 1.44177e-05
9 *1858:A1 *462:19 2.16389e-05
10 *1858:A2 *1858:B1 4.40414e-05
11 *1859:B *1859:A 0.000137571
12 *1859:B *462:19 0.000110683
13 *1864:C1 *1864:B1 5.53249e-06
14 *142:24 *1858:B1 9.46111e-06
15 *214:10 *1859:A 3.09164e-05
16 *214:23 *1859:A 0.000108322
17 *214:23 *1864:B1 5.4003e-05
18 *214:23 *462:19 0.000181369
19 *430:14 *462:8 2.31229e-05
*RES
1 *2098:X *462:8 4.395 
2 *462:8 *1859:A 5.235 
3 *462:8 *462:19 2.145 
4 *462:19 *1858:B1 6.39 
5 *462:19 *1864:B1 4.215 
*END

*D_NET *463 0.00102626
*CONN
*I *1843:A2 I *D sky130_fd_sc_hd__a21oi_2
*I *2099:X O *D sky130_fd_sc_hd__buf_2
*CAP
1 *1843:A2 0.000376129
2 *2099:X 0.000376129
3 *1843:A2 *1618:B 5.83121e-06
4 *1843:A2 *1621:A1 4.82919e-05
5 *1620:A1 *1843:A2 6.02202e-05
6 *1621:A2 *1843:A2 2.30292e-05
7 *1621:C1 *1843:A2 8.49205e-05
8 *2099:A *1843:A2 5.0751e-05
9 *420:18 *1843:A2 9.60582e-07
*RES
1 *2099:X *1843:A2 12.585 
*END

*D_NET *464 0.000708551
*CONN
*I *1772:A2 I *D sky130_fd_sc_hd__a21oi_2
*I *2100:X O *D sky130_fd_sc_hd__buf_2
*CAP
1 *1772:A2 9.39736e-05
2 *2100:X 9.39736e-05
3 *1772:A1 *1772:A2 8.68724e-05
4 *1773:C *1772:A2 0.000120186
5 *286:8 *1772:A2 1.34361e-05
6 *424:12 *1772:A2 0.000300109
*RES
1 *2100:X *1772:A2 10.8975 
*END

*D_NET *465 0.000520915
*CONN
*I *1615:A I *D sky130_fd_sc_hd__nand2_4
*I *2101:X O *D sky130_fd_sc_hd__buf_2
*CAP
1 *1615:A 0.00017083
2 *2101:X 0.00017083
3 *2101:A *1615:A 0.000179256
*RES
1 *2101:X *1615:A 6.335 
*END

*D_NET *466 0.00450821
*CONN
*I *1746:B1 I *D sky130_fd_sc_hd__a21oi_2
*I *1745:C I *D sky130_fd_sc_hd__nand3_2
*I *1747:B1_N I *D sky130_fd_sc_hd__o21bai_4
*I *1760:A1 I *D sky130_fd_sc_hd__a22oi_2
*I *1977:X O *D sky130_fd_sc_hd__clkdlybuf4s25_1
*CAP
1 *1746:B1 8.44683e-05
2 *1745:C 0.000177996
3 *1747:B1_N 0
4 *1760:A1 0.000382148
5 *1977:X 0.000135659
6 *466:16 0.000643898
7 *466:10 0.00048669
8 *466:8 0.000267071
9 *1745:C *2057:A 9.2741e-05
10 *1746:B1 *1961:A 0.000229897
11 *1760:A1 *1884:A 0.000343044
12 *466:8 *1765:B 2.11084e-05
13 *466:10 *1961:A 0.000158297
14 *466:16 *1961:A 0.000338905
15 *1736:A1 *1760:A1 5.24617e-05
16 *1743:A *1760:A1 0
17 *1743:A *466:16 0
18 *1745:A *1746:B1 0.000201335
19 *1745:A *466:10 0.000138551
20 *1745:B *1745:C 4.82919e-05
21 *1746:A2 *1746:B1 0
22 *1977:A *466:10 5.12017e-06
23 *1977:A *466:16 0.000115607
24 *2012:A *466:16 2.75892e-05
25 *2091:A *1760:A1 0.000234674
26 *303:6 *1746:B1 8.40269e-05
27 *421:10 *1760:A1 0
28 *421:10 *466:16 6.37245e-05
29 *421:37 *1760:A1 0.0001049
30 *426:6 *1746:B1 3.03775e-05
31 *453:12 *1760:A1 2.39856e-05
32 *453:38 *1760:A1 1.56428e-05
*RES
1 *1977:X *466:8 5.085 
2 *466:8 *466:10 1.89 
3 *466:10 *466:16 6.615 
4 *466:16 *1760:A1 11.595 
5 *466:16 *1747:B1_N 3.6 
6 *466:10 *1745:C 6.48 
7 *466:8 *1746:B1 7.05 
*END

*D_NET *467 0.000468771
*CONN
*I *1618:B I *D sky130_fd_sc_hd__nor2_4
*I *2102:X O *D sky130_fd_sc_hd__buf_6
*CAP
1 *1618:B 0.000122879
2 *2102:X 0.000122879
3 *1620:A1 *1618:B 0.000118091
4 *1843:A2 *1618:B 5.83121e-06
5 *2102:A *1618:B 9.90903e-05
*RES
1 *2102:X *1618:B 6.185 
*END

*D_NET *468 0.000655659
*CONN
*I *1812:B1 I *D sky130_fd_sc_hd__a21oi_4
*I *2103:X O *D sky130_fd_sc_hd__buf_2
*CAP
1 *1812:B1 0.000314483
2 *2103:X 0.000314483
3 *1812:B1 *2053:A 0
4 *1812:A1 *1812:B1 0
5 *1823:A *1812:B1 0
6 *368:10 *1812:B1 2.66935e-05
*RES
1 *2103:X *1812:B1 11.1 
*END

*D_NET *469 0.0022226
*CONN
*I *1906:B_N I *D sky130_fd_sc_hd__nor2b_4
*I *1907:B I *D sky130_fd_sc_hd__nand2b_2
*I *1908:A I *D sky130_fd_sc_hd__nor2b_2
*I *2104:X O *D sky130_fd_sc_hd__buf_2
*CAP
1 *1906:B_N 0
2 *1907:B 2.27341e-05
3 *1908:A 0
4 *2104:X 0.000532367
5 *469:22 0.000226911
6 *469:12 0.000736544
7 *1907:B *1909:B1 6.90876e-05
8 *469:12 *518:10 0
9 *469:22 *1909:A2 1.60203e-05
10 *469:22 *1909:B1 0.000325515
11 *469:22 *536:47 4.82863e-05
12 *1915:A3 *1907:B 4.47125e-05
13 *1920:A2 *1907:B 4.82919e-05
14 *413:10 *469:12 0
15 *413:12 *469:12 0
16 *413:12 *469:22 7.75325e-05
17 *415:14 *469:12 7.45968e-05
18 *420:8 *469:22 0
*RES
1 *2104:X *469:12 14.27 
2 *469:12 *469:22 9.025 
3 *469:22 *1908:A 1.6 
4 *469:22 *1907:B 2.74 
5 *469:12 *1906:B_N 1.6 
*END

*D_NET *470 0.00136787
*CONN
*I *1900:A1 I *D sky130_fd_sc_hd__a21oi_4
*I *2105:X O *D sky130_fd_sc_hd__buf_2
*CAP
1 *1900:A1 0.000367361
2 *2105:X 0.000367361
3 *1900:A1 *1899:B1 0
4 *1900:A1 *1900:A2 0.000233224
5 *1900:A1 *2044:A 4.99619e-05
6 *1900:A1 *486:10 1.83756e-05
7 *1900:A1 *503:35 6.28498e-05
8 *1659:A *1900:A1 0.000268739
9 *1900:B1 *1900:A1 0
10 *425:16 *1900:A1 0
*RES
1 *2105:X *1900:A1 13.845 
*END

*D_NET *471 0.00143153
*CONN
*I *1845:A0 I *D sky130_fd_sc_hd__mux2_1
*I *1726:A I *D sky130_fd_sc_hd__nand2_2
*I *2106:X O *D sky130_fd_sc_hd__buf_2
*CAP
1 *1845:A0 0
2 *1726:A 0.000110814
3 *2106:X 0.0001966
4 *471:12 0.000307413
5 *1726:A *1726:B 0.0001167
6 *1726:A *1845:S 4.00541e-06
7 *471:12 *1726:B 0.000175179
8 *471:12 *1845:S 4.80285e-05
9 *471:12 *2054:A 0.000100544
10 *1728:C *1726:A 0.000201503
11 *1846:A *471:12 0
12 *2106:A *471:12 0.000162659
13 *416:14 *471:12 8.08153e-06
*RES
1 *2106:X *471:12 11.105 
2 *471:12 *1726:A 4.84 
3 *471:12 *1845:A0 1.6 
*END

*D_NET *472 0.0013249
*CONN
*I *1912:B I *D sky130_fd_sc_hd__nand2b_2
*I *2107:X O *D sky130_fd_sc_hd__buf_2
*CAP
1 *1912:B 0.000440243
2 *2107:X 0.000440243
3 *1860:A *1912:B 7.26551e-05
4 *1919:A1 *1912:B 8.53113e-06
5 *1919:A2 *1912:B 8.8266e-05
6 *2040:A *1912:B 3.64998e-06
7 *136:28 *1912:B 0.000271314
8 *413:24 *1912:B 0
*RES
1 *2107:X *1912:B 13.875 
*END

*D_NET *473 0.000522333
*CONN
*I *1875:A1 I *D sky130_fd_sc_hd__o31ai_4
*I *2108:X O *D sky130_fd_sc_hd__buf_2
*CAP
1 *1875:A1 0.00022301
2 *2108:X 0.00022301
3 *1684:B1 *1875:A1 7.63125e-05
*RES
1 *2108:X *1875:A1 10.32 
*END

*D_NET *474 0.000745408
*CONN
*I *1872:A I *D sky130_fd_sc_hd__xnor2_2
*I *2109:X O *D sky130_fd_sc_hd__buf_2
*CAP
1 *1872:A 0.000237276
2 *2109:X 0.000237276
3 *1658:A *1872:A 0
4 *1871:A2 *1872:A 0
5 *1872:B *1872:A 0
6 *222:10 *1872:A 0.000119521
7 *433:29 *1872:A 5.72742e-05
8 *433:31 *1872:A 3.04982e-05
9 *433:39 *1872:A 6.35622e-05
*RES
1 *2109:X *1872:A 12.66 
*END

*D_NET *475 0.00155365
*CONN
*I *1884:A I *D sky130_fd_sc_hd__inv_2
*I *1978:X O *D sky130_fd_sc_hd__clkdlybuf4s25_1
*CAP
1 *1884:A 0.000211572
2 *1978:X 0.000211572
3 *1760:A1 *1884:A 0.000343044
4 *1760:B2 *1884:A 6.02409e-05
5 *106:15 *1884:A 3.50152e-06
6 *321:16 *1884:A 4.66108e-05
7 *421:37 *1884:A 0.000677109
*RES
1 *1978:X *1884:A 10.13 
*END

*D_NET *476 0.000549258
*CONN
*I *1646:A1 I *D sky130_fd_sc_hd__a21oi_4
*I *2110:X O *D sky130_fd_sc_hd__buf_6
*CAP
1 *1646:A1 0.000227734
2 *2110:X 0.000227734
3 *1953:A1 *1646:A1 4.38278e-05
4 *214:10 *1646:A1 4.99619e-05
*RES
1 *2110:X *1646:A1 6.77 
*END

*D_NET *477 0.000698817
*CONN
*I *1885:A I *D sky130_fd_sc_hd__inv_2
*I *1979:X O *D sky130_fd_sc_hd__clkdlybuf4s25_1
*CAP
1 *1885:A 0.000268508
2 *1979:X 0.000268508
3 *1885:A *1777:B 4.18603e-06
4 *1885:A *1961:A 0.000139238
5 *1784:A_N *1885:A 1.83756e-05
*RES
1 *1979:X *1885:A 11.01 
*END

*D_NET *478 0.00175634
*CONN
*I *1616:A I *D sky130_fd_sc_hd__nand2_4
*I *2111:X O *D sky130_fd_sc_hd__buf_2
*CAP
1 *1616:A 0.000625399
2 *2111:X 0.000625399
3 *1616:B *1616:A 2.16833e-05
4 *1640:A1_N *1616:A 4.77757e-05
5 *1640:A2_N *1616:A 0.000122337
6 *2009:A *1616:A 0.00031375
*RES
1 *2111:X *1616:A 17.7 
*END

*D_NET *479 0.00249622
*CONN
*I *1641:A1_N I *D sky130_fd_sc_hd__o2bb2a_4
*I *1847:A1 I *D sky130_fd_sc_hd__a21boi_4
*I *1622:C I *D sky130_fd_sc_hd__nand3_4
*I *2112:X O *D sky130_fd_sc_hd__buf_6
*CAP
1 *1641:A1_N 8.19022e-05
2 *1847:A1 0.000296106
3 *1622:C 6.79314e-05
4 *2112:X 0.000107887
5 *479:10 0.000418198
6 *479:6 0.00024395
7 *1847:A1 *536:33 0
8 *1637:B *479:10 0.000164686
9 *1639:A *1847:A1 0
10 *1639:A *479:10 0
11 *1641:A2_N *1847:A1 0
12 *1847:A2 *1847:A1 4.82919e-05
13 *1847:B1_N *1847:A1 7.33465e-05
14 *1848:A *1847:A1 4.47125e-05
15 *1849:A1 *1847:A1 3.69334e-05
16 *1849:B1 *1641:A1_N 2.05056e-05
17 *1849:B1 *1847:A1 0.000185411
18 *1849:B1 *479:6 7.00889e-06
19 *1849:B1 *479:10 0.000186099
20 *1910:A1 *1847:A1 4.60584e-05
21 *2088:A *1847:A1 0.000136877
22 *208:10 *1622:C 4.99619e-05
23 *208:10 *1847:A1 0.000183745
24 *420:18 *1847:A1 9.66106e-05
*RES
1 *2112:X *479:6 3.085 
2 *479:6 *479:10 4.145 
3 *479:10 *1622:C 4.755 
4 *479:10 *1847:A1 12 
5 *479:6 *1641:A1_N 2.74 
*END

*D_NET *480 0.000498134
*CONN
*I *1645:B I *D sky130_fd_sc_hd__nand2_8
*I *1646:A2 I *D sky130_fd_sc_hd__a21oi_4
*I *2113:X O *D sky130_fd_sc_hd__buf_6
*CAP
1 *1645:B 5.3297e-05
2 *1646:A2 7.35392e-05
3 *2113:X 3.56364e-05
4 *480:6 0.000162473
5 *1645:A *1646:A2 2.97004e-06
6 *1647:A1 *1646:A2 5.53249e-06
7 *1648:B *1646:A2 0.000164686
*RES
1 *2113:X *480:6 2.05 
2 *480:6 *1646:A2 7.49 
3 *480:6 *1645:B 2.395 
*END

*D_NET *481 0.001433
*CONN
*I *1779:C_N I *D sky130_fd_sc_hd__or3b_4
*I *1780:B1_N I *D sky130_fd_sc_hd__o21bai_2
*I *1980:X O *D sky130_fd_sc_hd__clkdlybuf4s25_1
*CAP
1 *1779:C_N 0
2 *1780:B1_N 9.48418e-05
3 *1980:X 0.00033777
4 *481:10 0.000432612
5 *1780:A1 *1780:B1_N 0
6 *1980:A *1780:B1_N 1.94212e-05
7 *1980:A *481:10 0.000258213
8 *2014:A *1780:B1_N 0.000189426
9 *338:12 *481:10 0.00010072
*RES
1 *1980:X *481:10 7.6075 
2 *481:10 *1780:B1_N 7.9325 
3 *481:10 *1779:C_N 1.6 
*END

*D_NET *482 0.000470055
*CONN
*I *1856:A4 I *D sky130_fd_sc_hd__o41a_4
*I *2114:X O *D sky130_fd_sc_hd__buf_6
*CAP
1 *1856:A4 0.000136368
2 *2114:X 0.000136368
3 *1856:A3 *1856:A4 1.67131e-05
4 *1856:B1 *1856:A4 5.48366e-05
5 *1941:B1 *1856:A4 2.75145e-05
6 *160:10 *1856:A4 4.82919e-05
7 *399:28 *1856:A4 4.99619e-05
*RES
1 *2114:X *1856:A4 9.84 
*END

*D_NET *483 0.00241508
*CONN
*I *2110:A I *D sky130_fd_sc_hd__buf_6
*I *2115:X O *D sky130_fd_sc_hd__buf_2
*CAP
1 *2110:A 0.000692822
2 *2115:X 0.000692822
3 *1647:A2 *2110:A 4.92062e-05
4 *1648:A *2110:A 0.000210151
5 *1648:C *2110:A 4.66108e-05
6 *1859:B *2110:A 5.05521e-05
7 *1859:C *2110:A 4.16262e-05
8 *1953:A1 *2110:A 0.000162325
9 *2080:A *2110:A 9.80032e-06
10 *139:18 *2110:A 0.000222123
11 *214:10 *2110:A 0
12 *413:70 *2110:A 0.000237039
*RES
1 *2115:X *2110:A 18.225 
*END

*D_NET *484 0.00357499
*CONN
*I *1792:B1 I *D sky130_fd_sc_hd__a21o_2
*I *1790:B I *D sky130_fd_sc_hd__nand3_2
*I *1793:A I *D sky130_fd_sc_hd__xnor2_2
*I *1791:B1 I *D sky130_fd_sc_hd__a21oi_2
*I *1981:X O *D sky130_fd_sc_hd__clkdlybuf4s25_1
*CAP
1 *1792:B1 0.00028338
2 *1790:B 3.58172e-05
3 *1793:A 0.000298412
4 *1791:B1 0.000235378
5 *1981:X 0.000121635
6 *484:36 0.000377123
7 *484:23 0.000356338
8 *484:8 0.000357012
9 *1790:A *1791:B1 9.5433e-05
10 *1790:A *484:8 4.14369e-05
11 *1790:C *1792:B1 2.05056e-05
12 *1791:A1 *1791:B1 4.77757e-05
13 *1791:A1 *484:8 2.16389e-05
14 *1792:A2 *1791:B1 6.41532e-05
15 *1792:A2 *1792:B1 8.65961e-05
16 *1794:A *1793:A 0.000269927
17 *1794:A *484:36 4.66108e-05
18 *1794:B *1790:B 0
19 *1794:B *1792:B1 5.26491e-05
20 *1794:B *484:36 1.41165e-05
21 *1796:B *1793:A 0.000311288
22 *345:21 *1793:A 0.000238843
23 *345:42 *1792:B1 2.73681e-05
24 *346:34 *1791:B1 4.85359e-05
25 *348:17 *1791:B1 9.37731e-05
26 *348:17 *484:8 2.92496e-05
*RES
1 *1981:X *484:8 5.745 
2 *484:8 *1791:B1 7.95 
3 *484:8 *484:23 2 
4 *484:23 *1793:A 8.29 
5 *484:23 *484:36 0.795 
6 *484:36 *1790:B 2.215 
7 *484:36 *1792:B1 5.425 
*END

*D_NET *485 0.00168222
*CONN
*I *1844:B I *D sky130_fd_sc_hd__nor2_4
*I *2116:X O *D sky130_fd_sc_hd__buf_6
*CAP
1 *1844:B 0.000295945
2 *2116:X 0.000295945
3 *1844:B *2043:A 7.32882e-05
4 *1844:B *2112:A 0.000312083
5 *1622:A *1844:B 9.51041e-05
6 *1639:B *1844:B 0.000208477
7 *1847:B1_N *1844:B 0
8 *2117:A *1844:B 0
9 *181:20 *1844:B 0.00013521
10 *208:10 *1844:B 0.000266164
*RES
1 *2116:X *1844:B 16.05 
*END

*D_NET *486 0.00412016
*CONN
*I *1898:B1 I *D sky130_fd_sc_hd__o21a_2
*I *1899:B1 I *D sky130_fd_sc_hd__o21ai_4
*I *1902:B1 I *D sky130_fd_sc_hd__a21oi_2
*I *1903:A_N I *D sky130_fd_sc_hd__nand3b_4
*I *1982:X O *D sky130_fd_sc_hd__clkdlybuf4s25_1
*CAP
1 *1898:B1 0.00055691
2 *1899:B1 0.000110683
3 *1902:B1 0.000432497
4 *1903:A_N 0
5 *1982:X 0
6 *486:12 0.000432497
7 *486:10 0.000610484
8 *486:4 0.00105671
9 *1898:B1 *509:10 0
10 *1899:B1 *503:35 0
11 *486:10 *1895:B 4.23612e-05
12 *486:10 *2044:A 0.000106205
13 *1895:A *486:10 1.83847e-05
14 *1900:A1 *1899:B1 0
15 *1900:A1 *486:10 1.83756e-05
16 *1900:B1 *1899:B1 5.21545e-05
17 *1900:B1 *486:10 5.92849e-05
18 *1901:A *1898:B1 3.86607e-05
19 *1901:B *1898:B1 0.000425972
20 *1901:B *486:10 3.00381e-05
21 *1902:A1 *1902:B1 0.000108608
22 *2004:A *1898:B1 2.03321e-05
23 *217:16 *1899:B1 0
*RES
1 *1982:X *486:4 1.6 
2 *486:4 *486:10 8.915 
3 *486:10 *486:12 2 
4 *486:12 *1903:A_N 1.6 
5 *486:12 *1902:B1 7.6 
6 *486:10 *1899:B1 5.49 
7 *486:4 *1898:B1 13.64 
*END

*D_NET *487 0.00159487
*CONN
*I *1802:A I *D sky130_fd_sc_hd__xor2_2
*I *1808:A1 I *D sky130_fd_sc_hd__a21oi_2
*I *1807:A1 I *D sky130_fd_sc_hd__o21a_2
*I *1983:X O *D sky130_fd_sc_hd__clkdlybuf4s25_1
*CAP
1 *1802:A 0
2 *1808:A1 0
3 *1807:A1 0.000100899
4 *1983:X 0.000247263
5 *487:18 0.000271508
6 *487:10 0.000417872
7 *487:10 *1814:B 0
8 *1808:B1 *1807:A1 0
9 *1809:B1 *1807:A1 0.000210151
10 *1809:B1 *487:18 4.82863e-05
11 *1983:A *487:10 4.65607e-05
12 *2019:A *487:10 0
13 *2019:A *487:18 0
14 *2038:A *487:10 3.72916e-05
15 *358:8 *487:10 7.34286e-05
16 *358:17 *487:18 0.000141606
17 *424:12 *1807:A1 0
*RES
1 *1983:X *487:10 7.41 
2 *487:10 *487:18 5.135 
3 *487:18 *1807:A1 8 
4 *487:18 *1808:A1 1.6 
5 *487:10 *1802:A 3.6 
*END

*D_NET *488 0.00100853
*CONN
*I *2112:A I *D sky130_fd_sc_hd__buf_6
*I *2117:X O *D sky130_fd_sc_hd__buf_6
*CAP
1 *2112:A 0.000196468
2 *2117:X 0.000196468
3 *2112:A *2043:A 6.5525e-05
4 *1622:B *2112:A 0.000139238
5 *1639:A *2112:A 0
6 *1844:B *2112:A 0.000312083
7 *2117:A *2112:A 0
8 *181:20 *2112:A 9.87459e-05
9 *181:35 *2112:A 0
*RES
1 *2117:X *2112:A 12.915 
*END

*D_NET *489 0.00203645
*CONN
*I *1886:A I *D sky130_fd_sc_hd__inv_2
*I *1815:A I *D sky130_fd_sc_hd__xor2_2
*I *1984:X O *D sky130_fd_sc_hd__clkdlybuf4s25_1
*CAP
1 *1886:A 0.000111484
2 *1815:A 5.81625e-05
3 *1984:X 0.000452943
4 *489:10 0.000622589
5 *1815:A *1819:B 4.82863e-05
6 *1886:A *1819:B 0.000181075
7 *1886:A *2053:A 5.12017e-06
8 *489:10 *2053:A 0.000119521
9 *1816:A *489:10 9.11723e-05
10 *1819:A *1886:A 8.40213e-05
11 *1984:A *1886:A 3.60648e-05
12 *1984:A *489:10 2.75229e-05
13 *370:25 *1815:A 2.30292e-05
14 *371:12 *1815:A 1.34594e-05
15 *371:12 *1886:A 3.67779e-05
16 *371:12 *489:10 9.9535e-05
17 *372:10 *489:10 2.56868e-05
*RES
1 *1984:X *489:10 10.92 
2 *489:10 *1815:A 4.74 
3 *489:10 *1886:A 6.54 
*END

*D_NET *490 0.00252872
*CONN
*I *1887:A I *D sky130_fd_sc_hd__inv_2
*I *1821:A I *D sky130_fd_sc_hd__xor2_2
*I *1985:X O *D sky130_fd_sc_hd__clkdlybuf4s25_1
*CAP
1 *1887:A 0.000367487
2 *1821:A 0
3 *1985:X 0.000276762
4 *490:14 0.000644248
5 *1887:A *510:10 8.91052e-05
6 *490:14 *1970:A 0.000115762
7 *490:14 *2063:A 4.82863e-05
8 S[16] *1887:A 4.82919e-05
9 S[16] *490:14 0
10 S[28] *490:14 9.37731e-05
11 *1820:B *1887:A 0.000245206
12 *1821:B *1887:A 0.000156949
13 *1822:A *1887:A 0.000111285
14 *1824:B1 *1887:A 0.000263817
15 *1824:B1 *490:14 6.77501e-05
16 *1984:A *490:14 0
*RES
1 *1985:X *490:14 10.295 
2 *490:14 *1821:A 1.6 
3 *490:14 *1887:A 14.735 
*END

*D_NET *491 0.00341854
*CONN
*I *1882:A I *D sky130_fd_sc_hd__inv_2
*I *1635:C I *D sky130_fd_sc_hd__nand3b_2
*I *1986:X O *D sky130_fd_sc_hd__clkdlybuf4s25_1
*CAP
1 *1882:A 0.000462384
2 *1635:C 0
3 *1986:X 0.000243745
4 *491:8 0.000706129
5 *1882:A *501:26 1.88271e-05
6 *1622:A *1882:A 0.00035991
7 *1634:A *1882:A 0.000339893
8 *1635:A_N *491:8 0.0001249
9 *1635:B *1882:A 4.21973e-05
10 *1635:B *491:8 0.000100323
11 *1636:B1 *1882:A 0.000670261
12 *1986:A *1882:A 8.65961e-05
13 *1986:A *491:8 3.77036e-05
14 *2021:A *1882:A 0.000120881
15 *181:20 *1882:A 0.00010479
16 *420:20 *1882:A 0
*RES
1 *1986:X *491:8 6.205 
2 *491:8 *1635:C 1.6 
3 *491:8 *1882:A 20.195 
*END

*D_NET *492 0.00528459
*CONN
*I *1840:A1_N I *D sky130_fd_sc_hd__a2bb2o_2
*I *1835:B1 I *D sky130_fd_sc_hd__o2bb2ai_4
*I *1829:C I *D sky130_fd_sc_hd__and3_2
*I *1831:B1 I *D sky130_fd_sc_hd__a21oi_2
*I *1830:A I *D sky130_fd_sc_hd__nand2_2
*I *1987:X O *D sky130_fd_sc_hd__clkdlybuf4s25_1
*CAP
1 *1840:A1_N 0.000145975
2 *1835:B1 0
3 *1829:C 0
4 *1831:B1 0.000233883
5 *1830:A 0.000125279
6 *1987:X 0
7 *492:43 0.000318351
8 *492:12 0.000409281
9 *492:6 0.000412411
10 *492:4 0.000534668
11 *1831:B1 *2066:A 8.8266e-05
12 *1831:B1 *508:10 0.000206824
13 *492:12 *508:10 0.000114492
14 S[30] *1831:B1 0.000125959
15 *1829:B *1831:B1 2.30797e-05
16 *1829:B *492:12 0.000116158
17 *1830:B *1830:A 9.53428e-06
18 *1831:A1 *1831:B1 4.35348e-05
19 *1834:A *492:6 0.000136838
20 *1834:A *492:12 2.75145e-05
21 *1835:A2_N *1831:B1 0.000235573
22 *1836:A *1831:B1 4.82919e-05
23 *1840:A2_N *1840:A1_N 0.000327327
24 *1840:A2_N *492:43 8.53113e-06
25 *1840:B1 *1840:A1_N 2.97209e-05
26 *1840:B1 *492:43 7.5431e-05
27 *1840:B2 *492:43 0
28 *1841:A1 *492:6 8.8266e-05
29 *1841:A1 *492:43 0
30 *1841:B1 *1840:A1_N 0.000193273
31 *1842:A1 *492:43 0
32 *1877:B1_N *1840:A1_N 6.5525e-05
33 *1877:B1_N *492:43 5.53249e-06
34 *1987:A *492:6 0.0001249
35 *1987:A *492:43 0
36 *377:47 *1830:A 1.19928e-05
37 *381:14 *1831:B1 0.000511421
38 *382:6 *1830:A 7.35813e-05
39 *382:19 *1830:A 2.30292e-05
40 *382:19 *492:43 0.000186099
41 *383:6 *492:6 8.65961e-05
42 *383:6 *492:12 4.66108e-05
43 *385:10 *1831:B1 4.66108e-05
44 *435:22 *1831:B1 2.42236e-05
*RES
1 *1987:X *492:4 1.6 
2 *492:4 *492:6 6.66 
3 *492:6 *492:12 3.83 
4 *492:12 *1830:A 5.79 
5 *492:12 *1831:B1 12.66 
6 *492:6 *1829:C 1.6 
7 *492:4 *492:43 5.93 
8 *492:43 *1835:B1 3.6 
9 *492:43 *1840:A1_N 8.4 
*END

*D_NET *493 0.00166545
*CONN
*I *1888:A I *D sky130_fd_sc_hd__inv_2
*I *1838:A I *D sky130_fd_sc_hd__nand2_2
*I *1839:A I *D sky130_fd_sc_hd__or2_2
*I *1988:X O *D sky130_fd_sc_hd__clkdlybuf4s25_1
*CAP
1 *1888:A 0
2 *1838:A 1.16891e-05
3 *1839:A 0.000134599
4 *1988:X 0.00022293
5 *493:16 0.000465455
6 *493:10 0.000542097
7 *493:10 *531:12 0
8 *493:16 *1665:B 3.09233e-05
9 *493:16 *531:12 0
10 *1669:A1 *493:16 4.11293e-05
11 *1839:B *1838:A 9.42091e-06
12 *1839:B *1839:A 1.12578e-05
13 *1839:B *493:16 7.22354e-05
14 *390:8 *493:10 0
15 *390:12 *493:16 0
16 *391:10 *1838:A 5.72201e-06
17 *391:10 *1839:A 0.000117989
*RES
1 *1988:X *493:10 6.465 
2 *493:10 *493:16 7.175 
3 *493:16 *1839:A 3.805 
4 *493:16 *1838:A 1.96 
5 *493:10 *1888:A 3.6 
*END

*D_NET *494 0.00156921
*CONN
*I *1644:A1 I *D sky130_fd_sc_hd__a22oi_4
*I *1881:A I *D sky130_fd_sc_hd__inv_2
*I *1627:B1 I *D sky130_fd_sc_hd__o21ai_2
*I *1989:X O *D sky130_fd_sc_hd__clkdlybuf4s25_1
*CAP
1 *1644:A1 0.000227274
2 *1881:A 0
3 *1627:B1 2.22788e-05
4 *1989:X 0.000437665
5 *494:12 2.22788e-05
6 *494:10 0.000664938
7 *494:10 *530:14 0
8 S[8] *494:10 0
9 *1626:A *1644:A1 0
10 *1626:A *494:10 0
11 *1627:A1 *1627:B1 4.82863e-05
12 *1953:A1 *1644:A1 0
13 *1953:A1 *494:10 0
14 *191:21 *494:10 0
15 *192:14 *494:10 0
16 *192:23 *494:10 0
17 *212:6 *1644:A1 0.00011577
18 *431:30 *494:10 3.07153e-05
19 *431:38 *494:10 0
*RES
1 *1989:X *494:10 10.11 
2 *494:10 *494:12 2 
3 *494:12 *1627:B1 2.05 
4 *494:12 *1881:A 1.6 
5 *494:10 *1644:A1 7.425 
*END

*D_NET *495 0.00134558
*CONN
*I *1946:B1 I *D sky130_fd_sc_hd__o21ai_4
*I *1953:B1 I *D sky130_fd_sc_hd__a21oi_2
*I *1990:X O *D sky130_fd_sc_hd__clkdlybuf4s25_1
*CAP
1 *1946:B1 0
2 *1953:B1 0.000158335
3 *1990:X 0.000263648
4 *495:8 0.000421983
5 *1953:B1 *1945:A_N 9.50342e-06
6 *1953:B1 *530:25 0.000163992
7 *1948:C1 *495:8 0.000138799
8 *1954:A2 *1953:B1 6.4422e-05
9 *1990:A *495:8 0.0001249
*RES
1 *1990:X *495:8 6.55 
2 *495:8 *1953:B1 8.975 
3 *495:8 *1946:B1 1.6 
*END

*D_NET *496 0.00279971
*CONN
*I *1943:A_N I *D sky130_fd_sc_hd__nand3b_4
*I *1937:B1 I *D sky130_fd_sc_hd__o21ai_4
*I *1942:A_N I *D sky130_fd_sc_hd__and3b_2
*I *1991:X O *D sky130_fd_sc_hd__clkdlybuf4s25_1
*CAP
1 *1943:A_N 0
2 *1937:B1 0.0001765
3 *1942:A_N 0.000331943
4 *1991:X 0.000115947
5 *496:29 0.000259624
6 *496:10 0.000531014
7 *1937:B1 *1937:A1 3.87112e-05
8 *1942:A_N *1935:B 5.06152e-05
9 *496:29 *1935:B 0.000108761
10 *1854:A1 *496:10 4.82919e-05
11 *1935:A_N *1942:A_N 3.71091e-05
12 *1935:A_N *496:10 1.73877e-05
13 *1937:A2 *1937:B1 0.000509968
14 *1937:A2 *496:29 0.000100858
15 *1942:B *496:10 0
16 *1942:C *1942:A_N 7.60965e-05
17 *1943:C *1942:A_N 0
18 *1944:B1 *1937:B1 1.91597e-05
19 *1991:A *1942:A_N 0
20 *2027:A *1937:B1 8.23457e-05
21 *156:10 *496:10 0
22 *165:6 *1937:B1 0.000184987
23 *165:6 *496:29 8.36862e-05
24 *428:35 *496:10 2.67022e-05
*RES
1 *1991:X *496:10 5.43 
2 *496:10 *1942:A_N 9.33 
3 *496:10 *496:29 4.58375 
4 *496:29 *1937:B1 7.29625 
5 *496:29 *1943:A_N 1.6 
*END

*D_NET *497 0.00224828
*CONN
*I *1931:A_N I *D sky130_fd_sc_hd__nand3b_4
*I *1932:B1 I *D sky130_fd_sc_hd__o21ai_2
*I *1992:X O *D sky130_fd_sc_hd__clkdlybuf4s25_1
*CAP
1 *1931:A_N 0.000236748
2 *1932:B1 0.000181879
3 *1992:X 0
4 *497:4 0.000418627
5 *1931:A_N *1930:B 0
6 *1931:A_N *504:8 0.000180373
7 *1932:B1 *1924:A2 0.000160035
8 *1932:B1 *1924:B1 8.65961e-05
9 *1932:B1 *504:8 0.000115146
10 *1932:B1 *504:14 0.00023468
11 *1931:C *1932:B1 0.000570816
12 *153:10 *1931:A_N 5.56984e-05
13 *154:10 *1932:B1 7.68414e-06
*RES
1 *1992:X *497:4 1.6 
2 *497:4 *1932:B1 8.26 
3 *497:4 *1931:A_N 10.1 
*END

*D_NET *498 0.00388989
*CONN
*I *1879:A I *D sky130_fd_sc_hd__inv_2
*I *1892:B1 I *D sky130_fd_sc_hd__o21ai_2
*I *1993:X O *D sky130_fd_sc_hd__clkdlybuf4s25_1
*CAP
1 *1879:A 0.0001308
2 *1892:B1 0.00031703
3 *1993:X 0.000319417
4 *498:6 0.000767246
5 *1879:A *509:10 0
6 *1892:B1 *1930:B 0
7 *498:6 *1891:B 9.66106e-05
8 *1890:B *498:6 7.10578e-05
9 *1892:A1 *1892:B1 0
10 *1893:A *1879:A 0.000124895
11 *1893:B *1892:B1 0.000202662
12 *1893:C *498:6 7.35729e-05
13 *1905:B1 *1879:A 0.000476377
14 *1905:B1 *498:6 0.000572614
15 *1905:C1 *498:6 0.000142661
16 *1916:A1_N *1892:B1 7.04108e-05
17 *1916:B2 *1892:B1 8.5225e-05
18 *1931:B *1892:B1 0.000140912
19 *1931:C *1892:B1 4.70343e-05
20 *1993:A *1879:A 0.000130363
21 *1993:A *498:6 8.0152e-05
22 *455:20 *498:6 4.08514e-05
*RES
1 *1993:X *498:6 10.33 
2 *498:6 *1892:B1 13.355 
3 *498:6 *1879:A 10.46 
*END

*D_NET *499 0.00286404
*CONN
*I *1924:B1 I *D sky130_fd_sc_hd__o21ai_2
*I *1926:B1 I *D sky130_fd_sc_hd__a21oi_2
*I *1994:X O *D sky130_fd_sc_hd__clkdlybuf4s25_1
*CAP
1 *1924:B1 0.000176551
2 *1926:B1 7.59601e-05
3 *1994:X 0.000860237
4 *499:10 0.00111275
5 *1924:B1 *1924:A2 8.65961e-05
6 *1924:B1 *533:37 2.88234e-05
7 *1926:B1 *1924:A2 1.17114e-05
8 *499:10 *1923:B 0
9 *499:10 *533:37 0
10 *1932:A1 *1924:B1 4.43871e-06
11 *1932:A1 *1926:B1 0
12 *1932:B1 *1924:B1 8.65961e-05
13 *1949:A1 *499:10 2.49909e-05
14 *1949:C1 *499:10 0.000311294
15 *147:8 *499:10 7.23602e-05
16 *171:8 *499:10 1.17309e-05
*RES
1 *1994:X *499:10 13.9275 
2 *499:10 *1926:B1 4.6275 
3 *499:10 *1924:B1 6.9225 
*END

*D_NET *500 0.00328081
*CONN
*I *1918:B1 I *D sky130_fd_sc_hd__a21oi_2
*I *1913:B1 I *D sky130_fd_sc_hd__o21ai_4
*I *1995:X O *D sky130_fd_sc_hd__clkdlybuf4s25_1
*CAP
1 *1918:B1 0.000182559
2 *1913:B1 0
3 *1995:X 0.000413129
4 *500:10 0.000595688
5 *1918:B1 *2073:A 0
6 *500:10 *2073:A 0
7 *1628:A *500:10 0
8 *1638:A1 *500:10 8.58007e-05
9 *1638:D1 *500:10 0.000235566
10 *1642:B1 *500:10 0.000308275
11 *1643:A1 *500:10 0
12 *1643:B1 *500:10 5.16348e-05
13 *1914:B1 *1918:B1 8.68724e-05
14 *1995:A *500:10 0.000270415
15 *196:6 *500:10 0.00016624
16 *413:37 *1918:B1 0.000164874
17 *431:12 *1918:B1 0
18 *431:18 *1918:B1 2.14129e-05
19 *431:18 *500:10 0.000364639
20 *431:24 *500:10 0.000333702
*RES
1 *1995:X *500:10 16.545 
2 *500:10 *1913:B1 3.6 
3 *500:10 *1918:B1 7.575 
*END

*D_NET *501 0.00706927
*CONN
*I *1910:B1 I *D sky130_fd_sc_hd__o21ai_2
*I *1915:A1 I *D sky130_fd_sc_hd__o32a_4
*I *1909:B1 I *D sky130_fd_sc_hd__a21oi_2
*I *1996:X O *D sky130_fd_sc_hd__clkdlybuf4s25_1
*CAP
1 *1910:B1 0
2 *1915:A1 4.40179e-05
3 *1909:B1 0.000293269
4 *1996:X 0.00207535
5 *501:32 0.000596936
6 *501:26 0.002335
7 *1909:B1 *1907:A_N 2.49909e-05
8 *1909:B1 *1909:A2 9.22715e-05
9 *1915:A1 *1906:A 0.000154488
10 *501:26 *535:34 0
11 *501:26 *536:33 0
12 *501:32 *1906:A 5.23362e-05
13 *501:32 *1910:A2 7.40432e-05
14 *501:32 *1914:A2 0
15 *501:32 *535:34 0
16 *501:32 *536:33 6.86563e-05
17 *501:32 *536:72 0.000332795
18 *1848:A *501:26 0.00014881
19 *1882:A *501:26 1.88271e-05
20 *1907:B *1909:B1 6.90876e-05
21 *1910:A1 *501:32 7.10578e-05
22 *1911:B1 *501:32 0
23 *1915:A3 *1915:A1 1.01661e-05
24 *1915:B1 *1915:A1 7.89767e-05
25 *1915:B1 *501:32 0.000100463
26 *1920:A2 *1909:B1 9.80032e-06
27 *133:10 *501:32 9.24127e-05
28 *469:22 *1909:B1 0.000325515
*RES
1 *1996:X *501:26 12.2686 
2 *501:26 *501:32 9.62 
3 *501:32 *1909:B1 9.6 
4 *501:32 *1915:A1 5.49 
5 *501:26 *1910:B1 1.6 
*END

*D_NET *502 0.00465052
*CONN
*I *1621:A1 I *D sky130_fd_sc_hd__o211a_4
*I *1618:A I *D sky130_fd_sc_hd__nor2_4
*I *1619:A2 I *D sky130_fd_sc_hd__o21ai_4
*I *1617:B I *D sky130_fd_sc_hd__and2_4
*I *1845:S I *D sky130_fd_sc_hd__mux2_1
*I *1997:X O *D sky130_fd_sc_hd__clkdlybuf4s25_1
*CAP
1 *1621:A1 2.091e-05
2 *1618:A 0.000127871
3 *1619:A2 0
4 *1617:B 0
5 *1845:S 0.000330447
6 *1997:X 0.000483795
7 *502:30 0.000493654
8 *502:20 0.000223504
9 *502:16 0.000285817
10 *502:12 0.000602355
11 *1845:S *1726:B 2.97573e-05
12 *502:12 *1630:B 9.37731e-05
13 *502:12 *1633:B 0
14 *502:12 *514:12 0.00019338
15 *1617:A *1845:S 4.99619e-05
16 *1617:A *502:30 3.66286e-05
17 *1619:B1 *502:20 5.30281e-05
18 *1620:A1 *1618:A 0
19 *1620:A1 *502:12 0.000157595
20 *1620:B1_N *502:30 7.21412e-05
21 *1621:A2 *1621:A1 8.40269e-05
22 *1621:A2 *502:16 2.16833e-05
23 *1621:C1 *1621:A1 1.33285e-05
24 *1621:C1 *502:16 0.000309903
25 *1621:C1 *502:20 0.000161101
26 *1621:C1 *502:30 2.01565e-05
27 *1630:A *502:12 1.07797e-05
28 *1636:A1 *502:12 2.30292e-05
29 *1640:B1 *502:12 0.000104136
30 *1640:B2 *502:12 5.96729e-05
31 *1725:A *1845:S 0.000162311
32 *1726:A *1845:S 4.00541e-06
33 *1843:A1 *502:16 9.53428e-06
34 *1843:A2 *1621:A1 4.82919e-05
35 *1843:B1 *1618:A 1.94892e-05
36 *183:25 *502:30 4.36934e-05
37 *187:6 *502:16 9.28507e-05
38 *187:23 *502:16 2.75229e-05
39 *414:23 *502:20 2.01504e-05
40 *414:23 *502:30 4.77757e-05
41 *417:8 *1618:A 0
42 *417:10 *1618:A 0
43 *417:10 *502:30 6.44307e-05
44 *471:12 *1845:S 4.80285e-05
*RES
1 *1997:X *502:12 14.585 
2 *502:12 *502:16 3.225 
3 *502:16 *502:20 1.845 
4 *502:20 *502:30 7.825 
5 *502:30 *1845:S 7.27 
6 *502:30 *1617:B 1.6 
7 *502:20 *1619:A2 1.6 
8 *502:16 *1618:A 7.745 
9 *502:12 *1621:A1 2.395 
*END

*D_NET *503 0.00580553
*CONN
*I *1895:B I *D sky130_fd_sc_hd__nand2_2
*I *1896:B I *D sky130_fd_sc_hd__nand2b_4
*I *1897:A_N I *D sky130_fd_sc_hd__nand2b_2
*I *1902:A2 I *D sky130_fd_sc_hd__a21oi_2
*I *1899:A2 I *D sky130_fd_sc_hd__o21ai_4
*I *1900:A2 I *D sky130_fd_sc_hd__a21oi_4
*I *1898:A2 I *D sky130_fd_sc_hd__o21a_2
*I *1998:X O *D sky130_fd_sc_hd__dlymetal6s4s_1
*CAP
1 *1895:B 4.11553e-05
2 *1896:B 2.39221e-05
3 *1897:A_N 2.08101e-05
4 *1902:A2 0.000407279
5 *1899:A2 0
6 *1900:A2 0.000106253
7 *1898:A2 0.000139945
8 *1998:X 0.00070238
9 *503:50 0.000652363
10 *503:48 0.000622548
11 *503:35 0.000472192
12 *503:20 0.000725373
13 *1895:B *2044:A 0.000119756
14 *1663:A1 *503:48 0.000388784
15 *1897:B *503:48 0.000132351
16 *1897:B *503:50 7.5277e-05
17 *1898:A1 *1898:A2 0.000164352
18 *1898:A1 *503:20 0.000241483
19 *1899:B1 *503:35 0
20 *1900:A1 *1900:A2 0.000233224
21 *1900:A1 *503:35 6.28498e-05
22 *1903:B *503:48 2.75229e-05
23 *119:10 *503:50 4.80285e-05
24 *217:16 *503:48 0
25 *218:12 *1902:A2 0
26 *425:12 *503:48 0
27 *425:16 *1900:A2 9.49116e-05
28 *425:16 *503:35 3.60451e-05
29 *425:16 *503:48 0
30 *425:57 *503:48 5.05437e-05
31 *430:14 *1902:A2 0
32 *435:22 *1902:A2 0.000139245
33 *455:8 *503:20 3.45679e-05
34 *486:10 *1895:B 4.23612e-05
*RES
1 *1998:X *1898:A2 6.065 
2 *1998:X *503:20 10.26 
3 *503:20 *1900:A2 6.255 
4 *503:20 *503:35 1.935 
5 *503:35 *1899:A2 3.6 
6 *503:35 *503:48 10.175 
7 *503:48 *503:50 3.555 
8 *503:50 *1902:A2 12.455 
9 *503:50 *1897:A_N 1.96 
10 *503:48 *1896:B 1.96 
11 *1900:A2 *1895:B 4.34 
*END

*D_NET *504 0.00408684
*CONN
*I *1892:A2 I *D sky130_fd_sc_hd__o21ai_2
*I *1891:B I *D sky130_fd_sc_hd__nand2b_4
*I *1890:A_N I *D sky130_fd_sc_hd__nand2b_2
*I *1889:B I *D sky130_fd_sc_hd__and2_4
*I *1999:X O *D sky130_fd_sc_hd__clkdlybuf4s25_1
*CAP
1 *1892:A2 0
2 *1891:B 0.000305384
3 *1890:A_N 0
4 *1889:B 0.000149992
5 *1999:X 0.000224925
6 *504:20 0.00039852
7 *504:14 0.000658351
8 *504:8 0.000329364
9 *1889:A *1889:B 0
10 *1890:B *1889:B 0
11 *1893:B *504:20 5.3619e-05
12 *1916:B2 *1891:B 0
13 *1917:B1 *1891:B 9.30787e-05
14 *1931:A_N *504:8 0.000180373
15 *1932:B1 *504:8 0.000115146
16 *1932:B1 *504:14 0.00023468
17 *1993:A *1891:B 0.000163204
18 *2039:A *1889:B 8.65961e-05
19 *2039:A *504:20 0.000161204
20 *114:10 *1891:B 8.69382e-05
21 *114:10 *504:8 1.16578e-05
22 *114:10 *504:14 0.000115782
23 *114:25 *1891:B 1.59309e-05
24 *154:10 *504:14 4.85494e-05
25 *217:16 *1889:B 7.24866e-05
26 *427:8 *1889:B 1.70935e-05
27 *428:8 *1891:B 4.54719e-05
28 *428:8 *504:14 0.00013521
29 *429:34 *1891:B 0.000161573
30 *429:38 *1891:B 0.000116563
31 *455:20 *1891:B 8.53113e-06
32 *498:6 *1891:B 9.66106e-05
*RES
1 *1999:X *504:8 6.55 
2 *504:8 *504:14 5.81 
3 *504:14 *504:20 6.26 
4 *504:20 *1889:B 8.795 
5 *504:20 *1890:A_N 1.6 
6 *504:14 *1891:B 11.82 
7 *504:8 *1892:A2 1.6 
*END

*D_NET *505 0.00389438
*CONN
*I *1660:B I *D sky130_fd_sc_hd__nand2_2
*I *1661:B I *D sky130_fd_sc_hd__nor2_4
*I *1659:B I *D sky130_fd_sc_hd__and2_4
*I *2000:X O *D sky130_fd_sc_hd__clkdlybuf4s25_1
*CAP
1 *1660:B 0.000156681
2 *1661:B 0
3 *1659:B 0.000270692
4 *2000:X 0.000386859
5 *505:27 0.000295763
6 *505:12 0.000796633
7 *505:12 *564:14 0.000102216
8 *1659:A *1659:B 0.000367844
9 *1660:A *1660:B 0.00012757
10 *1661:A *1660:B 4.00541e-06
11 *1663:A2 *505:12 0
12 *1871:B1 *505:12 4.82863e-05
13 *2035:A *505:12 0
14 *2105:A *1659:B 8.40269e-05
15 *230:12 *505:12 0.000111316
16 *425:10 *1659:B 0.000503702
17 *433:39 *505:12 0
18 *433:52 *1659:B 9.21168e-05
19 *433:52 *1660:B 6.77501e-05
20 *433:52 *505:27 0.000233032
21 *457:10 *505:12 0.000245886
*RES
1 *2000:X *505:12 13.55 
2 *505:12 *1659:B 9.655 
3 *505:12 *505:27 3.33 
4 *505:27 *1661:B 1.6 
5 *505:27 *1660:B 5.185 
*END

*D_NET *506 0.00254047
*CONN
*I *1653:B I *D sky130_fd_sc_hd__nor2_2
*I *1652:B I *D sky130_fd_sc_hd__nand2_2
*I *1651:B I *D sky130_fd_sc_hd__and2_4
*I *1654:B I *D sky130_fd_sc_hd__or2_4
*I *2001:X O *D sky130_fd_sc_hd__clkdlybuf4s25_1
*CAP
1 *1653:B 7.76845e-05
2 *1652:B 9.74759e-05
3 *1651:B 0.000259502
4 *1654:B 4.49933e-05
5 *2001:X 0
6 *506:34 0.00018519
7 *506:8 0.000390232
8 *506:4 9.57662e-05
9 *1651:A *1651:B 0.000171517
10 *1652:A *1651:B 3.96653e-05
11 *1653:A *1653:B 0.000240584
12 *1653:A *1654:B 5.90847e-05
13 *1653:A *506:8 0.00011964
14 *1653:A *506:34 2.75145e-05
15 *1656:A2 *1652:B 0
16 *1658:B *1651:B 0
17 *1871:B1 *1654:B 0.000124895
18 *2000:A *1653:B 0.000207263
19 *2000:A *506:8 3.00381e-05
20 *2000:A *506:34 2.30292e-05
21 *2001:A *1652:B 0
22 *220:8 *1651:B 0
23 *220:8 *1652:B 5.19573e-05
24 *226:14 *1651:B 4.99619e-05
25 *433:14 *1651:B 6.07412e-05
26 *457:21 *1651:B 0.000183738
*RES
1 *2001:X *506:4 1.6 
2 *506:4 *506:8 2.19 
3 *506:8 *1654:B 3.085 
4 *506:8 *1651:B 11.42 
5 *506:4 *506:34 0.45 
6 *506:34 *1652:B 7.745 
7 *506:34 *1653:B 5.17 
*END

*D_NET *507 0.00193903
*CONN
*I *1665:B I *D sky130_fd_sc_hd__and2_4
*I *1667:B I *D sky130_fd_sc_hd__nor2_2
*I *1666:B I *D sky130_fd_sc_hd__nand2_2
*I *2002:X O *D sky130_fd_sc_hd__clkdlybuf4s25_1
*CAP
1 *1665:B 8.3149e-05
2 *1667:B 0
3 *1666:B 0.000249929
4 *2002:X 0
5 *507:8 0.000358262
6 *507:4 0.000191482
7 *1665:B *531:12 0
8 *1665:A *1665:B 0.000163992
9 *1666:A *1666:B 0.000109136
10 *1668:A_N *1666:B 0.00015997
11 *1668:C *1666:B 0.000178745
12 *1669:A1 *1666:B 2.68721e-05
13 *235:8 *1666:B 0.000166346
14 *432:27 *1665:B 3.09233e-05
15 *432:27 *1666:B 0.000189299
16 *433:12 *1666:B 0
17 *493:16 *1665:B 3.09233e-05
*RES
1 *2002:X *507:4 1.6 
2 *507:4 *507:8 1.5 
3 *507:8 *1666:B 12.98 
4 *507:8 *1667:B 1.6 
5 *507:4 *1665:B 7.745 
*END

*D_NET *508 0.00308596
*CONN
*I *1671:B I *D sky130_fd_sc_hd__nand2_2
*I *1672:A I *D sky130_fd_sc_hd__or2_4
*I *2003:X O *D sky130_fd_sc_hd__clkdlybuf4s25_1
*CAP
1 *1671:B 0
2 *1672:A 0.000422528
3 *2003:X 0.000524201
4 *508:10 0.000946729
5 *508:10 *527:10 0.000123225
6 S[31] *508:10 4.70256e-05
7 *1673:C *1672:A 2.66445e-05
8 *1675:A2 *1672:A 0
9 *1685:B *1672:A 5.4155e-06
10 *1829:B *508:10 4.84472e-05
11 *1831:B1 *508:10 0.000206824
12 *1834:B *508:10 0
13 *1841:A2 *508:10 0
14 *1987:A *508:10 0
15 *240:6 *1672:A 4.99619e-05
16 *240:15 *1672:A 0.000263884
17 *377:47 *508:10 0
18 *435:10 *508:10 5.72091e-05
19 *435:22 *1672:A 0.000120378
20 *435:22 *508:10 0.000128999
21 *492:12 *508:10 0.000114492
*RES
1 *2003:X *508:10 14.535 
2 *508:10 *1672:A 11.415 
3 *508:10 *1671:B 3.6 
*END

*D_NET *509 0.00264255
*CONN
*I *1663:B1_N I *D sky130_fd_sc_hd__o21bai_4
*I *1662:B I *D sky130_fd_sc_hd__nand3b_4
*I *2004:X O *D sky130_fd_sc_hd__clkdlybuf4s25_1
*CAP
1 *1663:B1_N 0.000214026
2 *1662:B 0
3 *2004:X 0.00081048
4 *509:10 0.00102451
5 S[10] *509:10 0
6 S[11] *509:10 0
7 *1662:C *1663:B1_N 0
8 *1662:C *509:10 0
9 *1663:A2 *1663:B1_N 8.31299e-05
10 *1879:A *509:10 0
11 *1893:B *509:10 1.34361e-05
12 *1894:B1 *509:10 0.000140912
13 *1898:B1 *509:10 0
14 *1905:B1 *509:10 0
15 *1916:B2 *509:10 0
16 *1982:A *509:10 8.50047e-05
17 *1993:A *509:10 0
18 *1998:A *509:10 0
19 *2006:A *509:10 0
20 *2035:A *509:10 0
21 *115:8 *509:10 0.000159269
22 *229:8 *1663:B1_N 6.71803e-06
23 *229:8 *509:10 0.000105068
*RES
1 *2004:X *509:10 17.265 
2 *509:10 *1662:B 3.6 
3 *509:10 *1663:B1_N 7.32 
*END

*D_NET *510 0.00302178
*CONN
*I *1686:A I *D sky130_fd_sc_hd__nand2_2
*I *1687:A I *D sky130_fd_sc_hd__nor2_2
*I *1685:A I *D sky130_fd_sc_hd__and2_2
*I *2005:X O *D sky130_fd_sc_hd__clkdlybuf4s25_1
*CAP
1 *1686:A 0.000103422
2 *1687:A 0
3 *1685:A 0.000192725
4 *2005:X 0.000573322
5 *510:14 0.000292358
6 *510:10 0.000776377
7 *1685:A *1689:B1_N 0.000124007
8 *510:10 *2050:A 0
9 *510:10 *2052:A 0
10 *510:10 *553:10 0.000124895
11 *510:14 *2050:A 0
12 S[16] *510:10 0
13 *1686:B *510:14 6.18754e-05
14 *1687:B *1685:A 4.00541e-06
15 *1688:C *1686:A 0
16 *1689:A1 *1685:A 2.75145e-05
17 *1689:A2 *1685:A 2.30292e-05
18 *1820:A *510:10 0
19 *1820:B *510:10 0
20 *1822:A *510:10 0.000118752
21 *1824:B1 *510:10 7.17811e-05
22 *1887:A *510:10 8.91052e-05
23 *255:6 *1685:A 4.35432e-05
24 *256:10 *510:10 0
25 *256:10 *510:14 0
26 *377:10 *1685:A 0.000334479
27 *434:18 *1685:A 9.80032e-06
28 *434:22 *1685:A 1.83847e-05
29 *434:32 *510:14 3.24046e-05
*RES
1 *2005:X *510:10 14.28 
2 *510:10 *510:14 4.145 
3 *510:14 *1685:A 7.24 
4 *510:14 *1687:A 1.6 
5 *510:10 *1686:A 5.1 
*END

*D_NET *511 0.00450125
*CONN
*I *1693:B I *D sky130_fd_sc_hd__nand2_2
*I *1692:B I *D sky130_fd_sc_hd__and2_2
*I *1694:B I *D sky130_fd_sc_hd__nor2_2
*I *2006:X O *D sky130_fd_sc_hd__clkdlybuf4s25_1
*CAP
1 *1693:B 2.08101e-05
2 *1692:B 0
3 *1694:B 0.000163164
4 *2006:X 0.00123116
5 *511:14 0.000317473
6 *511:6 0.00140628
7 *1692:A *1694:B 0.000117609
8 *1693:A *511:14 5.2089e-05
9 *1696:A1 *1694:B 8.57024e-05
10 *1696:A2 *1694:B 0.000187122
11 *1697:C *511:14 1.44259e-05
12 *1964:A *511:6 3.1835e-05
13 *1965:A *511:6 0.000199017
14 *1966:A *511:6 3.1835e-05
15 *429:32 *511:6 0.000253946
16 *434:38 *1694:B 0.000388784
*RES
1 *2006:X *511:6 19.99 
2 *511:6 *511:14 6.085 
3 *511:14 *1694:B 6.91 
4 *511:14 *1692:B 1.6 
5 *511:6 *1693:B 1.96 
*END

*D_NET *512 0.00357254
*CONN
*I *1701:B I *D sky130_fd_sc_hd__nor2_2
*I *1702:B I *D sky130_fd_sc_hd__and2_2
*I *1703:B I *D sky130_fd_sc_hd__nand2_2
*I *2007:X O *D sky130_fd_sc_hd__clkdlybuf4s25_1
*CAP
1 *1701:B 0.000157796
2 *1702:B 1.88809e-05
3 *1703:B 0.000107322
4 *2007:X 0.000625318
5 *512:25 0.000366583
6 *512:10 0.000922547
7 *512:10 *2058:A 0.000385013
8 *1701:A *1701:B 0.00013973
9 *1701:A *1702:B 5.4155e-06
10 *1701:A *512:25 4.60584e-05
11 *1705:A2 *1701:B 8.8266e-05
12 *1759:A *512:10 9.2741e-05
13 *1761:A *512:10 4.82919e-05
14 *1761:C *512:10 4.21973e-05
15 *1763:B *512:10 4.11729e-05
16 *1772:B1 *1703:B 0.00013994
17 *320:6 *512:10 0.000142669
18 *330:10 *1703:B 3.64998e-06
19 *424:18 *512:25 0.000198945
*RES
1 *2007:X *512:10 12.865 
2 *512:10 *1703:B 7.685 
3 *512:10 *512:25 3.21 
4 *512:25 *1702:B 1.96 
5 *512:25 *1701:B 4.825 
*END

*D_NET *513 0.00241161
*CONN
*I *1711:B I *D sky130_fd_sc_hd__or2_2
*I *1712:B I *D sky130_fd_sc_hd__nand2_2
*I *2008:X O *D sky130_fd_sc_hd__clkdlybuf4s25_1
*CAP
1 *1711:B 0
2 *1712:B 0.000277642
3 *2008:X 0.000487484
4 *513:14 0.000765126
5 *513:14 *1764:B 0.000120655
6 *513:14 *521:10 0.000198934
7 *1712:A *1712:B 1.34503e-05
8 *2016:A *513:14 5.94962e-05
9 *308:14 *1712:B 2.75145e-05
10 *324:10 *513:14 4.99619e-05
11 *422:73 *513:14 4.21973e-05
12 *422:122 *1712:B 3.10907e-05
13 *422:122 *513:14 0.000289823
14 *426:6 *1712:B 4.82369e-05
*RES
1 *2008:X *513:14 11.605 
2 *513:14 *1712:B 10.385 
3 *513:14 *1711:B 1.6 
*END

*D_NET *514 0.00349918
*CONN
*I *1614:A1 I *D sky130_fd_sc_hd__o21a_4
*I *1611:B I *D sky130_fd_sc_hd__nand2b_4
*I *1612:B I *D sky130_fd_sc_hd__nand2_2
*I *1956:A_N I *D sky130_fd_sc_hd__nand2b_2
*I *2009:X O *D sky130_fd_sc_hd__clkdlybuf4s25_1
*CAP
1 *1614:A1 2.13122e-05
2 *1611:B 0.00040343
3 *1612:B 0
4 *1956:A_N 0.000356065
5 *2009:X 0.000215797
6 *514:42 0.000561389
7 *514:20 0.000460049
8 *514:12 0.000456427
9 *514:12 *1630:B 1.07797e-05
10 *1611:A_N *1611:B 0.000201508
11 *1614:A2 *1611:B 8.64421e-05
12 *1614:B1 *1611:B 3.73067e-05
13 *1614:B1 *1614:A1 4.66108e-05
14 *1636:A1 *514:12 0.000137312
15 *1974:A *514:12 1.91597e-05
16 *1974:A *514:20 5.35686e-05
17 *1974:A *514:42 0.000155056
18 *2009:A *514:42 2.26364e-05
19 *180:14 *1956:A_N 1.52418e-05
20 *417:12 *514:42 0
21 *417:14 *514:42 0
22 *437:10 *514:12 4.57056e-05
23 *502:12 *514:12 0.00019338
*RES
1 *2009:X *514:12 9.935 
2 *514:12 *514:20 1.965 
3 *514:20 *1956:A_N 6.565 
4 *514:20 *1612:B 1.6 
5 *514:12 *514:42 6.4 
6 *514:42 *1611:B 8.635 
7 *514:42 *1614:A1 2.05 
*END

*D_NET *515 0.00254352
*CONN
*I *1727:B I *D sky130_fd_sc_hd__nor2_2
*I *1726:B I *D sky130_fd_sc_hd__nand2_2
*I *1725:B I *D sky130_fd_sc_hd__and2_4
*I *2010:X O *D sky130_fd_sc_hd__clkdlybuf4s25_1
*CAP
1 *1727:B 8.2055e-05
2 *1726:B 0.00038985
3 *1725:B 3.56534e-05
4 *2010:X 6.668e-05
5 *515:10 0.000477768
6 *515:8 0.000201
7 *1621:C1 *515:8 4.82919e-05
8 *1725:A *1725:B 4.82863e-05
9 *1725:A *1726:B 2.96426e-05
10 *1726:A *1726:B 0.0001167
11 *1845:S *1726:B 2.97573e-05
12 *1956:B *1725:B 5.23362e-05
13 *1956:B *515:10 0.000162325
14 *414:23 *515:8 8.73389e-06
15 *416:10 *1727:B 5.53249e-06
16 *416:12 *1727:B 9.16315e-05
17 *416:14 *1725:B 3.05295e-05
18 *416:14 *1727:B 7.53115e-05
19 *416:14 *515:10 9.87538e-05
20 *454:10 *1727:B 0.000296088
21 *454:10 *515:10 2.14129e-05
22 *471:12 *1726:B 0.000175179
*RES
1 *2010:X *515:8 4.395 
2 *515:8 *515:10 2.145 
3 *515:10 *1725:B 4.665 
4 *515:10 *1726:B 9.705 
5 *515:8 *1727:B 7.02 
*END

*D_NET *516 0.00472931
*CONN
*I *1732:B I *D sky130_fd_sc_hd__nor2_2
*I *1735:A2 I *D sky130_fd_sc_hd__o21ai_2
*I *1734:A2 I *D sky130_fd_sc_hd__a21boi_2
*I *1733:B I *D sky130_fd_sc_hd__and2_4
*I *2011:X O *D sky130_fd_sc_hd__clkdlybuf4s25_1
*CAP
1 *1732:B 0.000243497
2 *1735:A2 8.20233e-05
3 *1734:A2 0
4 *1733:B 0.000524794
5 *2011:X 0
6 *516:34 0.000542731
7 *516:12 0.000833515
8 *516:4 0.000525932
9 *1732:B *2056:A 0
10 *1735:A2 *2056:A 0
11 *1728:A_N *1733:B 0
12 *1728:C *1733:B 0
13 *1733:A *1733:B 0.000531687
14 *1734:A1 *1733:B 4.99619e-05
15 *1734:B1_N *1733:B 5.53249e-06
16 *1734:B1_N *516:12 0
17 *1736:A2 *1733:B 0
18 *1736:A2 *516:12 0.000183072
19 *1743:A *1732:B 6.15171e-05
20 *1743:A *516:12 9.4087e-05
21 *1743:A *516:34 8.88799e-05
22 *1750:C *1735:A2 1.16578e-05
23 *1752:B2 *1732:B 0.000285042
24 *1753:A *1732:B 1.27404e-05
25 *1761:A *1732:B 6.45236e-05
26 *2013:A *1732:B 0
27 *292:36 *1735:A2 0
28 *299:12 *1735:A2 4.82919e-05
29 *299:25 *1732:B 0
30 *309:14 *1732:B 7.23602e-05
31 *418:12 *516:12 0
32 *453:12 *1732:B 0.000351306
33 *453:12 *1735:A2 0.000116158
34 *459:10 *516:12 0
*RES
1 *2011:X *516:4 1.6 
2 *516:4 *516:12 8.905 
3 *516:12 *1733:B 15.95 
4 *516:12 *1734:A2 1.6 
5 *516:4 *516:34 4.52 
6 *516:34 *1735:A2 5.43 
7 *516:34 *1732:B 10.59 
*END

*D_NET *517 0.00481945
*CONN
*I *1740:B I *D sky130_fd_sc_hd__nor2_2
*I *1741:B I *D sky130_fd_sc_hd__or2_4
*I *1742:B I *D sky130_fd_sc_hd__and2_2
*I *1743:B I *D sky130_fd_sc_hd__nand2_2
*I *2012:X O *D sky130_fd_sc_hd__clkdlybuf4s25_1
*CAP
1 *1740:B 0.000184484
2 *1741:B 0.000382943
3 *1742:B 0.000116179
4 *1743:B 0.000355564
5 *2012:X 0.000662509
6 *517:35 0.000716354
7 *517:8 0.000985324
8 S[23] *1742:B 4.82919e-05
9 *1742:A *1740:B 8.98657e-05
10 *1742:A *1741:B 9.14049e-05
11 *1748:A *1741:B 0
12 *1748:B *1741:B 0
13 *1753:A *1741:B 0.000101564
14 *1761:C *1741:B 3.49733e-05
15 *1762:B2 *1740:B 5.39961e-05
16 *1762:B2 *1741:B 2.16389e-05
17 *1770:A *1740:B 0
18 *1770:A *1741:B 0
19 *1972:A *1742:B 0.0001199
20 *1972:A *1743:B 0.000271447
21 *2011:A *1743:B 0
22 *304:12 *1742:B 7.42335e-05
23 *304:12 *1743:B 5.21528e-05
24 *305:10 *1742:B 0
25 *305:10 *1743:B 0
26 *308:14 *1741:B 0.000124895
27 *310:10 *1741:B 0.000119285
28 *312:8 *1740:B 0
29 *421:10 *517:8 2.75145e-05
30 *422:79 *1741:B 0
31 *426:6 *1741:B 4.10476e-05
32 *453:38 *1740:B 2.97004e-06
33 *459:10 *1743:B 0.000140912
*RES
1 *2012:X *517:8 10.26 
2 *517:8 *1743:B 11.61 
3 *517:8 *1742:B 6.705 
4 *2012:X *517:35 3.085 
5 *517:35 *1741:B 13.985 
6 *517:35 *1740:B 9.05 
*END

*D_NET *518 0.00274587
*CONN
*I *1754:A_N I *D sky130_fd_sc_hd__nand2b_2
*I *1755:B I *D sky130_fd_sc_hd__nand2_2
*I *2013:X O *D sky130_fd_sc_hd__clkdlybuf4s25_1
*CAP
1 *1754:A_N 0.000354579
2 *1755:B 0
3 *2013:X 0.000632018
4 *518:10 0.000986597
5 *1737:B *518:10 8.52845e-05
6 *1749:B *518:10 0.000122801
7 *1754:B *1754:A_N 0.000212082
8 *316:12 *1754:A_N 7.12228e-06
9 *316:12 *518:10 2.7881e-05
10 *317:10 *1754:A_N 0.000317507
11 *415:14 *1754:A_N 0
12 *415:14 *518:10 0
13 *469:12 *518:10 0
*RES
1 *2013:X *518:10 13.44 
2 *518:10 *1755:B 3.6 
3 *518:10 *1754:A_N 10.755 
*END

*D_NET *519 0.00293433
*CONN
*I *1764:B I *D sky130_fd_sc_hd__and2_4
*I *1765:B I *D sky130_fd_sc_hd__nor2_2
*I *2014:X O *D sky130_fd_sc_hd__clkdlybuf4s25_1
*CAP
1 *1764:B 3.70031e-05
2 *1765:B 0.000205754
3 *2014:X 0.000349507
4 *519:10 0.000592264
5 *1765:B *1961:A 0.000217711
6 *519:10 *1961:A 0.000542317
7 *1743:A *1765:B 1.16578e-05
8 *1777:A *519:10 4.65515e-05
9 *1784:A_N *519:10 2.4997e-05
10 *325:10 *1765:B 0.000111505
11 *326:10 *519:10 1.26626e-05
12 *336:10 *519:10 2.75229e-05
13 *422:58 *519:10 0.000325667
14 *422:64 *1764:B 4.82919e-05
15 *422:64 *1765:B 3.09164e-05
16 *422:64 *519:10 0.000159957
17 *422:73 *1764:B 4.82863e-05
18 *422:79 *1765:B 0
19 *466:8 *1765:B 2.11084e-05
20 *513:14 *1764:B 0.000120655
*RES
1 *2014:X *519:10 12.945 
2 *519:10 *1765:B 8.925 
3 *519:10 *1764:B 4.74 
*END

*D_NET *520 0.0016657
*CONN
*I *1655:B1 I *D sky130_fd_sc_hd__a21oi_2
*I *1657:B I *D sky130_fd_sc_hd__nand3_4
*I *1656:B1_N I *D sky130_fd_sc_hd__o21bai_2
*I *2015:X O *D sky130_fd_sc_hd__clkdlybuf4s25_1
*CAP
1 *1655:B1 1.8905e-05
2 *1657:B 0
3 *1656:B1_N 0.000104523
4 *2015:X 0.000315288
5 *520:10 0.000400907
6 *1655:A1 *1655:B1 4.82863e-05
7 *1655:A1 *520:10 0.000291
8 *1656:A1 *1656:B1_N 0.000122331
9 *1658:B *1656:B1_N 6.83659e-05
10 *2015:A *1656:B1_N 7.48806e-05
11 *2015:A *520:10 7.34286e-05
12 *220:8 *1656:B1_N 0.000138277
13 *220:8 *520:10 9.50342e-06
*RES
1 *2015:X *520:10 8.445 
2 *520:10 *1656:B1_N 6.735 
3 *520:10 *1657:B 3.6 
4 *2015:X *1655:B1 3.65 
*END

*D_NET *521 0.0014978
*CONN
*I *1777:B I *D sky130_fd_sc_hd__nor2_2
*I *1778:B I *D sky130_fd_sc_hd__and2_2
*I *2016:X O *D sky130_fd_sc_hd__clkdlybuf4s25_1
*CAP
1 *1777:B 0.000208068
2 *1778:B 7.11658e-05
3 *2016:X 0.000222156
4 *521:10 0.00050139
5 *1777:B *1961:A 0
6 *521:10 *1961:A 0
7 *1779:B *1777:B 8.71079e-05
8 *1780:A1 *1777:B 4.24292e-06
9 *1780:A1 *521:10 2.97004e-06
10 *1885:A *1777:B 4.18603e-06
11 *2014:A *521:10 0
12 *336:10 *1777:B 6.7449e-05
13 *337:6 *1778:B 8.65961e-05
14 *339:10 *1778:B 4.35348e-05
15 *513:14 *521:10 0.000198934
*RES
1 *2016:X *521:10 6.81 
2 *521:10 *1778:B 5.085 
3 *521:10 *1777:B 7.785 
*END

*D_NET *522 0.00100151
*CONN
*I *1787:B I *D sky130_fd_sc_hd__nand2_2
*I *1788:B I *D sky130_fd_sc_hd__or2_2
*I *2017:X O *D sky130_fd_sc_hd__clkdlybuf4s25_1
*CAP
1 *1787:B 9.333e-05
2 *1788:B 0
3 *2017:X 0.000382865
4 *522:10 0.000476195
5 *1787:A *1787:B 4.91189e-05
6 *1796:B *1787:B 0
7 *1796:B *522:10 0
8 *2017:A *1787:B 0
9 *2017:A *522:10 0
*RES
1 *2017:X *522:10 9.105 
2 *522:10 *1788:B 3.6 
3 *522:10 *1787:B 5.49 
*END

*D_NET *523 0.000842534
*CONN
*I *1801:B I *D sky130_fd_sc_hd__xor2_2
*I *2018:X O *D sky130_fd_sc_hd__clkdlybuf4s25_1
*CAP
1 *1801:B 0.000353617
2 *2018:X 0.000353617
3 *1801:A *1801:B 4.40643e-05
4 *1805:A *1801:B 0
5 *2018:A *1801:B 8.8266e-05
6 *424:12 *1801:B 2.97004e-06
*RES
1 *2018:X *1801:B 10.19 
*END

*D_NET *524 0.000490225
*CONN
*I *1814:B I *D sky130_fd_sc_hd__xnor2_2
*I *2019:X O *D sky130_fd_sc_hd__clkdlybuf4s25_1
*CAP
1 *1814:B 0.000162969
2 *2019:X 0.000162969
3 *1983:A *1814:B 0
4 *2019:A *1814:B 0.000164287
5 *358:8 *1814:B 0
6 *487:10 *1814:B 0
*RES
1 *2019:X *1814:B 10.62 
*END

*D_NET *525 0.00335832
*CONN
*I *1819:B I *D sky130_fd_sc_hd__xnor2_2
*I *2020:X O *D sky130_fd_sc_hd__clkdlybuf4s25_1
*CAP
1 *1819:B 0.000953813
2 *2020:X 0.000953813
3 *1819:B *2053:A 0.000111308
4 *1819:B *537:36 0.000584544
5 *1815:A *1819:B 4.82863e-05
6 *1819:A *1819:B 0.000149228
7 *1886:A *1819:B 0.000181075
8 *1984:A *1819:B 0
9 *2018:A *1819:B 9.37731e-05
10 *370:25 *1819:B 0.000120655
11 *423:23 *1819:B 0.000161829
*RES
1 *2020:X *1819:B 27.805 
*END

*D_NET *526 0.00299327
*CONN
*I *1631:B I *D sky130_fd_sc_hd__or2_4
*I *1633:B I *D sky130_fd_sc_hd__nand2_2
*I *1630:B I *D sky130_fd_sc_hd__nor2_4
*I *1632:B I *D sky130_fd_sc_hd__and2_4
*I *2021:X O *D sky130_fd_sc_hd__clkdlybuf4s25_1
*CAP
1 *1631:B 0.000173026
2 *1633:B 0.000190256
3 *1630:B 0.000124417
4 *1632:B 0.000161696
5 *2021:X 9.20206e-05
6 *526:31 0.000455303
7 *526:4 0.000286113
8 *1613:A_N *1630:B 1.52184e-05
9 *1620:A1 *1633:B 4.18603e-06
10 *1630:A *1630:B 0.000294428
11 *1632:A *1632:B 0.000381366
12 *1632:A *526:31 1.83756e-05
13 *1636:A1 *1630:B 6.23541e-06
14 *1636:A1 *1632:B 0.000307547
15 *1844:A *1633:B 0.000115847
16 *1997:A *1630:B 0
17 *201:10 *1633:B 0
18 *420:34 *1631:B 0.000164454
19 *420:34 *526:31 3.45679e-05
20 *437:10 *1630:B 6.36656e-05
21 *502:12 *1630:B 9.37731e-05
22 *502:12 *1633:B 0
23 *514:12 *1630:B 1.07797e-05
*RES
1 *2021:X *526:4 1.6 
2 *526:4 *1632:B 6.115 
3 *526:4 *1630:B 9.275 
4 *2021:X *526:31 2.74 
5 *526:31 *1633:B 9.275 
6 *526:31 *1631:B 4.135 
*END

*D_NET *527 0.00460326
*CONN
*I *1827:B I *D sky130_fd_sc_hd__nand2_2
*I *1826:B I *D sky130_fd_sc_hd__or2_2
*I *2022:X O *D sky130_fd_sc_hd__clkdlybuf4s25_1
*CAP
1 *1827:B 0.000196669
2 *1826:B 0.000311356
3 *2022:X 0.000788438
4 *527:10 0.00129646
5 *1826:B *2051:A 8.9857e-05
6 *527:10 *1970:A 0.0001249
7 *527:10 *2051:A 4.11198e-05
8 *527:10 *553:10 0
9 S[17] *527:10 0
10 S[30] *527:10 0
11 *1671:A *1826:B 8.65961e-05
12 *1831:A1 *1826:B 2.16389e-05
13 *1831:A1 *1827:B 0.000193324
14 *1832:A2 *1826:B 0.000143266
15 *1833:A2 *1826:B 7.1301e-06
16 *1836:A *1826:B 0.000214281
17 *2003:A *527:10 0.000115146
18 *2022:A *527:10 0.000131806
19 *377:10 *1826:B 0.00011741
20 *381:6 *1827:B 3.00381e-05
21 *381:14 *1827:B 1.97045e-05
22 *385:10 *1826:B 0.000150446
23 *434:85 *1826:B 0.000198939
24 *435:10 *527:10 0.000201503
25 *508:10 *527:10 0.000123225
*RES
1 *2022:X *527:10 17.565 
2 *527:10 *1826:B 13.11 
3 *527:10 *1827:B 6.84 
*END

*D_NET *528 0.00099888
*CONN
*I *1837:B I *D sky130_fd_sc_hd__xnor2_2
*I *2023:X O *D sky130_fd_sc_hd__clkdlybuf4s25_1
*CAP
1 *1837:B 0.00046407
2 *2023:X 0.00046407
3 *1837:B *2075:A 5.63405e-05
4 carryOut *1837:B 1.4399e-05
*RES
1 *2023:X *1837:B 13.08 
*END

*D_NET *529 0.00490583
*CONN
*I *1625:B I *D sky130_fd_sc_hd__and2_2
*I *1627:A2 I *D sky130_fd_sc_hd__o21ai_2
*I *1623:A_N I *D sky130_fd_sc_hd__nand2b_2
*I *1624:B I *D sky130_fd_sc_hd__nand2b_4
*I *2024:X O *D sky130_fd_sc_hd__clkdlybuf4s25_1
*CAP
1 *1625:B 7.71936e-05
2 *1627:A2 0.000327659
3 *1623:A_N 0.000525914
4 *1624:B 1.85694e-05
5 *2024:X 0.000180322
6 *529:32 0.000483717
7 *529:19 0.00071754
8 *529:6 0.000311653
9 *1625:B *535:10 7.26551e-05
10 *529:32 *535:10 1.26626e-05
11 S[2] *529:6 2.75145e-05
12 *1628:A *1623:A_N 5.30673e-05
13 *1628:B *1623:A_N 7.47457e-05
14 *1643:A2 *1627:A2 3.63661e-05
15 *1643:A3 *1627:A2 0.000120655
16 *1643:B2 *1627:A2 5.83121e-06
17 *1644:B1 *1627:A2 0.000278111
18 *1995:A *1623:A_N 0.000162005
19 *2024:A *1624:B 9.53428e-06
20 *2024:A *529:6 2.11084e-05
21 *2024:A *529:19 2.8185e-05
22 *2030:A *529:19 0.000298449
23 *2030:A *529:32 0.000236381
24 *196:6 *1623:A_N 7.92464e-06
25 *202:45 *1627:A2 0.000118081
26 *431:24 *1625:B 0.000137571
27 *431:24 *529:19 0.000296775
28 *431:24 *529:32 0.000265637
*RES
1 *2024:X *529:6 4.465 
2 *529:6 *1624:B 1.96 
3 *529:6 *529:19 6.215 
4 *529:19 *1623:A_N 10.185 
5 *529:19 *529:32 3.165 
6 *529:32 *1627:A2 9.585 
7 *529:32 *1625:B 5.685 
*END

*D_NET *530 0.00293572
*CONN
*I *1947:A2 I *D sky130_fd_sc_hd__a21oi_4
*I *1945:A_N I *D sky130_fd_sc_hd__nand2b_2
*I *1946:A2 I *D sky130_fd_sc_hd__o21ai_4
*I *1953:A2 I *D sky130_fd_sc_hd__a21oi_2
*I *2025:X O *D sky130_fd_sc_hd__clkdlybuf4s25_1
*CAP
1 *1947:A2 0
2 *1945:A_N 0.000253466
3 *1946:A2 0
4 *1953:A2 0
5 *2025:X 0.000318575
6 *530:25 0.000459802
7 *530:14 0.000345631
8 *530:6 0.000457869
9 S[4] *530:6 9.66106e-05
10 S[8] *530:14 0
11 *1945:B *1945:A_N 8.65961e-05
12 *1947:A1 *530:6 3.83041e-05
13 *1947:A1 *530:14 4.82919e-05
14 *1947:B1 *530:25 0
15 *1953:A1 *1945:A_N 0
16 *1953:A1 *530:25 8.40269e-05
17 *1953:B1 *1945:A_N 9.50342e-06
18 *1953:B1 *530:25 0.000163992
19 *1954:A1 *530:25 5.83121e-06
20 *1954:A2 *1945:A_N 0
21 *2025:A *530:6 0.000161837
22 *169:10 *530:6 0.00023635
23 *431:30 *530:14 4.60584e-05
24 *431:38 *1945:A_N 0
25 *431:38 *530:14 0.000122978
26 *431:38 *530:25 0
27 *431:49 *1945:A_N 0
28 *494:10 *530:14 0
*RES
1 *2025:X *530:6 8.605 
2 *530:6 *530:14 7.03 
3 *530:14 *1953:A2 1.6 
4 *530:14 *530:25 5.975 
5 *530:25 *1946:A2 3.6 
6 *530:25 *1945:A_N 7.83 
7 *530:6 *1947:A2 1.6 
*END

*D_NET *531 0.00124641
*CONN
*I *1669:B1_N I *D sky130_fd_sc_hd__o21bai_2
*I *1668:B I *D sky130_fd_sc_hd__nand3b_2
*I *2026:X O *D sky130_fd_sc_hd__clkdlybuf4s25_1
*CAP
1 *1669:B1_N 0
2 *1668:B 9.69523e-05
3 *2026:X 0.000499122
4 *531:12 0.000596075
5 *1665:B *531:12 0
6 *1668:C *1668:B 0
7 *432:27 *1668:B 5.42646e-05
8 *432:27 *531:12 0
9 *493:10 *531:12 0
10 *493:16 *531:12 0
*RES
1 *2026:X *531:12 13.565 
2 *531:12 *1668:B 7.49 
3 *531:12 *1669:B1_N 1.6 
*END

*D_NET *532 0.00472384
*CONN
*I *1935:B I *D sky130_fd_sc_hd__nand2b_4
*I *1938:A2 I *D sky130_fd_sc_hd__a21oi_2
*I *1934:A_N I *D sky130_fd_sc_hd__nand2b_2
*I *1936:B I *D sky130_fd_sc_hd__and2_2
*I *1937:A1 I *D sky130_fd_sc_hd__o21ai_4
*I *2027:X O *D sky130_fd_sc_hd__clkdlybuf4s25_1
*CAP
1 *1935:B 0.000298695
2 *1938:A2 9.36876e-05
3 *1934:A_N 0
4 *1936:B 0.000269363
5 *1937:A1 0.00043237
6 *2027:X 0
7 *532:36 0.000114361
8 *532:21 0.000534707
9 *532:15 0.00058789
10 *532:4 0.000476895
11 *1936:B *2070:A 4.7771e-05
12 S[5] *1936:B 0
13 *1937:A2 *1937:A1 5.33172e-05
14 *1937:B1 *1937:A1 3.87112e-05
15 *1938:A1 *1938:A2 8.65961e-05
16 *1942:A_N *1935:B 5.06152e-05
17 *1943:B *1935:B 5.07419e-05
18 *1943:C *1935:B 0.000141599
19 *1944:B1 *1937:A1 8.40269e-05
20 *1991:A *532:21 0.000199734
21 *2095:A *1936:B 0
22 *158:10 *1936:B 0.00015847
23 *158:10 *532:21 9.1354e-05
24 *165:6 *1935:B 0.0001249
25 *165:6 *1937:A1 0.000225586
26 *165:6 *532:15 8.23457e-05
27 *177:14 *1936:B 0
28 *399:28 *1936:B 6.52265e-05
29 *428:18 *1936:B 1.01661e-05
30 *428:24 *1936:B 6.6083e-05
31 *428:24 *1938:A2 0.000114912
32 *428:24 *532:21 2.92496e-05
33 *428:24 *532:36 3.74161e-05
34 *428:31 *1938:A2 4.82863e-05
35 *428:35 *532:21 0
36 *496:29 *1935:B 0.000108761
*RES
1 *2027:X *532:4 1.6 
2 *532:4 *1937:A1 8.62 
3 *532:4 *532:15 0.795 
4 *532:15 *532:21 8.695 
5 *532:21 *1936:B 11.27 
6 *532:21 *532:36 0.45 
7 *532:36 *1934:A_N 1.6 
8 *532:36 *1938:A2 3.775 
9 *532:15 *1935:B 11.735 
*END

*D_NET *533 0.00470702
*CONN
*I *1930:B I *D sky130_fd_sc_hd__nand2b_4
*I *1933:A2 I *D sky130_fd_sc_hd__a21oi_2
*I *1932:A2 I *D sky130_fd_sc_hd__o21ai_2
*I *1929:A_N I *D sky130_fd_sc_hd__nand2b_2
*I *1928:B I *D sky130_fd_sc_hd__and2_2
*I *2028:X O *D sky130_fd_sc_hd__clkdlybuf4s25_1
*CAP
1 *1930:B 0.000415058
2 *1933:A2 3.55506e-05
3 *1932:A2 0
4 *1929:A_N 4.53157e-05
5 *1928:B 0
6 *2028:X 0
7 *533:37 0.000354974
8 *533:18 0.00045488
9 *533:12 0.000620637
10 *533:4 0.000854922
11 *533:37 *1924:A2 0.000273878
12 *1892:A1 *1930:B 0
13 *1892:B1 *1930:B 0
14 *1893:B *1930:B 5.92269e-05
15 *1894:B1 *1930:B 5.4003e-05
16 *1924:B1 *533:37 2.88234e-05
17 *1925:B1 *533:37 0.000104446
18 *1929:B *1929:A_N 8.40269e-05
19 *1931:A_N *1930:B 0
20 *1931:B *1930:B 1.94636e-05
21 *1931:C *1929:A_N 9.2741e-05
22 *1931:C *533:37 7.67415e-06
23 *1932:A1 *533:37 0
24 *1933:A1 *533:12 2.66586e-05
25 *1933:A1 *533:18 1.4399e-05
26 *1939:B2 *533:12 0.000118294
27 *1949:A2 *533:12 0.00011852
28 *1952:B1 *533:18 2.75538e-05
29 *1952:B1 *533:37 8.08153e-06
30 *1992:A *1930:B 0
31 *2028:A *533:12 0
32 *2029:A *533:12 3.12319e-05
33 *102:10 *1929:A_N 2.05056e-05
34 *147:8 *533:37 3.39151e-05
35 *150:10 *533:18 7.23533e-05
36 *153:10 *1930:B 0
37 *154:10 *1930:B 0
38 *154:10 *533:12 0
39 *154:10 *533:37 0.000198939
40 *154:36 *533:12 5.05521e-05
41 *428:8 *533:18 1.34361e-05
42 *428:8 *533:37 9.42224e-05
43 *428:12 *533:18 6.28843e-05
44 *428:18 *533:18 2.77183e-05
45 *429:38 *533:37 0
46 *461:10 *1930:B 3.45679e-05
47 *461:10 *533:12 0.000107634
48 *461:12 *533:12 0.000139933
49 *499:10 *533:37 0
*RES
1 *2028:X *533:4 1.6 
2 *533:4 *533:12 11.575 
3 *533:12 *533:18 4.775 
4 *533:18 *1928:B 3.6 
5 *533:18 *533:37 9.71 
6 *533:37 *1929:A_N 3.085 
7 *533:37 *1932:A2 1.6 
8 *533:12 *1933:A2 2.215 
9 *533:4 *1930:B 12.965 
*END

*D_NET *534 0.003629
*CONN
*I *1925:A2 I *D sky130_fd_sc_hd__a21oi_2
*I *1924:A2 I *D sky130_fd_sc_hd__o21ai_2
*I *1923:B I *D sky130_fd_sc_hd__nand2_2
*I *1880:A I *D sky130_fd_sc_hd__inv_2
*I *2029:X O *D sky130_fd_sc_hd__clkdlybuf4s25_1
*CAP
1 *1925:A2 2.32221e-05
2 *1924:A2 0.000230578
3 *1923:B 0.000100971
4 *1880:A 0.000262347
5 *2029:X 0.000280733
6 *534:25 0.00033155
7 *534:8 0.000320287
8 *534:6 0.000361896
9 *1902:A1 *1880:A 0.000226828
10 *1924:B1 *1924:A2 8.65961e-05
11 *1925:A1 *1880:A 9.02259e-05
12 *1925:A1 *1925:A2 5.4155e-06
13 *1925:A1 *534:6 4.92062e-05
14 *1925:A1 *534:8 7.35813e-05
15 *1926:B1 *1924:A2 1.17114e-05
16 *1927:A1 *1880:A 3.05373e-05
17 *1927:A2 *1923:B 7.09921e-05
18 *1927:A2 *1924:A2 1.26626e-05
19 *1929:B *1880:A 8.40213e-05
20 *1931:C *1880:A 2.49909e-05
21 *1931:C *1924:A2 2.47173e-05
22 *1932:A1 *1924:A2 4.99619e-05
23 *1932:B1 *1924:A2 0.000160035
24 *1952:B1 *1923:B 0
25 *102:10 *1880:A 6.52265e-05
26 *102:10 *1924:A2 8.97564e-05
27 *147:8 *1923:B 0
28 *148:10 *1880:A 0.000120655
29 *154:10 *1924:A2 4.01778e-05
30 *217:16 *1880:A 7.06865e-05
31 *427:8 *1880:A 5.55538e-05
32 *499:10 *1923:B 0
33 *533:37 *1924:A2 0.000273878
*RES
1 *2029:X *534:6 5.5 
2 *534:6 *534:8 1.14 
3 *534:8 *1880:A 12.26 
4 *534:8 *534:25 2 
5 *534:25 *1923:B 5.235 
6 *534:25 *1924:A2 10.02 
7 *534:6 *1925:A2 1.96 
*END

*D_NET *535 0.00380452
*CONN
*I *1914:A2 I *D sky130_fd_sc_hd__a21oi_4
*I *1912:A_N I *D sky130_fd_sc_hd__nand2b_2
*I *1918:A2 I *D sky130_fd_sc_hd__a21oi_2
*I *1913:A2 I *D sky130_fd_sc_hd__o21ai_4
*I *2030:X O *D sky130_fd_sc_hd__clkdlybuf4s25_1
*CAP
1 *1914:A2 0.000216574
2 *1912:A_N 6.05382e-05
3 *1918:A2 8.54954e-05
4 *1913:A2 0.000206481
5 *2030:X 0.000326596
6 *535:34 0.000388845
7 *535:23 0.000304282
8 *535:10 0.000640131
9 *1625:B *535:10 7.26551e-05
10 *1643:B2 *535:10 0.00023468
11 *1850:A *535:10 0
12 *1850:B *535:10 4.19967e-05
13 *1911:B1 *535:34 0
14 *1914:A1 *1914:A2 3.09179e-05
15 *1914:B1 *1914:A2 0.000101317
16 *1914:B1 *535:23 9.24049e-05
17 *1914:B1 *535:34 0.000103974
18 *2030:A *535:10 8.53113e-06
19 *104:38 *535:10 0
20 *133:10 *1914:A2 0
21 *136:6 *1914:A2 0.000160635
22 *136:28 *1914:A2 8.65961e-05
23 *142:14 *1914:A2 0.000120655
24 *202:45 *535:10 0.000132415
25 *413:24 *1914:A2 0.000109386
26 *431:18 *1913:A2 0.00011577
27 *431:18 *535:10 0.000132723
28 *431:18 *535:23 1.82563e-05
29 *501:26 *535:34 0
30 *501:32 *1914:A2 0
31 *501:32 *535:34 0
32 *529:32 *535:10 1.26626e-05
*RES
1 *2030:X *535:10 11.49 
2 *535:10 *1913:A2 6.825 
3 *535:10 *535:23 2.4 
4 *535:23 *1918:A2 4.74 
5 *535:23 *535:34 2.145 
6 *535:34 *1912:A_N 4.395 
7 *535:34 *1914:A2 9.3 
*END

*D_NET *536 0.00750811
*CONN
*I *1906:A I *D sky130_fd_sc_hd__nor2b_4
*I *1907:A_N I *D sky130_fd_sc_hd__nand2b_2
*I *1911:A2 I *D sky130_fd_sc_hd__a21oi_2
*I *1908:B_N I *D sky130_fd_sc_hd__nor2b_2
*I *1909:A2 I *D sky130_fd_sc_hd__a21oi_2
*I *1910:A2 I *D sky130_fd_sc_hd__o21ai_2
*I *2031:X O *D sky130_fd_sc_hd__clkdlybuf4s25_1
*CAP
1 *1906:A 0.000135449
2 *1907:A_N 7.22572e-05
3 *1911:A2 0
4 *1908:B_N 0
5 *1909:A2 0.000180714
6 *1910:A2 0.000213116
7 *2031:X 0.000611418
8 *536:72 0.000416993
9 *536:47 0.000439611
10 *536:37 0.000318331
11 *536:33 0.000378825
12 *536:18 0.000934639
13 *1637:A *536:18 4.82863e-05
14 *1638:A1 *536:18 4.66108e-05
15 *1638:D1 *536:18 6.39355e-05
16 *1639:A *536:18 5.30673e-05
17 *1847:A1 *536:33 0
18 *1847:A2 *1910:A2 8.65961e-05
19 *1847:A2 *536:33 1.07797e-05
20 *1848:A *536:18 0.000886918
21 *1849:A2 *536:18 0.000207967
22 *1909:B1 *1907:A_N 2.49909e-05
23 *1909:B1 *1909:A2 9.22715e-05
24 *1910:A1 *1910:A2 9.46416e-05
25 *1911:A1 *536:47 0.000225175
26 *1911:B1 *536:37 4.82863e-05
27 *1915:A1 *1906:A 0.000154488
28 *1915:A2 *1906:A 5.05437e-05
29 *1915:A3 *1907:A_N 3.96653e-05
30 *1920:A1 *1909:A2 4.82863e-05
31 *1920:A1 *536:47 6.10014e-05
32 *1920:A2 *1907:A_N 8.40269e-05
33 *1920:A2 *536:72 8.25609e-05
34 *2031:A *536:18 0.000280226
35 *133:10 *536:37 8.65905e-05
36 *202:12 *536:18 0.00011398
37 *203:16 *536:18 7.40446e-05
38 *204:10 *536:18 0.000152581
39 *413:12 *536:47 0
40 *413:24 *536:47 0
41 *420:8 *1906:A 0
42 *420:8 *536:47 4.19797e-05
43 *420:8 *536:72 0
44 *420:12 *536:33 5.51158e-05
45 *420:12 *536:72 0
46 *469:22 *1909:A2 1.60203e-05
47 *469:22 *536:47 4.82863e-05
48 *501:26 *536:33 0
49 *501:32 *1906:A 5.23362e-05
50 *501:32 *1910:A2 7.40432e-05
51 *501:32 *536:33 6.86563e-05
52 *501:32 *536:72 0.000332795
*RES
1 *2031:X *536:18 21.15 
2 *536:18 *1910:A2 7.875 
3 *536:18 *536:33 2.655 
4 *536:33 *536:37 3.3125 
5 *536:37 *536:47 9.3475 
6 *536:47 *1909:A2 4.84 
7 *536:47 *1908:B_N 1.6 
8 *536:37 *1911:A2 1.6 
9 *536:33 *536:72 4.725 
10 *536:72 *1907:A_N 5.085 
11 *536:72 *1906:A 6.795 
*END

*D_NET *537 0.013543
*CONN
*I *1970:A I *D sky130_fd_sc_hd__buf_8
*I *1963:A I *D sky130_fd_sc_hd__dlymetal6s2s_1
*I *1962:A I *D sky130_fd_sc_hd__clkbuf_2
*I *1961:A I *D sky130_fd_sc_hd__buf_8
*I *2032:X O *D sky130_fd_sc_hd__buf_8
*CAP
1 *1970:A 0.000759668
2 *1963:A 0
3 *1962:A 0
4 *1961:A 0.00129596
5 *2032:X 0.00013266
6 *537:36 0.00172275
7 *537:12 0.0014075
8 *537:8 0.00120729
9 *1961:A *2059:A 0
10 *1970:A *2052:A 4.82863e-05
11 *1970:A *2053:A 8.65961e-05
12 *1970:A *2064:A 4.66108e-05
13 *1970:A *553:10 0.000809242
14 *537:36 *2062:A 2.75145e-05
15 S[18] *1970:A 3.86988e-05
16 S[19] *1970:A 0.00022257
17 S[27] *537:36 0.000184364
18 S[29] *1970:A 0.000158521
19 *1743:A *1961:A 0
20 *1746:B1 *1961:A 0.000229897
21 *1748:A *1961:A 0
22 *1765:B *1961:A 0.000217711
23 *1777:B *1961:A 0
24 *1784:A_N *1961:A 5.0053e-05
25 *1786:B1 *1961:A 0.00016163
26 *1787:A *537:12 0
27 *1789:A *537:8 9.52646e-05
28 *1789:B *1961:A 3.09233e-05
29 *1789:B *537:12 0.000309729
30 *1793:B *537:12 7.63204e-05
31 *1795:A2 *1961:A 0.000100544
32 *1795:B1 *1961:A 4.21314e-05
33 *1796:A *1961:A 0.000131837
34 *1796:B *1961:A 5.53249e-06
35 *1796:B *537:12 6.81237e-05
36 *1797:B *1961:A 0.000139238
37 *1819:B *537:36 0.000584544
38 *1885:A *1961:A 0.000139238
39 *1981:A *537:36 5.2397e-05
40 *1985:A *1970:A 0.000180373
41 *2005:A *1970:A 4.99619e-05
42 *2007:A *1961:A 3.2874e-05
43 *2012:A *1961:A 9.50342e-06
44 *2020:A *1970:A 0.000321953
45 *2020:A *537:36 0.00028778
46 *2022:A *1970:A 4.9253e-06
47 *2034:A *1970:A 0.000279787
48 *342:12 *1961:A 0.000512325
49 *466:10 *1961:A 0.000158297
50 *466:16 *1961:A 0.000338905
51 *490:14 *1970:A 0.000115762
52 *519:10 *1961:A 0.000542317
53 *521:10 *1961:A 0
54 *527:10 *1970:A 0.0001249
*RES
1 *2032:X *537:8 3.79 
2 *537:8 *537:12 5.675 
3 *537:12 *1961:A 35.115 
4 *537:12 *1962:A 3.6 
5 *537:8 *537:36 18.06 
6 *537:36 *1963:A 1.6 
7 *537:36 *1970:A 22.765 
*END

*D_NET *538 0.00135072
*CONN
*I *2043:A I *D sky130_fd_sc_hd__buf_6
*I *1844:Y O *D sky130_fd_sc_hd__nor2_4
*CAP
1 *2043:A 0.000589751
2 *1844:Y 0.000589751
3 S[0] *2043:A 0
4 *1637:B *2043:A 0
5 *1639:A *2043:A 0
6 *1844:B *2043:A 7.32882e-05
7 *2112:A *2043:A 6.5525e-05
8 *181:20 *2043:A 0
9 *208:10 *2043:A 3.24055e-05
*RES
1 *1844:Y *2043:A 15.885 
*END

*D_NET *539 0.003534
*CONN
*I *2044:A I *D sky130_fd_sc_hd__buf_6
*I *1866:Y O *D sky130_fd_sc_hd__xnor2_2
*CAP
1 *2044:A 0.000652844
2 *1866:Y 0.000652844
3 *1866:A *2044:A 1.08758e-05
4 *1895:A *2044:A 4.99619e-05
5 *1895:B *2044:A 0.000119756
6 *1900:A1 *2044:A 4.99619e-05
7 *1901:B *2044:A 0.000237301
8 *1904:A2 *2044:A 0.000137462
9 *1904:B1 *2044:A 2.75229e-05
10 *1916:B2 *2044:A 0.000844971
11 *122:28 *2044:A 0.000107424
12 *126:10 *2044:A 0.000536874
13 *486:10 *2044:A 0.000106205
*RES
1 *1866:Y *2044:A 21.275 
*END

*D_NET *540 0.00216014
*CONN
*I *2045:A I *D sky130_fd_sc_hd__clkbuf_4
*I *1868:X O *D sky130_fd_sc_hd__xor2_2
*CAP
1 *2045:A 0.000621735
2 *1868:X 0.000621735
3 *1905:A1 *2045:A 0.000234685
4 *1905:C1 *2045:A 8.65961e-05
5 *1905:D1 *2045:A 0.000118332
6 *1916:A2_N *2045:A 7.66083e-05
7 *1916:B2 *2045:A 0.000160635
8 *1917:A2 *2045:A 0.000239813
*RES
1 *1868:X *2045:A 14.345 
*END

*D_NET *541 0.00163252
*CONN
*I *2046:A I *D sky130_fd_sc_hd__buf_6
*I *1870:Y O *D sky130_fd_sc_hd__xnor2_2
*CAP
1 *2046:A 0.00048721
2 *1870:Y 0.00048721
3 *2046:A *2047:A 0.000237243
4 *2046:A *564:14 0.000285978
5 *1872:B *2046:A 8.65961e-05
6 *217:16 *2046:A 4.82863e-05
*RES
1 *1870:Y *2046:A 12.29 
*END

*D_NET *542 0.00545237
*CONN
*I *1674:B1 I *D sky130_fd_sc_hd__a21oi_2
*I *1673:B I *D sky130_fd_sc_hd__nand3_4
*I *1675:B1 I *D sky130_fd_sc_hd__a21o_2
*I *2033:X O *D sky130_fd_sc_hd__clkdlybuf4s25_1
*CAP
1 *1674:B1 2.90828e-05
2 *1673:B 6.7934e-05
3 *1675:B1 0.000269404
4 *2033:X 0.00114943
5 *542:27 0.000125953
6 *542:12 0.00144777
7 *542:12 *2075:A 7.18817e-05
8 *1673:A *1673:B 0.000232015
9 *1673:A *1675:B1 8.34281e-06
10 *1673:C *1673:B 0.000207797
11 *1675:A1 *1675:B1 4.66108e-05
12 *1680:A2 *542:12 4.9253e-06
13 *1680:B1_N *542:12 9.92913e-05
14 *1684:A1 *1674:B1 4.99619e-05
15 *1684:A1 *542:12 0.000394699
16 *1684:B1 *542:12 4.16262e-05
17 *1840:B2 *542:12 0
18 *1968:A *542:12 0.000831826
19 *236:6 *542:12 7.68414e-06
20 *239:10 *1675:B1 2.92496e-05
21 *239:21 *1675:B1 0.000234685
22 *239:21 *542:27 1.85674e-05
23 *248:12 *542:12 7.43306e-05
24 *434:91 *1675:B1 0
25 *435:22 *1675:B1 9.29751e-06
*RES
1 *2033:X *542:12 26.09 
2 *542:12 *1675:B1 9.425 
3 *542:12 *542:27 0.615 
4 *542:27 *1673:B 8.45 
5 *542:27 *1674:B1 2.395 
*END

*D_NET *543 0.00115643
*CONN
*I *2047:A I *D sky130_fd_sc_hd__clkbuf_4
*I *1872:Y O *D sky130_fd_sc_hd__xnor2_2
*CAP
1 *2047:A 0.000459595
2 *1872:Y 0.000459595
3 *2046:A *2047:A 0.000237243
*RES
1 *1872:Y *2047:A 8.84 
*END

*D_NET *544 0.000241034
*CONN
*I *2048:A I *D sky130_fd_sc_hd__buf_6
*I *1874:Y O *D sky130_fd_sc_hd__xnor2_2
*CAP
1 *2048:A 0.000120517
2 *1874:Y 0.000120517
3 *433:12 *2048:A 0
*RES
1 *1874:Y *2048:A 9.03 
*END

*D_NET *545 0.00138203
*CONN
*I *2049:A I *D sky130_fd_sc_hd__buf_6
*I *1876:Y O *D sky130_fd_sc_hd__xnor2_2
*CAP
1 *2049:A 0.000428403
2 *1876:Y 0.000428403
3 *1655:A1 *2049:A 0.000475258
4 *223:10 *2049:A 4.99619e-05
*RES
1 *1876:Y *2049:A 10.565 
*END

*D_NET *546 0.00112605
*CONN
*I *2050:A I *D sky130_fd_sc_hd__buf_6
*I *1691:Y O *D sky130_fd_sc_hd__xnor2_2
*CAP
1 *2050:A 0.000369116
2 *1691:Y 0.000369116
3 *2050:A *2063:A 0
4 *1820:B *2050:A 0.000166346
5 *1823:B *2050:A 0
6 *1823:C *2050:A 0.000221468
7 *434:32 *2050:A 0
8 *510:10 *2050:A 0
9 *510:14 *2050:A 0
*RES
1 *1691:Y *2050:A 15.21 
*END

*D_NET *547 0.00195817
*CONN
*I *2051:A I *D sky130_fd_sc_hd__buf_6
*I *1700:Y O *D sky130_fd_sc_hd__xnor2_2
*CAP
1 *2051:A 0.000677281
2 *1700:Y 0.000677281
3 *2051:A *1689:B1_N 0
4 *2051:A *2052:A 0
5 *2051:A *553:10 0
6 *1826:B *2051:A 8.9857e-05
7 *1836:A *2051:A 0.000386045
8 *252:12 *2051:A 8.65905e-05
9 *257:8 *2051:A 0
10 *377:10 *2051:A 0
11 *379:16 *2051:A 0
12 *527:10 *2051:A 4.11198e-05
*RES
1 *1700:Y *2051:A 20.085 
*END

*D_NET *548 0.00383653
*CONN
*I *2052:A I *D sky130_fd_sc_hd__clkbuf_4
*I *1710:X O *D sky130_fd_sc_hd__xor2_2
*CAP
1 *2052:A 0.000993367
2 *1710:X 0.000993367
3 *2052:A *1689:B1_N 3.06212e-05
4 *2052:A *553:10 0.000100308
5 S[18] *2052:A 2.75145e-05
6 *1688:A_N *2052:A 0.000136884
7 *1698:A *2052:A 9.54399e-05
8 *1698:B *2052:A 0.000117832
9 *1700:A *2052:A 0.000169591
10 *1707:A *2052:A 9.27495e-05
11 *1820:A *2052:A 0
12 *1822:A *2052:A 0
13 *1970:A *2052:A 4.82863e-05
14 *2005:A *2052:A 2.97004e-06
15 *2051:A *2052:A 0
16 *109:21 *2052:A 0
17 *256:10 *2052:A 0
18 *256:12 *2052:A 0
19 *257:8 *2052:A 0.000219536
20 *434:10 *2052:A 0.000133763
21 *434:12 *2052:A 0.000580523
22 *434:18 *2052:A 9.37731e-05
23 *510:10 *2052:A 0
*RES
1 *1710:X *2052:A 30.525 
*END

*D_NET *549 0.00314812
*CONN
*I *2053:A I *D sky130_fd_sc_hd__buf_6
*I *1721:Y O *D sky130_fd_sc_hd__xnor2_2
*CAP
1 *2053:A 0.000849526
2 *1721:Y 0.000849526
3 S[19] *2053:A 8.65961e-05
4 *1718:A *2053:A 0.000138188
5 *1724:A2 *2053:A 7.4027e-05
6 *1812:A1 *2053:A 0.000156842
7 *1812:B1 *2053:A 0
8 *1813:A1 *2053:A 9.79303e-05
9 *1813:A2 *2053:A 0
10 *1815:B *2053:A 0.000116151
11 *1816:A *2053:A 0
12 *1818:B2 *2053:A 0
13 *1819:B *2053:A 0.000111308
14 *1886:A *2053:A 5.12017e-06
15 *1970:A *2053:A 8.65961e-05
16 *1984:A *2053:A 0
17 *2019:A *2053:A 0.000248298
18 *2103:A *2053:A 0
19 *252:20 *2053:A 0.000208491
20 *368:10 *2053:A 0
21 *489:10 *2053:A 0.000119521
*RES
1 *1721:Y *2053:A 27.99 
*END

*D_NET *550 0.00062738
*CONN
*I *2054:A I *D sky130_fd_sc_hd__buf_6
*I *1846:Y O *D sky130_fd_sc_hd__xnor2_2
*CAP
1 *2054:A 0.000201013
2 *1846:Y 0.000201013
3 *1728:C *2054:A 0
4 *1729:A1 *2054:A 5.00786e-05
5 *1845:A1 *2054:A 5.20968e-05
6 *1846:A *2054:A 0
7 *2010:A *2054:A 5.53249e-06
8 *414:10 *2054:A 1.71013e-05
9 *471:12 *2054:A 0.000100544
*RES
1 *1846:Y *2054:A 11.13 
*END

*D_NET *551 0.00087571
*CONN
*I *2055:A I *D sky130_fd_sc_hd__buf_6
*I *1731:Y O *D sky130_fd_sc_hd__xnor2_2
*CAP
1 *2055:A 0.000354174
2 *1731:Y 0.000354174
3 *1730:B *2055:A 4.70919e-05
4 *1731:B *2055:A 2.49909e-05
5 *1735:B1 *2055:A 5.16418e-05
6 *292:36 *2055:A 0
7 *416:10 *2055:A 3.64998e-06
8 *418:18 *2055:A 0
9 *448:10 *2055:A 1.32843e-05
10 *454:10 *2055:A 2.67022e-05
*RES
1 *1731:Y *2055:A 11.79 
*END

*D_NET *552 0.0011845
*CONN
*I *2056:A I *D sky130_fd_sc_hd__buf_6
*I *1739:X O *D sky130_fd_sc_hd__xor2_2
*CAP
1 *2056:A 0.000458412
2 *1739:X 0.000458412
3 *1732:B *2056:A 0
4 *1735:A2 *2056:A 0
5 *1750:B *2056:A 0.000122312
6 *292:36 *2056:A 3.43783e-05
7 *299:25 *2056:A 0.00011099
*RES
1 *1739:X *2056:A 15.21 
*END

*D_NET *553 0.00416993
*CONN
*I *1688:B I *D sky130_fd_sc_hd__nand3b_2
*I *1689:B1_N I *D sky130_fd_sc_hd__o21bai_2
*I *2034:X O *D sky130_fd_sc_hd__clkdlybuf4s25_1
*CAP
1 *1688:B 0
2 *1689:B1_N 0.000166205
3 *2034:X 0.000660967
4 *553:10 0.000827172
5 *553:10 *2064:A 7.89689e-05
6 *1685:A *1689:B1_N 0.000124007
7 *1689:A2 *1689:B1_N 7.23635e-05
8 *1970:A *553:10 0.000809242
9 *2051:A *1689:B1_N 0
10 *2051:A *553:10 0
11 *2052:A *1689:B1_N 3.06212e-05
12 *2052:A *553:10 0.000100308
13 *255:6 *1689:B1_N 4.99619e-05
14 *379:16 *553:10 0.000298435
15 *434:10 *553:10 0.000141599
16 *434:12 *1689:B1_N 3.09233e-05
17 *434:12 *553:10 0.000560485
18 *434:18 *1689:B1_N 9.37731e-05
19 *510:10 *553:10 0.000124895
20 *527:10 *553:10 0
*RES
1 *2034:X *553:10 21 
2 *553:10 *1689:B1_N 7.185 
3 *553:10 *1688:B 3.6 
*END

*D_NET *554 0.000721837
*CONN
*I *2057:A I *D sky130_fd_sc_hd__buf_6
*I *1753:X O *D sky130_fd_sc_hd__xor2_2
*CAP
1 *2057:A 0.000144304
2 *1753:X 0.000144304
3 *1745:C *2057:A 9.2741e-05
4 *1746:A2 *2057:A 0.000107716
5 *1977:A *2057:A 0.000186099
6 *307:14 *2057:A 4.66742e-05
*RES
1 *1753:X *2057:A 11.28 
*END

*D_NET *555 0.00150358
*CONN
*I *2058:A I *D sky130_fd_sc_hd__buf_6
*I *1763:X O *D sky130_fd_sc_hd__xor2_2
*CAP
1 *2058:A 0.0002602
2 *1763:X 0.0002602
3 *1742:A *2058:A 0.000382758
4 *1748:B *2058:A 0.000162409
5 *1761:A *2058:A 1.91597e-05
6 *309:14 *2058:A 3.38425e-05
7 *512:10 *2058:A 0.000385013
*RES
1 *1763:X *2058:A 10.22 
*END

*D_NET *556 0.000310746
*CONN
*I *2059:A I *D sky130_fd_sc_hd__buf_6
*I *1776:X O *D sky130_fd_sc_hd__xor2_4
*CAP
1 *2059:A 0.000155373
2 *1776:X 0.000155373
3 S[24] *2059:A 0
4 S[25] *2059:A 0
5 *1961:A *2059:A 0
*RES
1 *1776:X *2059:A 8.255 
*END

*D_NET *557 0.00278283
*CONN
*I *2060:A I *D sky130_fd_sc_hd__buf_6
*I *1783:Y O *D sky130_fd_sc_hd__xnor2_4
*CAP
1 *2060:A 0.00109206
2 *1783:Y 0.00109206
3 *1781:B *2060:A 0
4 *1784:B *2060:A 1.42885e-05
5 *1786:A1 *2060:A 3.93106e-05
6 *1795:A2 *2060:A 2.11084e-05
7 *1800:A2 *2060:A 0.000462039
8 *338:21 *2060:A 0
9 *338:38 *2060:A 0
10 *436:6 *2060:A 6.19709e-05
*RES
1 *1783:Y *2060:A 22.62 
*END

*D_NET *558 0.000425115
*CONN
*I *2061:A I *D sky130_fd_sc_hd__buf_6
*I *1797:Y O *D sky130_fd_sc_hd__nand2_2
*CAP
1 *2061:A 0.000212558
2 *1797:Y 0.000212558
*RES
1 *1797:Y *2061:A 6.44 
*END

*D_NET *559 0.000315382
*CONN
*I *2062:A I *D sky130_fd_sc_hd__buf_6
*I *1805:Y O *D sky130_fd_sc_hd__nand2_4
*CAP
1 *2062:A 0.000119791
2 *1805:Y 0.000119791
3 S[27] *2062:A 4.82863e-05
4 *537:36 *2062:A 2.75145e-05
*RES
1 *1805:Y *2062:A 9.285 
*END

*D_NET *560 0.00147924
*CONN
*I *2063:A I *D sky130_fd_sc_hd__buf_6
*I *1817:Y O *D sky130_fd_sc_hd__xnor2_2
*CAP
1 *2063:A 0.00047273
2 *1817:Y 0.00047273
3 S[16] *2063:A 0
4 S[28] *2063:A 7.00889e-06
5 *1818:A1 *2063:A 0.00031916
6 *1818:B2 *2063:A 0
7 *1820:B *2063:A 0
8 *1823:C *2063:A 0
9 *1824:B1 *2063:A 9.38034e-05
10 *1984:A *2063:A 0
11 *2050:A *2063:A 0
12 *372:10 *2063:A 6.5525e-05
13 *490:14 *2063:A 4.82863e-05
*RES
1 *1817:Y *2063:A 16.8 
*END

*D_NET *561 0.000512742
*CONN
*I *2064:A I *D sky130_fd_sc_hd__buf_6
*I *1822:Y O *D sky130_fd_sc_hd__xnor2_2
*CAP
1 *2064:A 7.75771e-05
2 *1822:Y 7.75771e-05
3 S[17] *2064:A 0.000185398
4 S[29] *2064:A 4.66108e-05
5 *1970:A *2064:A 4.66108e-05
6 *553:10 *2064:A 7.89689e-05
*RES
1 *1822:Y *2064:A 9.795 
*END

*D_NET *562 0.00053696
*CONN
*I *2065:A I *D sky130_fd_sc_hd__buf_6
*I *1848:X O *D sky130_fd_sc_hd__xor2_2
*CAP
1 *2065:A 0.000135035
2 *1848:X 0.000135035
3 S[0] *2065:A 0.000180301
4 *1996:A *2065:A 8.65905e-05
*RES
1 *1848:X *2065:A 10.14 
*END

*D_NET *563 0.000197062
*CONN
*I *2066:A I *D sky130_fd_sc_hd__buf_6
*I *1836:Y O *D sky130_fd_sc_hd__nor2_4
*CAP
1 *2066:A 1.02651e-05
2 *1836:Y 1.02651e-05
3 S[30] *2066:A 8.8266e-05
4 *1831:B1 *2066:A 8.8266e-05
*RES
1 *1836:Y *2066:A 3.995 
*END

*D_NET *564 0.00607672
*CONN
*I *1697:B I *D sky130_fd_sc_hd__nand3b_2
*I *1883:A I *D sky130_fd_sc_hd__inv_2
*I *1719:A1 I *D sky130_fd_sc_hd__o211ai_2
*I *2035:X O *D sky130_fd_sc_hd__clkdlybuf4s25_1
*CAP
1 *1697:B 0
2 *1883:A 0.000216968
3 *1719:A1 0.000599517
4 *2035:X 0.00140862
5 *564:18 0.000855786
6 *564:14 0.00144793
7 *1697:A_N *1719:A1 3.74359e-05
8 *1697:A_N *564:14 0
9 *1697:C *564:18 0
10 *1708:A2 *1719:A1 8.49205e-05
11 *1719:C1 *1719:A1 6.5048e-05
12 *1872:B *564:14 8.8266e-05
13 *2046:A *564:14 0.000285978
14 *105:12 *1719:A1 0.000192125
15 *217:16 *564:14 0.000163204
16 *230:12 *564:14 0.000207783
17 *264:10 *1719:A1 8.73389e-06
18 *264:10 *1883:A 0
19 *264:10 *564:18 0
20 *433:39 *564:14 0.000312188
21 *505:12 *564:14 0.000102216
*RES
1 *2035:X *564:14 31.88 
2 *564:14 *564:18 2.615 
3 *564:18 *1719:A1 10.965 
4 *564:18 *1883:A 6.81 
5 *564:14 *1697:B 1.6 
*END

*D_NET *565 0.000678046
*CONN
*I *2067:A I *D sky130_fd_sc_hd__buf_6
*I *1842:Y O *D sky130_fd_sc_hd__a41oi_4
*CAP
1 *2067:A 8.65838e-05
2 *1842:Y 8.65838e-05
3 *1841:A2 *2067:A 9.16315e-05
4 *1987:A *2067:A 0.000320834
5 *377:47 *2067:A 9.24127e-05
*RES
1 *1842:Y *2067:A 10.875 
*END

*D_NET *566 0.000279263
*CONN
*I *2068:A I *D sky130_fd_sc_hd__buf_6
*I *1850:X O *D sky130_fd_sc_hd__xor2_2
*CAP
1 *2068:A 6.79479e-05
2 *1850:X 6.79479e-05
3 *2068:A *2073:A 0
4 *1628:A *2068:A 4.18603e-06
5 *1995:A *2068:A 6.28687e-05
6 *431:24 *2068:A 7.63125e-05
*RES
1 *1850:X *2068:A 8.835 
*END

*D_NET *567 0.002587
*CONN
*I *2069:A I *D sky130_fd_sc_hd__clkbuf_2
*I *1851:X O *D sky130_fd_sc_hd__xor2_2
*CAP
1 *2069:A 0.00111753
2 *1851:X 0.00111753
3 *1851:A *2069:A 6.04626e-05
4 *1851:B *2069:A 2.65337e-05
5 *1944:A2 *2069:A 0
6 *1948:D1 *2069:A 3.58811e-05
7 *1955:D *2069:A 4.47209e-05
8 *2087:A *2069:A 4.80285e-05
9 *166:10 *2069:A 0
10 *169:10 *2069:A 0
11 *169:19 *2069:A 0
12 *170:10 *2069:A 0.000136313
13 *176:10 *2069:A 0
*RES
1 *1851:X *2069:A 22.665 
*END

*D_NET *568 0.000260295
*CONN
*I *2070:A I *D sky130_fd_sc_hd__clkbuf_4
*I *1853:Y O *D sky130_fd_sc_hd__xnor2_2
*CAP
1 *2070:A 8.42224e-05
2 *1853:Y 8.42224e-05
3 S[5] *2070:A 2.66935e-05
4 *1936:B *2070:A 4.7771e-05
5 *166:10 *2070:A 0
6 *399:28 *2070:A 1.7386e-05
*RES
1 *1853:Y *2070:A 8.775 
*END

*D_NET *569 0.000267225
*CONN
*I *2071:A I *D sky130_fd_sc_hd__clkbuf_2
*I *1855:X O *D sky130_fd_sc_hd__xor2_2
*CAP
1 *2071:A 9.15327e-05
2 *1855:X 9.15327e-05
3 S[6] *2071:A 1.67513e-05
4 *1855:A *2071:A 0
5 *164:12 *2071:A 6.74079e-05
*RES
1 *1855:X *2071:A 9.03 
*END

*D_NET *570 0.00154591
*CONN
*I *2072:A I *D sky130_fd_sc_hd__buf_6
*I *1857:Y O *D sky130_fd_sc_hd__xnor2_2
*CAP
1 *2072:A 0.000511248
2 *1857:Y 0.000511248
3 *1855:A *2072:A 0
4 *1856:A3 *2072:A 0
5 *1939:B1 *2072:A 3.96653e-05
6 *1940:A2 *2072:A 0.000274659
7 *1940:B1 *2072:A 0.000127865
8 *160:23 *2072:A 0
9 *162:8 *2072:A 7.4589e-05
10 *162:16 *2072:A 6.63219e-06
*RES
1 *1857:Y *2072:A 16.23 
*END

*D_NET *571 0.00258954
*CONN
*I *2073:A I *D sky130_fd_sc_hd__buf_6
*I *1860:Y O *D sky130_fd_sc_hd__nor2_2
*CAP
1 *2073:A 0.000653378
2 *1860:Y 0.000653378
3 *2073:A *2074:A 0.00106495
4 S[8] *2073:A 4.82919e-05
5 *1628:A *2073:A 0
6 *1643:A1 *2073:A 0
7 *1644:B1 *2073:A 0.000162325
8 *1644:B2 *2073:A 0
9 *1918:B1 *2073:A 0
10 *1995:A *2073:A 0
11 *2068:A *2073:A 0
12 *192:14 *2073:A 7.21296e-06
13 *431:12 *2073:A 0
14 *500:10 *2073:A 0
*RES
1 *1860:Y *2073:A 21.465 
*END

*D_NET *572 0.00400143
*CONN
*I *2074:A I *D sky130_fd_sc_hd__buf_6
*I *1863:Y O *D sky130_fd_sc_hd__nor2_2
*CAP
1 *2074:A 0.00100255
2 *1863:Y 0.00100255
3 *1626:B *2074:A 0.00019564
4 *1860:A *2074:A 0.000286162
5 *1860:B *2074:A 0
6 *1861:B *2074:A 0
7 *1862:A1 *2074:A 7.96996e-05
8 *1863:A *2074:A 2.46089e-05
9 *1863:B *2074:A 0
10 *1919:B1 *2074:A 6.44047e-05
11 *1921:C *2074:A 0
12 *1953:A1 *2074:A 0
13 *2040:A *2074:A 0
14 *2073:A *2074:A 0.00106495
15 *192:14 *2074:A 7.63204e-05
16 *192:23 *2074:A 0.000101351
17 *402:27 *2074:A 0.000103185
18 *413:70 *2074:A 0
19 *431:12 *2074:A 0
*RES
1 *1863:Y *2074:A 31.365 
*END

*D_NET *573 0.000668354
*CONN
*I *2075:A I *D sky130_fd_sc_hd__buf_6
*I *1877:Y O *D sky130_fd_sc_hd__o21bai_4
*CAP
1 *2075:A 0.000200096
2 *1877:Y 0.000200096
3 *1837:B *2075:A 5.63405e-05
4 *1840:B2 *2075:A 0
5 *1968:A *2075:A 0.00013994
6 *1988:A *2075:A 0
7 *2023:A *2075:A 0
8 *390:8 *2075:A 0
9 *542:12 *2075:A 7.18817e-05
*RES
1 *1877:Y *2075:A 11.58 
*END

*D_NET *574 0.00272099
*CONN
*I *1782:A2 I *D sky130_fd_sc_hd__o21ai_4
*I *1776:B I *D sky130_fd_sc_hd__xor2_4
*I *2042:X O *D sky130_fd_sc_hd__buf_6
*CAP
1 *1782:A2 0.000113508
2 *1776:B 0.000509798
3 *2042:X 0.000179431
4 *574:8 0.000802736
5 *1776:A *1776:B 9.63964e-05
6 *1781:A *1776:B 0.000105275
7 *1781:A *574:8 5.12969e-06
8 *1781:B *1776:B 0.000310968
9 *1783:A *1782:A2 0.000136778
10 *1783:B *1782:A2 0.000117825
11 *1784:B *1782:A2 1.61461e-05
12 *328:12 *1782:A2 9.50342e-06
13 *329:17 *1782:A2 0.0003175
14 *335:10 *1782:A2 0
*RES
1 *2042:X *574:8 4.135 
2 *574:8 *1776:B 9.655 
3 *574:8 *1782:A2 9.53 
*END
