*SPEF "ieee 1481-1999"
*DESIGN "addsub32"
*DATE "07:45:06 Tuesday September 29, 2026"
*VENDOR "The OpenROAD Project"
*PROGRAM "OpenROAD"
*VERSION "dcf36133a369abc8f3c5e5738cd4d82e4903c0e0"
*DESIGN_FLOW "NAME_SCOPE LOCAL" "PIN_CAP NONE"
*DIVIDER /
*DELIMITER :
*BUS_DELIMITER []
*T_UNIT 1 NS
*C_UNIT 1 PF
*R_UNIT 1 OHM
*L_UNIT 1 HENRY

*NAME_MAP
*1 A[0]
*2 A[10]
*3 A[11]
*4 A[12]
*5 A[13]
*6 A[14]
*7 A[15]
*8 A[16]
*9 A[17]
*10 A[18]
*11 A[19]
*12 A[1]
*13 A[20]
*14 A[21]
*15 A[22]
*16 A[23]
*17 A[24]
*18 A[25]
*19 A[26]
*20 A[27]
*21 A[28]
*22 A[29]
*23 A[2]
*24 A[30]
*25 A[31]
*26 A[3]
*27 A[4]
*28 A[5]
*29 A[6]
*30 A[7]
*31 A[8]
*32 A[9]
*33 B[0]
*34 B[10]
*35 B[11]
*36 B[12]
*37 B[13]
*38 B[14]
*39 B[15]
*40 B[16]
*41 B[17]
*42 B[18]
*43 B[19]
*44 B[1]
*45 B[20]
*46 B[21]
*47 B[22]
*48 B[23]
*49 B[24]
*50 B[25]
*51 B[26]
*52 B[27]
*53 B[28]
*54 B[29]
*55 B[2]
*56 B[30]
*57 B[31]
*58 B[3]
*59 B[4]
*60 B[5]
*61 B[6]
*62 B[7]
*63 B[8]
*64 B[9]
*65 S[0]
*66 S[10]
*67 S[11]
*68 S[12]
*69 S[13]
*70 S[14]
*71 S[15]
*72 S[16]
*73 S[17]
*74 S[18]
*75 S[19]
*76 S[1]
*77 S[20]
*78 S[21]
*79 S[22]
*80 S[23]
*81 S[24]
*82 S[25]
*83 S[26]
*84 S[27]
*85 S[28]
*86 S[29]
*87 S[2]
*88 S[30]
*89 S[31]
*90 S[3]
*91 S[4]
*92 S[5]
*93 S[6]
*94 S[7]
*95 S[8]
*96 S[9]
*99 carryOut
*100 sub
*101 _000_
*102 _001_
*103 _002_
*104 _003_
*105 _004_
*106 _005_
*107 _006_
*108 _007_
*109 _008_
*110 _009_
*111 _010_
*112 _011_
*113 _012_
*114 _013_
*115 _014_
*116 _015_
*117 _016_
*118 _017_
*119 _018_
*120 _019_
*121 _020_
*122 _021_
*123 _022_
*124 _023_
*125 _024_
*126 _025_
*127 _026_
*128 _027_
*129 _028_
*130 _029_
*131 _030_
*132 _031_
*133 _032_
*134 _033_
*135 _034_
*136 _035_
*137 _036_
*138 _037_
*139 _038_
*140 _039_
*141 _040_
*142 _041_
*143 _042_
*144 _043_
*145 _044_
*146 _045_
*147 _046_
*148 _047_
*149 _048_
*150 _049_
*151 _050_
*152 _051_
*153 _052_
*154 _053_
*155 _054_
*156 _055_
*157 _056_
*158 _057_
*159 _058_
*160 _059_
*161 _060_
*162 _061_
*163 _062_
*164 _063_
*165 _064_
*166 _065_
*167 _066_
*168 _067_
*169 _068_
*170 _069_
*171 _070_
*172 _071_
*173 _072_
*174 _073_
*175 _074_
*176 _075_
*177 _076_
*178 _077_
*179 _078_
*180 _079_
*181 _080_
*182 _081_
*183 _082_
*184 _083_
*185 _084_
*186 _085_
*187 _086_
*188 _087_
*189 _088_
*190 _089_
*191 _090_
*192 _091_
*193 _092_
*194 _093_
*195 _094_
*196 _095_
*197 _096_
*198 _097_
*199 _098_
*200 _099_
*201 _100_
*202 _101_
*203 _102_
*204 _103_
*205 _104_
*206 _105_
*207 _106_
*208 _107_
*209 _108_
*210 _109_
*211 _110_
*212 _111_
*213 _112_
*214 _113_
*215 _114_
*216 _115_
*217 _116_
*218 _117_
*219 _118_
*220 _119_
*221 _120_
*222 _121_
*223 _122_
*224 _123_
*225 _124_
*226 _125_
*227 _126_
*228 _127_
*229 _128_
*230 _129_
*231 _130_
*232 _131_
*233 _132_
*234 _133_
*235 _134_
*236 _135_
*237 _136_
*238 _137_
*239 _138_
*240 _139_
*241 _140_
*242 _141_
*243 _142_
*244 _143_
*245 _144_
*246 _145_
*247 _146_
*248 _147_
*249 _148_
*250 _149_
*251 _150_
*252 _151_
*253 _152_
*254 _153_
*255 _154_
*256 _155_
*257 _156_
*258 _157_
*259 _158_
*260 _159_
*261 _160_
*262 _161_
*263 _162_
*264 _163_
*265 _164_
*266 _165_
*267 _166_
*268 _167_
*269 _168_
*270 _169_
*271 _170_
*272 _171_
*273 _172_
*274 _173_
*275 _174_
*276 _175_
*277 _176_
*278 _177_
*279 _178_
*280 _179_
*281 _180_
*282 _181_
*283 _182_
*284 _183_
*285 _184_
*286 _185_
*287 _186_
*288 _187_
*289 _188_
*290 _189_
*291 _190_
*292 _191_
*293 _192_
*294 _193_
*295 _194_
*296 _195_
*297 _196_
*298 _197_
*299 _198_
*300 _199_
*301 _200_
*302 _201_
*303 _202_
*304 _203_
*305 _204_
*306 _205_
*307 _206_
*308 _207_
*309 net1
*310 net10
*311 net100
*312 net101
*313 net102
*314 net103
*315 net105
*316 net106
*317 net107
*318 net108
*319 net109
*320 net11
*321 net110
*322 net111
*323 net112
*324 net113
*325 net114
*326 net115
*327 net116
*328 net117
*329 net118
*330 net119
*331 net12
*332 net120
*333 net121
*334 net123
*335 net13
*336 net138
*337 net14
*338 net15
*339 net16
*340 net17
*341 net18
*342 net19
*343 net2
*344 net20
*345 net21
*346 net22
*347 net23
*348 net24
*349 net25
*350 net26
*351 net27
*352 net28
*353 net29
*354 net3
*355 net30
*356 net31
*357 net32
*358 net33
*359 net34
*360 net35
*361 net36
*362 net37
*363 net38
*364 net39
*365 net4
*366 net40
*367 net41
*368 net42
*369 net43
*370 net44
*371 net45
*372 net46
*373 net47
*374 net48
*375 net49
*376 net5
*377 net50
*378 net51
*379 net52
*380 net53
*381 net54
*382 net55
*383 net56
*384 net57
*385 net58
*386 net59
*387 net6
*388 net60
*389 net61
*390 net62
*391 net63
*392 net64
*393 net65
*394 net66
*395 net67
*396 net68
*397 net69
*398 net7
*399 net70
*400 net71
*401 net72
*402 net73
*403 net74
*404 net75
*405 net76
*406 net77
*407 net78
*408 net79
*409 net8
*410 net80
*411 net81
*412 net82
*413 net83
*414 net84
*415 net85
*416 net86
*417 net87
*418 net88
*419 net89
*420 net9
*421 net90
*422 net91
*423 net92
*424 net93
*425 net94
*426 net95
*427 net96
*428 net97
*429 net98
*430 net99
*431 FILLER_0_109
*432 FILLER_0_12
*433 FILLER_0_129
*434 FILLER_0_15
*435 FILLER_0_167
*436 FILLER_0_18
*437 FILLER_0_191
*438 FILLER_0_194
*439 FILLER_0_21
*440 FILLER_0_210
*441 FILLER_0_213
*442 FILLER_0_216
*443 FILLER_0_219
*444 FILLER_0_222
*445 FILLER_0_225
*446 FILLER_0_228
*447 FILLER_0_231
*448 FILLER_0_234
*449 FILLER_0_237
*450 FILLER_0_24
*451 FILLER_0_27
*452 FILLER_0_29
*453 FILLER_0_3
*454 FILLER_0_32
*455 FILLER_0_35
*456 FILLER_0_38
*457 FILLER_0_47
*458 FILLER_0_57
*459 FILLER_0_6
*460 FILLER_0_60
*461 FILLER_0_81
*462 FILLER_0_9
*463 FILLER_0_99
*464 FILLER_10_100
*465 FILLER_10_103
*466 FILLER_10_106
*467 FILLER_10_109
*468 FILLER_10_11
*469 FILLER_10_112
*470 FILLER_10_122
*471 FILLER_10_125
*472 FILLER_10_128
*473 FILLER_10_131
*474 FILLER_10_134
*475 FILLER_10_137
*476 FILLER_10_14
*477 FILLER_10_141
*478 FILLER_10_144
*479 FILLER_10_147
*480 FILLER_10_150
*481 FILLER_10_153
*482 FILLER_10_156
*483 FILLER_10_159
*484 FILLER_10_162
*485 FILLER_10_165
*486 FILLER_10_168
*487 FILLER_10_171
*488 FILLER_10_174
*489 FILLER_10_177
*490 FILLER_10_180
*491 FILLER_10_183
*492 FILLER_10_186
*493 FILLER_10_193
*494 FILLER_10_197
*495 FILLER_10_200
*496 FILLER_10_203
*497 FILLER_10_206
*498 FILLER_10_209
*499 FILLER_10_212
*500 FILLER_10_215
*501 FILLER_10_218
*502 FILLER_10_221
*503 FILLER_10_23
*504 FILLER_10_236
*505 FILLER_10_26
*506 FILLER_10_29
*507 FILLER_10_53
*508 FILLER_10_56
*509 FILLER_10_59
*510 FILLER_10_62
*511 FILLER_10_65
*512 FILLER_10_68
*513 FILLER_10_71
*514 FILLER_10_74
*515 FILLER_10_77
*516 FILLER_10_80
*517 FILLER_10_83
*518 FILLER_10_85
*519 FILLER_10_88
*520 FILLER_10_91
*521 FILLER_10_94
*522 FILLER_10_97
*523 FILLER_11_102
*524 FILLER_11_105
*525 FILLER_11_108
*526 FILLER_11_111
*527 FILLER_11_113
*528 FILLER_11_116
*529 FILLER_11_126
*530 FILLER_11_129
*531 FILLER_11_132
*532 FILLER_11_135
*533 FILLER_11_138
*534 FILLER_11_141
*535 FILLER_11_144
*536 FILLER_11_147
*537 FILLER_11_150
*538 FILLER_11_153
*539 FILLER_11_156
*540 FILLER_11_159
*541 FILLER_11_162
*542 FILLER_11_165
*543 FILLER_11_169
*544 FILLER_11_172
*545 FILLER_11_175
*546 FILLER_11_178
*547 FILLER_11_181
*548 FILLER_11_184
*549 FILLER_11_207
*550 FILLER_11_21
*551 FILLER_11_210
*552 FILLER_11_24
*553 FILLER_11_27
*554 FILLER_11_30
*555 FILLER_11_33
*556 FILLER_11_36
*557 FILLER_11_39
*558 FILLER_11_54
*559 FILLER_11_57
*560 FILLER_11_60
*561 FILLER_11_63
*562 FILLER_11_66
*563 FILLER_11_69
*564 FILLER_11_72
*565 FILLER_11_75
*566 FILLER_11_78
*567 FILLER_11_81
*568 FILLER_11_84
*569 FILLER_11_87
*570 FILLER_11_90
*571 FILLER_11_93
*572 FILLER_11_96
*573 FILLER_11_99
*574 FILLER_12_11
*575 FILLER_12_116
*576 FILLER_12_119
*577 FILLER_12_14
*578 FILLER_12_141
*579 FILLER_12_144
*580 FILLER_12_147
*581 FILLER_12_150
*582 FILLER_12_153
*583 FILLER_12_156
*584 FILLER_12_159
*585 FILLER_12_162
*586 FILLER_12_165
*587 FILLER_12_168
*588 FILLER_12_17
*589 FILLER_12_171
*590 FILLER_12_174
*591 FILLER_12_177
*592 FILLER_12_180
*593 FILLER_12_183
*594 FILLER_12_192
*595 FILLER_12_195
*596 FILLER_12_204
*597 FILLER_12_207
*598 FILLER_12_25
*599 FILLER_12_29
*600 FILLER_12_32
*601 FILLER_12_35
*602 FILLER_12_38
*603 FILLER_12_41
*604 FILLER_12_44
*605 FILLER_12_47
*606 FILLER_12_68
*607 FILLER_12_71
*608 FILLER_12_74
*609 FILLER_12_77
*610 FILLER_12_80
*611 FILLER_12_83
*612 FILLER_12_85
*613 FILLER_12_88
*614 FILLER_13_100
*615 FILLER_13_103
*616 FILLER_13_109
*617 FILLER_13_113
*618 FILLER_13_116
*619 FILLER_13_119
*620 FILLER_13_122
*621 FILLER_13_125
*622 FILLER_13_128
*623 FILLER_13_131
*624 FILLER_13_134
*625 FILLER_13_137
*626 FILLER_13_140
*627 FILLER_13_143
*628 FILLER_13_146
*629 FILLER_13_149
*630 FILLER_13_152
*631 FILLER_13_155
*632 FILLER_13_158
*633 FILLER_13_161
*634 FILLER_13_164
*635 FILLER_13_167
*636 FILLER_13_169
*637 FILLER_13_172
*638 FILLER_13_175
*639 FILLER_13_178
*640 FILLER_13_181
*641 FILLER_13_184
*642 FILLER_13_194
*643 FILLER_13_197
*644 FILLER_13_200
*645 FILLER_13_203
*646 FILLER_13_206
*647 FILLER_13_209
*648 FILLER_13_212
*649 FILLER_13_215
*650 FILLER_13_218
*651 FILLER_13_27
*652 FILLER_13_30
*653 FILLER_13_33
*654 FILLER_13_36
*655 FILLER_13_39
*656 FILLER_13_42
*657 FILLER_13_45
*658 FILLER_13_48
*659 FILLER_13_51
*660 FILLER_13_54
*661 FILLER_13_57
*662 FILLER_13_60
*663 FILLER_13_63
*664 FILLER_13_66
*665 FILLER_13_69
*666 FILLER_13_72
*667 FILLER_13_88
*668 FILLER_13_91
*669 FILLER_13_94
*670 FILLER_13_97
*671 FILLER_14_102
*672 FILLER_14_105
*673 FILLER_14_120
*674 FILLER_14_123
*675 FILLER_14_126
*676 FILLER_14_129
*677 FILLER_14_132
*678 FILLER_14_135
*679 FILLER_14_138
*680 FILLER_14_141
*681 FILLER_14_144
*682 FILLER_14_147
*683 FILLER_14_150
*684 FILLER_14_153
*685 FILLER_14_156
*686 FILLER_14_159
*687 FILLER_14_162
*688 FILLER_14_165
*689 FILLER_14_168
*690 FILLER_14_171
*691 FILLER_14_174
*692 FILLER_14_177
*693 FILLER_14_180
*694 FILLER_14_195
*695 FILLER_14_197
*696 FILLER_14_200
*697 FILLER_14_203
*698 FILLER_14_206
*699 FILLER_14_209
*700 FILLER_14_212
*701 FILLER_14_25
*702 FILLER_14_3
*703 FILLER_14_35
*704 FILLER_14_38
*705 FILLER_14_41
*706 FILLER_14_44
*707 FILLER_14_47
*708 FILLER_14_50
*709 FILLER_14_53
*710 FILLER_14_59
*711 FILLER_14_62
*712 FILLER_14_65
*713 FILLER_14_68
*714 FILLER_14_76
*715 FILLER_14_79
*716 FILLER_14_82
*717 FILLER_14_85
*718 FILLER_14_88
*719 FILLER_14_99
*720 FILLER_15_101
*721 FILLER_15_104
*722 FILLER_15_107
*723 FILLER_15_110
*724 FILLER_15_113
*725 FILLER_15_116
*726 FILLER_15_119
*727 FILLER_15_122
*728 FILLER_15_125
*729 FILLER_15_128
*730 FILLER_15_131
*731 FILLER_15_134
*732 FILLER_15_137
*733 FILLER_15_140
*734 FILLER_15_143
*735 FILLER_15_146
*736 FILLER_15_149
*737 FILLER_15_152
*738 FILLER_15_155
*739 FILLER_15_158
*740 FILLER_15_161
*741 FILLER_15_164
*742 FILLER_15_167
*743 FILLER_15_169
*744 FILLER_15_172
*745 FILLER_15_203
*746 FILLER_15_206
*747 FILLER_15_3
*748 FILLER_15_46
*749 FILLER_15_49
*750 FILLER_15_52
*751 FILLER_15_55
*752 FILLER_15_57
*753 FILLER_15_6
*754 FILLER_15_60
*755 FILLER_15_63
*756 FILLER_15_77
*757 FILLER_15_80
*758 FILLER_15_83
*759 FILLER_15_86
*760 FILLER_15_89
*761 FILLER_15_92
*762 FILLER_15_98
*763 FILLER_16_100
*764 FILLER_16_103
*765 FILLER_16_106
*766 FILLER_16_109
*767 FILLER_16_112
*768 FILLER_16_115
*769 FILLER_16_118
*770 FILLER_16_121
*771 FILLER_16_124
*772 FILLER_16_127
*773 FILLER_16_130
*774 FILLER_16_133
*775 FILLER_16_136
*776 FILLER_16_139
*777 FILLER_16_141
*778 FILLER_16_144
*779 FILLER_16_147
*780 FILLER_16_150
*781 FILLER_16_153
*782 FILLER_16_156
*783 FILLER_16_159
*784 FILLER_16_162
*785 FILLER_16_165
*786 FILLER_16_168
*787 FILLER_16_171
*788 FILLER_16_174
*789 FILLER_16_177
*790 FILLER_16_197
*791 FILLER_16_200
*792 FILLER_16_217
*793 FILLER_16_237
*794 FILLER_16_27
*795 FILLER_16_29
*796 FILLER_16_32
*797 FILLER_16_35
*798 FILLER_16_38
*799 FILLER_16_41
*800 FILLER_16_44
*801 FILLER_16_47
*802 FILLER_16_50
*803 FILLER_16_53
*804 FILLER_16_56
*805 FILLER_16_59
*806 FILLER_16_62
*807 FILLER_16_65
*808 FILLER_16_71
*809 FILLER_16_74
*810 FILLER_16_77
*811 FILLER_16_80
*812 FILLER_16_83
*813 FILLER_16_85
*814 FILLER_16_88
*815 FILLER_16_91
*816 FILLER_16_94
*817 FILLER_16_97
*818 FILLER_17_100
*819 FILLER_17_103
*820 FILLER_17_106
*821 FILLER_17_109
*822 FILLER_17_113
*823 FILLER_17_116
*824 FILLER_17_119
*825 FILLER_17_122
*826 FILLER_17_125
*827 FILLER_17_128
*828 FILLER_17_131
*829 FILLER_17_134
*830 FILLER_17_137
*831 FILLER_17_140
*832 FILLER_17_143
*833 FILLER_17_146
*834 FILLER_17_149
*835 FILLER_17_152
*836 FILLER_17_155
*837 FILLER_17_158
*838 FILLER_17_161
*839 FILLER_17_164
*840 FILLER_17_167
*841 FILLER_17_169
*842 FILLER_17_172
*843 FILLER_17_175
*844 FILLER_17_178
*845 FILLER_17_181
*846 FILLER_17_184
*847 FILLER_17_193
*848 FILLER_17_196
*849 FILLER_17_199
*850 FILLER_17_20
*851 FILLER_17_202
*852 FILLER_17_205
*853 FILLER_17_208
*854 FILLER_17_225
*855 FILLER_17_228
*856 FILLER_17_26
*857 FILLER_17_29
*858 FILLER_17_44
*859 FILLER_17_47
*860 FILLER_17_64
*861 FILLER_17_67
*862 FILLER_17_70
*863 FILLER_17_73
*864 FILLER_17_76
*865 FILLER_17_79
*866 FILLER_17_82
*867 FILLER_17_85
*868 FILLER_17_88
*869 FILLER_17_91
*870 FILLER_17_94
*871 FILLER_17_97
*872 FILLER_18_100
*873 FILLER_18_103
*874 FILLER_18_106
*875 FILLER_18_109
*876 FILLER_18_112
*877 FILLER_18_115
*878 FILLER_18_118
*879 FILLER_18_121
*880 FILLER_18_124
*881 FILLER_18_127
*882 FILLER_18_130
*883 FILLER_18_133
*884 FILLER_18_136
*885 FILLER_18_139
*886 FILLER_18_141
*887 FILLER_18_144
*888 FILLER_18_147
*889 FILLER_18_150
*890 FILLER_18_153
*891 FILLER_18_156
*892 FILLER_18_159
*893 FILLER_18_162
*894 FILLER_18_165
*895 FILLER_18_168
*896 FILLER_18_171
*897 FILLER_18_174
*898 FILLER_18_177
*899 FILLER_18_180
*900 FILLER_18_183
*901 FILLER_18_186
*902 FILLER_18_189
*903 FILLER_18_192
*904 FILLER_18_195
*905 FILLER_18_197
*906 FILLER_18_200
*907 FILLER_18_203
*908 FILLER_18_206
*909 FILLER_18_209
*910 FILLER_18_212
*911 FILLER_18_3
*912 FILLER_18_46
*913 FILLER_18_49
*914 FILLER_18_63
*915 FILLER_18_66
*916 FILLER_18_69
*917 FILLER_18_91
*918 FILLER_18_94
*919 FILLER_18_97
*920 FILLER_19_101
*921 FILLER_19_104
*922 FILLER_19_107
*923 FILLER_19_110
*924 FILLER_19_113
*925 FILLER_19_116
*926 FILLER_19_119
*927 FILLER_19_122
*928 FILLER_19_125
*929 FILLER_19_128
*930 FILLER_19_131
*931 FILLER_19_134
*932 FILLER_19_137
*933 FILLER_19_140
*934 FILLER_19_143
*935 FILLER_19_146
*936 FILLER_19_149
*937 FILLER_19_152
*938 FILLER_19_155
*939 FILLER_19_158
*940 FILLER_19_161
*941 FILLER_19_164
*942 FILLER_19_167
*943 FILLER_19_174
*944 FILLER_19_177
*945 FILLER_19_180
*946 FILLER_19_204
*947 FILLER_19_207
*948 FILLER_19_210
*949 FILLER_19_221
*950 FILLER_19_27
*951 FILLER_19_37
*952 FILLER_19_40
*953 FILLER_19_43
*954 FILLER_19_46
*955 FILLER_19_49
*956 FILLER_19_52
*957 FILLER_19_55
*958 FILLER_19_57
*959 FILLER_19_60
*960 FILLER_19_63
*961 FILLER_19_66
*962 FILLER_19_69
*963 FILLER_19_72
*964 FILLER_19_80
*965 FILLER_19_83
*966 FILLER_19_86
*967 FILLER_19_89
*968 FILLER_19_92
*969 FILLER_19_95
*970 FILLER_19_98
*971 FILLER_1_101
*972 FILLER_1_110
*973 FILLER_1_12
*974 FILLER_1_131
*975 FILLER_1_134
*976 FILLER_1_137
*977 FILLER_1_140
*978 FILLER_1_15
*979 FILLER_1_151
*980 FILLER_1_154
*981 FILLER_1_163
*982 FILLER_1_166
*983 FILLER_1_18
*984 FILLER_1_21
*985 FILLER_1_213
*986 FILLER_1_216
*987 FILLER_1_219
*988 FILLER_1_222
*989 FILLER_1_225
*990 FILLER_1_228
*991 FILLER_1_231
*992 FILLER_1_234
*993 FILLER_1_237
*994 FILLER_1_24
*995 FILLER_1_3
*996 FILLER_1_40
*997 FILLER_1_6
*998 FILLER_1_77
*999 FILLER_1_80
*1000 FILLER_1_87
*1001 FILLER_1_9
*1002 FILLER_1_90
*1003 FILLER_20_100
*1004 FILLER_20_103
*1005 FILLER_20_106
*1006 FILLER_20_109
*1007 FILLER_20_112
*1008 FILLER_20_115
*1009 FILLER_20_118
*1010 FILLER_20_121
*1011 FILLER_20_124
*1012 FILLER_20_127
*1013 FILLER_20_130
*1014 FILLER_20_133
*1015 FILLER_20_136
*1016 FILLER_20_139
*1017 FILLER_20_141
*1018 FILLER_20_144
*1019 FILLER_20_147
*1020 FILLER_20_150
*1021 FILLER_20_153
*1022 FILLER_20_156
*1023 FILLER_20_159
*1024 FILLER_20_175
*1025 FILLER_20_178
*1026 FILLER_20_181
*1027 FILLER_20_184
*1028 FILLER_20_187
*1029 FILLER_20_219
*1030 FILLER_20_234
*1031 FILLER_20_237
*1032 FILLER_20_27
*1033 FILLER_20_29
*1034 FILLER_20_32
*1035 FILLER_20_35
*1036 FILLER_20_38
*1037 FILLER_20_41
*1038 FILLER_20_44
*1039 FILLER_20_47
*1040 FILLER_20_50
*1041 FILLER_20_53
*1042 FILLER_20_61
*1043 FILLER_20_64
*1044 FILLER_20_67
*1045 FILLER_20_70
*1046 FILLER_20_73
*1047 FILLER_20_76
*1048 FILLER_20_79
*1049 FILLER_20_82
*1050 FILLER_20_85
*1051 FILLER_20_88
*1052 FILLER_20_91
*1053 FILLER_20_94
*1054 FILLER_20_97
*1055 FILLER_21_100
*1056 FILLER_21_103
*1057 FILLER_21_106
*1058 FILLER_21_109
*1059 FILLER_21_113
*1060 FILLER_21_116
*1061 FILLER_21_119
*1062 FILLER_21_122
*1063 FILLER_21_125
*1064 FILLER_21_128
*1065 FILLER_21_131
*1066 FILLER_21_134
*1067 FILLER_21_137
*1068 FILLER_21_140
*1069 FILLER_21_143
*1070 FILLER_21_146
*1071 FILLER_21_149
*1072 FILLER_21_152
*1073 FILLER_21_155
*1074 FILLER_21_158
*1075 FILLER_21_161
*1076 FILLER_21_164
*1077 FILLER_21_167
*1078 FILLER_21_17
*1079 FILLER_21_177
*1080 FILLER_21_180
*1081 FILLER_21_183
*1082 FILLER_21_186
*1083 FILLER_21_189
*1084 FILLER_21_192
*1085 FILLER_21_195
*1086 FILLER_21_198
*1087 FILLER_21_20
*1088 FILLER_21_3
*1089 FILLER_21_35
*1090 FILLER_21_38
*1091 FILLER_21_41
*1092 FILLER_21_44
*1093 FILLER_21_47
*1094 FILLER_21_64
*1095 FILLER_21_67
*1096 FILLER_21_70
*1097 FILLER_21_73
*1098 FILLER_21_76
*1099 FILLER_21_79
*1100 FILLER_21_82
*1101 FILLER_21_85
*1102 FILLER_21_88
*1103 FILLER_21_91
*1104 FILLER_21_94
*1105 FILLER_21_97
*1106 FILLER_22_100
*1107 FILLER_22_103
*1108 FILLER_22_106
*1109 FILLER_22_109
*1110 FILLER_22_112
*1111 FILLER_22_115
*1112 FILLER_22_118
*1113 FILLER_22_121
*1114 FILLER_22_124
*1115 FILLER_22_127
*1116 FILLER_22_130
*1117 FILLER_22_133
*1118 FILLER_22_136
*1119 FILLER_22_139
*1120 FILLER_22_141
*1121 FILLER_22_144
*1122 FILLER_22_147
*1123 FILLER_22_150
*1124 FILLER_22_153
*1125 FILLER_22_156
*1126 FILLER_22_159
*1127 FILLER_22_162
*1128 FILLER_22_165
*1129 FILLER_22_168
*1130 FILLER_22_175
*1131 FILLER_22_184
*1132 FILLER_22_187
*1133 FILLER_22_190
*1134 FILLER_22_193
*1135 FILLER_22_197
*1136 FILLER_22_200
*1137 FILLER_22_203
*1138 FILLER_22_206
*1139 FILLER_22_237
*1140 FILLER_22_27
*1141 FILLER_22_36
*1142 FILLER_22_39
*1143 FILLER_22_42
*1144 FILLER_22_63
*1145 FILLER_22_66
*1146 FILLER_22_69
*1147 FILLER_22_72
*1148 FILLER_22_75
*1149 FILLER_22_78
*1150 FILLER_22_81
*1151 FILLER_22_85
*1152 FILLER_22_88
*1153 FILLER_22_91
*1154 FILLER_22_94
*1155 FILLER_22_97
*1156 FILLER_23_102
*1157 FILLER_23_105
*1158 FILLER_23_108
*1159 FILLER_23_111
*1160 FILLER_23_113
*1161 FILLER_23_116
*1162 FILLER_23_119
*1163 FILLER_23_122
*1164 FILLER_23_125
*1165 FILLER_23_128
*1166 FILLER_23_131
*1167 FILLER_23_134
*1168 FILLER_23_137
*1169 FILLER_23_140
*1170 FILLER_23_143
*1171 FILLER_23_146
*1172 FILLER_23_149
*1173 FILLER_23_152
*1174 FILLER_23_155
*1175 FILLER_23_158
*1176 FILLER_23_161
*1177 FILLER_23_164
*1178 FILLER_23_167
*1179 FILLER_23_169
*1180 FILLER_23_17
*1181 FILLER_23_172
*1182 FILLER_23_182
*1183 FILLER_23_185
*1184 FILLER_23_195
*1185 FILLER_23_198
*1186 FILLER_23_201
*1187 FILLER_23_204
*1188 FILLER_23_207
*1189 FILLER_23_210
*1190 FILLER_23_29
*1191 FILLER_23_3
*1192 FILLER_23_32
*1193 FILLER_23_35
*1194 FILLER_23_38
*1195 FILLER_23_41
*1196 FILLER_23_44
*1197 FILLER_23_51
*1198 FILLER_23_54
*1199 FILLER_23_57
*1200 FILLER_23_60
*1201 FILLER_23_63
*1202 FILLER_23_66
*1203 FILLER_23_69
*1204 FILLER_23_72
*1205 FILLER_23_75
*1206 FILLER_23_78
*1207 FILLER_23_81
*1208 FILLER_23_84
*1209 FILLER_23_87
*1210 FILLER_23_90
*1211 FILLER_23_93
*1212 FILLER_23_96
*1213 FILLER_23_99
*1214 FILLER_24_100
*1215 FILLER_24_103
*1216 FILLER_24_106
*1217 FILLER_24_109
*1218 FILLER_24_112
*1219 FILLER_24_115
*1220 FILLER_24_118
*1221 FILLER_24_121
*1222 FILLER_24_124
*1223 FILLER_24_127
*1224 FILLER_24_130
*1225 FILLER_24_133
*1226 FILLER_24_136
*1227 FILLER_24_139
*1228 FILLER_24_141
*1229 FILLER_24_144
*1230 FILLER_24_147
*1231 FILLER_24_150
*1232 FILLER_24_153
*1233 FILLER_24_156
*1234 FILLER_24_159
*1235 FILLER_24_162
*1236 FILLER_24_165
*1237 FILLER_24_168
*1238 FILLER_24_171
*1239 FILLER_24_174
*1240 FILLER_24_177
*1241 FILLER_24_180
*1242 FILLER_24_19
*1243 FILLER_24_197
*1244 FILLER_24_200
*1245 FILLER_24_203
*1246 FILLER_24_206
*1247 FILLER_24_209
*1248 FILLER_24_212
*1249 FILLER_24_22
*1250 FILLER_24_237
*1251 FILLER_24_25
*1252 FILLER_24_29
*1253 FILLER_24_32
*1254 FILLER_24_35
*1255 FILLER_24_38
*1256 FILLER_24_41
*1257 FILLER_24_44
*1258 FILLER_24_47
*1259 FILLER_24_50
*1260 FILLER_24_53
*1261 FILLER_24_56
*1262 FILLER_24_59
*1263 FILLER_24_62
*1264 FILLER_24_65
*1265 FILLER_24_68
*1266 FILLER_24_71
*1267 FILLER_24_74
*1268 FILLER_24_77
*1269 FILLER_24_80
*1270 FILLER_24_83
*1271 FILLER_24_85
*1272 FILLER_24_88
*1273 FILLER_24_91
*1274 FILLER_24_94
*1275 FILLER_24_97
*1276 FILLER_25_102
*1277 FILLER_25_105
*1278 FILLER_25_108
*1279 FILLER_25_111
*1280 FILLER_25_113
*1281 FILLER_25_116
*1282 FILLER_25_119
*1283 FILLER_25_122
*1284 FILLER_25_125
*1285 FILLER_25_128
*1286 FILLER_25_131
*1287 FILLER_25_134
*1288 FILLER_25_137
*1289 FILLER_25_140
*1290 FILLER_25_143
*1291 FILLER_25_146
*1292 FILLER_25_149
*1293 FILLER_25_152
*1294 FILLER_25_155
*1295 FILLER_25_158
*1296 FILLER_25_161
*1297 FILLER_25_164
*1298 FILLER_25_167
*1299 FILLER_25_169
*1300 FILLER_25_172
*1301 FILLER_25_175
*1302 FILLER_25_178
*1303 FILLER_25_194
*1304 FILLER_25_197
*1305 FILLER_25_200
*1306 FILLER_25_203
*1307 FILLER_25_206
*1308 FILLER_25_209
*1309 FILLER_25_21
*1310 FILLER_25_212
*1311 FILLER_25_215
*1312 FILLER_25_222
*1313 FILLER_25_229
*1314 FILLER_25_24
*1315 FILLER_25_27
*1316 FILLER_25_30
*1317 FILLER_25_33
*1318 FILLER_25_36
*1319 FILLER_25_52
*1320 FILLER_25_55
*1321 FILLER_25_57
*1322 FILLER_25_60
*1323 FILLER_25_63
*1324 FILLER_25_66
*1325 FILLER_25_69
*1326 FILLER_25_72
*1327 FILLER_25_75
*1328 FILLER_25_78
*1329 FILLER_25_81
*1330 FILLER_25_84
*1331 FILLER_25_87
*1332 FILLER_25_90
*1333 FILLER_25_93
*1334 FILLER_25_96
*1335 FILLER_25_99
*1336 FILLER_26_100
*1337 FILLER_26_103
*1338 FILLER_26_106
*1339 FILLER_26_109
*1340 FILLER_26_11
*1341 FILLER_26_112
*1342 FILLER_26_115
*1343 FILLER_26_118
*1344 FILLER_26_121
*1345 FILLER_26_124
*1346 FILLER_26_127
*1347 FILLER_26_130
*1348 FILLER_26_133
*1349 FILLER_26_136
*1350 FILLER_26_139
*1351 FILLER_26_141
*1352 FILLER_26_144
*1353 FILLER_26_147
*1354 FILLER_26_150
*1355 FILLER_26_153
*1356 FILLER_26_156
*1357 FILLER_26_159
*1358 FILLER_26_162
*1359 FILLER_26_165
*1360 FILLER_26_168
*1361 FILLER_26_171
*1362 FILLER_26_174
*1363 FILLER_26_177
*1364 FILLER_26_180
*1365 FILLER_26_19
*1366 FILLER_26_197
*1367 FILLER_26_200
*1368 FILLER_26_203
*1369 FILLER_26_22
*1370 FILLER_26_25
*1371 FILLER_26_29
*1372 FILLER_26_32
*1373 FILLER_26_55
*1374 FILLER_26_61
*1375 FILLER_26_64
*1376 FILLER_26_67
*1377 FILLER_26_70
*1378 FILLER_26_73
*1379 FILLER_26_76
*1380 FILLER_26_79
*1381 FILLER_26_82
*1382 FILLER_26_85
*1383 FILLER_26_88
*1384 FILLER_26_91
*1385 FILLER_26_94
*1386 FILLER_26_97
*1387 FILLER_27_102
*1388 FILLER_27_105
*1389 FILLER_27_108
*1390 FILLER_27_111
*1391 FILLER_27_113
*1392 FILLER_27_116
*1393 FILLER_27_119
*1394 FILLER_27_122
*1395 FILLER_27_125
*1396 FILLER_27_128
*1397 FILLER_27_131
*1398 FILLER_27_134
*1399 FILLER_27_137
*1400 FILLER_27_140
*1401 FILLER_27_143
*1402 FILLER_27_146
*1403 FILLER_27_149
*1404 FILLER_27_152
*1405 FILLER_27_155
*1406 FILLER_27_158
*1407 FILLER_27_16
*1408 FILLER_27_161
*1409 FILLER_27_164
*1410 FILLER_27_167
*1411 FILLER_27_169
*1412 FILLER_27_172
*1413 FILLER_27_175
*1414 FILLER_27_178
*1415 FILLER_27_181
*1416 FILLER_27_184
*1417 FILLER_27_187
*1418 FILLER_27_192
*1419 FILLER_27_195
*1420 FILLER_27_198
*1421 FILLER_27_201
*1422 FILLER_27_204
*1423 FILLER_27_207
*1424 FILLER_27_210
*1425 FILLER_27_225
*1426 FILLER_27_228
*1427 FILLER_27_26
*1428 FILLER_27_29
*1429 FILLER_27_3
*1430 FILLER_27_32
*1431 FILLER_27_48
*1432 FILLER_27_57
*1433 FILLER_27_60
*1434 FILLER_27_63
*1435 FILLER_27_66
*1436 FILLER_27_69
*1437 FILLER_27_72
*1438 FILLER_27_75
*1439 FILLER_27_78
*1440 FILLER_27_81
*1441 FILLER_27_84
*1442 FILLER_27_87
*1443 FILLER_27_90
*1444 FILLER_27_93
*1445 FILLER_27_96
*1446 FILLER_27_99
*1447 FILLER_28_100
*1448 FILLER_28_103
*1449 FILLER_28_106
*1450 FILLER_28_109
*1451 FILLER_28_112
*1452 FILLER_28_115
*1453 FILLER_28_118
*1454 FILLER_28_121
*1455 FILLER_28_124
*1456 FILLER_28_127
*1457 FILLER_28_130
*1458 FILLER_28_133
*1459 FILLER_28_136
*1460 FILLER_28_139
*1461 FILLER_28_141
*1462 FILLER_28_144
*1463 FILLER_28_147
*1464 FILLER_28_150
*1465 FILLER_28_153
*1466 FILLER_28_156
*1467 FILLER_28_159
*1468 FILLER_28_16
*1469 FILLER_28_162
*1470 FILLER_28_165
*1471 FILLER_28_168
*1472 FILLER_28_171
*1473 FILLER_28_174
*1474 FILLER_28_177
*1475 FILLER_28_180
*1476 FILLER_28_197
*1477 FILLER_28_200
*1478 FILLER_28_218
*1479 FILLER_28_221
*1480 FILLER_28_233
*1481 FILLER_28_236
*1482 FILLER_28_26
*1483 FILLER_28_32
*1484 FILLER_28_35
*1485 FILLER_28_38
*1486 FILLER_28_52
*1487 FILLER_28_55
*1488 FILLER_28_58
*1489 FILLER_28_61
*1490 FILLER_28_67
*1491 FILLER_28_70
*1492 FILLER_28_73
*1493 FILLER_28_76
*1494 FILLER_28_79
*1495 FILLER_28_82
*1496 FILLER_28_85
*1497 FILLER_28_88
*1498 FILLER_28_91
*1499 FILLER_28_94
*1500 FILLER_28_97
*1501 FILLER_29_102
*1502 FILLER_29_105
*1503 FILLER_29_108
*1504 FILLER_29_111
*1505 FILLER_29_113
*1506 FILLER_29_116
*1507 FILLER_29_119
*1508 FILLER_29_122
*1509 FILLER_29_125
*1510 FILLER_29_128
*1511 FILLER_29_131
*1512 FILLER_29_134
*1513 FILLER_29_137
*1514 FILLER_29_140
*1515 FILLER_29_143
*1516 FILLER_29_146
*1517 FILLER_29_149
*1518 FILLER_29_152
*1519 FILLER_29_155
*1520 FILLER_29_158
*1521 FILLER_29_161
*1522 FILLER_29_164
*1523 FILLER_29_167
*1524 FILLER_29_169
*1525 FILLER_29_172
*1526 FILLER_29_175
*1527 FILLER_29_178
*1528 FILLER_29_29
*1529 FILLER_29_3
*1530 FILLER_29_43
*1531 FILLER_29_46
*1532 FILLER_29_49
*1533 FILLER_29_52
*1534 FILLER_29_55
*1535 FILLER_29_57
*1536 FILLER_29_60
*1537 FILLER_29_63
*1538 FILLER_29_66
*1539 FILLER_29_69
*1540 FILLER_29_72
*1541 FILLER_29_75
*1542 FILLER_29_78
*1543 FILLER_29_81
*1544 FILLER_29_84
*1545 FILLER_29_87
*1546 FILLER_29_90
*1547 FILLER_29_93
*1548 FILLER_29_96
*1549 FILLER_29_99
*1550 FILLER_2_103
*1551 FILLER_2_106
*1552 FILLER_2_109
*1553 FILLER_2_112
*1554 FILLER_2_12
*1555 FILLER_2_125
*1556 FILLER_2_128
*1557 FILLER_2_131
*1558 FILLER_2_134
*1559 FILLER_2_137
*1560 FILLER_2_141
*1561 FILLER_2_144
*1562 FILLER_2_147
*1563 FILLER_2_15
*1564 FILLER_2_18
*1565 FILLER_2_190
*1566 FILLER_2_193
*1567 FILLER_2_197
*1568 FILLER_2_200
*1569 FILLER_2_203
*1570 FILLER_2_206
*1571 FILLER_2_209
*1572 FILLER_2_21
*1573 FILLER_2_212
*1574 FILLER_2_218
*1575 FILLER_2_221
*1576 FILLER_2_224
*1577 FILLER_2_227
*1578 FILLER_2_230
*1579 FILLER_2_233
*1580 FILLER_2_236
*1581 FILLER_2_24
*1582 FILLER_2_27
*1583 FILLER_2_29
*1584 FILLER_2_3
*1585 FILLER_2_32
*1586 FILLER_2_45
*1587 FILLER_2_48
*1588 FILLER_2_51
*1589 FILLER_2_54
*1590 FILLER_2_57
*1591 FILLER_2_6
*1592 FILLER_2_60
*1593 FILLER_2_63
*1594 FILLER_2_66
*1595 FILLER_2_69
*1596 FILLER_2_72
*1597 FILLER_2_75
*1598 FILLER_2_78
*1599 FILLER_2_81
*1600 FILLER_2_85
*1601 FILLER_2_88
*1602 FILLER_2_9
*1603 FILLER_30_100
*1604 FILLER_30_103
*1605 FILLER_30_106
*1606 FILLER_30_109
*1607 FILLER_30_112
*1608 FILLER_30_115
*1609 FILLER_30_118
*1610 FILLER_30_121
*1611 FILLER_30_124
*1612 FILLER_30_127
*1613 FILLER_30_130
*1614 FILLER_30_133
*1615 FILLER_30_136
*1616 FILLER_30_139
*1617 FILLER_30_141
*1618 FILLER_30_144
*1619 FILLER_30_147
*1620 FILLER_30_150
*1621 FILLER_30_153
*1622 FILLER_30_156
*1623 FILLER_30_159
*1624 FILLER_30_162
*1625 FILLER_30_165
*1626 FILLER_30_168
*1627 FILLER_30_171
*1628 FILLER_30_174
*1629 FILLER_30_177
*1630 FILLER_30_180
*1631 FILLER_30_19
*1632 FILLER_30_192
*1633 FILLER_30_195
*1634 FILLER_30_197
*1635 FILLER_30_200
*1636 FILLER_30_212
*1637 FILLER_30_215
*1638 FILLER_30_27
*1639 FILLER_30_29
*1640 FILLER_30_32
*1641 FILLER_30_35
*1642 FILLER_30_38
*1643 FILLER_30_41
*1644 FILLER_30_44
*1645 FILLER_30_53
*1646 FILLER_30_56
*1647 FILLER_30_71
*1648 FILLER_30_74
*1649 FILLER_30_77
*1650 FILLER_30_80
*1651 FILLER_30_83
*1652 FILLER_30_85
*1653 FILLER_30_88
*1654 FILLER_30_91
*1655 FILLER_30_94
*1656 FILLER_30_97
*1657 FILLER_31_102
*1658 FILLER_31_105
*1659 FILLER_31_108
*1660 FILLER_31_111
*1661 FILLER_31_113
*1662 FILLER_31_116
*1663 FILLER_31_119
*1664 FILLER_31_122
*1665 FILLER_31_125
*1666 FILLER_31_128
*1667 FILLER_31_131
*1668 FILLER_31_134
*1669 FILLER_31_137
*1670 FILLER_31_140
*1671 FILLER_31_143
*1672 FILLER_31_146
*1673 FILLER_31_149
*1674 FILLER_31_152
*1675 FILLER_31_155
*1676 FILLER_31_158
*1677 FILLER_31_161
*1678 FILLER_31_164
*1679 FILLER_31_167
*1680 FILLER_31_191
*1681 FILLER_31_194
*1682 FILLER_31_197
*1683 FILLER_31_200
*1684 FILLER_31_203
*1685 FILLER_31_206
*1686 FILLER_31_209
*1687 FILLER_31_212
*1688 FILLER_31_215
*1689 FILLER_31_218
*1690 FILLER_31_22
*1691 FILLER_31_221
*1692 FILLER_31_25
*1693 FILLER_31_28
*1694 FILLER_31_31
*1695 FILLER_31_34
*1696 FILLER_31_37
*1697 FILLER_31_40
*1698 FILLER_31_51
*1699 FILLER_31_54
*1700 FILLER_31_57
*1701 FILLER_31_60
*1702 FILLER_31_69
*1703 FILLER_31_72
*1704 FILLER_31_75
*1705 FILLER_31_78
*1706 FILLER_31_81
*1707 FILLER_31_84
*1708 FILLER_31_87
*1709 FILLER_31_90
*1710 FILLER_31_93
*1711 FILLER_31_96
*1712 FILLER_31_99
*1713 FILLER_32_105
*1714 FILLER_32_108
*1715 FILLER_32_111
*1716 FILLER_32_114
*1717 FILLER_32_117
*1718 FILLER_32_120
*1719 FILLER_32_123
*1720 FILLER_32_126
*1721 FILLER_32_129
*1722 FILLER_32_132
*1723 FILLER_32_135
*1724 FILLER_32_138
*1725 FILLER_32_141
*1726 FILLER_32_144
*1727 FILLER_32_147
*1728 FILLER_32_150
*1729 FILLER_32_153
*1730 FILLER_32_156
*1731 FILLER_32_159
*1732 FILLER_32_162
*1733 FILLER_32_165
*1734 FILLER_32_168
*1735 FILLER_32_17
*1736 FILLER_32_185
*1737 FILLER_32_188
*1738 FILLER_32_191
*1739 FILLER_32_194
*1740 FILLER_32_197
*1741 FILLER_32_20
*1742 FILLER_32_200
*1743 FILLER_32_203
*1744 FILLER_32_206
*1745 FILLER_32_209
*1746 FILLER_32_212
*1747 FILLER_32_215
*1748 FILLER_32_218
*1749 FILLER_32_221
*1750 FILLER_32_23
*1751 FILLER_32_26
*1752 FILLER_32_29
*1753 FILLER_32_3
*1754 FILLER_32_32
*1755 FILLER_32_35
*1756 FILLER_32_38
*1757 FILLER_32_41
*1758 FILLER_32_44
*1759 FILLER_32_47
*1760 FILLER_32_50
*1761 FILLER_32_53
*1762 FILLER_32_56
*1763 FILLER_32_59
*1764 FILLER_32_62
*1765 FILLER_32_69
*1766 FILLER_32_72
*1767 FILLER_32_75
*1768 FILLER_32_78
*1769 FILLER_32_81
*1770 FILLER_32_85
*1771 FILLER_32_88
*1772 FILLER_32_91
*1773 FILLER_32_94
*1774 FILLER_32_97
*1775 FILLER_33_113
*1776 FILLER_33_116
*1777 FILLER_33_119
*1778 FILLER_33_122
*1779 FILLER_33_125
*1780 FILLER_33_128
*1781 FILLER_33_131
*1782 FILLER_33_134
*1783 FILLER_33_137
*1784 FILLER_33_140
*1785 FILLER_33_143
*1786 FILLER_33_146
*1787 FILLER_33_149
*1788 FILLER_33_152
*1789 FILLER_33_155
*1790 FILLER_33_158
*1791 FILLER_33_161
*1792 FILLER_33_164
*1793 FILLER_33_167
*1794 FILLER_33_169
*1795 FILLER_33_172
*1796 FILLER_33_175
*1797 FILLER_33_178
*1798 FILLER_33_181
*1799 FILLER_33_184
*1800 FILLER_33_187
*1801 FILLER_33_190
*1802 FILLER_33_193
*1803 FILLER_33_196
*1804 FILLER_33_199
*1805 FILLER_33_202
*1806 FILLER_33_205
*1807 FILLER_33_208
*1808 FILLER_33_211
*1809 FILLER_33_214
*1810 FILLER_33_217
*1811 FILLER_33_220
*1812 FILLER_33_223
*1813 FILLER_33_225
*1814 FILLER_33_29
*1815 FILLER_33_3
*1816 FILLER_33_32
*1817 FILLER_33_35
*1818 FILLER_33_38
*1819 FILLER_33_41
*1820 FILLER_33_50
*1821 FILLER_33_53
*1822 FILLER_33_57
*1823 FILLER_33_6
*1824 FILLER_33_60
*1825 FILLER_33_63
*1826 FILLER_33_66
*1827 FILLER_33_78
*1828 FILLER_33_81
*1829 FILLER_33_84
*1830 FILLER_33_87
*1831 FILLER_33_9
*1832 FILLER_33_90
*1833 FILLER_33_93
*1834 FILLER_33_96
*1835 FILLER_34_100
*1836 FILLER_34_103
*1837 FILLER_34_118
*1838 FILLER_34_134
*1839 FILLER_34_137
*1840 FILLER_34_145
*1841 FILLER_34_148
*1842 FILLER_34_151
*1843 FILLER_34_154
*1844 FILLER_34_157
*1845 FILLER_34_160
*1846 FILLER_34_163
*1847 FILLER_34_166
*1848 FILLER_34_169
*1849 FILLER_34_172
*1850 FILLER_34_175
*1851 FILLER_34_178
*1852 FILLER_34_181
*1853 FILLER_34_184
*1854 FILLER_34_187
*1855 FILLER_34_190
*1856 FILLER_34_193
*1857 FILLER_34_197
*1858 FILLER_34_200
*1859 FILLER_34_203
*1860 FILLER_34_206
*1861 FILLER_34_209
*1862 FILLER_34_212
*1863 FILLER_34_215
*1864 FILLER_34_218
*1865 FILLER_34_221
*1866 FILLER_34_224
*1867 FILLER_34_227
*1868 FILLER_34_230
*1869 FILLER_34_233
*1870 FILLER_34_236
*1871 FILLER_34_24
*1872 FILLER_34_27
*1873 FILLER_34_29
*1874 FILLER_34_3
*1875 FILLER_34_32
*1876 FILLER_34_35
*1877 FILLER_34_51
*1878 FILLER_34_54
*1879 FILLER_34_57
*1880 FILLER_34_6
*1881 FILLER_34_60
*1882 FILLER_34_63
*1883 FILLER_34_66
*1884 FILLER_34_69
*1885 FILLER_34_72
*1886 FILLER_34_75
*1887 FILLER_34_85
*1888 FILLER_34_88
*1889 FILLER_34_9
*1890 FILLER_34_91
*1891 FILLER_34_94
*1892 FILLER_34_97
*1893 FILLER_35_111
*1894 FILLER_35_113
*1895 FILLER_35_116
*1896 FILLER_35_140
*1897 FILLER_35_143
*1898 FILLER_35_146
*1899 FILLER_35_149
*1900 FILLER_35_152
*1901 FILLER_35_155
*1902 FILLER_35_158
*1903 FILLER_35_161
*1904 FILLER_35_164
*1905 FILLER_35_167
*1906 FILLER_35_169
*1907 FILLER_35_172
*1908 FILLER_35_175
*1909 FILLER_35_178
*1910 FILLER_35_181
*1911 FILLER_35_184
*1912 FILLER_35_187
*1913 FILLER_35_190
*1914 FILLER_35_193
*1915 FILLER_35_196
*1916 FILLER_35_199
*1917 FILLER_35_20
*1918 FILLER_35_202
*1919 FILLER_35_205
*1920 FILLER_35_208
*1921 FILLER_35_211
*1922 FILLER_35_214
*1923 FILLER_35_217
*1924 FILLER_35_220
*1925 FILLER_35_223
*1926 FILLER_35_225
*1927 FILLER_35_228
*1928 FILLER_35_23
*1929 FILLER_35_231
*1930 FILLER_35_234
*1931 FILLER_35_237
*1932 FILLER_35_26
*1933 FILLER_35_29
*1934 FILLER_35_32
*1935 FILLER_35_35
*1936 FILLER_35_38
*1937 FILLER_35_41
*1938 FILLER_35_44
*1939 FILLER_35_47
*1940 FILLER_35_50
*1941 FILLER_35_53
*1942 FILLER_35_57
*1943 FILLER_35_60
*1944 FILLER_35_63
*1945 FILLER_35_66
*1946 FILLER_35_90
*1947 FILLER_35_93
*1948 FILLER_35_96
*1949 FILLER_36_107
*1950 FILLER_36_110
*1951 FILLER_36_113
*1952 FILLER_36_116
*1953 FILLER_36_119
*1954 FILLER_36_122
*1955 FILLER_36_141
*1956 FILLER_36_144
*1957 FILLER_36_147
*1958 FILLER_36_150
*1959 FILLER_36_153
*1960 FILLER_36_156
*1961 FILLER_36_159
*1962 FILLER_36_162
*1963 FILLER_36_165
*1964 FILLER_36_168
*1965 FILLER_36_17
*1966 FILLER_36_171
*1967 FILLER_36_174
*1968 FILLER_36_177
*1969 FILLER_36_180
*1970 FILLER_36_183
*1971 FILLER_36_186
*1972 FILLER_36_189
*1973 FILLER_36_192
*1974 FILLER_36_195
*1975 FILLER_36_197
*1976 FILLER_36_20
*1977 FILLER_36_200
*1978 FILLER_36_203
*1979 FILLER_36_206
*1980 FILLER_36_209
*1981 FILLER_36_212
*1982 FILLER_36_215
*1983 FILLER_36_218
*1984 FILLER_36_221
*1985 FILLER_36_224
*1986 FILLER_36_227
*1987 FILLER_36_23
*1988 FILLER_36_230
*1989 FILLER_36_233
*1990 FILLER_36_236
*1991 FILLER_36_26
*1992 FILLER_36_29
*1993 FILLER_36_32
*1994 FILLER_36_35
*1995 FILLER_36_38
*1996 FILLER_36_61
*1997 FILLER_36_64
*1998 FILLER_36_67
*1999 FILLER_36_70
*2000 FILLER_36_73
*2001 FILLER_36_80
*2002 FILLER_36_83
*2003 FILLER_36_85
*2004 FILLER_36_88
*2005 FILLER_36_91
*2006 FILLER_36_94
*2007 FILLER_36_97
*2008 FILLER_37_11
*2009 FILLER_37_113
*2010 FILLER_37_122
*2011 FILLER_37_132
*2012 FILLER_37_135
*2013 FILLER_37_138
*2014 FILLER_37_14
*2015 FILLER_37_141
*2016 FILLER_37_144
*2017 FILLER_37_147
*2018 FILLER_37_150
*2019 FILLER_37_153
*2020 FILLER_37_156
*2021 FILLER_37_159
*2022 FILLER_37_162
*2023 FILLER_37_165
*2024 FILLER_37_169
*2025 FILLER_37_17
*2026 FILLER_37_172
*2027 FILLER_37_175
*2028 FILLER_37_178
*2029 FILLER_37_181
*2030 FILLER_37_184
*2031 FILLER_37_187
*2032 FILLER_37_190
*2033 FILLER_37_193
*2034 FILLER_37_196
*2035 FILLER_37_199
*2036 FILLER_37_20
*2037 FILLER_37_202
*2038 FILLER_37_205
*2039 FILLER_37_208
*2040 FILLER_37_211
*2041 FILLER_37_214
*2042 FILLER_37_217
*2043 FILLER_37_220
*2044 FILLER_37_223
*2045 FILLER_37_225
*2046 FILLER_37_228
*2047 FILLER_37_23
*2048 FILLER_37_231
*2049 FILLER_37_234
*2050 FILLER_37_237
*2051 FILLER_37_26
*2052 FILLER_37_29
*2053 FILLER_37_32
*2054 FILLER_37_35
*2055 FILLER_37_38
*2056 FILLER_37_41
*2057 FILLER_37_44
*2058 FILLER_37_47
*2059 FILLER_37_57
*2060 FILLER_37_60
*2061 FILLER_37_63
*2062 FILLER_37_66
*2063 FILLER_37_69
*2064 FILLER_37_72
*2065 FILLER_37_75
*2066 FILLER_37_83
*2067 FILLER_37_86
*2068 FILLER_37_89
*2069 FILLER_37_92
*2070 FILLER_37_95
*2071 FILLER_37_98
*2072 FILLER_38_102
*2073 FILLER_38_110
*2074 FILLER_38_113
*2075 FILLER_38_12
*2076 FILLER_38_128
*2077 FILLER_38_137
*2078 FILLER_38_141
*2079 FILLER_38_144
*2080 FILLER_38_147
*2081 FILLER_38_15
*2082 FILLER_38_150
*2083 FILLER_38_153
*2084 FILLER_38_156
*2085 FILLER_38_159
*2086 FILLER_38_162
*2087 FILLER_38_165
*2088 FILLER_38_168
*2089 FILLER_38_171
*2090 FILLER_38_174
*2091 FILLER_38_177
*2092 FILLER_38_18
*2093 FILLER_38_180
*2094 FILLER_38_183
*2095 FILLER_38_186
*2096 FILLER_38_189
*2097 FILLER_38_192
*2098 FILLER_38_195
*2099 FILLER_38_197
*2100 FILLER_38_200
*2101 FILLER_38_203
*2102 FILLER_38_206
*2103 FILLER_38_209
*2104 FILLER_38_21
*2105 FILLER_38_212
*2106 FILLER_38_215
*2107 FILLER_38_218
*2108 FILLER_38_221
*2109 FILLER_38_224
*2110 FILLER_38_227
*2111 FILLER_38_230
*2112 FILLER_38_233
*2113 FILLER_38_236
*2114 FILLER_38_24
*2115 FILLER_38_27
*2116 FILLER_38_29
*2117 FILLER_38_3
*2118 FILLER_38_32
*2119 FILLER_38_35
*2120 FILLER_38_38
*2121 FILLER_38_41
*2122 FILLER_38_55
*2123 FILLER_38_58
*2124 FILLER_38_6
*2125 FILLER_38_67
*2126 FILLER_38_70
*2127 FILLER_38_83
*2128 FILLER_38_9
*2129 FILLER_38_90
*2130 FILLER_38_93
*2131 FILLER_38_96
*2132 FILLER_38_99
*2133 FILLER_39_102
*2134 FILLER_39_113
*2135 FILLER_39_12
*2136 FILLER_39_139
*2137 FILLER_39_141
*2138 FILLER_39_144
*2139 FILLER_39_147
*2140 FILLER_39_15
*2141 FILLER_39_150
*2142 FILLER_39_153
*2143 FILLER_39_156
*2144 FILLER_39_167
*2145 FILLER_39_169
*2146 FILLER_39_172
*2147 FILLER_39_175
*2148 FILLER_39_178
*2149 FILLER_39_18
*2150 FILLER_39_181
*2151 FILLER_39_184
*2152 FILLER_39_187
*2153 FILLER_39_190
*2154 FILLER_39_193
*2155 FILLER_39_197
*2156 FILLER_39_200
*2157 FILLER_39_203
*2158 FILLER_39_206
*2159 FILLER_39_209
*2160 FILLER_39_21
*2161 FILLER_39_212
*2162 FILLER_39_215
*2163 FILLER_39_218
*2164 FILLER_39_221
*2165 FILLER_39_225
*2166 FILLER_39_228
*2167 FILLER_39_231
*2168 FILLER_39_234
*2169 FILLER_39_237
*2170 FILLER_39_24
*2171 FILLER_39_27
*2172 FILLER_39_29
*2173 FILLER_39_3
*2174 FILLER_39_32
*2175 FILLER_39_35
*2176 FILLER_39_38
*2177 FILLER_39_41
*2178 FILLER_39_44
*2179 FILLER_39_47
*2180 FILLER_39_50
*2181 FILLER_39_57
*2182 FILLER_39_6
*2183 FILLER_39_85
*2184 FILLER_39_9
*2185 FILLER_3_103
*2186 FILLER_3_111
*2187 FILLER_3_113
*2188 FILLER_3_116
*2189 FILLER_3_119
*2190 FILLER_3_12
*2191 FILLER_3_122
*2192 FILLER_3_125
*2193 FILLER_3_139
*2194 FILLER_3_142
*2195 FILLER_3_145
*2196 FILLER_3_148
*2197 FILLER_3_15
*2198 FILLER_3_151
*2199 FILLER_3_154
*2200 FILLER_3_157
*2201 FILLER_3_160
*2202 FILLER_3_169
*2203 FILLER_3_172
*2204 FILLER_3_175
*2205 FILLER_3_178
*2206 FILLER_3_18
*2207 FILLER_3_181
*2208 FILLER_3_205
*2209 FILLER_3_208
*2210 FILLER_3_21
*2211 FILLER_3_216
*2212 FILLER_3_219
*2213 FILLER_3_222
*2214 FILLER_3_225
*2215 FILLER_3_228
*2216 FILLER_3_231
*2217 FILLER_3_234
*2218 FILLER_3_237
*2219 FILLER_3_24
*2220 FILLER_3_27
*2221 FILLER_3_3
*2222 FILLER_3_30
*2223 FILLER_3_41
*2224 FILLER_3_53
*2225 FILLER_3_57
*2226 FILLER_3_6
*2227 FILLER_3_60
*2228 FILLER_3_63
*2229 FILLER_3_66
*2230 FILLER_3_69
*2231 FILLER_3_72
*2232 FILLER_3_75
*2233 FILLER_3_78
*2234 FILLER_3_81
*2235 FILLER_3_84
*2236 FILLER_3_87
*2237 FILLER_3_9
*2238 FILLER_3_90
*2239 FILLER_3_93
*2240 FILLER_3_96
*2241 FILLER_4_100
*2242 FILLER_4_110
*2243 FILLER_4_12
*2244 FILLER_4_133
*2245 FILLER_4_136
*2246 FILLER_4_139
*2247 FILLER_4_141
*2248 FILLER_4_144
*2249 FILLER_4_147
*2250 FILLER_4_15
*2251 FILLER_4_150
*2252 FILLER_4_153
*2253 FILLER_4_156
*2254 FILLER_4_159
*2255 FILLER_4_175
*2256 FILLER_4_178
*2257 FILLER_4_18
*2258 FILLER_4_181
*2259 FILLER_4_191
*2260 FILLER_4_194
*2261 FILLER_4_197
*2262 FILLER_4_200
*2263 FILLER_4_203
*2264 FILLER_4_206
*2265 FILLER_4_21
*2266 FILLER_4_211
*2267 FILLER_4_214
*2268 FILLER_4_217
*2269 FILLER_4_232
*2270 FILLER_4_235
*2271 FILLER_4_24
*2272 FILLER_4_27
*2273 FILLER_4_29
*2274 FILLER_4_3
*2275 FILLER_4_32
*2276 FILLER_4_35
*2277 FILLER_4_38
*2278 FILLER_4_41
*2279 FILLER_4_6
*2280 FILLER_4_65
*2281 FILLER_4_68
*2282 FILLER_4_71
*2283 FILLER_4_74
*2284 FILLER_4_77
*2285 FILLER_4_80
*2286 FILLER_4_83
*2287 FILLER_4_85
*2288 FILLER_4_88
*2289 FILLER_4_9
*2290 FILLER_4_91
*2291 FILLER_4_94
*2292 FILLER_4_97
*2293 FILLER_5_100
*2294 FILLER_5_103
*2295 FILLER_5_106
*2296 FILLER_5_109
*2297 FILLER_5_113
*2298 FILLER_5_116
*2299 FILLER_5_119
*2300 FILLER_5_122
*2301 FILLER_5_125
*2302 FILLER_5_128
*2303 FILLER_5_131
*2304 FILLER_5_134
*2305 FILLER_5_137
*2306 FILLER_5_140
*2307 FILLER_5_143
*2308 FILLER_5_146
*2309 FILLER_5_149
*2310 FILLER_5_152
*2311 FILLER_5_155
*2312 FILLER_5_158
*2313 FILLER_5_161
*2314 FILLER_5_164
*2315 FILLER_5_167
*2316 FILLER_5_169
*2317 FILLER_5_17
*2318 FILLER_5_172
*2319 FILLER_5_175
*2320 FILLER_5_178
*2321 FILLER_5_181
*2322 FILLER_5_184
*2323 FILLER_5_187
*2324 FILLER_5_190
*2325 FILLER_5_20
*2326 FILLER_5_206
*2327 FILLER_5_209
*2328 FILLER_5_212
*2329 FILLER_5_215
*2330 FILLER_5_218
*2331 FILLER_5_221
*2332 FILLER_5_225
*2333 FILLER_5_228
*2334 FILLER_5_23
*2335 FILLER_5_26
*2336 FILLER_5_29
*2337 FILLER_5_3
*2338 FILLER_5_40
*2339 FILLER_5_43
*2340 FILLER_5_46
*2341 FILLER_5_70
*2342 FILLER_5_73
*2343 FILLER_5_76
*2344 FILLER_5_79
*2345 FILLER_5_82
*2346 FILLER_5_85
*2347 FILLER_5_88
*2348 FILLER_5_91
*2349 FILLER_5_94
*2350 FILLER_5_97
*2351 FILLER_6_100
*2352 FILLER_6_103
*2353 FILLER_6_106
*2354 FILLER_6_109
*2355 FILLER_6_112
*2356 FILLER_6_115
*2357 FILLER_6_118
*2358 FILLER_6_121
*2359 FILLER_6_124
*2360 FILLER_6_127
*2361 FILLER_6_130
*2362 FILLER_6_133
*2363 FILLER_6_136
*2364 FILLER_6_139
*2365 FILLER_6_14
*2366 FILLER_6_141
*2367 FILLER_6_144
*2368 FILLER_6_147
*2369 FILLER_6_150
*2370 FILLER_6_153
*2371 FILLER_6_156
*2372 FILLER_6_159
*2373 FILLER_6_162
*2374 FILLER_6_165
*2375 FILLER_6_168
*2376 FILLER_6_171
*2377 FILLER_6_174
*2378 FILLER_6_177
*2379 FILLER_6_180
*2380 FILLER_6_183
*2381 FILLER_6_186
*2382 FILLER_6_195
*2383 FILLER_6_209
*2384 FILLER_6_21
*2385 FILLER_6_212
*2386 FILLER_6_215
*2387 FILLER_6_218
*2388 FILLER_6_232
*2389 FILLER_6_235
*2390 FILLER_6_24
*2391 FILLER_6_27
*2392 FILLER_6_29
*2393 FILLER_6_3
*2394 FILLER_6_36
*2395 FILLER_6_39
*2396 FILLER_6_42
*2397 FILLER_6_45
*2398 FILLER_6_48
*2399 FILLER_6_51
*2400 FILLER_6_54
*2401 FILLER_6_57
*2402 FILLER_6_6
*2403 FILLER_6_60
*2404 FILLER_6_63
*2405 FILLER_6_66
*2406 FILLER_6_69
*2407 FILLER_6_72
*2408 FILLER_6_75
*2409 FILLER_6_78
*2410 FILLER_6_81
*2411 FILLER_6_85
*2412 FILLER_6_88
*2413 FILLER_6_91
*2414 FILLER_6_94
*2415 FILLER_6_97
*2416 FILLER_7_102
*2417 FILLER_7_105
*2418 FILLER_7_108
*2419 FILLER_7_11
*2420 FILLER_7_111
*2421 FILLER_7_113
*2422 FILLER_7_116
*2423 FILLER_7_119
*2424 FILLER_7_122
*2425 FILLER_7_125
*2426 FILLER_7_128
*2427 FILLER_7_131
*2428 FILLER_7_134
*2429 FILLER_7_137
*2430 FILLER_7_140
*2431 FILLER_7_143
*2432 FILLER_7_146
*2433 FILLER_7_149
*2434 FILLER_7_152
*2435 FILLER_7_155
*2436 FILLER_7_158
*2437 FILLER_7_161
*2438 FILLER_7_164
*2439 FILLER_7_167
*2440 FILLER_7_169
*2441 FILLER_7_172
*2442 FILLER_7_175
*2443 FILLER_7_178
*2444 FILLER_7_181
*2445 FILLER_7_184
*2446 FILLER_7_187
*2447 FILLER_7_190
*2448 FILLER_7_193
*2449 FILLER_7_206
*2450 FILLER_7_21
*2451 FILLER_7_222
*2452 FILLER_7_225
*2453 FILLER_7_228
*2454 FILLER_7_24
*2455 FILLER_7_27
*2456 FILLER_7_30
*2457 FILLER_7_33
*2458 FILLER_7_36
*2459 FILLER_7_39
*2460 FILLER_7_42
*2461 FILLER_7_45
*2462 FILLER_7_48
*2463 FILLER_7_51
*2464 FILLER_7_54
*2465 FILLER_7_57
*2466 FILLER_7_60
*2467 FILLER_7_63
*2468 FILLER_7_66
*2469 FILLER_7_69
*2470 FILLER_7_72
*2471 FILLER_7_75
*2472 FILLER_7_78
*2473 FILLER_7_81
*2474 FILLER_7_84
*2475 FILLER_7_87
*2476 FILLER_7_90
*2477 FILLER_7_93
*2478 FILLER_7_96
*2479 FILLER_7_99
*2480 FILLER_8_100
*2481 FILLER_8_103
*2482 FILLER_8_106
*2483 FILLER_8_109
*2484 FILLER_8_112
*2485 FILLER_8_115
*2486 FILLER_8_118
*2487 FILLER_8_121
*2488 FILLER_8_124
*2489 FILLER_8_127
*2490 FILLER_8_130
*2491 FILLER_8_133
*2492 FILLER_8_136
*2493 FILLER_8_139
*2494 FILLER_8_141
*2495 FILLER_8_144
*2496 FILLER_8_147
*2497 FILLER_8_150
*2498 FILLER_8_153
*2499 FILLER_8_156
*2500 FILLER_8_159
*2501 FILLER_8_162
*2502 FILLER_8_165
*2503 FILLER_8_168
*2504 FILLER_8_17
*2505 FILLER_8_171
*2506 FILLER_8_174
*2507 FILLER_8_177
*2508 FILLER_8_180
*2509 FILLER_8_183
*2510 FILLER_8_186
*2511 FILLER_8_189
*2512 FILLER_8_192
*2513 FILLER_8_195
*2514 FILLER_8_20
*2515 FILLER_8_210
*2516 FILLER_8_213
*2517 FILLER_8_216
*2518 FILLER_8_219
*2519 FILLER_8_222
*2520 FILLER_8_225
*2521 FILLER_8_23
*2522 FILLER_8_26
*2523 FILLER_8_29
*2524 FILLER_8_32
*2525 FILLER_8_35
*2526 FILLER_8_38
*2527 FILLER_8_48
*2528 FILLER_8_51
*2529 FILLER_8_54
*2530 FILLER_8_57
*2531 FILLER_8_60
*2532 FILLER_8_63
*2533 FILLER_8_66
*2534 FILLER_8_69
*2535 FILLER_8_72
*2536 FILLER_8_75
*2537 FILLER_8_78
*2538 FILLER_8_81
*2539 FILLER_8_85
*2540 FILLER_8_88
*2541 FILLER_8_91
*2542 FILLER_8_94
*2543 FILLER_8_97
*2544 FILLER_9_102
*2545 FILLER_9_105
*2546 FILLER_9_108
*2547 FILLER_9_11
*2548 FILLER_9_111
*2549 FILLER_9_113
*2550 FILLER_9_116
*2551 FILLER_9_119
*2552 FILLER_9_122
*2553 FILLER_9_125
*2554 FILLER_9_128
*2555 FILLER_9_131
*2556 FILLER_9_134
*2557 FILLER_9_137
*2558 FILLER_9_14
*2559 FILLER_9_140
*2560 FILLER_9_143
*2561 FILLER_9_146
*2562 FILLER_9_149
*2563 FILLER_9_152
*2564 FILLER_9_155
*2565 FILLER_9_158
*2566 FILLER_9_161
*2567 FILLER_9_164
*2568 FILLER_9_167
*2569 FILLER_9_169
*2570 FILLER_9_172
*2571 FILLER_9_175
*2572 FILLER_9_178
*2573 FILLER_9_181
*2574 FILLER_9_184
*2575 FILLER_9_187
*2576 FILLER_9_190
*2577 FILLER_9_193
*2578 FILLER_9_196
*2579 FILLER_9_199
*2580 FILLER_9_202
*2581 FILLER_9_205
*2582 FILLER_9_208
*2583 FILLER_9_211
*2584 FILLER_9_214
*2585 FILLER_9_217
*2586 FILLER_9_22
*2587 FILLER_9_220
*2588 FILLER_9_223
*2589 FILLER_9_25
*2590 FILLER_9_28
*2591 FILLER_9_31
*2592 FILLER_9_34
*2593 FILLER_9_37
*2594 FILLER_9_40
*2595 FILLER_9_55
*2596 FILLER_9_57
*2597 FILLER_9_60
*2598 FILLER_9_63
*2599 FILLER_9_66
*2600 FILLER_9_69
*2601 FILLER_9_72
*2602 FILLER_9_75
*2603 FILLER_9_78
*2604 FILLER_9_81
*2605 FILLER_9_84
*2606 FILLER_9_87
*2607 FILLER_9_90
*2608 FILLER_9_93
*2609 FILLER_9_96
*2610 FILLER_9_99
*2611 PHY_EDGE_ROW_0_Left_40
*2612 PHY_EDGE_ROW_0_Right_0
*2613 PHY_EDGE_ROW_10_Left_50
*2614 PHY_EDGE_ROW_10_Right_10
*2615 PHY_EDGE_ROW_11_Left_51
*2616 PHY_EDGE_ROW_11_Right_11
*2617 PHY_EDGE_ROW_12_Left_52
*2618 PHY_EDGE_ROW_12_Right_12
*2619 PHY_EDGE_ROW_13_Left_53
*2620 PHY_EDGE_ROW_13_Right_13
*2621 PHY_EDGE_ROW_14_Left_54
*2622 PHY_EDGE_ROW_14_Right_14
*2623 PHY_EDGE_ROW_15_Left_55
*2624 PHY_EDGE_ROW_15_Right_15
*2625 PHY_EDGE_ROW_16_Left_56
*2626 PHY_EDGE_ROW_16_Right_16
*2627 PHY_EDGE_ROW_17_Left_57
*2628 PHY_EDGE_ROW_17_Right_17
*2629 PHY_EDGE_ROW_18_Left_58
*2630 PHY_EDGE_ROW_18_Right_18
*2631 PHY_EDGE_ROW_19_Left_59
*2632 PHY_EDGE_ROW_19_Right_19
*2633 PHY_EDGE_ROW_1_Left_41
*2634 PHY_EDGE_ROW_1_Right_1
*2635 PHY_EDGE_ROW_20_Left_60
*2636 PHY_EDGE_ROW_20_Right_20
*2637 PHY_EDGE_ROW_21_Left_61
*2638 PHY_EDGE_ROW_21_Right_21
*2639 PHY_EDGE_ROW_22_Left_62
*2640 PHY_EDGE_ROW_22_Right_22
*2641 PHY_EDGE_ROW_23_Left_63
*2642 PHY_EDGE_ROW_23_Right_23
*2643 PHY_EDGE_ROW_24_Left_64
*2644 PHY_EDGE_ROW_24_Right_24
*2645 PHY_EDGE_ROW_25_Left_65
*2646 PHY_EDGE_ROW_25_Right_25
*2647 PHY_EDGE_ROW_26_Left_66
*2648 PHY_EDGE_ROW_26_Right_26
*2649 PHY_EDGE_ROW_27_Left_67
*2650 PHY_EDGE_ROW_27_Right_27
*2651 PHY_EDGE_ROW_28_Left_68
*2652 PHY_EDGE_ROW_28_Right_28
*2653 PHY_EDGE_ROW_29_Left_69
*2654 PHY_EDGE_ROW_29_Right_29
*2655 PHY_EDGE_ROW_2_Left_42
*2656 PHY_EDGE_ROW_2_Right_2
*2657 PHY_EDGE_ROW_30_Left_70
*2658 PHY_EDGE_ROW_30_Right_30
*2659 PHY_EDGE_ROW_31_Left_71
*2660 PHY_EDGE_ROW_31_Right_31
*2661 PHY_EDGE_ROW_32_Left_72
*2662 PHY_EDGE_ROW_32_Right_32
*2663 PHY_EDGE_ROW_33_Left_73
*2664 PHY_EDGE_ROW_33_Right_33
*2665 PHY_EDGE_ROW_34_Left_74
*2666 PHY_EDGE_ROW_34_Right_34
*2667 PHY_EDGE_ROW_35_Left_75
*2668 PHY_EDGE_ROW_35_Right_35
*2669 PHY_EDGE_ROW_36_Left_76
*2670 PHY_EDGE_ROW_36_Right_36
*2671 PHY_EDGE_ROW_37_Left_77
*2672 PHY_EDGE_ROW_37_Right_37
*2673 PHY_EDGE_ROW_38_Left_78
*2674 PHY_EDGE_ROW_38_Right_38
*2675 PHY_EDGE_ROW_39_Left_79
*2676 PHY_EDGE_ROW_39_Right_39
*2677 PHY_EDGE_ROW_3_Left_43
*2678 PHY_EDGE_ROW_3_Right_3
*2679 PHY_EDGE_ROW_4_Left_44
*2680 PHY_EDGE_ROW_4_Right_4
*2681 PHY_EDGE_ROW_5_Left_45
*2682 PHY_EDGE_ROW_5_Right_5
*2683 PHY_EDGE_ROW_6_Left_46
*2684 PHY_EDGE_ROW_6_Right_6
*2685 PHY_EDGE_ROW_7_Left_47
*2686 PHY_EDGE_ROW_7_Right_7
*2687 PHY_EDGE_ROW_8_Left_48
*2688 PHY_EDGE_ROW_8_Right_8
*2689 PHY_EDGE_ROW_9_Left_49
*2690 PHY_EDGE_ROW_9_Right_9
*2691 TAP_TAPCELL_ROW_0_80
*2692 TAP_TAPCELL_ROW_0_81
*2693 TAP_TAPCELL_ROW_0_82
*2694 TAP_TAPCELL_ROW_0_83
*2695 TAP_TAPCELL_ROW_0_84
*2696 TAP_TAPCELL_ROW_0_85
*2697 TAP_TAPCELL_ROW_0_86
*2698 TAP_TAPCELL_ROW_0_87
*2699 TAP_TAPCELL_ROW_10_124
*2700 TAP_TAPCELL_ROW_10_125
*2701 TAP_TAPCELL_ROW_10_126
*2702 TAP_TAPCELL_ROW_10_127
*2703 TAP_TAPCELL_ROW_11_128
*2704 TAP_TAPCELL_ROW_11_129
*2705 TAP_TAPCELL_ROW_11_130
*2706 TAP_TAPCELL_ROW_11_131
*2707 TAP_TAPCELL_ROW_12_132
*2708 TAP_TAPCELL_ROW_12_133
*2709 TAP_TAPCELL_ROW_12_134
*2710 TAP_TAPCELL_ROW_12_135
*2711 TAP_TAPCELL_ROW_13_136
*2712 TAP_TAPCELL_ROW_13_137
*2713 TAP_TAPCELL_ROW_13_138
*2714 TAP_TAPCELL_ROW_13_139
*2715 TAP_TAPCELL_ROW_14_140
*2716 TAP_TAPCELL_ROW_14_141
*2717 TAP_TAPCELL_ROW_14_142
*2718 TAP_TAPCELL_ROW_14_143
*2719 TAP_TAPCELL_ROW_15_144
*2720 TAP_TAPCELL_ROW_15_145
*2721 TAP_TAPCELL_ROW_15_146
*2722 TAP_TAPCELL_ROW_15_147
*2723 TAP_TAPCELL_ROW_16_148
*2724 TAP_TAPCELL_ROW_16_149
*2725 TAP_TAPCELL_ROW_16_150
*2726 TAP_TAPCELL_ROW_16_151
*2727 TAP_TAPCELL_ROW_17_152
*2728 TAP_TAPCELL_ROW_17_153
*2729 TAP_TAPCELL_ROW_17_154
*2730 TAP_TAPCELL_ROW_17_155
*2731 TAP_TAPCELL_ROW_18_156
*2732 TAP_TAPCELL_ROW_18_157
*2733 TAP_TAPCELL_ROW_18_158
*2734 TAP_TAPCELL_ROW_18_159
*2735 TAP_TAPCELL_ROW_19_160
*2736 TAP_TAPCELL_ROW_19_161
*2737 TAP_TAPCELL_ROW_19_162
*2738 TAP_TAPCELL_ROW_19_163
*2739 TAP_TAPCELL_ROW_1_88
*2740 TAP_TAPCELL_ROW_1_89
*2741 TAP_TAPCELL_ROW_1_90
*2742 TAP_TAPCELL_ROW_1_91
*2743 TAP_TAPCELL_ROW_20_164
*2744 TAP_TAPCELL_ROW_20_165
*2745 TAP_TAPCELL_ROW_20_166
*2746 TAP_TAPCELL_ROW_20_167
*2747 TAP_TAPCELL_ROW_21_168
*2748 TAP_TAPCELL_ROW_21_169
*2749 TAP_TAPCELL_ROW_21_170
*2750 TAP_TAPCELL_ROW_21_171
*2751 TAP_TAPCELL_ROW_22_172
*2752 TAP_TAPCELL_ROW_22_173
*2753 TAP_TAPCELL_ROW_22_174
*2754 TAP_TAPCELL_ROW_22_175
*2755 TAP_TAPCELL_ROW_23_176
*2756 TAP_TAPCELL_ROW_23_177
*2757 TAP_TAPCELL_ROW_23_178
*2758 TAP_TAPCELL_ROW_23_179
*2759 TAP_TAPCELL_ROW_24_180
*2760 TAP_TAPCELL_ROW_24_181
*2761 TAP_TAPCELL_ROW_24_182
*2762 TAP_TAPCELL_ROW_24_183
*2763 TAP_TAPCELL_ROW_25_184
*2764 TAP_TAPCELL_ROW_25_185
*2765 TAP_TAPCELL_ROW_25_186
*2766 TAP_TAPCELL_ROW_25_187
*2767 TAP_TAPCELL_ROW_26_188
*2768 TAP_TAPCELL_ROW_26_189
*2769 TAP_TAPCELL_ROW_26_190
*2770 TAP_TAPCELL_ROW_26_191
*2771 TAP_TAPCELL_ROW_27_192
*2772 TAP_TAPCELL_ROW_27_193
*2773 TAP_TAPCELL_ROW_27_194
*2774 TAP_TAPCELL_ROW_27_195
*2775 TAP_TAPCELL_ROW_28_196
*2776 TAP_TAPCELL_ROW_28_197
*2777 TAP_TAPCELL_ROW_28_198
*2778 TAP_TAPCELL_ROW_28_199
*2779 TAP_TAPCELL_ROW_29_200
*2780 TAP_TAPCELL_ROW_29_201
*2781 TAP_TAPCELL_ROW_29_202
*2782 TAP_TAPCELL_ROW_29_203
*2783 TAP_TAPCELL_ROW_2_92
*2784 TAP_TAPCELL_ROW_2_93
*2785 TAP_TAPCELL_ROW_2_94
*2786 TAP_TAPCELL_ROW_2_95
*2787 TAP_TAPCELL_ROW_30_204
*2788 TAP_TAPCELL_ROW_30_205
*2789 TAP_TAPCELL_ROW_30_206
*2790 TAP_TAPCELL_ROW_30_207
*2791 TAP_TAPCELL_ROW_31_208
*2792 TAP_TAPCELL_ROW_31_209
*2793 TAP_TAPCELL_ROW_31_210
*2794 TAP_TAPCELL_ROW_31_211
*2795 TAP_TAPCELL_ROW_32_212
*2796 TAP_TAPCELL_ROW_32_213
*2797 TAP_TAPCELL_ROW_32_214
*2798 TAP_TAPCELL_ROW_32_215
*2799 TAP_TAPCELL_ROW_33_216
*2800 TAP_TAPCELL_ROW_33_217
*2801 TAP_TAPCELL_ROW_33_218
*2802 TAP_TAPCELL_ROW_33_219
*2803 TAP_TAPCELL_ROW_34_220
*2804 TAP_TAPCELL_ROW_34_221
*2805 TAP_TAPCELL_ROW_34_222
*2806 TAP_TAPCELL_ROW_34_223
*2807 TAP_TAPCELL_ROW_35_224
*2808 TAP_TAPCELL_ROW_35_225
*2809 TAP_TAPCELL_ROW_35_226
*2810 TAP_TAPCELL_ROW_35_227
*2811 TAP_TAPCELL_ROW_36_228
*2812 TAP_TAPCELL_ROW_36_229
*2813 TAP_TAPCELL_ROW_36_230
*2814 TAP_TAPCELL_ROW_36_231
*2815 TAP_TAPCELL_ROW_37_232
*2816 TAP_TAPCELL_ROW_37_233
*2817 TAP_TAPCELL_ROW_37_234
*2818 TAP_TAPCELL_ROW_37_235
*2819 TAP_TAPCELL_ROW_38_236
*2820 TAP_TAPCELL_ROW_38_237
*2821 TAP_TAPCELL_ROW_38_238
*2822 TAP_TAPCELL_ROW_38_239
*2823 TAP_TAPCELL_ROW_39_240
*2824 TAP_TAPCELL_ROW_39_241
*2825 TAP_TAPCELL_ROW_39_242
*2826 TAP_TAPCELL_ROW_39_243
*2827 TAP_TAPCELL_ROW_39_244
*2828 TAP_TAPCELL_ROW_39_245
*2829 TAP_TAPCELL_ROW_39_246
*2830 TAP_TAPCELL_ROW_39_247
*2831 TAP_TAPCELL_ROW_3_96
*2832 TAP_TAPCELL_ROW_3_97
*2833 TAP_TAPCELL_ROW_3_98
*2834 TAP_TAPCELL_ROW_3_99
*2835 TAP_TAPCELL_ROW_4_100
*2836 TAP_TAPCELL_ROW_4_101
*2837 TAP_TAPCELL_ROW_4_102
*2838 TAP_TAPCELL_ROW_4_103
*2839 TAP_TAPCELL_ROW_5_104
*2840 TAP_TAPCELL_ROW_5_105
*2841 TAP_TAPCELL_ROW_5_106
*2842 TAP_TAPCELL_ROW_5_107
*2843 TAP_TAPCELL_ROW_6_108
*2844 TAP_TAPCELL_ROW_6_109
*2845 TAP_TAPCELL_ROW_6_110
*2846 TAP_TAPCELL_ROW_6_111
*2847 TAP_TAPCELL_ROW_7_112
*2848 TAP_TAPCELL_ROW_7_113
*2849 TAP_TAPCELL_ROW_7_114
*2850 TAP_TAPCELL_ROW_7_115
*2851 TAP_TAPCELL_ROW_8_116
*2852 TAP_TAPCELL_ROW_8_117
*2853 TAP_TAPCELL_ROW_8_118
*2854 TAP_TAPCELL_ROW_8_119
*2855 TAP_TAPCELL_ROW_9_120
*2856 TAP_TAPCELL_ROW_9_121
*2857 TAP_TAPCELL_ROW_9_122
*2858 TAP_TAPCELL_ROW_9_123
*2859 _208_
*2860 _209_
*2861 _210_
*2862 _211_
*2863 _212_
*2864 _213_
*2865 _214_
*2866 _215_
*2867 _216_
*2868 _217_
*2869 _218_
*2870 _219_
*2871 _220_
*2872 _221_
*2873 _222_
*2874 _223_
*2875 _224_
*2876 _225_
*2877 _226_
*2878 _227_
*2879 _228_
*2880 _229_
*2881 _230_
*2882 _231_
*2883 _232_
*2884 _233_
*2885 _234_
*2886 _235_
*2887 _236_
*2888 _237_
*2889 _238_
*2890 _239_
*2891 _240_
*2892 _241_
*2893 _242_
*2894 _243_
*2895 _244_
*2896 _245_
*2897 _246_
*2898 _247_
*2899 _248_
*2900 _249_
*2901 _250_
*2902 _251_
*2903 _252_
*2904 _253_
*2905 _254_
*2906 _255_
*2907 _256_
*2908 _257_
*2909 _258_
*2910 _259_
*2911 _260_
*2912 _261_
*2913 _262_
*2914 _263_
*2915 _264_
*2916 _265_
*2917 _266_
*2918 _267_
*2919 _268_
*2920 _269_
*2921 _270_
*2922 _271_
*2923 _272_
*2924 _273_
*2925 _274_
*2926 _275_
*2927 _276_
*2928 _277_
*2929 _278_
*2930 _279_
*2931 _280_
*2932 _281_
*2933 _282_
*2934 _283_
*2935 _284_
*2936 _285_
*2937 _286_
*2938 _287_
*2939 _288_
*2940 _289_
*2941 _290_
*2942 _291_
*2943 _292_
*2944 _293_
*2945 _294_
*2946 _295_
*2947 _296_
*2948 _297_
*2949 _298_
*2950 _299_
*2951 _300_
*2952 _301_
*2953 _302_
*2954 _303_
*2955 _304_
*2956 _305_
*2957 _306_
*2958 _307_
*2959 _308_
*2960 _309_
*2961 _310_
*2962 _311_
*2963 _312_
*2964 _313_
*2965 _314_
*2966 _315_
*2967 _316_
*2968 _317_
*2969 _318_
*2970 _319_
*2971 _320_
*2972 _321_
*2973 _322_
*2974 _323_
*2975 _324_
*2976 _325_
*2977 _326_
*2978 _327_
*2979 _328_
*2980 _329_
*2981 _330_
*2982 _331_
*2983 _332_
*2984 _333_
*2985 _334_
*2986 _335_
*2987 _336_
*2988 _337_
*2989 _338_
*2990 _339_
*2991 _340_
*2992 _341_
*2993 _342_
*2994 _343_
*2995 _344_
*2996 _345_
*2997 _346_
*2998 _347_
*2999 _348_
*3000 _349_
*3001 _350_
*3002 _351_
*3003 _352_
*3004 _353_
*3005 _354_
*3006 _355_
*3007 _356_
*3008 _357_
*3009 _358_
*3010 _359_
*3011 _360_
*3012 _361_
*3013 _362_
*3014 _363_
*3015 _364_
*3016 _365_
*3017 _366_
*3018 _367_
*3019 _368_
*3020 _369_
*3021 _370_
*3022 _371_
*3023 _372_
*3024 _373_
*3025 _374_
*3026 _375_
*3027 _376_
*3028 _377_
*3029 _378_
*3030 _379_
*3031 _380_
*3032 _381_
*3033 _382_
*3034 _383_
*3035 _384_
*3036 _385_
*3037 _386_
*3038 _387_
*3039 _388_
*3040 _389_
*3041 _390_
*3042 _391_
*3043 _392_
*3044 _393_
*3045 _394_
*3046 _395_
*3047 _396_
*3048 _397_
*3049 _398_
*3050 _399_
*3051 _400_
*3052 _401_
*3053 _402_
*3054 _403_
*3055 _404_
*3056 _405_
*3057 _406_
*3058 _407_
*3059 _408_
*3060 _409_
*3061 _410_
*3062 _411_
*3063 _412_
*3064 _413_
*3065 _414_
*3066 _415_
*3067 _416_
*3068 _417_
*3069 _418_
*3070 _419_
*3071 _420_
*3072 _421_
*3073 _422_
*3074 _423_
*3075 _424_
*3076 _425_
*3077 _426_
*3078 _427_
*3079 _428_
*3080 _429_
*3081 _430_
*3082 _431_
*3083 _432_
*3084 _433_
*3085 _434_
*3086 _435_
*3087 _436_
*3088 _437_
*3089 _438_
*3090 _439_
*3091 _440_
*3092 _441_
*3093 _442_
*3094 _443_
*3095 _444_
*3096 _445_
*3097 _446_
*3098 _447_
*3099 _448_
*3100 fanout101
*3101 fanout103
*3102 fanout105
*3103 fanout107
*3104 fanout99
*3105 input1
*3106 input10
*3107 input11
*3108 input12
*3109 input13
*3110 input14
*3111 input15
*3112 input16
*3113 input17
*3114 input18
*3115 input19
*3116 input2
*3117 input20
*3118 input21
*3119 input22
*3120 input23
*3121 input24
*3122 input25
*3123 input26
*3124 input27
*3125 input28
*3126 input29
*3127 input3
*3128 input30
*3129 input31
*3130 input32
*3131 input33
*3132 input34
*3133 input35
*3134 input36
*3135 input37
*3136 input38
*3137 input39
*3138 input4
*3139 input40
*3140 input41
*3141 input42
*3142 input43
*3143 input44
*3144 input45
*3145 input46
*3146 input47
*3147 input48
*3148 input49
*3149 input5
*3150 input50
*3151 input51
*3152 input52
*3153 input53
*3154 input54
*3155 input55
*3156 input56
*3157 input57
*3158 input58
*3159 input59
*3160 input6
*3161 input60
*3162 input61
*3163 input62
*3164 input63
*3165 input64
*3166 input65
*3167 input7
*3168 input8
*3169 input9
*3170 load_slew100
*3171 load_slew102
*3172 load_slew106
*3173 load_slew108
*3174 load_slew109
*3175 output66
*3176 output67
*3177 output68
*3178 output69
*3179 output70
*3180 output71
*3181 output72
*3182 output73
*3183 output74
*3184 output75
*3185 output76
*3186 output77
*3187 output78
*3188 output79
*3189 output80
*3190 output81
*3191 output82
*3192 output83
*3193 output84
*3194 output85
*3195 output86
*3196 output87
*3197 output88
*3198 output89
*3199 output90
*3200 output91
*3201 output92
*3202 output93
*3203 output94
*3204 output95
*3205 output96
*3206 output97
*3207 output98
*3208 rebuffer110
*3209 rebuffer111
*3210 rebuffer112
*3211 rebuffer113
*3212 rebuffer114
*3213 rebuffer115
*3214 rebuffer116
*3215 rebuffer117
*3216 rebuffer118
*3217 rebuffer119
*3218 rebuffer120
*3219 rebuffer121
*3220 rebuffer123
*3221 rebuffer138

*PORTS
A[0] I
A[10] I
A[11] I
A[12] I
A[13] I
A[14] I
A[15] I
A[16] I
A[17] I
A[18] I
A[19] I
A[1] I
A[20] I
A[21] I
A[22] I
A[23] I
A[24] I
A[25] I
A[26] I
A[27] I
A[28] I
A[29] I
A[2] I
A[30] I
A[31] I
A[3] I
A[4] I
A[5] I
A[6] I
A[7] I
A[8] I
A[9] I
B[0] I
B[10] I
B[11] I
B[12] I
B[13] I
B[14] I
B[15] I
B[16] I
B[17] I
B[18] I
B[19] I
B[1] I
B[20] I
B[21] I
B[22] I
B[23] I
B[24] I
B[25] I
B[26] I
B[27] I
B[28] I
B[29] I
B[2] I
B[30] I
B[31] I
B[3] I
B[4] I
B[5] I
B[6] I
B[7] I
B[8] I
B[9] I
S[0] O
S[10] O
S[11] O
S[12] O
S[13] O
S[14] O
S[15] O
S[16] O
S[17] O
S[18] O
S[19] O
S[1] O
S[20] O
S[21] O
S[22] O
S[23] O
S[24] O
S[25] O
S[26] O
S[27] O
S[28] O
S[29] O
S[2] O
S[30] O
S[31] O
S[3] O
S[4] O
S[5] O
S[6] O
S[7] O
S[8] O
S[9] O
carryOut O
sub I

*D_NET *1 0.00142052
*CONN
*P A[0] I
*I *3105:A I *D sky130_fd_sc_hd__clkdlybuf4s25_1
*CAP
1 A[0] 0.000666052
2 *3105:A 0.000666052
3 *3105:A *3108:A 8.84142e-05
4 *3105:A *3120:A 0
5 *3105:A *3131:A 0
*RES
1 A[0] *3105:A 28.249 
*END

*D_NET *2 0.0026804
*CONN
*P A[10] I
*I *3116:A I *D sky130_fd_sc_hd__clkdlybuf4s25_1
*CAP
1 A[10] 0.000578338
2 *3116:A 0.000578338
3 *3116:A S[3] 0.000737644
4 *3116:A *3023:A 0.000165777
5 *3116:A *3025:A 7.38282e-05
6 *3116:A *3127:A 0.000546471
7 *3116:A *319:8 0
*RES
1 A[10] *3116:A 23.2478 
*END

*D_NET *3 0.00179009
*CONN
*P A[11] I
*I *3127:A I *D sky130_fd_sc_hd__clkdlybuf4s25_1
*CAP
1 A[11] 0.000336716
2 *3127:A 0.000336716
3 *3127:A S[11] 0.000477115
4 *3127:A *3010:B1 3.68666e-05
5 *3127:A *3024:A 5.62053e-05
6 *3127:A *3123:A 0
7 *3127:A *319:8 0
8 *3116:A *3127:A 0.000546471
*RES
1 A[11] *3127:A 21.0813 
*END

*D_NET *4 0.00115785
*CONN
*P A[12] I
*I *3138:A I *D sky130_fd_sc_hd__clkdlybuf4s25_1
*CAP
1 A[12] 0.000578927
2 *3138:A 0.000578927
3 *3138:A *3134:A 0
*RES
1 A[12] *3138:A 25.05 
*END

*D_NET *5 0.0011533
*CONN
*P A[13] I
*I *3149:A I *D sky130_fd_sc_hd__clkdlybuf4s25_1
*CAP
1 A[13] 0.000576652
2 *3149:A 0.000576652
3 *3149:A *3135:A 0
*RES
1 A[13] *3149:A 25.05 
*END

*D_NET *6 0.00175424
*CONN
*P A[14] I
*I *3160:A I *D sky130_fd_sc_hd__clkdlybuf4s25_1
*CAP
1 A[14] 0.000480199
2 *3160:A 0.000480199
3 *3160:A *3110:A 0.000326677
4 *3160:A *3136:A 0.000322393
5 *3160:A *3145:A 0.000144773
6 *3160:A *216:8 0
*RES
1 A[14] *3160:A 24.3463 
*END

*D_NET *7 0.0020512
*CONN
*P A[15] I
*I *3167:A I *D sky130_fd_sc_hd__clkdlybuf4s25_1
*CAP
1 A[15] 0.000579687
2 *3167:A 0.000579687
3 *3167:A S[21] 0.000552017
4 *3167:A *3137:A 9.77021e-06
5 *3167:A *3142:A 0.000143402
6 *3167:A *3144:A 0.000186636
*RES
1 A[15] *3167:A 29.0038 
*END

*D_NET *8 0.0017228
*CONN
*P A[16] I
*I *3168:A I *D sky130_fd_sc_hd__clkdlybuf4s25_1
*CAP
1 A[16] 0.000692236
2 *3168:A 0.000692236
3 *3168:A *2873:B1 0.000142856
4 *3168:A *3169:A 0
5 *3168:A *189:8 0.000142856
6 *3168:A *420:10 5.26184e-05
*RES
1 A[16] *3168:A 28.6036 
*END

*D_NET *9 0.00115334
*CONN
*P A[17] I
*I *3169:A I *D sky130_fd_sc_hd__clkdlybuf4s25_1
*CAP
1 A[17] 0.00057667
2 *3169:A 0.00057667
3 *3168:A *3169:A 0
*RES
1 A[17] *3169:A 25.05 
*END

*D_NET *10 0.000901987
*CONN
*P A[18] I
*I *3106:A I *D sky130_fd_sc_hd__clkdlybuf4s25_1
*CAP
1 A[18] 0.000368916
2 *3106:A 0.000368916
3 *3106:A *3141:A 0.000164154
4 *3106:A *3142:A 0
*RES
1 A[18] *3106:A 21.683 
*END

*D_NET *11 0.00208416
*CONN
*P A[19] I
*I *3107:A I *D sky130_fd_sc_hd__clkdlybuf4s25_1
*CAP
1 A[19] 0.000855628
2 *3107:A 0.000855628
3 *3107:A *2894:B 3.43988e-06
4 *3107:A *2904:B 0.000151141
5 *3107:A *3142:A 0.000213858
6 *3107:A *3144:A 0
7 *3107:A *209:10 4.46186e-06
8 *3107:A *430:8 0
9 *3107:A *430:10 0
*RES
1 A[19] *3107:A 21.4107 
*END

*D_NET *12 0.00187508
*CONN
*P A[1] I
*I *3108:A I *D sky130_fd_sc_hd__clkdlybuf4s25_1
*CAP
1 A[1] 0.000814153
2 *3108:A 0.000814153
3 *3108:A S[0] 9.67497e-05
4 *3108:A *3120:A 0
5 *3108:A *309:39 6.16082e-05
6 *3105:A *3108:A 8.84142e-05
*RES
1 A[1] *3108:A 29.4302 
*END

*D_NET *13 0.00218533
*CONN
*P A[20] I
*I *3109:A I *D sky130_fd_sc_hd__clkdlybuf4s25_1
*CAP
1 A[20] 0.000486455
2 *3109:A 0.000486455
3 *3109:A S[22] 0.000282465
4 *3109:A S[23] 0.000164154
5 *3109:A *2910:A1 4.19624e-06
6 *3109:A *3110:A 0.000761604
7 *3109:A *3111:A 0
8 *3109:A *314:32 0
9 *3109:A *337:12 0
*RES
1 A[20] *3109:A 20.6441 
*END

*D_NET *14 0.00255698
*CONN
*P A[21] I
*I *3110:A I *D sky130_fd_sc_hd__clkdlybuf4s25_1
*CAP
1 A[21] 0.000719892
2 *3110:A 0.000719892
3 *3110:A *3111:A 0
4 *3110:A *314:32 0
5 *3110:A *337:12 0
6 *3110:A *363:10 2.89114e-05
7 *3109:A *3110:A 0.000761604
8 *3160:A *3110:A 0.000326677
*RES
1 A[21] *3110:A 22.0185 
*END

*D_NET *15 0.00192808
*CONN
*P A[22] I
*I *3111:A I *D sky130_fd_sc_hd__clkdlybuf4s25_1
*CAP
1 A[22] 0.00075008
2 *3111:A 0.00075008
3 *3111:A *2901:A 0
4 *3111:A *2908:B 0
5 *3111:A *3112:A 5.52631e-05
6 *3111:A *3136:A 7.78172e-05
7 *3111:A *3145:A 0.000159423
8 *3111:A *3146:A 0
9 *3111:A *3147:A 0.000135418
10 *3109:A *3111:A 0
11 *3110:A *3111:A 0
*RES
1 A[22] *3111:A 21.5548 
*END

*D_NET *16 0.00135747
*CONN
*P A[23] I
*I *3112:A I *D sky130_fd_sc_hd__clkdlybuf4s25_1
*CAP
1 A[23] 0.000551087
2 *3112:A 0.000551087
3 *3112:A *3136:A 0.000144773
4 *3112:A *3145:A 0
5 *3112:A *3147:A 5.52631e-05
6 *3111:A *3112:A 5.52631e-05
*RES
1 A[23] *3112:A 27.0542 
*END

*D_NET *17 0.000925344
*CONN
*P A[24] I
*I *3113:A I *D sky130_fd_sc_hd__clkdlybuf4s25_1
*CAP
1 A[24] 0.000316211
2 *3113:A 0.000316211
3 *3113:A S[24] 0
4 *3113:A *3146:A 0.000222517
5 *3113:A *3153:A 7.04052e-05
*RES
1 A[24] *3113:A 21.683 
*END

*D_NET *18 0.00185432
*CONN
*P A[25] I
*I *3114:A I *D sky130_fd_sc_hd__clkdlybuf4s25_1
*CAP
1 A[25] 0.000348639
2 *3114:A 0.000348639
3 *3114:A *3115:A 0.000578522
4 *3114:A *3151:A 0.000578522
*RES
1 A[25] *3114:A 28.2107 
*END

*D_NET *19 0.00192697
*CONN
*P A[26] I
*I *3115:A I *D sky130_fd_sc_hd__clkdlybuf4s25_1
*CAP
1 A[26] 0.000272154
2 *3115:A 0.000272154
3 *3115:A S[26] 0.00078486
4 *3115:A *341:14 1.92789e-05
5 *3114:A *3115:A 0.000578522
*RES
1 A[26] *3115:A 27.3893 
*END

*D_NET *20 0.00126747
*CONN
*P A[27] I
*I *3117:A I *D sky130_fd_sc_hd__clkdlybuf4s25_1
*CAP
1 A[27] 0.000633735
2 *3117:A 0.000633735
3 *3117:A *3152:A 0
4 *3117:A *3194:A 0
*RES
1 A[27] *3117:A 26.4429 
*END

*D_NET *21 0.00199898
*CONN
*P A[28] I
*I *3118:A I *D sky130_fd_sc_hd__clkdlybuf4s25_1
*CAP
1 A[28] 0.000594822
2 *3118:A 0.000594822
3 *3118:A S[29] 0.000431641
4 *3118:A *2967:A2 0.000144512
5 *3118:A *2969:C 0.000142168
6 *3118:A *3119:A 7.33503e-05
7 *3118:A *314:20 1.76699e-05
*RES
1 A[28] *3118:A 22.4961 
*END

*D_NET *22 0.00226656
*CONN
*P A[29] I
*I *3119:A I *D sky130_fd_sc_hd__clkdlybuf4s25_1
*CAP
1 A[29] 0.00064383
2 *3119:A 0.00064383
3 *3119:A S[24] 0
4 *3119:A S[28] 0.000458049
5 *3119:A S[29] 0.000422693
6 *3119:A *2967:A1 0
7 *3119:A *266:23 0
8 *3119:A *276:10 2.19778e-05
9 *3119:A *312:14 2.8266e-06
10 *3118:A *3119:A 7.33503e-05
*RES
1 A[29] *3119:A 20.572 
*END

*D_NET *23 0.000991867
*CONN
*P A[2] I
*I *3120:A I *D sky130_fd_sc_hd__clkdlybuf4s25_1
*CAP
1 A[2] 0.000290755
2 *3120:A 0.000290755
3 *3120:A S[2] 0
4 *3120:A *2989:A0 0
5 *3120:A *3155:A 0.000410357
6 *3105:A *3120:A 0
7 *3108:A *3120:A 0
*RES
1 A[2] *3120:A 19.2031 
*END

*D_NET *24 0.00176137
*CONN
*P A[30] I
*I *3121:A I *D sky130_fd_sc_hd__clkdlybuf4s25_1
*CAP
1 A[30] 0.000583606
2 *3121:A 0.000583606
3 *3121:A S[30] 1.33343e-05
4 *3121:A *3156:A 0.000580819
*RES
1 A[30] *3121:A 29.0321 
*END

*D_NET *25 0.0021901
*CONN
*P A[31] I
*I *3122:A I *D sky130_fd_sc_hd__clkdlybuf4s25_1
*CAP
1 A[31] 0.000629741
2 *3122:A 0.000629741
3 *3122:A S[31] 0.000528862
4 *3122:A carryOut 0.00040176
5 *3122:A *3199:A 0
*RES
1 A[31] *3122:A 27.991 
*END

*D_NET *26 0.00282662
*CONN
*P A[3] I
*I *3123:A I *D sky130_fd_sc_hd__clkdlybuf4s25_1
*CAP
1 A[3] 0.000736709
2 *3123:A 0.000736709
3 *3123:A S[10] 9.77021e-06
4 *3123:A S[11] 0
5 *3123:A *3010:B1 0.000165494
6 *3123:A *3011:B 0.000163442
7 *3123:A *3054:C1 2.89114e-05
8 *3123:A *3133:A 0.000415088
9 *3123:A *3158:A 0.000570498
10 *3127:A *3123:A 0
*RES
1 A[3] *3123:A 27.6362 
*END

*D_NET *27 0.00161536
*CONN
*P A[4] I
*I *3124:A I *D sky130_fd_sc_hd__clkdlybuf4s25_1
*CAP
1 A[4] 0.000535331
2 *3124:A 0.000535331
3 *3124:A *3037:B 5.5782e-05
4 *3124:A *3161:A 0
5 *3124:A *3162:A 0.000488918
*RES
1 A[4] *3124:A 27.7821 
*END

*D_NET *28 0.00213346
*CONN
*P A[5] I
*I *3125:A I *D sky130_fd_sc_hd__clkdlybuf4s25_1
*CAP
1 A[5] 0.000785024
2 *3125:A 0.000785024
3 *3125:A *3039:A 0.000121606
4 *3125:A *3041:B 0
5 *3125:A *3126:A 0.000346104
6 *3125:A *3161:A 0
7 *3125:A *318:12 9.57064e-05
*RES
1 A[5] *3125:A 41.0857 
*END

*D_NET *29 0.00258289
*CONN
*P A[6] I
*I *3126:A I *D sky130_fd_sc_hd__clkdlybuf4s25_1
*CAP
1 A[6] 0.00111839
2 *3126:A 0.00111839
3 *3126:A *3043:A 0
4 *3125:A *3126:A 0.000346104
*RES
1 A[6] *3126:A 46.4964 
*END

*D_NET *30 0.00201359
*CONN
*P A[7] I
*I *3128:A I *D sky130_fd_sc_hd__clkdlybuf4s25_1
*CAP
1 A[7] 0.000688881
2 *3128:A 0.000688881
3 *3128:A S[8] 0
4 *3128:A *3007:A 0
5 *3128:A *3032:B 5.80706e-06
6 *3128:A *3130:A 0
7 *3128:A *3163:A 0.000591402
8 *3128:A *302:14 3.86205e-05
*RES
1 A[7] *3128:A 20.5156 
*END

*D_NET *31 0.00149787
*CONN
*P A[8] I
*I *3129:A I *D sky130_fd_sc_hd__clkdlybuf4s25_1
*CAP
1 A[8] 0.000233042
2 *3129:A 0.000233042
3 *3129:A S[4] 0.000405892
4 *3129:A S[8] 0.000415088
5 *3129:A *3026:A 0.000210806
*RES
1 A[8] *3129:A 21.0246 
*END

*D_NET *32 0.00234528
*CONN
*P A[9] I
*I *3130:A I *D sky130_fd_sc_hd__clkdlybuf4s25_1
*CAP
1 A[9] 0.000452257
2 *3130:A 0.000452257
3 *3130:A S[9] 0.000855573
4 *3130:A *3163:A 8.96826e-05
5 *3130:A *3165:A 0.000405892
6 *3130:A *302:14 2.91887e-05
7 *3130:A *319:8 0
8 *3130:A *357:12 6.043e-05
9 *3128:A *3130:A 0
*RES
1 A[9] *3130:A 21.7299 
*END

*D_NET *33 0.00177673
*CONN
*P B[0] I
*I *3131:A I *D sky130_fd_sc_hd__dlymetal6s2s_1
*CAP
1 B[0] 0.000691884
2 *3131:A 0.000691884
3 *3131:A S[0] 0.000196481
4 *3131:A S[1] 0.000196481
5 *3105:A *3131:A 0
*RES
1 B[0] *3131:A 29.323 
*END

*D_NET *34 0.00108778
*CONN
*P B[10] I
*I *3132:A I *D sky130_fd_sc_hd__clkdlybuf4s25_1
*CAP
1 B[10] 0.000278905
2 *3132:A 0.000278905
3 *3132:A S[2] 0.000228435
4 *3132:A S[3] 0.000209441
5 *3132:A *2989:A0 0
6 *3132:A *3155:A 9.20924e-05
*RES
1 B[10] *3132:A 20.721 
*END

*D_NET *35 0.00200173
*CONN
*P B[11] I
*I *3133:A I *D sky130_fd_sc_hd__clkdlybuf4s25_1
*CAP
1 B[11] 0.000437862
2 *3133:A 0.000437862
3 *3133:A S[10] 0.000405892
4 *3133:A S[14] 0
5 *3133:A *3010:B1 0
6 *3133:A *3011:B 0
7 *3133:A *3021:B 0
8 *3133:A *3177:A 0.000305028
9 *3133:A *319:8 0
10 *3123:A *3133:A 0.000415088
*RES
1 B[11] *3133:A 24.971 
*END

*D_NET *36 0.00115785
*CONN
*P B[12] I
*I *3134:A I *D sky130_fd_sc_hd__clkdlybuf4s25_1
*CAP
1 B[12] 0.000578927
2 *3134:A 0.000578927
3 *3138:A *3134:A 0
*RES
1 B[12] *3134:A 25.05 
*END

*D_NET *37 0.00177486
*CONN
*P B[13] I
*I *3135:A I *D sky130_fd_sc_hd__clkdlybuf4s25_1
*CAP
1 B[13] 0.000630949
2 *3135:A 0.000630949
3 *3135:A S[16] 0
4 *3135:A S[17] 0.000474815
5 *3135:A *3087:B 2.89016e-05
6 *3135:A *311:68 9.25014e-06
7 *3135:A *376:10 0
8 *3149:A *3135:A 0
*RES
1 B[13] *3135:A 28.6036 
*END

*D_NET *38 0.00160017
*CONN
*P B[14] I
*I *3136:A I *D sky130_fd_sc_hd__clkdlybuf4s25_1
*CAP
1 B[14] 0.000433427
2 *3136:A 0.000433427
3 *3136:A *3145:A 0.000159423
4 *3136:A *339:10 2.89114e-05
5 *3111:A *3136:A 7.78172e-05
6 *3112:A *3136:A 0.000144773
7 *3160:A *3136:A 0.000322393
*RES
1 B[14] *3136:A 23.4355 
*END

*D_NET *39 0.00223282
*CONN
*P B[15] I
*I *3137:A I *D sky130_fd_sc_hd__clkdlybuf4s25_1
*CAP
1 B[15] 0.000606469
2 *3137:A 0.000606469
3 *3137:A S[20] 0.000816316
4 *3137:A S[21] 0.000164154
5 *3137:A *2904:A 1.01417e-05
6 *3137:A *2911:A1 1.94945e-05
7 *3137:A *3144:A 0
8 *3137:A *335:23 0
9 *3167:A *3137:A 9.77021e-06
*RES
1 B[15] *3137:A 20.037 
*END

*D_NET *40 0.00116092
*CONN
*P B[16] I
*I *3139:A I *D sky130_fd_sc_hd__clkdlybuf4s25_1
*CAP
1 B[16] 0.000570816
2 *3139:A 0.000570816
3 *3139:A *2866:A 1.92905e-05
*RES
1 B[16] *3139:A 25.05 
*END

*D_NET *41 0.000970741
*CONN
*P B[17] I
*I *3140:A I *D sky130_fd_sc_hd__clkdlybuf4s25_1
*CAP
1 B[17] 0.000485371
2 *3140:A 0.000485371
*RES
1 B[17] *3140:A 24.5554 
*END

*D_NET *42 0.000833777
*CONN
*P B[18] I
*I *3141:A I *D sky130_fd_sc_hd__clkdlybuf4s25_1
*CAP
1 B[18] 0.000334811
2 *3141:A 0.000334811
3 *3106:A *3141:A 0.000164154
*RES
1 B[18] *3141:A 21.7531 
*END

*D_NET *43 0.001326
*CONN
*P B[19] I
*I *3142:A I *D sky130_fd_sc_hd__clkdlybuf4s25_1
*CAP
1 B[19] 0.00048437
2 *3142:A 0.00048437
3 *3106:A *3142:A 0
4 *3107:A *3142:A 0.000213858
5 *3167:A *3142:A 0.000143402
*RES
1 B[19] *3142:A 24.7187 
*END

*D_NET *44 0.00134079
*CONN
*P B[1] I
*I *3143:A I *D sky130_fd_sc_hd__clkdlybuf4s25_1
*CAP
1 B[1] 0.000670396
2 *3143:A 0.000670396
*RES
1 B[1] *3143:A 26.9786 
*END

*D_NET *45 0.00182584
*CONN
*P B[20] I
*I *3144:A I *D sky130_fd_sc_hd__clkdlybuf4s25_1
*CAP
1 B[20] 0.000768498
2 *3144:A 0.000768498
3 *3144:A S[21] 0.000102207
4 *3144:A *3188:A 0
5 *3107:A *3144:A 0
6 *3137:A *3144:A 0
7 *3167:A *3144:A 0.000186636
*RES
1 B[20] *3144:A 27.7927 
*END

*D_NET *46 0.00141495
*CONN
*P B[21] I
*I *3145:A I *D sky130_fd_sc_hd__clkdlybuf4s25_1
*CAP
1 B[21] 0.000475665
2 *3145:A 0.000475665
3 *3111:A *3145:A 0.000159423
4 *3112:A *3145:A 0
5 *3136:A *3145:A 0.000159423
6 *3160:A *3145:A 0.000144773
*RES
1 B[21] *3145:A 25.396 
*END

*D_NET *47 0.00157426
*CONN
*P B[22] I
*I *3146:A I *D sky130_fd_sc_hd__clkdlybuf4s25_1
*CAP
1 B[22] 0.000499536
2 *3146:A 0.000499536
3 *3146:A S[24] 0
4 *3146:A *3147:A 0.000132248
5 *3146:A *3148:A 5.52631e-05
6 *3146:A *314:32 0.000165157
7 *3111:A *3146:A 0
8 *3113:A *3146:A 0.000222517
*RES
1 B[22] *3146:A 20.9783 
*END

*D_NET *48 0.0014674
*CONN
*P B[23] I
*I *3147:A I *D sky130_fd_sc_hd__clkdlybuf4s25_1
*CAP
1 B[23] 0.000456286
2 *3147:A 0.000456286
3 *3147:A *2923:B 3.18676e-05
4 *3147:A *3148:A 0.000200036
5 *3111:A *3147:A 0.000135418
6 *3112:A *3147:A 5.52631e-05
7 *3146:A *3147:A 0.000132248
*RES
1 B[23] *3147:A 23.4355 
*END

*D_NET *49 0.0010601
*CONN
*P B[24] I
*I *3148:A I *D sky130_fd_sc_hd__clkdlybuf4s25_1
*CAP
1 B[24] 0.000402403
2 *3148:A 0.000402403
3 *3146:A *3148:A 5.52631e-05
4 *3147:A *3148:A 0.000200036
*RES
1 B[24] *3148:A 24.6256 
*END

*D_NET *50 0.00149942
*CONN
*P B[25] I
*I *3150:A I *D sky130_fd_sc_hd__clkdlybuf4s25_1
*CAP
1 B[25] 0.000460449
2 *3150:A 0.000460449
3 *3150:A *3151:A 0.000578522
*RES
1 B[25] *3150:A 26.9786 
*END

*D_NET *51 0.00206219
*CONN
*P B[26] I
*I *3151:A I *D sky130_fd_sc_hd__clkdlybuf4s25_1
*CAP
1 B[26] 0.000385821
2 *3151:A 0.000385821
3 *3151:A S[26] 6.8021e-05
4 *3151:A *2942:B 1.02504e-05
5 *3151:A *377:12 0
6 *3151:A *378:8 5.52302e-05
7 *3114:A *3151:A 0.000578522
8 *3150:A *3151:A 0.000578522
*RES
1 B[26] *3151:A 29.7107 
*END

*D_NET *52 0.00134079
*CONN
*P B[27] I
*I *3152:A I *D sky130_fd_sc_hd__clkdlybuf4s25_1
*CAP
1 B[27] 0.000670396
2 *3152:A 0.000670396
3 *3117:A *3152:A 0
*RES
1 B[27] *3152:A 26.9786 
*END

*D_NET *53 0.00115459
*CONN
*P B[28] I
*I *3153:A I *D sky130_fd_sc_hd__clkdlybuf4s25_1
*CAP
1 B[28] 0.00047167
2 *3153:A 0.00047167
3 *3153:A S[24] 0.000140848
4 *3153:A *3154:A 0
5 *3113:A *3153:A 7.04052e-05
*RES
1 B[28] *3153:A 25.1275 
*END

*D_NET *54 0.00195693
*CONN
*P B[29] I
*I *3154:A I *D sky130_fd_sc_hd__clkdlybuf4s25_1
*CAP
1 B[29] 0.000372527
2 *3154:A 0.000372527
3 *3154:A S[24] 0.000408345
4 *3154:A S[28] 0.000435859
5 *3154:A S[29] 0.000161871
6 *3154:A *272:14 0.000205803
7 *3153:A *3154:A 0
*RES
1 B[29] *3154:A 24.0446 
*END

*D_NET *55 0.00250862
*CONN
*P B[2] I
*I *3155:A I *D sky130_fd_sc_hd__clkdlybuf4s25_1
*CAP
1 B[2] 0.000615767
2 *3155:A 0.000615767
3 *3155:A S[2] 0.000228435
4 *3155:A S[3] 0
5 *3155:A *2989:A0 0.000198994
6 *3155:A *3064:C 0
7 *3155:A *3174:A 0
8 *3155:A *3197:A 0.000274288
9 *3155:A *319:8 7.29187e-05
10 *3120:A *3155:A 0.000410357
11 *3132:A *3155:A 9.20924e-05
*RES
1 B[2] *3155:A 26.3154 
*END

*D_NET *56 0.00184333
*CONN
*P B[30] I
*I *3156:A I *D sky130_fd_sc_hd__clkdlybuf4s25_1
*CAP
1 B[30] 0.000621609
2 *3156:A 0.000621609
3 *3156:A *2974:B 0
4 *3156:A *2976:C 0
5 *3156:A *3198:A 0
6 *3156:A *280:8 0
7 *3156:A *383:8 1.92905e-05
8 *3121:A *3156:A 0.000580819
*RES
1 B[30] *3156:A 29.7107 
*END

*D_NET *57 0.00292014
*CONN
*P B[31] I
*I *3157:A I *D sky130_fd_sc_hd__clkdlybuf4s25_1
*CAP
1 B[31] 0.000428784
2 *3157:A 0.000428784
3 *3157:A S[31] 0.000426122
4 *3157:A carryOut 0.000858288
5 *3157:A *2983:B 0.00019187
6 *3157:A *3101:A 0.000151333
7 *3157:A *3199:A 5.06044e-05
8 *3157:A *287:8 0.00038435
9 *3157:A *314:10 0
*RES
1 B[31] *3157:A 26.2111 
*END

*D_NET *58 0.00244616
*CONN
*P B[3] I
*I *3158:A I *D sky130_fd_sc_hd__clkdlybuf4s25_1
*CAP
1 B[3] 0.000738916
2 *3158:A 0.000738916
3 *3158:A S[14] 0.000197305
4 *3158:A *3009:A 2.39779e-05
5 *3158:A *3009:B 0.000112563
6 *3158:A *3023:A 6.39829e-05
7 *3123:A *3158:A 0.000570498
*RES
1 B[3] *3158:A 21.0354 
*END

*D_NET *59 0.00136828
*CONN
*P B[4] I
*I *3159:A I *D sky130_fd_sc_hd__clkdlybuf4s25_1
*CAP
1 B[4] 0.000669687
2 *3159:A 0.000669687
3 *3159:A S[12] 0
4 *3159:A S[13] 2.89114e-05
5 *3159:A *3162:A 0
*RES
1 B[4] *3159:A 26.6929 
*END

*D_NET *60 0.00187349
*CONN
*P B[5] I
*I *3161:A I *D sky130_fd_sc_hd__clkdlybuf4s25_1
*CAP
1 B[5] 0.000774586
2 *3161:A 0.000774586
3 *3161:A *3037:A 9.90431e-05
4 *3161:A *3037:B 0.000116545
5 *3161:A *3039:A 0
6 *3161:A *116:10 0.000108734
7 *3161:A *318:12 0
8 *3161:A *351:10 0
9 *3124:A *3161:A 0
10 *3125:A *3161:A 0
*RES
1 B[5] *3161:A 30.3179 
*END

*D_NET *61 0.00162355
*CONN
*P B[6] I
*I *3162:A I *D sky130_fd_sc_hd__clkdlybuf4s25_1
*CAP
1 B[6] 0.000555946
2 *3162:A 0.000555946
3 *3162:A *3037:B 2.27416e-05
4 *3124:A *3162:A 0.000488918
5 *3159:A *3162:A 0
*RES
1 B[6] *3162:A 27.5143 
*END

*D_NET *62 0.00221287
*CONN
*P B[7] I
*I *3163:A I *D sky130_fd_sc_hd__clkdlybuf4s25_1
*CAP
1 B[7] 0.000343051
2 *3163:A 0.000343051
3 *3163:A *3007:A 0.000235682
4 *3163:A *3029:B 0.000150272
5 *3163:A *3165:A 0.000415088
6 *3163:A *3206:A 4.464e-05
7 *3128:A *3163:A 0.000591402
8 *3130:A *3163:A 8.96826e-05
*RES
1 B[7] *3163:A 21.9047 
*END

*D_NET *63 0.00247509
*CONN
*P B[8] I
*I *3164:A I *D sky130_fd_sc_hd__clkdlybuf4s25_1
*CAP
1 B[8] 0.000618113
2 *3164:A 0.000618113
3 *3164:A S[4] 0.000623397
4 *3164:A S[7] 0.000452735
5 *3164:A *3201:A 0.000162728
6 *3164:A *107:19 0
*RES
1 B[8] *3164:A 21.5705 
*END

*D_NET *64 0.0017492
*CONN
*P B[9] I
*I *3165:A I *D sky130_fd_sc_hd__clkdlybuf4s25_1
*CAP
1 B[9] 0.000294374
2 *3165:A 0.000294374
3 *3165:A *3026:A 0.000224954
4 *3165:A *332:10 0.000114516
5 *3130:A *3165:A 0.000405892
6 *3163:A *3165:A 0.000415088
*RES
1 B[9] *3165:A 22.5424 
*END

*D_NET *65 0.00183741
*CONN
*P S[0] O
*I *3175:X O *D sky130_fd_sc_hd__clkdlybuf4s25_1
*CAP
1 S[0] 0.000530794
2 *3175:X 0.000530794
3 S[0] S[1] 0.000413647
4 S[0] *3175:A 6.89449e-05
5 S[0] *358:12 0
6 *3108:A S[0] 9.67497e-05
7 *3131:A S[0] 0.000196481
*RES
1 *3175:X S[0] 24.6674 
*END

*D_NET *66 0.00135752
*CONN
*P S[10] O
*I *3176:X O *D sky130_fd_sc_hd__clkbuf_4
*CAP
1 S[10] 0.000221484
2 *3176:X 0.000221484
3 S[10] S[11] 0.000498891
4 S[10] *3176:A 0
5 *3123:A S[10] 9.77021e-06
6 *3133:A S[10] 0.000405892
*RES
1 *3176:X S[10] 20.1859 
*END

*D_NET *67 0.00221584
*CONN
*P S[11] O
*I *3177:X O *D sky130_fd_sc_hd__buf_6
*CAP
1 S[11] 0.000420737
2 *3177:X 0.000420737
3 S[11] *3011:B 5.75731e-05
4 S[11] *3176:A 0.000164063
5 S[11] *3177:A 0.000176725
6 S[10] S[11] 0.000498891
7 *3123:A S[11] 0
8 *3127:A S[11] 0.000477115
*RES
1 *3177:X S[11] 25.5265 
*END

*D_NET *68 0.00195603
*CONN
*P S[12] O
*I *3178:X O *D sky130_fd_sc_hd__clkdlybuf4s25_1
*CAP
1 S[12] 0.000913081
2 *3178:X 0.000913081
3 S[12] S[13] 0
4 S[12] *3179:A 0.000129868
5 *3159:A S[12] 0
*RES
1 *3178:X S[12] 29.7464 
*END

*D_NET *69 0.00184622
*CONN
*P S[13] O
*I *3179:X O *D sky130_fd_sc_hd__dlymetal6s4s_1
*CAP
1 S[13] 0.000908656
2 *3179:X 0.000908656
3 S[13] S[15] 0
4 S[12] S[13] 0
5 *3159:A S[13] 2.89114e-05
*RES
1 *3179:X S[13] 28.8 
*END

*D_NET *70 0.00137502
*CONN
*P S[14] O
*I *3180:X O *D sky130_fd_sc_hd__buf_6
*CAP
1 S[14] 0.000588856
2 *3180:X 0.000588856
3 S[14] S[9] 0
4 *3133:A S[14] 0
5 *3158:A S[14] 0.000197305
*RES
1 *3180:X S[14] 26.3945 
*END

*D_NET *71 0.00131213
*CONN
*P S[15] O
*I *3181:X O *D sky130_fd_sc_hd__buf_6
*CAP
1 S[15] 0.000649398
2 *3181:X 0.000649398
3 S[15] *3181:A 1.33343e-05
4 S[13] S[15] 0
*RES
1 *3181:X S[15] 26.1036 
*END

*D_NET *72 0.00147728
*CONN
*P S[16] O
*I *3182:X O *D sky130_fd_sc_hd__dlymetal6s2s_1
*CAP
1 S[16] 0.00044898
2 *3182:X 0.00044898
3 S[16] S[17] 0.000477121
4 S[16] S[19] 0
5 S[16] *3183:A 0.000102197
6 *3135:A S[16] 0
*RES
1 *3182:X S[16] 26.2821 
*END

*D_NET *73 0.00141715
*CONN
*P S[17] O
*I *3183:X O *D sky130_fd_sc_hd__clkbuf_2
*CAP
1 S[17] 0.000222961
2 *3183:X 0.000222961
3 S[17] *3183:A 1.92905e-05
4 S[16] S[17] 0.000477121
5 *3135:A S[17] 0.000474815
*RES
1 *3183:X S[17] 24.7464 
*END

*D_NET *74 0.00180389
*CONN
*P S[18] O
*I *3184:X O *D sky130_fd_sc_hd__clkbuf_4
*CAP
1 S[18] 0.000733215
2 *3184:X 0.000733215
3 S[18] *3183:A 1.74352e-05
4 S[18] *3184:A 0.000320024
*RES
1 *3184:X S[18] 28.4607 
*END

*D_NET *75 0.00158439
*CONN
*P S[19] O
*I *3185:X O *D sky130_fd_sc_hd__buf_2
*CAP
1 S[19] 0.000733503
2 *3185:X 0.000733503
3 S[19] *3182:A 0.000117381
4 S[16] S[19] 0
*RES
1 *3185:X S[19] 27.6929 
*END

*D_NET *76 0.00277632
*CONN
*P S[1] O
*I *3186:X O *D sky130_fd_sc_hd__clkdlybuf4s25_1
*CAP
1 S[1] 0.000899803
2 *3186:X 0.000899803
3 S[1] *3175:A 0.000264378
4 S[1] *3186:A 0.000102207
5 S[0] S[1] 0.000413647
6 *3131:A S[1] 0.000196481
*RES
1 *3186:X S[1] 28.1859 
*END

*D_NET *77 0.00242956
*CONN
*P S[20] O
*I *3187:X O *D sky130_fd_sc_hd__clkbuf_2
*CAP
1 S[20] 0.000588299
2 *3187:X 0.000588299
3 S[20] S[22] 0.00037672
4 S[20] *2911:A1 1.49084e-05
5 S[20] *335:23 4.50149e-05
6 *3137:A S[20] 0.000816316
*RES
1 *3187:X S[20] 20.2532 
*END

*D_NET *78 0.00187269
*CONN
*P S[21] O
*I *3188:X O *D sky130_fd_sc_hd__buf_6
*CAP
1 S[21] 0.000527157
2 *3188:X 0.000527157
3 *3137:A S[21] 0.000164154
4 *3144:A S[21] 0.000102207
5 *3167:A S[21] 0.000552017
*RES
1 *3188:X S[21] 27.9317 
*END

*D_NET *79 0.00208958
*CONN
*P S[22] O
*I *3189:X O *D sky130_fd_sc_hd__buf_6
*CAP
1 S[22] 0.000588106
2 *3189:X 0.000588106
3 S[22] S[23] 0.000164154
4 S[22] *2902:A 4.50149e-05
5 S[22] *3190:A 4.50149e-05
6 S[20] S[22] 0.00037672
7 *3109:A S[22] 0.000282465
*RES
1 *3189:X S[22] 20.109 
*END

*D_NET *80 0.00120409
*CONN
*P S[23] O
*I *3190:X O *D sky130_fd_sc_hd__buf_6
*CAP
1 S[23] 0.000437893
2 *3190:X 0.000437893
3 S[22] S[23] 0.000164154
4 *3109:A S[23] 0.000164154
*RES
1 *3190:X S[23] 24.2889 
*END

*D_NET *81 0.0018774
*CONN
*P S[24] O
*I *3191:X O *D sky130_fd_sc_hd__clkbuf_4
*CAP
1 S[24] 0.00055547
2 *3191:X 0.00055547
3 S[24] S[28] 2.72155e-05
4 S[24] *313:10 0.000190051
5 *3113:A S[24] 0
6 *3119:A S[24] 0
7 *3146:A S[24] 0
8 *3153:A S[24] 0.000140848
9 *3154:A S[24] 0.000408345
*RES
1 *3191:X S[24] 21.4981 
*END

*D_NET *82 0.00192059
*CONN
*P S[25] O
*I *3192:X O *D sky130_fd_sc_hd__buf_6
*CAP
1 S[25] 0.000960296
2 *3192:X 0.000960296
3 S[25] S[26] 0
*RES
1 *3192:X S[25] 31.1929 
*END

*D_NET *83 0.00275829
*CONN
*P S[26] O
*I *3193:X O *D sky130_fd_sc_hd__buf_6
*CAP
1 S[26] 0.000728259
2 *3193:X 0.000728259
3 S[26] *2943:A 0.00015134
4 S[26] *341:14 0.000297552
5 S[25] S[26] 0
6 *3115:A S[26] 0.00078486
7 *3151:A S[26] 6.8021e-05
*RES
1 *3193:X S[26] 34.0857 
*END

*D_NET *84 0.00131619
*CONN
*P S[27] O
*I *3194:X O *D sky130_fd_sc_hd__buf_4
*CAP
1 S[27] 0.000658095
2 *3194:X 0.000658095
*RES
1 *3194:X S[27] 26.675 
*END

*D_NET *85 0.00262212
*CONN
*P S[28] O
*I *3195:X O *D sky130_fd_sc_hd__buf_4
*CAP
1 S[28] 0.000478583
2 *3195:X 0.000478583
3 S[28] S[29] 0.00035617
4 S[28] *2965:B 0.000149748
5 S[28] *272:14 0.000111056
6 S[28] *314:20 0.000126855
7 S[24] S[28] 2.72155e-05
8 *3119:A S[28] 0.000458049
9 *3154:A S[28] 0.000435859
*RES
1 *3195:X S[28] 26.3495 
*END

*D_NET *86 0.00216188
*CONN
*P S[29] O
*I *3196:X O *D sky130_fd_sc_hd__buf_6
*CAP
1 S[29] 0.000362791
2 *3196:X 0.000362791
3 S[29] *314:20 6.39262e-05
4 S[28] S[29] 0.00035617
5 *3118:A S[29] 0.000431641
6 *3119:A S[29] 0.000422693
7 *3154:A S[29] 0.000161871
*RES
1 *3196:X S[29] 25.0274 
*END

*D_NET *87 0.00154713
*CONN
*P S[2] O
*I *3197:X O *D sky130_fd_sc_hd__clkdlybuf4s25_1
*CAP
1 S[2] 0.00054513
2 *3197:X 0.00054513
3 *3120:A S[2] 0
4 *3132:A S[2] 0.000228435
5 *3155:A S[2] 0.000228435
*RES
1 *3197:X S[2] 25.9487 
*END

*D_NET *88 0.00161232
*CONN
*P S[30] O
*I *3198:X O *D sky130_fd_sc_hd__buf_6
*CAP
1 S[30] 0.000799491
2 *3198:X 0.000799491
3 *3121:A S[30] 1.33343e-05
*RES
1 *3198:X S[30] 28.8536 
*END

*D_NET *89 0.002506
*CONN
*P S[31] O
*I *3199:X O *D sky130_fd_sc_hd__buf_6
*CAP
1 S[31] 0.000565838
2 *3199:X 0.000565838
3 S[31] *3166:A 0.000164154
4 S[31] *3199:A 0
5 S[31] *314:10 0.000222427
6 S[31] *314:20 3.27544e-05
7 *3122:A S[31] 0.000528862
8 *3157:A S[31] 0.000426122
*RES
1 *3199:X S[31] 28.6702 
*END

*D_NET *90 0.00188023
*CONN
*P S[3] O
*I *3200:X O *D sky130_fd_sc_hd__clkdlybuf4s25_1
*CAP
1 S[3] 0.000455049
2 *3200:X 0.000455049
3 S[3] *3023:A 1.28585e-05
4 S[3] *3025:A 1.01912e-05
5 *3116:A S[3] 0.000737644
6 *3132:A S[3] 0.000209441
7 *3155:A S[3] 0
*RES
1 *3200:X S[3] 19.6049 
*END

*D_NET *91 0.00165179
*CONN
*P S[4] O
*I *3201:X O *D sky130_fd_sc_hd__clkdlybuf4s25_1
*CAP
1 S[4] 0.000290698
2 *3201:X 0.000290698
3 S[4] *3026:B 2.04825e-05
4 S[4] *3205:A 2.06178e-05
5 *3129:A S[4] 0.000405892
6 *3164:A S[4] 0.000623397
*RES
1 *3201:X S[4] 19.1725 
*END

*D_NET *92 0.000899111
*CONN
*P S[5] O
*I *3202:X O *D sky130_fd_sc_hd__clkdlybuf4s25_1
*CAP
1 S[5] 0.000246609
2 *3202:X 0.000246609
3 S[5] S[6] 0.000405892
*RES
1 *3202:X S[5] 18.596 
*END

*D_NET *93 0.00126565
*CONN
*P S[6] O
*I *3203:X O *D sky130_fd_sc_hd__clkdlybuf4s25_1
*CAP
1 S[6] 0.000429878
2 *3203:X 0.000429878
3 S[6] *3202:A 0
4 S[5] S[6] 0.000405892
*RES
1 *3203:X S[6] 21.6317 
*END

*D_NET *94 0.00188661
*CONN
*P S[7] O
*I *3204:X O *D sky130_fd_sc_hd__dlymetal6s4s_1
*CAP
1 S[7] 0.000562043
2 *3204:X 0.000562043
3 S[7] *3026:A 0.000309784
4 S[7] *3026:B 0
5 S[7] *3028:A 0
6 *3164:A S[7] 0.000452735
*RES
1 *3204:X S[7] 24.8115 
*END

*D_NET *95 0.00103413
*CONN
*P S[8] O
*I *3205:X O *D sky130_fd_sc_hd__clkdlybuf4s25_1
*CAP
1 S[8] 0.000275702
2 *3205:X 0.000275702
3 S[8] *3026:A 6.76337e-05
4 *3128:A S[8] 0
5 *3129:A S[8] 0.000415088
*RES
1 *3205:X S[8] 19.2031 
*END

*D_NET *96 0.0022087
*CONN
*P S[9] O
*I *3206:X O *D sky130_fd_sc_hd__buf_6
*CAP
1 S[9] 0.000632128
2 *3206:X 0.000632128
3 S[9] *302:14 0
4 S[9] *319:8 8.8872e-05
5 S[14] S[9] 0
6 *3130:A S[9] 0.000855573
*RES
1 *3206:X S[9] 22.265 
*END

*D_NET *99 0.00208034
*CONN
*P carryOut O
*I *3207:X O *D sky130_fd_sc_hd__buf_6
*CAP
1 carryOut 0.000346065
2 *3207:X 0.000346065
3 carryOut *3199:A 0.000128161
4 carryOut *314:10 0
5 *3122:A carryOut 0.00040176
6 *3157:A carryOut 0.000858288
*RES
1 *3207:X carryOut 21.889 
*END

*D_NET *100 0.000833777
*CONN
*P sub I
*I *3166:A I *D sky130_fd_sc_hd__buf_8
*CAP
1 sub 0.000334811
2 *3166:A 0.000334811
3 S[31] *3166:A 0.000164154
*RES
1 sub *3166:A 21.7531 
*END

*D_NET *101 0.00322193
*CONN
*I *3210:A I *D sky130_fd_sc_hd__buf_2
*I *3033:B I *D sky130_fd_sc_hd__or4_4
*I *3022:Y O *D sky130_fd_sc_hd__xnor2_4
*CAP
1 *3210:A 0.000335339
2 *3033:B 0.000600803
3 *3022:Y 0
4 *101:6 0.000936142
5 *3033:B *3008:A2 0.000238055
6 *3033:B *3008:B1 0.000241205
7 *3033:B *3009:B 0
8 *3033:B *3022:B 1.41706e-05
9 *3033:B *3023:A 0
10 *3033:B *3033:A 0
11 *3033:B *3033:C 2.0876e-05
12 *3033:B *3056:C1 0.000176907
13 *3033:B *104:8 0
14 *3033:B *109:10 4.56437e-05
15 *3033:B *110:8 0.000148189
16 *3033:B *324:12 6.39901e-05
17 *3033:B *355:10 7.32173e-05
18 *3210:A *3022:B 8.86261e-05
19 *3210:A *3023:A 0
20 *3210:A *3025:B 0.000127439
21 *3210:A *3054:B1 0
22 *3210:A *3200:A 1.02504e-05
23 *3210:A *354:10 0.000101076
*RES
1 *3022:Y *101:6 13.8 
2 *101:6 *3033:B 28.0321 
3 *101:6 *3210:A 21.2107 
*END

*D_NET *102 0.00134288
*CONN
*I *3219:A I *D sky130_fd_sc_hd__buf_2
*I *3025:A I *D sky130_fd_sc_hd__xnor2_4
*I *3023:X O *D sky130_fd_sc_hd__xor2_4
*CAP
1 *3219:A 0.000211822
2 *3025:A 0.000172139
3 *3023:X 0
4 *102:4 0.000383961
5 *3025:A *3023:A 0
6 *3025:A *319:8 9.67361e-05
7 *3025:A *333:10 0.000174542
8 *3219:A *3023:A 0
9 *3219:A *319:8 4.00025e-05
10 *3219:A *333:10 0.000179656
11 S[3] *3025:A 1.01912e-05
12 *3116:A *3025:A 7.38282e-05
*RES
1 *3023:X *102:4 4.5 
2 *102:4 *3025:A 18.4786 
3 *102:4 *3219:A 18.3179 
*END

*D_NET *103 0.00277864
*CONN
*I *3010:B1 I *D sky130_fd_sc_hd__o21ai_2
*I *3024:Y O *D sky130_fd_sc_hd__nand2_2
*CAP
1 *3010:B1 0.000672719
2 *3024:Y 0.000672719
3 *3010:B1 *3011:A 0.000128146
4 *3010:B1 *3011:B 0.000335178
5 *3010:B1 *3021:B 0.000150618
6 *3010:B1 *3024:A 0
7 *3010:B1 *3024:B 9.76689e-05
8 *3010:B1 *3176:A 6.30023e-05
9 *3010:B1 *3206:A 5.71472e-05
10 *3010:B1 *319:8 0.000399081
11 *3123:A *3010:B1 0.000165494
12 *3127:A *3010:B1 3.68666e-05
13 *3133:A *3010:B1 0
*RES
1 *3024:Y *3010:B1 45.3857 
*END

*D_NET *104 0.00416377
*CONN
*I *3211:A I *D sky130_fd_sc_hd__buf_2
*I *3033:A I *D sky130_fd_sc_hd__or4_4
*I *3025:Y O *D sky130_fd_sc_hd__xnor2_4
*CAP
1 *3211:A 0.000197889
2 *3033:A 0.000439578
3 *3025:Y 0.00018419
4 *104:8 0.000821657
5 *3033:A *3008:B1 7.54613e-05
6 *3033:A *3056:D1 0.000631526
7 *3033:A *110:8 4.75428e-05
8 *3033:A *295:10 0
9 *3033:A *355:10 1.19309e-05
10 *3211:A *3021:B 0.000339296
11 *3211:A *3023:A 0.000440711
12 *104:8 *3022:B 0.000275087
13 *104:8 *3056:D1 0.000474313
14 *104:8 *323:10 8.32242e-05
15 *104:8 *354:10 0.000141368
16 *3033:B *3033:A 0
17 *3033:B *104:8 0
*RES
1 *3025:Y *104:8 20.9071 
2 *104:8 *3033:A 24.2464 
3 *104:8 *3211:A 20.1036 
*END

*D_NET *105 0.000766148
*CONN
*I *3027:B I *D sky130_fd_sc_hd__nand2_2
*I *3028:B I *D sky130_fd_sc_hd__xnor2_2
*I *3026:X O *D sky130_fd_sc_hd__xor2_2
*CAP
1 *3027:B 0.000119509
2 *3028:B 0
3 *3026:X 7.18583e-05
4 *105:8 0.000191368
5 *3027:B *3026:B 0.000225817
6 *3027:B *3201:A 0
7 *3027:B *106:12 2.83284e-06
8 *105:8 *3026:B 0.000154762
9 *105:8 *3201:A 0
*RES
1 *3026:X *105:8 15.7464 
2 *105:8 *3028:B 13.8 
3 *105:8 *3027:B 16.6571 
*END

*D_NET *106 0.00245513
*CONN
*I *3006:A I *D sky130_fd_sc_hd__nand2_2
*I *3056:A1 I *D sky130_fd_sc_hd__a2111o_2
*I *3008:A1 I *D sky130_fd_sc_hd__a31o_2
*I *3027:Y O *D sky130_fd_sc_hd__nand2_2
*CAP
1 *3006:A 2.23854e-05
2 *3056:A1 0.000242986
3 *3008:A1 0
4 *3027:Y 0.00029927
5 *106:18 0.000428756
6 *106:12 0.000507426
7 *3056:A1 *3008:A2 0.000358387
8 *3056:A1 *3008:A3 1.76039e-05
9 *3056:A1 *3030:A 9.41642e-05
10 *3056:A1 *3033:C 0
11 *3056:A1 *302:14 0.000100143
12 *106:12 *3007:B 9.90367e-05
13 *106:12 *3026:B 2.06413e-05
14 *106:12 *3201:A 5.95088e-05
15 *106:12 *3205:A 0
16 *106:18 *3008:A3 6.75007e-05
17 *106:18 *3033:C 3.54476e-05
18 *106:18 *300:12 9.90431e-05
19 *3027:B *106:12 2.83284e-06
*RES
1 *3027:Y *106:12 24.3357 
2 *106:12 *106:18 8.625 
3 *106:18 *3008:A1 13.8 
4 *106:18 *3056:A1 19.7286 
5 *106:12 *3006:A 9.72857 
*END

*D_NET *107 0.00226951
*CONN
*I *3033:C I *D sky130_fd_sc_hd__or4_4
*I *3004:A I *D sky130_fd_sc_hd__or2_2
*I *3005:A I *D sky130_fd_sc_hd__xor2_2
*I *3028:Y O *D sky130_fd_sc_hd__xnor2_2
*CAP
1 *3033:C 0.000338109
2 *3004:A 8.38421e-05
3 *3005:A 0
4 *3028:Y 0.000365683
5 *107:19 0.0005698
6 *107:10 0.000513532
7 *3004:A *3026:B 6.05161e-06
8 *3033:C *3008:A2 1.00375e-05
9 *3033:C *3008:B1 0.000148189
10 *3033:C *3035:B 0
11 *3033:C *300:12 0.000177941
12 *3033:C *355:10 0
13 *107:10 *3201:A 0
14 *107:19 *3004:B 0
15 *107:19 *3201:A 0
16 *3033:B *3033:C 2.0876e-05
17 *3056:A1 *3033:C 0
18 *3164:A *107:19 0
19 *106:18 *3033:C 3.54476e-05
*RES
1 *3028:Y *107:10 19.8714 
2 *107:10 *3005:A 13.8 
3 *107:10 *107:19 2.55357 
4 *107:19 *3004:A 15.1571 
5 *107:19 *3033:C 21.4741 
*END

*D_NET *108 0.0023221
*CONN
*I *3031:B I *D sky130_fd_sc_hd__nor2_2
*I *3030:B I *D sky130_fd_sc_hd__nand2_2
*I *3032:B I *D sky130_fd_sc_hd__xnor2_2
*I *3029:X O *D sky130_fd_sc_hd__xor2_2
*CAP
1 *3031:B 0.000170558
2 *3030:B 0.000213301
3 *3032:B 0.000123687
4 *3029:X 0.000105397
5 *108:24 0.000402149
6 *3030:B *3030:A 0.000120671
7 *3030:B *3056:B1 5.52238e-05
8 *3030:B *3056:C1 8.40835e-05
9 *3030:B *3056:D1 2.59355e-05
10 *3030:B *109:10 0.000437749
11 *3031:B *3031:A 9.80173e-05
12 *3031:B *3056:C1 8.56716e-05
13 *3031:B *302:14 0.000173804
14 *3031:B *357:12 4.88515e-05
15 *3032:B *3007:A 1.19309e-05
16 *3032:B *111:10 4.038e-06
17 *3032:B *302:14 0
18 *3032:B *319:18 6.74911e-05
19 *3032:B *357:12 0
20 *108:24 *3056:C1 2.94103e-05
21 *108:24 *302:14 5.83233e-05
22 *3128:A *3032:B 5.80706e-06
*RES
1 *3029:X *3032:B 29.85 
2 *3032:B *108:24 14.5321 
3 *108:24 *3030:B 19.9964 
4 *108:24 *3031:B 18.2286 
*END

*D_NET *109 0.00252677
*CONN
*I *3056:A2 I *D sky130_fd_sc_hd__a2111o_2
*I *3008:A2 I *D sky130_fd_sc_hd__a31o_2
*I *3030:Y O *D sky130_fd_sc_hd__nand2_2
*CAP
1 *3056:A2 0
2 *3008:A2 0.000247279
3 *3030:Y 0.000354276
4 *109:10 0.000601555
5 *3008:A2 *3008:B1 8.24047e-05
6 *3008:A2 *3034:B 4.87953e-05
7 *3008:A2 *3056:C1 3.34366e-05
8 *109:10 *3030:A 1.32552e-05
9 *109:10 *3056:C1 5.58941e-05
10 *3030:B *109:10 0.000437749
11 *3033:B *3008:A2 0.000238055
12 *3033:B *109:10 4.56437e-05
13 *3033:C *3008:A2 1.00375e-05
14 *3056:A1 *3008:A2 0.000358387
*RES
1 *3030:Y *109:10 19.175 
2 *109:10 *3008:A2 20.7643 
3 *109:10 *3056:A2 13.8 
*END

*D_NET *110 0.00144626
*CONN
*I *3056:B1 I *D sky130_fd_sc_hd__a2111o_2
*I *3008:B1 I *D sky130_fd_sc_hd__a31o_2
*I *3031:Y O *D sky130_fd_sc_hd__nor2_2
*CAP
1 *3056:B1 1.1624e-05
2 *3008:B1 0.000195109
3 *3031:Y 6.20625e-05
4 *110:8 0.000268796
5 *3008:B1 *3034:B 5.52302e-05
6 *3008:B1 *355:10 0
7 *3056:B1 *3056:C1 5.52238e-05
8 *3008:A2 *3008:B1 8.24047e-05
9 *3030:B *3056:B1 5.52238e-05
10 *3033:A *3008:B1 7.54613e-05
11 *3033:A *110:8 4.75428e-05
12 *3033:B *3008:B1 0.000241205
13 *3033:B *110:8 0.000148189
14 *3033:C *3008:B1 0.000148189
*RES
1 *3031:Y *110:8 15.7464 
2 *110:8 *3008:B1 19.6214 
3 *110:8 *3056:B1 14.3357 
*END

*D_NET *111 0.00221225
*CONN
*I *3033:D I *D sky130_fd_sc_hd__or4_4
*I *3007:A I *D sky130_fd_sc_hd__xnor2_2
*I *3032:Y O *D sky130_fd_sc_hd__xnor2_2
*CAP
1 *3033:D 0.000220422
2 *3007:A 0.000220095
3 *3032:Y 9.88682e-05
4 *111:10 0.000539385
5 *3007:A *3008:A3 0
6 *3007:A *3026:A 0
7 *3007:A *3206:A 5.73209e-05
8 *3033:D *319:18 0.000525388
9 *3033:D *355:10 5.33005e-05
10 *111:10 *3206:A 4.35141e-05
11 *111:10 *3218:A 9.90431e-05
12 *111:10 *319:18 0.00010326
13 *3032:B *3007:A 1.19309e-05
14 *3032:B *111:10 4.038e-06
15 *3128:A *3007:A 0
16 *3163:A *3007:A 0.000235682
*RES
1 *3032:Y *111:10 16.3893 
2 *111:10 *3007:A 19.0857 
3 *111:10 *3033:D 19.2643 
*END

*D_NET *112 0.00229577
*CONN
*I *3057:A2 I *D sky130_fd_sc_hd__o211a_4
*I *3050:C1 I *D sky130_fd_sc_hd__a211o_2
*I *3033:X O *D sky130_fd_sc_hd__or4_4
*CAP
1 *3057:A2 0
2 *3050:C1 0.000526039
3 *3033:X 0.000108041
4 *112:6 0.00063408
5 *3050:C1 *3003:B1 5.66157e-05
6 *3050:C1 *3035:A_N 0.000184745
7 *3050:C1 *3050:A1 9.55936e-05
8 *3050:C1 *3050:A2 0
9 *3050:C1 *3052:A 0.000221163
10 *3050:C1 *3057:C1 4.1331e-06
11 *3050:C1 *113:8 0
12 *3050:C1 *295:10 0.000209227
13 *3050:C1 *319:18 2.89114e-05
14 *112:6 *3057:A1 5.33005e-05
15 *112:6 *319:18 0.000173921
*RES
1 *3033:X *112:6 12.3 
2 *112:6 *3050:C1 30.6929 
3 *112:6 *3057:A2 9.3 
*END

*D_NET *113 0.00159394
*CONN
*I *3036:B I *D sky130_fd_sc_hd__and2b_2
*I *3035:A_N I *D sky130_fd_sc_hd__nand2b_2
*I *3052:B I *D sky130_fd_sc_hd__xnor2_2
*I *3034:Y O *D sky130_fd_sc_hd__xnor2_2
*CAP
1 *3036:B 0.000121494
2 *3035:A_N 3.14135e-05
3 *3052:B 0.000134726
4 *3034:Y 0.000133933
5 *113:10 0.000301574
6 *113:8 0.000390861
7 *3035:A_N *3050:A1 0.000184745
8 *3036:B *3036:A_N 5.52238e-05
9 *3036:B *115:10 5.52238e-05
10 *3052:B *3003:B1 0
11 *3052:B *3003:C1 0
12 *3052:B *3049:A 0
13 *3052:B *3052:A 0
14 *3052:B *115:10 0
15 *113:10 *3052:A 0
16 *113:10 *115:10 0
17 *3050:C1 *3035:A_N 0.000184745
18 *3050:C1 *113:8 0
*RES
1 *3034:Y *113:8 16.05 
2 *113:8 *113:10 2.25 
3 *113:10 *3052:B 16.05 
4 *113:10 *3035:A_N 15.5679 
5 *113:8 *3036:B 15.9786 
*END

*D_NET *114 0.00145819
*CONN
*I *3003:B1 I *D sky130_fd_sc_hd__o211a_2
*I *3050:A1 I *D sky130_fd_sc_hd__a211o_2
*I *3035:Y O *D sky130_fd_sc_hd__nand2b_2
*CAP
1 *3003:B1 0.000108606
2 *3050:A1 0.00028083
3 *3035:Y 6.22761e-05
4 *114:6 0.000451712
5 *3003:B1 *3003:C1 1.02504e-05
6 *3003:B1 *3052:A 6.07328e-05
7 *3003:B1 *295:10 0.000103041
8 *3003:B1 *295:12 4.46186e-06
9 *3050:A1 *3050:A2 3.93247e-05
10 *3035:A_N *3050:A1 0.000184745
11 *3050:C1 *3003:B1 5.66157e-05
12 *3050:C1 *3050:A1 9.55936e-05
13 *3052:B *3003:B1 0
*RES
1 *3035:Y *114:6 10.2464 
2 *114:6 *3050:A1 14.7821 
3 *114:6 *3003:B1 21.3893 
*END

*D_NET *115 0.00126112
*CONN
*I *3050:B1 I *D sky130_fd_sc_hd__a211o_2
*I *3049:A I *D sky130_fd_sc_hd__or2_2
*I *3036:X O *D sky130_fd_sc_hd__and2b_2
*CAP
1 *3050:B1 0
2 *3049:A 0.000215712
3 *3036:X 0.000201118
4 *115:10 0.00041683
5 *3049:A *3003:C1 0
6 *3049:A *3050:A2 0.00037224
7 *3049:A *131:10 0
8 *3036:B *115:10 5.52238e-05
9 *3052:B *3049:A 0
10 *3052:B *115:10 0
11 *113:10 *115:10 0
*RES
1 *3036:X *115:10 16.6929 
2 *115:10 *3049:A 18.7821 
3 *115:10 *3050:B1 13.8 
*END

*D_NET *116 0.00148325
*CONN
*I *3051:A I *D sky130_fd_sc_hd__xnor2_2
*I *3038:B I *D sky130_fd_sc_hd__nand2_2
*I *3037:X O *D sky130_fd_sc_hd__xor2_2
*CAP
1 *3051:A 0.000159866
2 *3038:B 0
3 *3037:X 0.00041372
4 *116:10 0.000573586
5 *3051:A *3051:B 6.16864e-05
6 *3051:A *351:10 4.1331e-06
7 *116:10 *3037:A 6.87476e-05
8 *116:10 *351:10 9.27779e-05
9 *3161:A *116:10 0.000108734
*RES
1 *3037:X *116:10 21.6036 
2 *116:10 *3038:B 13.8 
3 *116:10 *3051:A 16.9964 
*END

*D_NET *117 0.00295139
*CONN
*I *2997:B1 I *D sky130_fd_sc_hd__o21a_2
*I *3048:A1 I *D sky130_fd_sc_hd__o21a_2
*I *3038:Y O *D sky130_fd_sc_hd__nand2_2
*CAP
1 *2997:B1 0.000104454
2 *3048:A1 0
3 *3038:Y 0.00106091
4 *117:16 0.00116536
5 *2997:B1 *3048:A2 0.00014285
6 *2997:B1 *124:6 0.000124521
7 *2997:B1 *296:6 4.58194e-05
8 *2997:B1 *296:21 6.05161e-06
9 *117:16 *3047:A1 0.000177948
10 *117:16 *3048:A2 2.44318e-05
11 *117:16 *3048:B1 9.90431e-05
12 *117:16 *126:8 0
*RES
1 *3038:Y *117:16 36.8714 
2 *117:16 *3048:A1 9.3 
3 *117:16 *2997:B1 11.8893 
*END

*D_NET *118 0.00138186
*CONN
*I *3047:A2 I *D sky130_fd_sc_hd__o21ai_2
*I *3040:A I *D sky130_fd_sc_hd__xnor2_4
*I *3046:A2 I *D sky130_fd_sc_hd__a22o_2
*I *3039:X O *D sky130_fd_sc_hd__xor2_4
*CAP
1 *3047:A2 8.93285e-05
2 *3040:A 6.17105e-05
3 *3046:A2 4.66209e-06
4 *3039:X 0.000300809
5 *118:17 0.000321801
6 *118:6 0.000476233
7 *3046:A2 *3046:A1 1.46576e-05
8 *3046:A2 *326:17 1.46576e-05
9 *3047:A2 *3047:A1 9.21958e-05
10 *3047:A2 *3047:B1 0
11 *118:6 *3041:B 0
12 *118:6 *3213:A 0
13 *118:17 *3047:A1 5.80706e-06
14 *118:17 *3047:B1 0
*RES
1 *3039:X *118:6 9.78571 
2 *118:6 *3046:A2 13.9473 
3 *118:6 *118:17 2.85714 
4 *118:17 *3040:A 14.7464 
5 *118:17 *3047:A2 16.05 
*END

*D_NET *119 0.00228636
*CONN
*I *3053:B I *D sky130_fd_sc_hd__or4b_4
*I *3045:A I *D sky130_fd_sc_hd__or2_2
*I *3212:A I *D sky130_fd_sc_hd__buf_2
*I *3040:Y O *D sky130_fd_sc_hd__xnor2_4
*CAP
1 *3053:B 0.000212582
2 *3045:A 2.46036e-05
3 *3212:A 9.44459e-05
4 *3040:Y 7.62936e-05
5 *119:19 0.000407211
6 *119:8 0.000340765
7 *3045:A *2996:A 9.60939e-05
8 *3045:A *296:21 9.60939e-05
9 *3053:B *2997:A2 5.33786e-05
10 *3053:B *3053:A 0.000244595
11 *3053:B *3053:C 0
12 *3053:B *328:12 2.31791e-05
13 *119:8 *123:8 0.000153047
14 *119:19 *3001:A2 0
15 *119:19 *3053:A 0.000137224
16 *119:19 *123:8 0.000226021
17 *119:19 *130:10 0
18 *119:19 *328:12 0.000100831
*RES
1 *3040:Y *119:8 15.7464 
2 *119:8 *3212:A 15.1571 
3 *119:8 *119:19 4.67857 
4 *119:19 *3045:A 14.7464 
5 *119:19 *3053:B 17.8179 
*END

*D_NET *120 0.000857547
*CONN
*I *3044:A I *D sky130_fd_sc_hd__xnor2_4
*I *3213:A I *D sky130_fd_sc_hd__buf_2
*I *3041:X O *D sky130_fd_sc_hd__xor2_4
*CAP
1 *3044:A 0.000296621
2 *3213:A 0.000132153
3 *3041:X 0.000428773
4 *3213:A *3041:B 0
5 *118:6 *3213:A 0
*RES
1 *3041:X *3213:A 20.2464 
2 *3041:X *3044:A 13.8982 
*END

*D_NET *121 0.000311857
*CONN
*I *2999:B1 I *D sky130_fd_sc_hd__o21ai_2
*I *3042:Y O *D sky130_fd_sc_hd__nand2_2
*CAP
1 *2999:B1 0.000139406
2 *3042:Y 0.000139406
3 *2999:B1 *2999:A1 0
4 *2999:B1 *2999:A2 4.1331e-06
5 *2999:B1 *3000:B 2.89114e-05
6 *2999:B1 *123:8 0
*RES
1 *3042:Y *2999:B1 30.0821 
*END

*D_NET *122 0.000865943
*CONN
*I *2999:A1 I *D sky130_fd_sc_hd__o21ai_2
*I *3043:Y O *D sky130_fd_sc_hd__nor2_2
*CAP
1 *2999:A1 0.000323119
2 *3043:Y 0.000323119
3 *2999:A1 *3043:B 0.000212841
4 *2999:A1 *123:8 0
5 *2999:A1 *352:21 6.8646e-06
6 *2999:B1 *2999:A1 0
*RES
1 *3043:Y *2999:A1 34.7071 
*END

*D_NET *123 0.00286856
*CONN
*I *3053:A I *D sky130_fd_sc_hd__or4b_4
*I *3214:A I *D sky130_fd_sc_hd__buf_2
*I *3044:Y O *D sky130_fd_sc_hd__xnor2_4
*CAP
1 *3053:A 0.000221172
2 *3214:A 7.21318e-05
3 *3044:Y 0.000444252
4 *123:8 0.000737556
5 *3053:A *2996:A 0.000107503
6 *3053:A *2996:B 0.000140933
7 *3053:A *2997:A2 1.69115e-05
8 *3053:A *2999:A2 0
9 *3053:A *327:12 3.4323e-05
10 *3214:A *327:12 2.59355e-05
11 *3214:A *328:12 3.18676e-05
12 *123:8 *2999:A2 0
13 *123:8 *3040:B 0
14 *123:8 *3043:A 6.0038e-05
15 *123:8 *352:21 7.05375e-05
16 *123:8 *352:23 0.000144512
17 *123:8 *353:10 0
18 *2999:A1 *123:8 0
19 *2999:B1 *123:8 0
20 *3053:B *3053:A 0.000244595
21 *119:8 *123:8 0.000153047
22 *119:19 *3053:A 0.000137224
23 *119:19 *123:8 0.000226021
*RES
1 *3044:Y *123:8 24.2464 
2 *123:8 *3214:A 15.1571 
3 *123:8 *3053:A 20.2464 
*END

*D_NET *124 0.00124881
*CONN
*I *3001:A1 I *D sky130_fd_sc_hd__o21a_2
*I *3048:A2 I *D sky130_fd_sc_hd__o21a_2
*I *3045:X O *D sky130_fd_sc_hd__or2_2
*CAP
1 *3001:A1 0.000116283
2 *3048:A2 7.23521e-05
3 *3045:X 0.000148567
4 *124:6 0.000337202
5 *3001:A1 *3002:B 0.000148903
6 *3001:A1 *3048:B1 0
7 *3001:A1 *3053:C 2.68333e-05
8 *3001:A1 *130:10 1.02504e-05
9 *124:6 *2996:A 5.33005e-05
10 *124:6 *296:21 4.33174e-05
11 *2997:B1 *3048:A2 0.00014285
12 *2997:B1 *124:6 0.000124521
13 *117:16 *3048:A2 2.44318e-05
*RES
1 *3045:X *124:6 12.3 
2 *124:6 *3048:A2 11.0679 
3 *124:6 *3001:A1 20.8536 
*END

*D_NET *125 0.000667503
*CONN
*I *3047:B1 I *D sky130_fd_sc_hd__o21ai_2
*I *3046:X O *D sky130_fd_sc_hd__a22o_2
*CAP
1 *3047:B1 0.000283271
2 *3046:X 0.000283271
3 *3047:B1 *3040:B 0
4 *3047:B1 *352:21 0.00010096
5 *3047:A2 *3047:B1 0
6 *118:17 *3047:B1 0
*RES
1 *3046:X *3047:B1 32.3143 
*END

*D_NET *126 0.000938024
*CONN
*I *3048:B1 I *D sky130_fd_sc_hd__o21a_2
*I *3001:B1 I *D sky130_fd_sc_hd__o21a_2
*I *3047:Y O *D sky130_fd_sc_hd__o21ai_2
*CAP
1 *3048:B1 0.000185592
2 *3001:B1 0.000118284
3 *3047:Y 9.55269e-05
4 *126:8 0.000399402
5 *3001:B1 *3002:B 4.01768e-05
6 *3048:B1 *130:10 0
7 *126:8 *130:10 0
8 *3001:A1 *3048:B1 0
9 *117:16 *3048:B1 9.90431e-05
10 *117:16 *126:8 0
*RES
1 *3047:Y *126:8 15.4429 
2 *126:8 *3001:B1 15.9786 
3 *126:8 *3048:B1 17.3 
*END

*D_NET *127 0.00198895
*CONN
*I *3050:A2 I *D sky130_fd_sc_hd__a211o_2
*I *3049:B I *D sky130_fd_sc_hd__or2_2
*I *3048:X O *D sky130_fd_sc_hd__o21a_2
*CAP
1 *3050:A2 0.000270607
2 *3049:B 4.00453e-05
3 *3048:X 0.000478038
4 *127:8 0.000788691
5 *3050:A2 *131:10 0
6 *127:8 *3002:B 0
7 *127:8 *3053:D_N 0
8 *127:8 *131:10 0
9 *3049:A *3050:A2 0.00037224
10 *3050:A1 *3050:A2 3.93247e-05
11 *3050:C1 *3050:A2 0
*RES
1 *3048:X *127:8 22.425 
2 *127:8 *3049:B 14.3357 
3 *127:8 *3050:A2 20.1571 
*END

*D_NET *128 0.000699681
*CONN
*I *3003:C1 I *D sky130_fd_sc_hd__o211a_2
*I *3049:X O *D sky130_fd_sc_hd__or2_2
*CAP
1 *3003:C1 0.000273066
2 *3049:X 0.000273066
3 *3003:C1 *131:10 8.16036e-05
4 *3003:C1 *295:12 6.16958e-05
5 *3003:B1 *3003:C1 1.02504e-05
6 *3049:A *3003:C1 0
7 *3052:B *3003:C1 0
*RES
1 *3049:X *3003:C1 32.85 
*END

*D_NET *129 0.00372901
*CONN
*I *3081:A I *D sky130_fd_sc_hd__and2_2
*I *2861:A2 I *D sky130_fd_sc_hd__a21o_4
*I *3050:X O *D sky130_fd_sc_hd__a211o_2
*CAP
1 *3081:A 0
2 *2861:A2 0.000165648
3 *3050:X 0.000799708
4 *129:6 0.000965357
5 *2861:A2 *2861:A1 0.000276211
6 *2861:A2 *159:18 3.53302e-05
7 *2861:A2 *160:10 0.000276211
8 *129:6 *159:18 0.00121055
*RES
1 *3050:X *129:6 28.3179 
2 *129:6 *2861:A2 14.3893 
3 *129:6 *3081:A 9.3 
*END

*D_NET *130 0.00232081
*CONN
*I *3053:C I *D sky130_fd_sc_hd__or4b_4
*I *3215:A I *D sky130_fd_sc_hd__buf_2
*I *3051:Y O *D sky130_fd_sc_hd__xnor2_2
*CAP
1 *3053:C 0.000157491
2 *3215:A 0
3 *3051:Y 0.000762521
4 *130:10 0.000920013
5 *3053:C *2997:A2 3.79467e-05
6 *3053:C *3001:A2 0.000122751
7 *3053:C *3002:B 0.000265385
8 *3053:C *328:12 0
9 *130:10 *3001:A2 1.76135e-05
10 *3001:A1 *3053:C 2.68333e-05
11 *3001:A1 *130:10 1.02504e-05
12 *3048:B1 *130:10 0
13 *3053:B *3053:C 0
14 *119:19 *130:10 0
15 *126:8 *130:10 0
*RES
1 *3051:Y *130:10 26.3357 
2 *130:10 *3215:A 13.8 
3 *130:10 *3053:C 18.5321 
*END

*D_NET *131 0.00148858
*CONN
*I *3002:A I *D sky130_fd_sc_hd__xnor2_2
*I *3053:D_N I *D sky130_fd_sc_hd__or4b_4
*I *3052:Y O *D sky130_fd_sc_hd__xnor2_2
*CAP
1 *3002:A 0.000116804
2 *3053:D_N 0.000153448
3 *3052:Y 0.00039004
4 *131:10 0.000660293
5 *3053:D_N *3002:B 5.29554e-05
6 *131:10 *3002:B 3.34366e-05
7 *131:10 *295:12 0
8 *3003:C1 *131:10 8.16036e-05
9 *3049:A *131:10 0
10 *3050:A2 *131:10 0
11 *127:8 *3053:D_N 0
12 *127:8 *131:10 0
*RES
1 *3052:Y *131:10 26.0143 
2 *131:10 *3053:D_N 21.1929 
3 *131:10 *3002:A 11.0857 
*END

*D_NET *132 0.00302661
*CONN
*I *3057:A1 I *D sky130_fd_sc_hd__o211a_4
*I *3003:A1 I *D sky130_fd_sc_hd__o211a_2
*I *3053:X O *D sky130_fd_sc_hd__or4b_4
*CAP
1 *3057:A1 0.000402198
2 *3003:A1 1.03188e-05
3 *3053:X 0.000368182
4 *132:12 0.000780699
5 *3057:A1 *3004:B 0
6 *3057:A1 *3035:B 0
7 *3057:A1 *295:10 0.000740893
8 *3057:A1 *355:10 0
9 *132:12 *295:10 1.02504e-05
10 *132:12 *295:12 0.000660768
11 *112:6 *3057:A1 5.33005e-05
*RES
1 *3053:X *132:12 23.6929 
2 *132:12 *3003:A1 13.9295 
3 *132:12 *3057:A1 23.8714 
*END

*D_NET *133 0.0005621
*CONN
*I *3055:B1 I *D sky130_fd_sc_hd__a21oi_2
*I *3054:X O *D sky130_fd_sc_hd__o211a_2
*CAP
1 *3055:B1 0.000223249
2 *3054:X 0.000223249
3 *3055:B1 *3054:A2 0
4 *3055:B1 *3055:A1 8.07313e-05
5 *3055:B1 *158:8 0
6 *3055:B1 *308:14 3.48705e-05
*RES
1 *3054:X *3055:B1 31.85 
*END

*D_NET *134 0.00305666
*CONN
*I *3080:A1 I *D sky130_fd_sc_hd__a41o_4
*I *3057:B1 I *D sky130_fd_sc_hd__o211a_4
*I *3055:Y O *D sky130_fd_sc_hd__a21oi_2
*CAP
1 *3080:A1 0
2 *3057:B1 0.000285255
3 *3055:Y 0.000548781
4 *134:10 0.000834036
5 *3057:B1 *3034:A 6.54806e-05
6 *3057:B1 *3057:C1 0
7 *3057:B1 *3080:A3 3.51442e-05
8 *3057:B1 *3080:B1 0.000153054
9 *3057:B1 *159:18 0
10 *3057:B1 *319:18 0.00030669
11 *134:10 *3080:A3 0.000229443
12 *134:10 *152:10 0.00050165
13 *134:10 *308:14 9.71197e-05
*RES
1 *3055:Y *134:10 25.2107 
2 *134:10 *3057:B1 20.425 
3 *134:10 *3080:A1 13.8 
*END

*D_NET *135 0.00139449
*CONN
*I *3057:C1 I *D sky130_fd_sc_hd__o211a_4
*I *3080:A4 I *D sky130_fd_sc_hd__a41o_4
*I *3056:X O *D sky130_fd_sc_hd__a2111o_2
*CAP
1 *3057:C1 0.000160241
2 *3080:A4 6.17285e-05
3 *3056:X 0.000361047
4 *135:10 0.000583016
5 *3057:C1 *3080:A3 0
6 *3057:C1 *295:10 0
7 *135:10 *3030:A 0.000224322
8 *3050:C1 *3057:C1 4.1331e-06
9 *3057:B1 *3057:C1 0
*RES
1 *3056:X *135:10 15.2107 
2 *135:10 *3080:A4 10.2464 
3 *135:10 *3057:C1 20.55 
*END

*D_NET *136 0.00065331
*CONN
*I *3080:B1 I *D sky130_fd_sc_hd__a41o_4
*I *3057:X O *D sky130_fd_sc_hd__o211a_4
*CAP
1 *3080:B1 0.000172546
2 *3057:X 0.000172546
3 *3080:B1 *3034:A 9.80173e-05
4 *3080:B1 *159:18 0
5 *3080:B1 *319:18 5.71472e-05
6 *3057:B1 *3080:B1 0.000153054
*RES
1 *3057:X *3080:B1 31.3143 
*END

*D_NET *137 0.00137594
*CONN
*I *3060:B I *D sky130_fd_sc_hd__and3_2
*I *3061:B I *D sky130_fd_sc_hd__nand3_2
*I *3072:A1 I *D sky130_fd_sc_hd__a21oi_2
*I *3058:X O *D sky130_fd_sc_hd__or2_4
*CAP
1 *3060:B 0.000120143
2 *3061:B 0
3 *3072:A1 0
4 *3058:X 0.000224011
5 *137:19 0.000264596
6 *137:8 0.000368465
7 *3060:B *3060:A 7.4826e-05
8 *3060:B *3060:C 4.16021e-05
9 *3060:B *3072:B1 5.80706e-06
10 *3060:B *3073:B1 0
11 *3060:B *3078:A 0
12 *3060:B *3078:B 5.80706e-06
13 *3060:B *316:10 0
14 *137:8 *3058:B 1.55885e-05
15 *137:8 *3072:A2 5.33005e-05
16 *137:19 *3060:C 4.1331e-06
17 *137:19 *3072:B1 0.000112106
18 *137:19 *138:8 2.8266e-06
19 *137:19 *138:19 8.2731e-05
*RES
1 *3058:X *137:8 13.1393 
2 *137:8 *3072:A1 9.3 
3 *137:8 *137:19 8.30357 
4 *137:19 *3061:B 13.8 
5 *137:19 *3060:B 16.9607 
*END

*D_NET *138 0.00142402
*CONN
*I *3060:C I *D sky130_fd_sc_hd__and3_2
*I *3061:C I *D sky130_fd_sc_hd__nand3_2
*I *3072:A2 I *D sky130_fd_sc_hd__a21oi_2
*I *3059:Y O *D sky130_fd_sc_hd__nand2_2
*CAP
1 *3060:C 0.000169195
2 *3061:C 0
3 *3072:A2 2.80869e-05
4 *3059:Y 9.07649e-05
5 *138:19 0.000251279
6 *138:8 0.000200936
7 *3060:C *316:10 0.000119618
8 *3072:A2 *3058:B 6.05161e-06
9 *138:8 *316:10 5.66157e-05
10 *138:8 *316:16 0.000100823
11 *138:8 *316:32 0
12 *138:19 *316:10 0.000216057
13 *3060:B *3060:C 4.16021e-05
14 *137:8 *3072:A2 5.33005e-05
15 *137:19 *3060:C 4.1331e-06
16 *137:19 *138:8 2.8266e-06
17 *137:19 *138:19 8.2731e-05
*RES
1 *3059:Y *138:8 15.7464 
2 *138:8 *3072:A2 14.3357 
3 *138:8 *138:19 2.85714 
4 *138:19 *3061:C 13.8 
5 *138:19 *3060:C 16.8 
*END

*D_NET *139 0.000516593
*CONN
*I *3078:B I *D sky130_fd_sc_hd__or2_4
*I *3060:X O *D sky130_fd_sc_hd__and3_2
*CAP
1 *3078:B 0.000213443
2 *3060:X 0.000213443
3 *3078:B *3078:A 0
4 *3078:B *316:10 8.39e-05
5 *3060:B *3078:B 5.80706e-06
*RES
1 *3060:X *3078:B 31.725 
*END

*D_NET *140 0.000477824
*CONN
*I *3073:B1 I *D sky130_fd_sc_hd__o31a_2
*I *3061:Y O *D sky130_fd_sc_hd__nand3_2
*CAP
1 *3073:B1 9.7603e-05
2 *3061:Y 9.7603e-05
3 *3073:B1 *3060:A 4.79842e-05
4 *3073:B1 *151:10 0.000153054
5 *3073:B1 *350:8 2.44318e-05
6 *3073:B1 *350:12 5.71472e-05
7 *3060:B *3073:B1 0
*RES
1 *3061:Y *3073:B1 30.4929 
*END

*D_NET *141 0.00106122
*CONN
*I *3071:A1 I *D sky130_fd_sc_hd__a21oi_2
*I *3064:B I *D sky130_fd_sc_hd__and3_2
*I *3062:X O *D sky130_fd_sc_hd__or2_2
*CAP
1 *3071:A1 2.23386e-05
2 *3064:B 0.00028452
3 *3062:X 0.000120037
4 *141:8 0.000426896
5 *3064:B *3064:A 0
6 *3064:B *3064:C 0
7 *3064:B *143:6 0.000144773
8 *3071:A1 *3064:C 5.52238e-05
9 *3071:A1 *150:12 7.43578e-06
10 *141:8 *3063:A 0
11 *141:8 *3063:B 0
12 *141:8 *3174:A 0
*RES
1 *3062:X *141:8 15.7464 
2 *141:8 *3064:B 19.2643 
3 *141:8 *3071:A1 14.3357 
*END

*D_NET *142 0.0010148
*CONN
*I *3064:C I *D sky130_fd_sc_hd__and3_2
*I *3071:A2 I *D sky130_fd_sc_hd__a21oi_2
*I *3063:Y O *D sky130_fd_sc_hd__nand2_2
*CAP
1 *3064:C 0.000269791
2 *3071:A2 0
3 *3063:Y 0.000105316
4 *142:8 0.000375107
5 *3064:C *3064:A 4.15914e-05
6 *3064:C *3071:B1 5.33334e-05
7 *3064:C *3174:A 3.34295e-05
8 *3064:C *150:12 3.48705e-05
9 *3064:C *319:8 0
10 *142:8 *3063:B 3.57366e-05
11 *142:8 *150:12 1.03968e-05
12 *3064:B *3064:C 0
13 *3071:A1 *3064:C 5.52238e-05
14 *3155:A *3064:C 0
*RES
1 *3063:Y *142:8 10.9786 
2 *142:8 *3071:A2 9.3 
3 *142:8 *3064:C 23.6571 
*END

*D_NET *143 0.00513631
*CONN
*I *3070:C1 I *D sky130_fd_sc_hd__a211oi_2
*I *3077:A I *D sky130_fd_sc_hd__or2_4
*I *3064:X O *D sky130_fd_sc_hd__and3_2
*CAP
1 *3070:C1 0.000444821
2 *3077:A 0.000155055
3 *3064:X 0.00108616
4 *143:6 0.00168604
5 *3070:C1 *2992:A 7.05375e-05
6 *3070:C1 *3068:A1 0.000112106
7 *3070:C1 *3073:A2 0
8 *3070:C1 *3079:B 5.83304e-05
9 *3070:C1 *3079:C 0.000344917
10 *3070:C1 *147:10 7.79781e-06
11 *3070:C1 *149:12 0.000681306
12 *3070:C1 *150:21 0.000175892
13 *3070:C1 *155:14 0
14 *3077:A *150:21 4.05411e-05
15 *143:6 *2994:B 5.52302e-05
16 *143:6 *150:21 7.28102e-05
17 *3064:B *143:6 0.000144773
*RES
1 *3064:X *143:6 22.5679 
2 *143:6 *3077:A 11.6929 
3 *143:6 *3070:C1 39.6393 
*END

*D_NET *144 0.00145282
*CONN
*I *3209:A I *D sky130_fd_sc_hd__buf_2
*I *3074:A I *D sky130_fd_sc_hd__xnor2_4
*I *3065:X O *D sky130_fd_sc_hd__xor2_4
*CAP
1 *3209:A 0
2 *3074:A 0.000372513
3 *3065:X 0.000177344
4 *144:8 0.000549858
5 *3074:A *2991:A 5.33005e-05
6 *3074:A *3068:A2 1.19309e-05
7 *3074:A *3068:C1 0
8 *3074:A *3069:A1 5.71472e-05
9 *3074:A *3069:B1 5.52238e-05
10 *3074:A *309:54 0
11 *3074:A *322:8 7.28814e-05
12 *3074:A *322:19 9.68146e-05
13 *144:8 *3069:B1 5.80706e-06
14 *144:8 *370:12 0
*RES
1 *3065:X *144:8 12.1607 
2 *144:8 *3074:A 25.3179 
3 *144:8 *3209:A 9.3 
*END

*D_NET *145 0.00239695
*CONN
*I *3075:B I *D sky130_fd_sc_hd__nor2_2
*I *3067:B I *D sky130_fd_sc_hd__and2_2
*I *3068:B1 I *D sky130_fd_sc_hd__o211a_2
*I *3066:X O *D sky130_fd_sc_hd__xor2_2
*CAP
1 *3075:B 1.24159e-05
2 *3067:B 0
3 *3068:B1 0.000374054
4 *3066:X 0.000227597
5 *145:10 0.000539423
6 *145:6 0.000405381
7 *3068:B1 *3062:A 0
8 *3068:B1 *3068:C1 0.000395894
9 *3068:B1 *3076:A 0
10 *3068:B1 *3076:B 0.000144633
11 *3068:B1 *155:14 4.88637e-05
12 *3068:B1 *309:54 8.16036e-05
13 *3075:B *3075:A 5.7661e-06
14 *145:6 *3066:A 5.33433e-05
15 *145:10 *3075:A 0.000107973
*RES
1 *3066:X *145:6 12.7107 
2 *145:6 *145:10 3.01786 
3 *145:10 *3068:B1 27.6393 
4 *145:10 *3067:B 9.3 
5 *145:6 *3075:B 9.72857 
*END

*D_NET *146 0.000722221
*CONN
*I *3076:B I *D sky130_fd_sc_hd__or4b_4
*I *3067:X O *D sky130_fd_sc_hd__and2_2
*CAP
1 *3076:B 0.000268684
2 *3067:X 0.000268684
3 *3076:B *3063:A 9.33978e-07
4 *3076:B *3076:A 3.92854e-05
5 *3076:B *3076:C 0
6 *3068:B1 *3076:B 0.000144633
*RES
1 *3067:X *3076:B 32.4214 
*END

*D_NET *147 0.000980309
*CONN
*I *3069:B1 I *D sky130_fd_sc_hd__a21oi_2
*I *3070:B1 I *D sky130_fd_sc_hd__a211oi_2
*I *3068:X O *D sky130_fd_sc_hd__o211a_2
*CAP
1 *3069:B1 0.000125872
2 *3070:B1 0
3 *3068:X 0.000135313
4 *147:10 0.000261185
5 *3069:B1 *2991:A 0.000115474
6 *3069:B1 *3068:A1 0
7 *3069:B1 *3069:A1 0
8 *3069:B1 *322:8 2.89016e-05
9 *147:10 *2991:A 0.000177234
10 *147:10 *3068:A1 0
11 *147:10 *149:12 6.75007e-05
12 *3070:C1 *147:10 7.79781e-06
13 *3074:A *3069:B1 5.52238e-05
14 *144:8 *3069:B1 5.80706e-06
*RES
1 *3068:X *147:10 16.9964 
2 *147:10 *3070:B1 13.8 
3 *147:10 *3069:B1 16.5857 
*END

*D_NET *148 0.000835906
*CONN
*I *2991:A I *D sky130_fd_sc_hd__nand2_2
*I *3069:Y O *D sky130_fd_sc_hd__a21oi_2
*CAP
1 *2991:A 0.000234075
2 *3069:Y 0.000234075
3 *2991:A *2991:B 5.80706e-06
4 *2991:A *149:12 1.5942e-05
5 *3069:B1 *2991:A 0.000115474
6 *3074:A *2991:A 5.33005e-05
7 *147:10 *2991:A 0.000177234
*RES
1 *3069:Y *2991:A 32.5107 
*END

*D_NET *149 0.00350577
*CONN
*I *2993:A1 I *D sky130_fd_sc_hd__a21oi_2
*I *3073:A1 I *D sky130_fd_sc_hd__o31a_2
*I *3070:Y O *D sky130_fd_sc_hd__a211oi_2
*CAP
1 *2993:A1 0
2 *3073:A1 0.000430214
3 *3070:Y 0.000224357
4 *149:12 0.000654572
5 *3073:A1 *2992:A 1.00375e-05
6 *3073:A1 *2993:A2 5.80706e-06
7 *3073:A1 *2994:A 8.16036e-05
8 *3073:A1 *3073:A2 0
9 *3073:A1 *3079:B 9.45668e-05
10 *3073:A1 *3079:C 0.000417184
11 *3073:A1 *152:10 0.000126629
12 *3073:A1 *158:8 0.000103041
13 *149:12 *2991:B 0.00025263
14 *149:12 *2993:A2 0.000306385
15 *149:12 *3079:C 3.39892e-05
16 *2991:A *149:12 1.5942e-05
17 *3070:C1 *149:12 0.000681306
18 *147:10 *149:12 6.75007e-05
*RES
1 *3070:Y *149:12 23.6929 
2 *149:12 *3073:A1 25.3357 
3 *149:12 *2993:A1 13.8 
*END

*D_NET *150 0.0037218
*CONN
*I *3077:B I *D sky130_fd_sc_hd__or2_4
*I *3073:A2 I *D sky130_fd_sc_hd__o31a_2
*I *2993:B1 I *D sky130_fd_sc_hd__a21oi_2
*I *3071:Y O *D sky130_fd_sc_hd__a21oi_2
*CAP
1 *3077:B 0
2 *3073:A2 0.000425344
3 *2993:B1 0
4 *3071:Y 0.000787415
5 *150:21 0.00073553
6 *150:12 0.0010976
7 *3073:A2 *3078:A 0.000227729
8 *3073:A2 *3079:B 0
9 *3073:A2 *151:10 1.02504e-05
10 *150:12 *3063:A 3.18676e-05
11 *150:12 *3079:C 4.48206e-05
12 *150:21 *2994:B 1.92905e-05
13 *3064:C *150:12 3.48705e-05
14 *3070:C1 *3073:A2 0
15 *3070:C1 *150:21 0.000175892
16 *3071:A1 *150:12 7.43578e-06
17 *3073:A1 *3073:A2 0
18 *3077:A *150:21 4.05411e-05
19 *142:8 *150:12 1.03968e-05
20 *143:6 *150:21 7.28102e-05
*RES
1 *3071:Y *150:12 28.2821 
2 *150:12 *2993:B1 9.3 
3 *150:12 *150:21 5.89286 
4 *150:21 *3073:A2 26.8536 
5 *150:21 *3077:B 9.3 
*END

*D_NET *151 0.00142055
*CONN
*I *3078:A I *D sky130_fd_sc_hd__or2_4
*I *3073:A3 I *D sky130_fd_sc_hd__o31a_2
*I *3072:Y O *D sky130_fd_sc_hd__a21oi_2
*CAP
1 *3078:A 0.000138275
2 *3073:A3 0
3 *3072:Y 0.000376481
4 *151:10 0.000514756
5 *151:10 *3060:A 0
6 *151:10 *3072:B1 0
7 *151:10 *152:10 0
8 *3060:B *3078:A 0
9 *3073:A2 *3078:A 0.000227729
10 *3073:A2 *151:10 1.02504e-05
11 *3073:B1 *151:10 0.000153054
12 *3078:B *3078:A 0
*RES
1 *3072:Y *151:10 20.3536 
2 *151:10 *3073:A3 13.8 
3 *151:10 *3078:A 17.1929 
*END

*D_NET *152 0.00277483
*CONN
*I *2995:A I *D sky130_fd_sc_hd__and2_2
*I *3080:A3 I *D sky130_fd_sc_hd__a41o_4
*I *3073:X O *D sky130_fd_sc_hd__o31a_2
*CAP
1 *2995:A 0
2 *3080:A3 0.000227633
3 *3073:X 0.000651887
4 *152:10 0.00087952
5 *3080:A3 *3080:A2 4.22908e-05
6 *152:10 *3080:A2 0
7 *152:10 *158:8 0
8 *152:10 *308:8 8.06331e-05
9 *3057:B1 *3080:A3 3.51442e-05
10 *3057:C1 *3080:A3 0
11 *3073:A1 *152:10 0.000126629
12 *134:10 *3080:A3 0.000229443
13 *134:10 *152:10 0.00050165
14 *151:10 *152:10 0
*RES
1 *3073:X *152:10 27.3357 
2 *152:10 *3080:A3 18.7464 
3 *152:10 *2995:A 13.8 
*END

*D_NET *153 0.000363633
*CONN
*I *3216:A I *D sky130_fd_sc_hd__buf_2
*I *3076:A I *D sky130_fd_sc_hd__or4b_4
*I *3074:Y O *D sky130_fd_sc_hd__xnor2_4
*CAP
1 *3216:A 3.00565e-05
2 *3076:A 7.47754e-05
3 *3074:Y 0.000104832
4 *3076:A *3062:A 0
5 *3076:A *3076:C 2.56694e-05
6 *3216:A *3074:B 3.18676e-05
7 *3216:A *309:39 5.71472e-05
8 *3068:B1 *3076:A 0
9 *3076:B *3076:A 3.92854e-05
*RES
1 *3074:Y *3076:A 29.2429 
2 *3074:Y *3216:A 19.5643 
*END

*D_NET *154 0.000532355
*CONN
*I *3076:C I *D sky130_fd_sc_hd__or4b_4
*I *3075:Y O *D sky130_fd_sc_hd__nor2_2
*CAP
1 *3076:C 0.0002033
2 *3075:Y 0.0002033
3 *3076:C *3062:A 9.33059e-05
4 *3076:C *3063:A 6.78055e-06
5 *3076:A *3076:C 2.56694e-05
6 *3076:B *3076:C 0
*RES
1 *3075:Y *3076:C 31.6 
*END

*D_NET *155 0.00316939
*CONN
*I *3208:A I *D sky130_fd_sc_hd__buf_2
*I *3079:C I *D sky130_fd_sc_hd__or3_4
*I *3076:X O *D sky130_fd_sc_hd__or4b_4
*CAP
1 *3208:A 0
2 *3079:C 0.000464719
3 *3076:X 0.000371977
4 *155:14 0.000836696
5 *3079:C *2994:B 0.000177227
6 *3079:C *3079:A 4.98938e-05
7 *3079:C *3079:B 5.52302e-05
8 *3079:C *3197:A 0
9 *3079:C *157:6 2.89114e-05
10 *3079:C *158:8 9.25014e-06
11 *155:14 *3068:C1 0.000230482
12 *155:14 *3197:A 5.52302e-05
13 *3068:B1 *155:14 4.88637e-05
14 *3070:C1 *3079:C 0.000344917
15 *3070:C1 *155:14 0
16 *3073:A1 *3079:C 0.000417184
17 *149:12 *3079:C 3.39892e-05
18 *150:12 *3079:C 4.48206e-05
*RES
1 *3076:X *155:14 25.425 
2 *155:14 *3079:C 31.175 
3 *155:14 *3208:A 9.3 
*END

*D_NET *156 0.00128672
*CONN
*I *2992:A I *D sky130_fd_sc_hd__xnor2_2
*I *3079:B I *D sky130_fd_sc_hd__or3_4
*I *3077:X O *D sky130_fd_sc_hd__or2_4
*CAP
1 *2992:A 8.39631e-05
2 *3079:B 0.000251118
3 *3077:X 0
4 *156:6 0.000335081
5 *2992:A *2993:A2 0.000174797
6 *3079:B *2994:A 0.000153054
7 *3070:C1 *2992:A 7.05375e-05
8 *3070:C1 *3079:B 5.83304e-05
9 *3073:A1 *2992:A 1.00375e-05
10 *3073:A1 *3079:B 9.45668e-05
11 *3073:A2 *3079:B 0
12 *3079:C *3079:B 5.52302e-05
*RES
1 *3077:X *156:6 13.8 
2 *156:6 *3079:B 19.6214 
3 *156:6 *2992:A 16.3536 
*END

*D_NET *157 0.000885884
*CONN
*I *3079:A I *D sky130_fd_sc_hd__or3_4
*I *2994:A I *D sky130_fd_sc_hd__xnor2_2
*I *3078:X O *D sky130_fd_sc_hd__or2_4
*CAP
1 *3079:A 7.18789e-05
2 *2994:A 4.69147e-05
3 *3078:X 0.000167417
4 *157:6 0.00028621
5 *3073:A1 *2994:A 8.16036e-05
6 *3079:B *2994:A 0.000153054
7 *3079:C *3079:A 4.98938e-05
8 *3079:C *157:6 2.89114e-05
*RES
1 *3078:X *157:6 11.8893 
2 *157:6 *2994:A 20.2464 
3 *157:6 *3079:A 10.675 
*END

*D_NET *158 0.00230682
*CONN
*I *2995:B I *D sky130_fd_sc_hd__and2_2
*I *3080:A2 I *D sky130_fd_sc_hd__a41o_4
*I *3079:X O *D sky130_fd_sc_hd__or3_4
*CAP
1 *2995:B 6.01576e-05
2 *3080:A2 0.000220179
3 *3079:X 0.000755252
4 *158:8 0.00103559
5 *2995:B *295:10 3.69047e-06
6 *158:8 *308:8 7.73662e-05
7 *3055:B1 *158:8 0
8 *3073:A1 *158:8 0.000103041
9 *3079:C *158:8 9.25014e-06
10 *3080:A3 *3080:A2 4.22908e-05
11 *152:10 *3080:A2 0
12 *152:10 *158:8 0
*RES
1 *3079:X *158:8 28.1929 
2 *158:8 *3080:A2 17.7286 
3 *158:8 *2995:B 14.7464 
*END

*D_NET *159 0.00439455
*CONN
*I *3081:B I *D sky130_fd_sc_hd__and2_2
*I *2861:A1 I *D sky130_fd_sc_hd__a21o_4
*I *3080:X O *D sky130_fd_sc_hd__a41o_4
*CAP
1 *3081:B 0
2 *2861:A1 8.52387e-05
3 *3080:X 0.00135099
4 *159:18 0.00143623
5 *159:18 *3034:A 0
6 *2861:A2 *2861:A1 0.000276211
7 *2861:A2 *159:18 3.53302e-05
8 *3057:B1 *159:18 0
9 *3080:B1 *159:18 0
10 *129:6 *159:18 0.00121055
*RES
1 *3080:X *159:18 46.1929 
2 *159:18 *2861:A1 11.8893 
3 *159:18 *3081:B 9.3 
*END

*D_NET *160 0.00527281
*CONN
*I *3015:A I *D sky130_fd_sc_hd__or3_4
*I *3013:A1 I *D sky130_fd_sc_hd__o21ai_2
*I *3012:A I *D sky130_fd_sc_hd__xor2_2
*I *3081:X O *D sky130_fd_sc_hd__and2_2
*CAP
1 *3015:A 2.76349e-05
2 *3013:A1 3.50795e-05
3 *3012:A 0.000251052
4 *3081:X 0.000525949
5 *160:12 0.000990226
6 *160:10 0.00125768
7 *3012:A *3012:B 0.0001547
8 *3012:A *169:10 0.000128154
9 *3012:A *169:27 3.17148e-05
10 *3012:A *401:10 0
11 *3013:A1 *3014:A 5.33005e-05
12 *3013:A1 *3014:B 9.60875e-05
13 *3015:A *3015:B 2.89114e-05
14 *160:10 *401:10 0.000228558
15 *160:12 *3015:B 0
16 *160:12 *3015:C 0
17 *160:12 *169:27 0.00118755
18 *160:12 *401:10 0
19 *2861:A2 *160:10 0.000276211
*RES
1 *3081:X *160:10 21.3179 
2 *160:10 *160:12 17.4286 
3 *160:12 *3012:A 18.7643 
4 *160:12 *3013:A1 14.7464 
5 *160:10 *3015:A 14.3357 
*END

*D_NET *161 0.000571074
*CONN
*I *3084:B I *D sky130_fd_sc_hd__or2_2
*I *3083:B I *D sky130_fd_sc_hd__nand2_2
*I *3082:X O *D sky130_fd_sc_hd__xor2_2
*CAP
1 *3084:B 2.36895e-05
2 *3083:B 0.000234235
3 *3082:X 0.000257925
4 *3083:B *3085:B 0
5 *3084:B *3085:B 5.52238e-05
*RES
1 *3082:X *3083:B 30.9036 
2 *3082:X *3084:B 19.1357 
*END

*D_NET *162 0.00143477
*CONN
*I *3085:A I *D sky130_fd_sc_hd__nand2_2
*I *3013:B1 I *D sky130_fd_sc_hd__o21ai_2
*I *2862:A1 I *D sky130_fd_sc_hd__o21ba_2
*I *3083:Y O *D sky130_fd_sc_hd__nand2_2
*CAP
1 *3085:A 9.97608e-05
2 *3013:B1 0
3 *2862:A1 0.000142265
4 *3083:Y 0
5 *162:12 0.000518174
6 *162:4 0.00047567
7 *3085:A *3083:A 1.32552e-05
8 *3085:A *164:12 8.76257e-05
9 *162:12 *2862:A2 0
10 *162:12 *3088:B 0
11 *162:12 *164:12 9.80173e-05
12 *162:12 *164:24 0
13 *162:12 *182:14 0
*RES
1 *3083:Y *162:4 9.3 
2 *162:4 *162:12 15.25 
3 *162:12 *2862:A1 11.4964 
4 *162:12 *3013:B1 9.3 
5 *162:4 *3085:A 11.3893 
*END

*D_NET *163 0.000664218
*CONN
*I *3085:B I *D sky130_fd_sc_hd__nand2_2
*I *3084:X O *D sky130_fd_sc_hd__or2_2
*CAP
1 *3085:B 0.000265329
2 *3084:X 0.000265329
3 *3085:B *401:10 7.83366e-05
4 *3083:B *3085:B 0
5 *3084:B *3085:B 5.52238e-05
*RES
1 *3084:X *3085:B 32.1357 
*END

*D_NET *164 0.00410567
*CONN
*I *3015:B I *D sky130_fd_sc_hd__or3_4
*I *2860:A I *D sky130_fd_sc_hd__or4_4
*I *3013:A2 I *D sky130_fd_sc_hd__o21ai_2
*I *3012:B I *D sky130_fd_sc_hd__xor2_2
*I *3085:Y O *D sky130_fd_sc_hd__nand2_2
*CAP
1 *3015:B 0.000308241
2 *2860:A 0
3 *3013:A2 0
4 *3012:B 0.000228317
5 *3085:Y 0.000216157
6 *164:33 0.000945556
7 *164:24 0.000753687
8 *164:12 0.000560846
9 *3012:B *169:10 0.000142856
10 *3015:B *2860:C 0
11 *3015:B *169:27 4.1331e-06
12 *3015:B *182:14 0
13 *3015:B *305:10 3.69047e-06
14 *164:12 *3083:A 5.23142e-05
15 *164:12 *401:10 0
16 *164:24 *169:10 5.57914e-05
17 *164:24 *169:27 1.00375e-05
18 *164:33 *169:27 0.000454789
19 *164:33 *182:14 0
20 *3012:A *3012:B 0.0001547
21 *3015:A *3015:B 2.89114e-05
22 *3085:A *164:12 8.76257e-05
23 *160:12 *3015:B 0
24 *162:12 *164:12 9.80173e-05
25 *162:12 *164:24 0
*RES
1 *3085:Y *164:12 18.3536 
2 *164:12 *3012:B 9.50893 
3 *164:12 *164:24 2.55357 
4 *164:24 *3013:A2 13.8 
5 *164:24 *164:33 15 
6 *164:33 *2860:A 13.8 
7 *164:33 *3015:B 18.7464 
*END

*D_NET *165 0.00147104
*CONN
*I *3088:B I *D sky130_fd_sc_hd__and3_2
*I *3089:A1 I *D sky130_fd_sc_hd__a21oi_2
*I *3086:X O *D sky130_fd_sc_hd__or2_4
*CAP
1 *3088:B 0.000351999
2 *3089:A1 0.000239684
3 *3086:X 8.52223e-05
4 *165:8 0.000676905
5 *3088:B *3088:A 0
6 *3088:B *3090:A 9.00795e-06
7 *3088:B *167:6 3.06878e-06
8 *3088:B *168:12 4.88515e-05
9 *3088:B *376:10 0
10 *3089:A1 *3087:A 0
11 *3089:A1 *3088:C 5.62995e-05
12 *165:8 *376:10 0
13 *162:12 *3088:B 0
*RES
1 *3086:X *165:8 15.1393 
2 *165:8 *3089:A1 17.6393 
3 *165:8 *3088:B 18.6393 
*END

*D_NET *166 0.000855078
*CONN
*I *3088:C I *D sky130_fd_sc_hd__and3_2
*I *3089:A2 I *D sky130_fd_sc_hd__a21oi_2
*I *3087:Y O *D sky130_fd_sc_hd__nand2_2
*CAP
1 *3088:C 0.000195307
2 *3089:A2 0
3 *3087:Y 6.59004e-05
4 *166:8 0.000261208
5 *3088:C *3088:A 2.59093e-05
6 *3088:C *168:12 0.000177227
7 *3088:C *311:68 2.14658e-05
8 *166:8 *311:68 5.17614e-05
9 *3089:A1 *3088:C 5.62995e-05
*RES
1 *3087:Y *166:8 10.675 
2 *166:8 *3089:A2 9.3 
3 *166:8 *3088:C 22.925 
*END

*D_NET *167 0.00101647
*CONN
*I *3090:A I *D sky130_fd_sc_hd__or2_4
*I *2862:B1_N I *D sky130_fd_sc_hd__o21ba_2
*I *3088:X O *D sky130_fd_sc_hd__and3_2
*CAP
1 *3090:A 0.000150547
2 *2862:B1_N 6.70433e-05
3 *3088:X 0.000185399
4 *167:6 0.000402989
5 *2862:B1_N *2862:A2 0.000128154
6 *3090:A *168:12 2.14658e-05
7 *167:6 *168:12 4.87953e-05
8 *3088:B *3090:A 9.00795e-06
9 *3088:B *167:6 3.06878e-06
*RES
1 *3088:X *167:6 11.4786 
2 *167:6 *2862:B1_N 19.9429 
3 *167:6 *3090:A 11.3893 
*END

*D_NET *168 0.00125891
*CONN
*I *3090:B I *D sky130_fd_sc_hd__or2_4
*I *2862:A2 I *D sky130_fd_sc_hd__o21ba_2
*I *3089:Y O *D sky130_fd_sc_hd__a21oi_2
*CAP
1 *3090:B 0
2 *2862:A2 0.000183875
3 *3089:Y 9.68766e-05
4 *168:12 0.000280752
5 *2862:A2 *3088:A 1.76135e-05
6 *2862:A2 *182:14 7.97875e-05
7 *168:12 *3088:A 0.000175512
8 *2862:B1_N *2862:A2 0.000128154
9 *3088:B *168:12 4.88515e-05
10 *3088:C *168:12 0.000177227
11 *3090:A *168:12 2.14658e-05
12 *162:12 *2862:A2 0
13 *167:6 *168:12 4.87953e-05
*RES
1 *3089:Y *168:12 21.9071 
2 *168:12 *2862:A2 21.9071 
3 *168:12 *3090:B 9.3 
*END

*D_NET *169 0.00467616
*CONN
*I *3015:C I *D sky130_fd_sc_hd__or3_4
*I *2860:B I *D sky130_fd_sc_hd__or4_4
*I *3014:A I *D sky130_fd_sc_hd__xnor2_2
*I *3090:X O *D sky130_fd_sc_hd__or2_4
*CAP
1 *3015:C 0.000182266
2 *2860:B 0.000121764
3 *3014:A 0.000104718
4 *3090:X 0.00029991
5 *169:27 0.00067967
6 *169:10 0.000780267
7 *2860:B *2861:B1 1.33343e-05
8 *3014:A *3014:B 2.28598e-05
9 *3015:C *2861:B1 0.000227532
10 *3015:C *401:10 0.000175512
11 *169:10 *401:10 0
12 *3012:A *169:10 0.000128154
13 *3012:A *169:27 3.17148e-05
14 *3012:B *169:10 0.000142856
15 *3013:A1 *3014:A 5.33005e-05
16 *3015:B *169:27 4.1331e-06
17 *160:12 *3015:C 0
18 *160:12 *169:27 0.00118755
19 *164:24 *169:10 5.57914e-05
20 *164:24 *169:27 1.00375e-05
21 *164:33 *169:27 0.000454789
*RES
1 *3090:X *169:10 19.9786 
2 *169:10 *3014:A 15.5857 
3 *169:10 *169:27 20.2321 
4 *169:27 *2860:B 11.0679 
5 *169:27 *3015:C 22.7286 
*END

*D_NET *170 0.0011301
*CONN
*I *3093:B I *D sky130_fd_sc_hd__and3_2
*I *3094:A1 I *D sky130_fd_sc_hd__a21oi_2
*I *3091:X O *D sky130_fd_sc_hd__or2_2
*CAP
1 *3093:B 0.000230567
2 *3094:A1 5.04004e-05
3 *3091:X 5.70422e-05
4 *170:8 0.00033801
5 *3093:B *173:10 0.000232399
6 *3093:B *387:14 7.03393e-05
7 *3094:A1 *3091:A 0
8 *3094:A1 *314:62 0
9 *3094:A1 *387:14 5.83304e-05
10 *170:8 *387:14 9.30093e-05
*RES
1 *3091:X *170:8 15.1393 
2 *170:8 *3094:A1 14.8357 
3 *170:8 *3093:B 17.2107 
*END

*D_NET *171 0.000903444
*CONN
*I *3094:A2 I *D sky130_fd_sc_hd__a21oi_2
*I *3093:C I *D sky130_fd_sc_hd__and3_2
*I *3092:Y O *D sky130_fd_sc_hd__nand2_2
*CAP
1 *3094:A2 0
2 *3093:C 0.000306401
3 *3092:Y 2.79386e-05
4 *171:6 0.000334339
5 *3093:C *3092:B 0
6 *3093:C *3093:A 0.000104956
7 *3093:C *173:10 2.65105e-05
8 *3093:C *387:14 0.000103299
*RES
1 *3092:Y *171:6 9.83571 
2 *171:6 *3093:C 14.5143 
3 *171:6 *3094:A2 9.3 
*END

*D_NET *172 0.00153
*CONN
*I *3095:A I *D sky130_fd_sc_hd__or2_2
*I *2863:B1_N I *D sky130_fd_sc_hd__o21ba_2
*I *3093:X O *D sky130_fd_sc_hd__and3_2
*CAP
1 *3095:A 0.000181247
2 *2863:B1_N 0.000240482
3 *3093:X 0.000343274
4 *172:8 0.000765002
5 *2863:B1_N *2863:A1 0
6 *2863:B1_N *173:10 0
7 *2863:B1_N *178:12 0
8 *172:8 *173:10 0
9 *172:8 *178:12 0
*RES
1 *3093:X *172:8 19.9964 
2 *172:8 *2863:B1_N 18.0143 
3 *172:8 *3095:A 16.3893 
*END

*D_NET *173 0.0022354
*CONN
*I *3095:B I *D sky130_fd_sc_hd__or2_2
*I *2863:A1 I *D sky130_fd_sc_hd__o21ba_2
*I *3094:Y O *D sky130_fd_sc_hd__a21oi_2
*CAP
1 *3095:B 0
2 *2863:A1 0.000249877
3 *3094:Y 0.000632238
4 *173:10 0.000882115
5 *2863:A1 *2863:A2 0.00010096
6 *2863:A1 *183:10 1.92789e-05
7 *173:10 *3093:A 3.48705e-05
8 *173:10 *387:14 5.71472e-05
9 *2863:B1_N *2863:A1 0
10 *2863:B1_N *173:10 0
11 *3093:B *173:10 0.000232399
12 *3093:C *173:10 2.65105e-05
13 *172:8 *173:10 0
*RES
1 *3094:Y *173:10 26.1571 
2 *173:10 *2863:A1 18.5321 
3 *173:10 *3095:B 13.8 
*END

*D_NET *174 0.00355945
*CONN
*I *3017:A I *D sky130_fd_sc_hd__xnor2_2
*I *3018:A1 I *D sky130_fd_sc_hd__o21ai_4
*I *2860:C I *D sky130_fd_sc_hd__or4_4
*I *3095:X O *D sky130_fd_sc_hd__or2_2
*CAP
1 *3017:A 3.72704e-05
2 *3018:A1 0.000127278
3 *2860:C 0.000358571
4 *3095:X 0.000460423
5 *174:16 0.000715419
6 *174:10 0.000727264
7 *2860:C *2860:D 9.24825e-05
8 *2860:C *182:14 0.000295137
9 *3018:A1 *3018:A2 0.00014285
10 *3018:A1 *3019:A 4.27438e-05
11 *3018:A1 *3019:B 0.00014285
12 *3018:A1 *181:12 2.59581e-05
13 *174:16 *2863:A2 1.41029e-05
14 *174:16 *3017:B 0.000154762
15 *174:16 *182:14 0.000222342
16 *3015:B *2860:C 0
*RES
1 *3095:X *174:10 21.1036 
2 *174:10 *174:16 5.94643 
3 *174:16 *2860:C 20.3625 
4 *174:16 *3018:A1 16.9429 
5 *174:10 *3017:A 14.3357 
*END

*D_NET *175 0.000541641
*CONN
*I *3099:A1 I *D sky130_fd_sc_hd__a21oi_2
*I *3098:B I *D sky130_fd_sc_hd__and3_2
*I *3096:X O *D sky130_fd_sc_hd__or2_2
*CAP
1 *3099:A1 5.39819e-05
2 *3098:B 8.76412e-05
3 *3096:X 9.05811e-05
4 *175:6 0.000232204
5 *3098:B *3098:C 0
6 *3098:B *3099:B1 6.97972e-05
7 *3099:A1 *178:12 7.43578e-06
*RES
1 *3096:X *175:6 10.6571 
2 *175:6 *3098:B 20.2464 
3 *175:6 *3099:A1 10.2464 
*END

*D_NET *176 0.0012795
*CONN
*I *3099:A2 I *D sky130_fd_sc_hd__a21oi_2
*I *3098:C I *D sky130_fd_sc_hd__and3_2
*I *3097:Y O *D sky130_fd_sc_hd__nand2_2
*CAP
1 *3099:A2 0
2 *3098:C 0.000296183
3 *3097:Y 0.000249272
4 *176:10 0.000545455
5 *3098:C *3099:B1 0
6 *3098:C *178:12 0
7 *3098:C *398:10 0
8 *176:10 *3096:A 0
9 *176:10 *178:12 0
10 *176:10 *314:62 0.000188586
11 *3098:B *3098:C 0
*RES
1 *3097:Y *176:10 18.3357 
2 *176:10 *3098:C 18.7286 
3 *176:10 *3099:A2 13.8 
*END

*D_NET *177 0.000945363
*CONN
*I *2859:A I *D sky130_fd_sc_hd__or2_2
*I *2864:B1_N I *D sky130_fd_sc_hd__o21ba_2
*I *3098:X O *D sky130_fd_sc_hd__and3_2
*CAP
1 *2859:A 0.000240631
2 *2864:B1_N 0
3 *3098:X 0.000141373
4 *177:12 0.000382004
5 *2859:A *2859:B 5.52302e-05
6 *2859:A *2864:A2 0.000104147
7 *177:12 *178:12 0
8 *177:12 *184:12 2.19778e-05
9 *177:12 *398:10 0
*RES
1 *3098:X *177:12 20.8893 
2 *177:12 *2864:B1_N 9.3 
3 *177:12 *2859:A 13.55 
*END

*D_NET *178 0.00135754
*CONN
*I *2859:B I *D sky130_fd_sc_hd__or2_2
*I *2864:A1 I *D sky130_fd_sc_hd__o21ba_2
*I *3099:Y O *D sky130_fd_sc_hd__a21oi_2
*CAP
1 *2859:B 1.03267e-05
2 *2864:A1 0
3 *3099:Y 0.000621175
4 *178:12 0.000631502
5 *2859:B *2864:A2 3.18676e-05
6 *178:12 *184:12 0
7 *2859:A *2859:B 5.52302e-05
8 *2863:B1_N *178:12 0
9 *3098:C *178:12 0
10 *3099:A1 *178:12 7.43578e-06
11 *172:8 *178:12 0
12 *176:10 *178:12 0
13 *177:12 *178:12 0
*RES
1 *3099:Y *178:12 27.3 
2 *178:12 *2864:A1 9.3 
3 *178:12 *2859:B 9.83571 
*END

*D_NET *179 0.00356168
*CONN
*I *3019:A I *D sky130_fd_sc_hd__xnor2_2
*I *2860:D I *D sky130_fd_sc_hd__or4_4
*I *2859:X O *D sky130_fd_sc_hd__or2_2
*CAP
1 *3019:A 3.96141e-05
2 *2860:D 0.000343195
3 *2859:X 0.000706593
4 *179:10 0.0010894
5 *2860:D *3016:B 5.41794e-05
6 *2860:D *182:14 0.00041304
7 *2860:D *305:10 0.000126446
8 *3019:A *181:12 5.33005e-05
9 *179:10 *2864:A2 0.000361914
10 *179:10 *3016:B 0.000114759
11 *179:10 *182:14 0.00012401
12 *2860:C *2860:D 9.24825e-05
13 *3018:A1 *3019:A 4.27438e-05
*RES
1 *2859:X *179:10 23.7821 
2 *179:10 *2860:D 22.0857 
3 *179:10 *3019:A 14.7643 
*END

*D_NET *180 0.00135895
*CONN
*I *2861:B1 I *D sky130_fd_sc_hd__a21o_4
*I *2860:X O *D sky130_fd_sc_hd__or4_4
*CAP
1 *2861:B1 0.000412336
2 *2860:X 0.000412336
3 *2861:B1 *401:10 0.000293408
4 *2860:B *2861:B1 1.33343e-05
5 *3015:C *2861:B1 0.000227532
*RES
1 *2860:X *2861:B1 34.6714 
*END

*D_NET *181 0.00422551
*CONN
*I *2865:A I *D sky130_fd_sc_hd__and2_2
*I *2931:A2 I *D sky130_fd_sc_hd__a211o_4
*I *2861:X O *D sky130_fd_sc_hd__a21o_4
*CAP
1 *2865:A 0
2 *2931:A2 0.000150181
3 *2861:X 0.00125678
4 *181:12 0.00140696
5 *2931:A2 *2865:B 1.04955e-05
6 *2931:A2 *2931:A1 0.000142928
7 *2931:A2 *184:12 4.14279e-05
8 *181:12 *3018:B1 2.44318e-05
9 *181:12 *3019:B 0.000534222
10 *181:12 *184:12 0.000451463
11 *181:12 *401:10 0.000127353
12 *3018:A1 *181:12 2.59581e-05
13 *3019:A *181:12 5.33005e-05
*RES
1 *2861:X *181:12 33.3 
2 *181:12 *2931:A2 12.8714 
3 *181:12 *2865:A 9.3 
*END

*D_NET *182 0.00438069
*CONN
*I *2863:A2 I *D sky130_fd_sc_hd__o21ba_2
*I *3016:A I *D sky130_fd_sc_hd__nand2_2
*I *2862:X O *D sky130_fd_sc_hd__o21ba_2
*CAP
1 *2863:A2 0.000343924
2 *3016:A 0
3 *2862:X 0.00112453
4 *182:14 0.00146846
5 *2863:A2 *3017:B 0.000153047
6 *182:14 *3016:B 4.13573e-05
7 *2860:C *182:14 0.000295137
8 *2860:D *182:14 0.00041304
9 *2862:A2 *182:14 7.97875e-05
10 *2863:A1 *2863:A2 0.00010096
11 *3015:B *182:14 0
12 *162:12 *182:14 0
13 *164:33 *182:14 0
14 *174:16 *2863:A2 1.41029e-05
15 *174:16 *182:14 0.000222342
16 *179:10 *182:14 0.00012401
*RES
1 *2862:X *182:14 38.3 
2 *182:14 *3016:A 13.8 
3 *182:14 *2863:A2 20.6929 
*END

*D_NET *183 0.00187322
*CONN
*I *2864:A2 I *D sky130_fd_sc_hd__o21ba_2
*I *3018:B1 I *D sky130_fd_sc_hd__o21ai_4
*I *2863:X O *D sky130_fd_sc_hd__o21ba_2
*CAP
1 *2864:A2 0.000272425
2 *3018:B1 0.000190499
3 *2863:X 0.000175252
4 *183:10 0.000638177
5 *3018:B1 *3019:B 5.52238e-05
6 *2859:A *2864:A2 0.000104147
7 *2859:B *2864:A2 3.18676e-05
8 *2863:A1 *183:10 1.92789e-05
9 *179:10 *2864:A2 0.000361914
10 *181:12 *3018:B1 2.44318e-05
*RES
1 *2863:X *183:10 16.5857 
2 *183:10 *3018:B1 16.9964 
3 *183:10 *2864:A2 20.5321 
*END

*D_NET *184 0.00198626
*CONN
*I *2865:B I *D sky130_fd_sc_hd__and2_2
*I *2931:A1 I *D sky130_fd_sc_hd__a211o_4
*I *2864:X O *D sky130_fd_sc_hd__o21ba_2
*CAP
1 *2865:B 1.05181e-05
2 *2931:A1 7.2323e-05
3 *2864:X 0.000321837
4 *184:12 0.000404678
5 *2931:A1 *398:10 0.000276211
6 *184:12 *398:10 0.000232399
7 *2931:A2 *2865:B 1.04955e-05
8 *2931:A2 *2931:A1 0.000142928
9 *2931:A2 *184:12 4.14279e-05
10 *177:12 *184:12 2.19778e-05
11 *178:12 *184:12 0
12 *181:12 *184:12 0.000451463
*RES
1 *2864:X *184:12 26.5143 
2 *184:12 *2931:A1 12.3179 
3 *184:12 *2865:B 9.72857 
*END

*D_NET *185 0.00540032
*CONN
*I *2899:A2 I *D sky130_fd_sc_hd__o21ai_4
*I *2891:A1 I *D sky130_fd_sc_hd__o22a_2
*I *2880:A I *D sky130_fd_sc_hd__nor3_2
*I *2870:A I *D sky130_fd_sc_hd__xor2_2
*I *2873:A1 I *D sky130_fd_sc_hd__o21ai_2
*I *2865:X O *D sky130_fd_sc_hd__and2_2
*CAP
1 *2899:A2 0.000405003
2 *2891:A1 0.000381938
3 *2880:A 0
4 *2870:A 7.39712e-05
5 *2873:A1 0
6 *2865:X 7.85442e-05
7 *185:20 0.000329685
8 *185:12 0.000773656
9 *185:10 0.00135617
10 *185:8 0.000939835
11 *2870:A *2870:B 9.52805e-05
12 *2870:A *2874:B 5.52238e-05
13 *2870:A *189:8 0
14 *2891:A1 *2891:A2 0.00014285
15 *2899:A2 *2899:A1 5.52238e-05
16 *185:8 *2931:B1 0
17 *185:10 *214:10 0
18 *185:12 *2874:A 1.76039e-05
19 *185:12 *2883:B 0
20 *185:12 *2889:B 7.48356e-05
21 *185:12 *3184:A 0
22 *185:12 *197:12 0
23 *185:20 *2874:A 0.000307331
24 *185:20 *189:14 0.000313168
*RES
1 *2865:X *185:8 15.1393 
2 *185:8 *185:10 8.01786 
3 *185:10 *185:12 9.83929 
4 *185:12 *185:20 12.5714 
5 *185:20 *2873:A1 9.3 
6 *185:20 *2870:A 11.0857 
7 *185:12 *2880:A 13.8 
8 *185:10 *2891:A1 20.4964 
9 *185:8 *2899:A2 20.1036 
*END

*D_NET *186 0.00163097
*CONN
*I *2881:B1 I *D sky130_fd_sc_hd__o211a_2
*I *2867:B I *D sky130_fd_sc_hd__nand2_2
*I *2868:B I *D sky130_fd_sc_hd__or2_2
*I *2866:X O *D sky130_fd_sc_hd__xor2_2
*CAP
1 *2881:B1 0.000286894
2 *2867:B 0.000108041
3 *2868:B 0
4 *2866:X 9.14285e-05
5 *186:12 0.000216222
6 *186:8 0.000486503
7 *2867:B *2868:A 5.38444e-06
8 *2867:B *2881:C1 4.73286e-05
9 *2867:B *409:16 7.51937e-05
10 *2881:B1 *2881:C1 0.00011962
11 *2881:B1 *2882:A2 3.50166e-05
12 *186:8 *2869:B 0
13 *186:8 *2881:C1 1.76039e-05
14 *186:12 *2881:C1 0.000141734
*RES
1 *2866:X *186:8 15.4429 
2 *186:8 *186:12 6.67857 
3 *186:12 *2868:B 9.3 
4 *186:12 *2867:B 11.9071 
5 *186:8 *2881:B1 19.2643 
*END

*D_NET *187 0.00136053
*CONN
*I *2873:B1 I *D sky130_fd_sc_hd__o21ai_2
*I *2869:A I *D sky130_fd_sc_hd__nand2_2
*I *2867:Y O *D sky130_fd_sc_hd__nand2_2
*CAP
1 *2873:B1 0.000268447
2 *2869:A 0
3 *2867:Y 0.000152993
4 *187:12 0.00042144
5 *2873:B1 *189:8 0.000164903
6 *2873:B1 *311:51 5.52302e-05
7 *187:12 *2869:B 0
8 *187:12 *311:51 9.97164e-05
9 *187:12 *409:12 5.49489e-05
10 *3168:A *2873:B1 0.000142856
*RES
1 *2867:Y *187:12 20.7821 
2 *187:12 *2869:A 9.3 
3 *187:12 *2873:B1 14.7821 
*END

*D_NET *188 0.000552724
*CONN
*I *2869:B I *D sky130_fd_sc_hd__nand2_2
*I *2868:X O *D sky130_fd_sc_hd__or2_2
*CAP
1 *2869:B 0.000221535
2 *2868:X 0.000221535
3 *2869:B *2866:A 1.02504e-05
4 *2869:B *311:51 9.94037e-05
5 *186:8 *2869:B 0
6 *187:12 *2869:B 0
*RES
1 *2868:X *2869:B 31.3143 
*END

*D_NET *189 0.00322473
*CONN
*I *2870:B I *D sky130_fd_sc_hd__xor2_2
*I *2873:A2 I *D sky130_fd_sc_hd__o21ai_2
*I *2880:B I *D sky130_fd_sc_hd__nor3_2
*I *2889:A I *D sky130_fd_sc_hd__or3_4
*I *2869:Y O *D sky130_fd_sc_hd__nand2_2
*CAP
1 *2870:B 0.000154209
2 *2873:A2 0
3 *2880:B 0
4 *2889:A 0.000314348
5 *2869:Y 0.000296779
6 *189:14 0.000593549
7 *189:8 0.000730189
8 *2870:B *2874:B 1.69961e-05
9 *2889:A *2883:B 0
10 *2889:A *2890:A1 8.81343e-05
11 *2889:A *191:6 0.00014285
12 *2889:A *191:15 8.46829e-05
13 *2889:A *197:12 4.1331e-06
14 *2889:A *420:36 4.1331e-06
15 *189:8 *2874:B 1.33343e-05
16 *189:14 *2882:B1 0
17 *189:14 *2883:B 6.5185e-05
18 *2870:A *2870:B 9.52805e-05
19 *2870:A *189:8 0
20 *2873:B1 *189:8 0.000164903
21 *3168:A *189:8 0.000142856
22 *185:20 *189:14 0.000313168
*RES
1 *2869:Y *189:8 15.6036 
2 *189:8 *189:14 16.1071 
3 *189:14 *2889:A 24.9786 
4 *189:14 *2880:B 9.3 
5 *189:8 *2873:A2 9.3 
6 *189:8 *2870:B 2.97321 
*END

*D_NET *190 0.00303278
*CONN
*I *2872:B I *D sky130_fd_sc_hd__xnor2_2
*I *2881:A2 I *D sky130_fd_sc_hd__o211a_2
*I *2882:A2 I *D sky130_fd_sc_hd__a211oi_2
*I *2890:A2 I *D sky130_fd_sc_hd__a211oi_2
*I *2871:X O *D sky130_fd_sc_hd__xor2_2
*CAP
1 *2872:B 0.000194082
2 *2881:A2 0
3 *2882:A2 0.000135184
4 *2890:A2 0
5 *2871:X 0.0003496
6 *190:25 0.000309624
7 *190:17 0.000660126
8 *190:6 0.000641203
9 *2882:A2 *2881:A1 0.000258356
10 *190:17 *2890:A1 9.93955e-05
11 *190:17 *2890:C1 0.000201127
12 *190:25 *2881:A1 2.26232e-05
13 *190:25 *2890:C1 0.000126439
14 *2881:B1 *2882:A2 3.50166e-05
*RES
1 *2871:X *190:6 15.175 
2 *190:6 *2890:A2 9.3 
3 *190:6 *190:17 10.4643 
4 *190:17 *190:25 7.82143 
5 *190:25 *2882:A2 12.7286 
6 *190:25 *2881:A2 9.3 
7 *190:17 *2872:B 16.8 
*END

*D_NET *191 0.0028783
*CONN
*I *2889:B I *D sky130_fd_sc_hd__or3_4
*I *2874:A I *D sky130_fd_sc_hd__xnor2_2
*I *2880:C I *D sky130_fd_sc_hd__nor3_2
*I *2872:Y O *D sky130_fd_sc_hd__xnor2_2
*CAP
1 *2889:B 0.000383546
2 *2874:A 0.000443575
3 *2880:C 0
4 *2872:Y 5.5939e-05
5 *191:15 0.000981348
6 *191:6 0.000210166
7 *2874:A *2874:B 9.56968e-05
8 *2874:A *3184:A 0
9 *2889:B *2883:A 8.07313e-05
10 *2889:B *3184:A 0
11 *2889:A *191:6 0.00014285
12 *2889:A *191:15 8.46829e-05
13 *185:12 *2874:A 1.76039e-05
14 *185:12 *2889:B 7.48356e-05
15 *185:20 *2874:A 0.000307331
*RES
1 *2872:Y *191:6 10.6571 
2 *191:6 *2880:C 9.3 
3 *191:6 *191:15 7.08929 
4 *191:15 *2874:A 23.9429 
5 *191:15 *2889:B 20.3893 
*END

*D_NET *192 0.00046503
*CONN
*I *2874:B I *D sky130_fd_sc_hd__xnor2_2
*I *2873:Y O *D sky130_fd_sc_hd__o21ai_2
*CAP
1 *2874:B 0.000141889
2 *2873:Y 0.000141889
3 *2870:A *2874:B 5.52238e-05
4 *2870:B *2874:B 1.69961e-05
5 *2874:A *2874:B 9.56968e-05
6 *189:8 *2874:B 1.33343e-05
*RES
1 *2873:Y *2874:B 30.7964 
*END

*D_NET *193 0.00188821
*CONN
*I *2877:A1 I *D sky130_fd_sc_hd__a21oi_2
*I *2878:B I *D sky130_fd_sc_hd__and3_2
*I *2875:X O *D sky130_fd_sc_hd__or2_2
*CAP
1 *2877:A1 0
2 *2878:B 0.000145738
3 *2875:X 0.000617756
4 *193:12 0.000763494
5 *2878:B *2877:A2 0.00012401
6 *2878:B *2878:A 0
7 *2878:B *194:8 3.69047e-06
8 *2878:B *310:10 0
9 *193:12 *2875:A 6.0741e-05
10 *193:12 *3170:A 7.3237e-05
11 *193:12 *310:10 0
12 *193:12 *311:14 5.52302e-05
13 *193:12 *368:14 4.43157e-05
*RES
1 *2875:X *193:12 22.1571 
2 *193:12 *2878:B 16.2821 
3 *193:12 *2877:A1 13.8 
*END

*D_NET *194 0.00101147
*CONN
*I *2878:C I *D sky130_fd_sc_hd__and3_2
*I *2877:A2 I *D sky130_fd_sc_hd__a21oi_2
*I *2876:Y O *D sky130_fd_sc_hd__nand2_2
*CAP
1 *2878:C 0
2 *2877:A2 0.000180724
3 *2876:Y 0.000122228
4 *194:8 0.000302952
5 *2877:A2 *2878:A 8.2731e-05
6 *2877:A2 *195:6 0.000139907
7 *194:8 *2878:A 5.52302e-05
8 *2878:B *2877:A2 0.00012401
9 *2878:B *194:8 3.69047e-06
*RES
1 *2876:Y *194:8 11.4964 
2 *194:8 *2877:A2 22.5143 
3 *194:8 *2878:C 9.3 
*END

*D_NET *195 0.0038794
*CONN
*I *2897:A1 I *D sky130_fd_sc_hd__o31a_2
*I *2891:B2 I *D sky130_fd_sc_hd__o22a_2
*I *2879:A I *D sky130_fd_sc_hd__or2_2
*I *2877:Y O *D sky130_fd_sc_hd__a21oi_2
*CAP
1 *2897:A1 0.000273585
2 *2891:B2 0.00020203
3 *2879:A 0.000181472
4 *2877:Y 0.000452942
5 *195:25 0.000737644
6 *195:6 0.000896443
7 *2879:A *2890:B1 5.49544e-05
8 *2891:B2 *2891:B1 0.00013017
9 *2891:B2 *207:12 9.87672e-05
10 *2897:A1 *2888:A_N 0.000141729
11 *2897:A1 *2888:B 0.000141729
12 *2897:A1 *2897:A3 0.000198232
13 *2897:A1 *207:12 3.27526e-05
14 *195:25 *207:12 0.000197045
15 *2877:A2 *195:6 0.000139907
*RES
1 *2877:Y *195:6 16.4071 
2 *195:6 *2879:A 21.3893 
3 *195:6 *195:25 9.23214 
4 *195:25 *2891:B2 17.2286 
5 *195:25 *2897:A1 21.1036 
*END

*D_NET *196 0.00121166
*CONN
*I *2890:B1 I *D sky130_fd_sc_hd__a211oi_2
*I *2879:B I *D sky130_fd_sc_hd__or2_2
*I *2878:X O *D sky130_fd_sc_hd__and3_2
*CAP
1 *2890:B1 0.00024492
2 *2879:B 0
3 *2878:X 0.00027628
4 *196:6 0.0005212
5 *2890:B1 *197:12 5.49489e-05
6 *2890:B1 *207:12 5.93525e-05
7 *2879:A *2890:B1 5.49544e-05
*RES
1 *2878:X *196:6 13.9429 
2 *196:6 *2879:B 9.3 
3 *196:6 *2890:B1 22.7286 
*END

*D_NET *197 0.00163643
*CONN
*I *2883:A I *D sky130_fd_sc_hd__xor2_2
*I *2889:C I *D sky130_fd_sc_hd__or3_4
*I *2879:X O *D sky130_fd_sc_hd__or2_2
*CAP
1 *2883:A 5.67523e-05
2 *2889:C 0
3 *2879:X 0.000691555
4 *197:12 0.000748307
5 *197:12 *2890:A1 0
6 *197:12 *206:8 0
7 *2889:A *197:12 4.1331e-06
8 *2889:B *2883:A 8.07313e-05
9 *2890:B1 *197:12 5.49489e-05
10 *185:12 *197:12 0
*RES
1 *2879:X *197:12 28.5857 
2 *197:12 *2889:C 9.3 
3 *197:12 *2883:A 10.6571 
*END

*D_NET *198 0.000710016
*CONN
*I *2882:B1 I *D sky130_fd_sc_hd__a211oi_2
*I *2880:Y O *D sky130_fd_sc_hd__nor3_2
*CAP
1 *2882:B1 0.000202304
2 *2880:Y 0.000202304
3 *2882:B1 *2882:C1 0.00010096
4 *2882:B1 *2883:B 0.000204449
5 *2882:B1 *420:36 0
6 *189:14 *2882:B1 0
*RES
1 *2880:Y *2882:B1 32.5464 
*END

*D_NET *199 0.00187089
*CONN
*I *2882:C1 I *D sky130_fd_sc_hd__a211oi_2
*I *2890:C1 I *D sky130_fd_sc_hd__a211oi_2
*I *2881:X O *D sky130_fd_sc_hd__o211a_2
*CAP
1 *2882:C1 0.000227207
2 *2890:C1 0.000212995
3 *2881:X 0
4 *199:4 0.000440202
5 *2882:C1 *2881:A1 0.00040605
6 *2882:C1 *2882:A1 9.90367e-05
7 *2890:C1 *2881:A1 5.68713e-05
8 *2890:C1 *2890:A1 0
9 *2890:C1 *420:36 0
10 *2882:B1 *2882:C1 0.00010096
11 *190:17 *2890:C1 0.000201127
12 *190:25 *2890:C1 0.000126439
*RES
1 *2881:X *199:4 9.3 
2 *199:4 *2890:C1 23.2107 
3 *199:4 *2882:C1 15.2107 
*END

*D_NET *200 0.00120471
*CONN
*I *2883:B I *D sky130_fd_sc_hd__xor2_2
*I *2882:Y O *D sky130_fd_sc_hd__a211oi_2
*CAP
1 *2883:B 0.000467539
2 *2882:Y 0.000467539
3 *2883:B *420:36 0
4 *2882:B1 *2883:B 0.000204449
5 *2889:A *2883:B 0
6 *185:12 *2883:B 0
7 *189:14 *2883:B 6.5185e-05
*RES
1 *2882:Y *2883:B 26.0857 
*END

*D_NET *201 0.000597836
*CONN
*I *2887:B I *D sky130_fd_sc_hd__nand3_2
*I *2886:A1 I *D sky130_fd_sc_hd__a21oi_2
*I *2884:X O *D sky130_fd_sc_hd__or2_2
*CAP
1 *2887:B 0
2 *2886:A1 0.000157771
3 *2884:X 7.92224e-05
4 *201:8 0.000236993
5 *2886:A1 *2886:A2 0
6 *2886:A1 *2886:B1 6.58289e-05
7 *2886:A1 *202:8 0
8 *201:8 *2886:B1 4.1331e-06
9 *201:8 *202:8 0
10 *201:8 *320:10 5.38886e-05
*RES
1 *2884:X *201:8 15.7464 
2 *201:8 *2886:A1 16.9964 
3 *201:8 *2887:B 13.8 
*END

*D_NET *202 0.000627302
*CONN
*I *2887:C I *D sky130_fd_sc_hd__nand3_2
*I *2886:A2 I *D sky130_fd_sc_hd__a21oi_2
*I *2885:Y O *D sky130_fd_sc_hd__nand2_2
*CAP
1 *2887:C 0
2 *2886:A2 8.58104e-05
3 *2885:Y 9.69907e-05
4 *202:8 0.000182801
5 *2886:A2 *310:10 0.000128146
6 *2886:A2 *430:16 2.72545e-05
7 *202:8 *320:10 0
8 *202:8 *430:16 0.000106299
9 *2886:A1 *2886:A2 0
10 *2886:A1 *202:8 0
11 *201:8 *202:8 0
*RES
1 *2885:Y *202:8 16.3536 
2 *202:8 *2886:A2 16.05 
3 *202:8 *2887:C 13.8 
*END

*D_NET *203 0.00192275
*CONN
*I *2888:A_N I *D sky130_fd_sc_hd__nand2b_2
*I *2897:A2 I *D sky130_fd_sc_hd__o31a_2
*I *2886:Y O *D sky130_fd_sc_hd__a21oi_2
*CAP
1 *2888:A_N 8.13902e-05
2 *2897:A2 0
3 *2886:Y 0.000621129
4 *203:12 0.000702519
5 *2888:A_N *2888:B 6.89495e-05
6 *2888:A_N *2897:A3 0.000272744
7 *2888:A_N *2897:B1 5.38444e-06
8 *203:12 *2886:B1 2.89016e-05
9 *2897:A1 *2888:A_N 0.000141729
*RES
1 *2886:Y *203:12 25.8179 
2 *203:12 *2897:A2 9.3 
3 *203:12 *2888:A_N 12.7464 
*END

*D_NET *204 0.00149442
*CONN
*I *2888:B I *D sky130_fd_sc_hd__nand2b_2
*I *2897:B1 I *D sky130_fd_sc_hd__o31a_2
*I *2887:Y O *D sky130_fd_sc_hd__nand3_2
*CAP
1 *2888:B 0.000280646
2 *2897:B1 2.04856e-05
3 *2887:Y 0.000309092
4 *204:6 0.000610223
5 *2888:B *2897:A3 1.46148e-05
6 *2888:B *205:8 1.02132e-05
7 *2888:B *213:10 3.30871e-05
8 *2888:A_N *2888:B 6.89495e-05
9 *2888:A_N *2897:B1 5.38444e-06
10 *2897:A1 *2888:B 0.000141729
*RES
1 *2887:Y *204:6 13.9429 
2 *204:6 *2897:B1 9.72857 
3 *204:6 *2888:B 14.3714 
*END

*D_NET *205 0.000669104
*CONN
*I *2898:A I *D sky130_fd_sc_hd__or2_4
*I *2892:A I *D sky130_fd_sc_hd__xor2_2
*I *2888:Y O *D sky130_fd_sc_hd__nand2b_2
*CAP
1 *2898:A 5.51917e-05
2 *2892:A 0.000160502
3 *2888:Y 5.22738e-05
4 *205:8 0.000267968
5 *2898:A *2898:B 0.00010096
6 *2898:A *213:10 3.69047e-06
7 *205:8 *213:10 1.83053e-05
8 *2888:B *205:8 1.02132e-05
*RES
1 *2888:Y *205:8 10.2643 
2 *205:8 *2892:A 20.8536 
3 *205:8 *2898:A 10.6571 
*END

*D_NET *206 0.00186709
*CONN
*I *2898:B I *D sky130_fd_sc_hd__or2_4
*I *2891:A2 I *D sky130_fd_sc_hd__o22a_2
*I *2889:X O *D sky130_fd_sc_hd__or3_4
*CAP
1 *2898:B 0.000344339
2 *2891:A2 8.03791e-05
3 *2889:X 0.000386921
4 *206:8 0.000811639
5 *2891:A1 *2891:A2 0.00014285
6 *2898:A *2898:B 0.00010096
7 *197:12 *206:8 0
*RES
1 *2889:X *206:8 20.6036 
2 *206:8 *2891:A2 15.5679 
3 *206:8 *2898:B 19.9429 
*END

*D_NET *207 0.00278213
*CONN
*I *2891:B1 I *D sky130_fd_sc_hd__o22a_2
*I *2897:A3 I *D sky130_fd_sc_hd__o31a_2
*I *2890:Y O *D sky130_fd_sc_hd__a211oi_2
*CAP
1 *2891:B1 4.94142e-05
2 *2897:A3 0.000317802
3 *2890:Y 0.00035055
4 *207:12 0.000717767
5 *2897:A3 *2892:B 0.000200345
6 *2897:A3 *213:10 0.000142575
7 *2888:A_N *2897:A3 0.000272744
8 *2888:B *2897:A3 1.46148e-05
9 *2890:B1 *207:12 5.93525e-05
10 *2891:B2 *2891:B1 0.00013017
11 *2891:B2 *207:12 9.87672e-05
12 *2897:A1 *2897:A3 0.000198232
13 *2897:A1 *207:12 3.27526e-05
14 *195:25 *207:12 0.000197045
*RES
1 *2890:Y *207:12 25.7464 
2 *207:12 *2897:A3 26.8893 
3 *207:12 *2891:B1 10.6571 
*END

*D_NET *208 0.00056227
*CONN
*I *2892:B I *D sky130_fd_sc_hd__xor2_2
*I *2891:X O *D sky130_fd_sc_hd__o22a_2
*CAP
1 *2892:B 0.000180962
2 *2891:X 0.000180962
3 *2897:A3 *2892:B 0.000200345
*RES
1 *2891:X *2892:B 22.1482 
*END

*D_NET *209 0.00340344
*CONN
*I *2895:B I *D sky130_fd_sc_hd__and2_2
*I *2894:B I *D sky130_fd_sc_hd__or2_2
*I *2910:A2 I *D sky130_fd_sc_hd__a22o_2
*I *2896:B I *D sky130_fd_sc_hd__xnor2_2
*I *2893:X O *D sky130_fd_sc_hd__xor2_2
*CAP
1 *2895:B 0.000258397
2 *2894:B 0.00017309
3 *2910:A2 0.000198219
4 *2896:B 0.000180342
5 *2893:X 0
6 *209:34 0.000575863
7 *209:10 0.000475121
8 *209:4 0.000240936
9 *2894:B *2893:B 0.00010326
10 *2894:B *2894:A 7.79781e-06
11 *2894:B *2904:B 1.18064e-05
12 *2894:B *320:10 0.000183684
13 *2894:B *430:10 0
14 *2895:B *2895:A 0.000151071
15 *2895:B *320:10 9.60939e-05
16 *2896:B *2904:A 5.71472e-05
17 *2910:A2 *2904:A 0.000187909
18 *2910:A2 *2904:B 7.80714e-06
19 *2910:A2 *2910:A1 9.25014e-06
20 *2910:A2 *2910:B1 1.46576e-05
21 *2910:A2 *3190:A 1.46576e-05
22 *2910:A2 *314:32 6.32887e-05
23 *2910:A2 *430:8 9.21958e-05
24 *209:10 *2893:B 5.52302e-05
25 *209:10 *2904:B 6.76272e-05
26 *209:10 *430:8 0.000108848
27 *209:34 *2893:B 6.12335e-05
28 *3107:A *2894:B 3.43988e-06
29 *3107:A *209:10 4.46186e-06
*RES
1 *2893:X *209:4 9.3 
2 *209:4 *209:10 7.58929 
3 *209:10 *2896:B 16.8 
4 *209:10 *2910:A2 19.233 
5 *209:4 *209:34 2.19643 
6 *209:34 *2894:B 22.9786 
7 *209:34 *2895:B 14.3714 
*END

*D_NET *210 0.000482544
*CONN
*I *2903:A1 I *D sky130_fd_sc_hd__a21o_2
*I *2894:X O *D sky130_fd_sc_hd__or2_2
*CAP
1 *2903:A1 0.000150954
2 *2894:X 0.000150954
3 *2903:A1 *2894:A 8.15939e-05
4 *2903:A1 *398:10 9.90431e-05
*RES
1 *2894:X *2903:A1 30.4929 
*END

*D_NET *211 0.000986887
*CONN
*I *2903:B1 I *D sky130_fd_sc_hd__a21o_2
*I *2895:X O *D sky130_fd_sc_hd__and2_2
*CAP
1 *2903:B1 0.000333781
2 *2895:X 0.000333781
3 *2903:B1 *2894:A 0
4 *2903:B1 *2903:A2 0.000319325
*RES
1 *2895:X *2903:B1 33.6 
*END

*D_NET *212 0.00165744
*CONN
*I *2900:A I *D sky130_fd_sc_hd__xnor2_2
*I *2909:A I *D sky130_fd_sc_hd__nor2_2
*I *2919:A I *D sky130_fd_sc_hd__nor3_2
*I *2896:Y O *D sky130_fd_sc_hd__xnor2_2
*CAP
1 *2900:A 0.000184629
2 *2909:A 0
3 *2919:A 5.72562e-05
4 *2896:Y 0
5 *212:10 0.000330826
6 *212:4 0.000458199
7 *2900:A *3187:A 0.000126026
8 *2919:A *2909:B 1.67514e-05
9 *2919:A *2919:B 0.000104506
10 *2919:A *3187:A 0.000200209
11 *2919:A *217:27 2.84109e-05
12 *212:10 *225:10 0.000150625
13 *212:10 *335:23 0
14 *212:10 *335:25 0
*RES
1 *2896:Y *212:4 9.3 
2 *212:4 *212:10 13.9821 
3 *212:10 *2919:A 12.2286 
4 *212:10 *2909:A 9.3 
5 *212:4 *2900:A 12.7107 
*END

*D_NET *213 0.00248722
*CONN
*I *2928:A I *D sky130_fd_sc_hd__or2_2
*I *2899:B1 I *D sky130_fd_sc_hd__o21ai_4
*I *2897:X O *D sky130_fd_sc_hd__o31a_2
*CAP
1 *2928:A 0.00068153
2 *2899:B1 3.73289e-05
3 *2897:X 0.000379732
4 *213:10 0.00109859
5 *2928:A *2900:B 0
6 *2928:A *215:10 0
7 *2928:A *243:12 9.23774e-05
8 *2888:B *213:10 3.30871e-05
9 *2897:A3 *213:10 0.000142575
10 *2898:A *213:10 3.69047e-06
11 *205:8 *213:10 1.83053e-05
*RES
1 *2897:X *213:10 19.1571 
2 *213:10 *2899:B1 14.3357 
3 *213:10 *2928:A 25.2464 
*END

*D_NET *214 0.000835203
*CONN
*I *2931:B1 I *D sky130_fd_sc_hd__a211o_4
*I *2899:A1 I *D sky130_fd_sc_hd__o21ai_4
*I *2898:X O *D sky130_fd_sc_hd__or2_4
*CAP
1 *2931:B1 0.000134852
2 *2899:A1 2.36895e-05
3 *2898:X 0.000213876
4 *214:10 0.000372417
5 *2931:B1 *2931:C1 3.51442e-05
6 *2899:A2 *2899:A1 5.52238e-05
7 *185:8 *2931:B1 0
8 *185:10 *214:10 0
*RES
1 *2898:X *214:10 17.3 
2 *214:10 *2899:A1 14.3357 
3 *214:10 *2931:B1 16.3536 
*END

*D_NET *215 0.00430674
*CONN
*I *2912:A1 I *D sky130_fd_sc_hd__a21bo_2
*I *3221:A I *D sky130_fd_sc_hd__buf_2
*I *2900:B I *D sky130_fd_sc_hd__xnor2_2
*I *2903:A2 I *D sky130_fd_sc_hd__a21o_2
*I *2899:Y O *D sky130_fd_sc_hd__o21ai_4
*CAP
1 *2912:A1 0.000328024
2 *3221:A 5.2673e-05
3 *2900:B 0.000665078
4 *2903:A2 0.000276678
5 *2899:Y 0.00033398
6 *215:39 0.00078339
7 *215:10 0.000873042
8 *2900:B *243:12 0
9 *2912:A1 *2912:A2 0.000142152
10 *2912:A1 *243:12 6.7757e-05
11 *2912:A1 *387:14 0.000158101
12 *3221:A *3190:A 0.000141729
13 *215:39 *3187:A 0
14 *215:39 *243:12 0.000164815
15 *2903:B1 *2903:A2 0.000319325
16 *2928:A *2900:B 0
17 *2928:A *215:10 0
*RES
1 *2899:Y *215:10 19.425 
2 *215:10 *2903:A2 19.2643 
3 *215:10 *2900:B 18.4786 
4 *2900:B *215:39 21.4429 
5 *215:39 *3221:A 15.1571 
6 *215:39 *2912:A1 20.8893 
*END

*D_NET *216 0.00245253
*CONN
*I *2902:B I *D sky130_fd_sc_hd__xnor2_2
*I *2910:B1 I *D sky130_fd_sc_hd__a22o_2
*I *2911:A2 I *D sky130_fd_sc_hd__o21ai_2
*I *2901:X O *D sky130_fd_sc_hd__xor2_2
*CAP
1 *2902:B 0
2 *2910:B1 0.000211482
3 *2911:A2 0.000190278
4 *2901:X 0.00041351
5 *216:10 0.00055178
6 *216:8 0.00056353
7 *2910:B1 *2911:B1 9.76689e-05
8 *2910:B1 *3190:A 0.000159284
9 *2911:A2 *2911:A1 5.52238e-05
10 *2911:A2 *2911:B1 6.85188e-05
11 *2911:A2 *314:32 0
12 *216:8 *2901:B 0.000126593
13 *216:8 *314:32 0
14 *216:10 *314:32 0
15 *2910:A2 *2910:B1 1.46576e-05
16 *3160:A *216:8 0
*RES
1 *2901:X *216:8 21.8179 
2 *216:8 *216:10 2.55357 
3 *216:10 *2911:A2 17.3 
4 *216:10 *2910:B1 18.4607 
5 *216:8 *2902:B 13.8 
*END

*D_NET *217 0.00352486
*CONN
*I *2919:B I *D sky130_fd_sc_hd__nor3_2
*I *2909:B I *D sky130_fd_sc_hd__nor2_2
*I *2904:A I *D sky130_fd_sc_hd__xnor2_2
*I *2902:Y O *D sky130_fd_sc_hd__xnor2_2
*CAP
1 *2919:B 8.40332e-05
2 *2909:B 8.62417e-06
3 *2904:A 0.000275604
4 *2902:Y 6.51126e-05
5 *217:27 0.000589672
6 *217:8 0.000837731
7 *2904:A *2902:A 2.26327e-05
8 *2904:A *2904:B 9.25014e-06
9 *2904:A *2910:A1 5.7616e-05
10 *2904:A *2911:A1 0.000128125
11 *2904:A *335:23 0
12 *2909:B *3187:A 8.23728e-06
13 *2919:B *2912:A2 0.000230855
14 *2919:B *3187:A 2.93922e-05
15 *217:8 *2902:A 5.98502e-05
16 *217:8 *2910:A1 0.000138804
17 *217:8 *335:23 0
18 *217:27 *3187:A 0.000331326
19 *217:27 *3190:A 0.000181803
20 *217:27 *337:12 6.13217e-05
21 *2896:B *2904:A 5.71472e-05
22 *2910:A2 *2904:A 0.000187909
23 *2919:A *2909:B 1.67514e-05
24 *2919:A *2919:B 0.000104506
25 *2919:A *217:27 2.84109e-05
26 *3137:A *2904:A 1.01417e-05
*RES
1 *2902:Y *217:8 15.7464 
2 *217:8 *2904:A 19.925 
3 *217:8 *217:27 11.75 
4 *217:27 *2909:B 9.72857 
5 *217:27 *2919:B 12.3179 
*END

*D_NET *218 0.000936436
*CONN
*I *2904:B I *D sky130_fd_sc_hd__xnor2_2
*I *2903:X O *D sky130_fd_sc_hd__a21o_2
*CAP
1 *2904:B 0.000269089
2 *2903:X 0.000269089
3 *2904:B *2893:B 0.000150625
4 *2904:B *335:25 0
5 *2894:B *2904:B 1.18064e-05
6 *2904:A *2904:B 9.25014e-06
7 *2910:A2 *2904:B 7.80714e-06
8 *3107:A *2904:B 0.000151141
9 *209:10 *2904:B 6.76272e-05
*RES
1 *2903:X *2904:B 33.6357 
*END

*D_NET *219 0.00134341
*CONN
*I *2907:B I *D sky130_fd_sc_hd__nand2_2
*I *2908:B I *D sky130_fd_sc_hd__xnor2_2
*I *2906:B I *D sky130_fd_sc_hd__nor2_2
*I *2905:X O *D sky130_fd_sc_hd__xor2_2
*CAP
1 *2907:B 0
2 *2908:B 0.00028305
3 *2906:B 1.60352e-05
4 *2905:X 0.000112576
5 *219:17 0.000365662
6 *219:6 0.000211223
7 *2906:B *2906:A 5.7661e-06
8 *2908:B *2908:A 6.75007e-05
9 *2908:B *2920:A1 0
10 *2908:B *338:19 0.000135549
11 *219:6 *2905:B 0.00010096
12 *219:17 *2906:A 4.50908e-05
13 *3111:A *2908:B 0
*RES
1 *2905:X *219:6 11.4786 
2 *219:6 *2906:B 9.72857 
3 *219:6 *219:17 1.78571 
4 *219:17 *2908:B 23.8179 
5 *219:17 *2907:B 9.3 
*END

*D_NET *220 0.00109742
*CONN
*I *2920:A1 I *D sky130_fd_sc_hd__o21ai_2
*I *2906:Y O *D sky130_fd_sc_hd__nor2_2
*CAP
1 *2920:A1 0.00029051
2 *2906:Y 0.00029051
3 *2920:A1 *2901:A 0
4 *2920:A1 *233:14 3.18676e-05
5 *2920:A1 *374:10 0.00048453
6 *2908:B *2920:A1 0
*RES
1 *2906:Y *2920:A1 34.1893 
*END

*D_NET *221 0.000400758
*CONN
*I *2920:B1 I *D sky130_fd_sc_hd__o21ai_2
*I *2907:Y O *D sky130_fd_sc_hd__nand2_2
*CAP
1 *2920:B1 0.000164023
2 *2907:Y 0.000164023
3 *2920:B1 *2920:A2 4.1331e-06
4 *2920:B1 *2923:B 0
5 *2920:B1 *338:19 6.8578e-05
*RES
1 *2907:Y *2920:B1 30.6893 
*END

*D_NET *222 0.00202773
*CONN
*I *2913:A I *D sky130_fd_sc_hd__xnor2_2
*I *2919:C I *D sky130_fd_sc_hd__nor3_2
*I *2908:Y O *D sky130_fd_sc_hd__xnor2_2
*CAP
1 *2913:A 6.02998e-05
2 *2919:C 0.000155302
3 *2908:Y 0.000571723
4 *222:10 0.000787325
5 *2913:A *3190:A 0.000139625
6 *2919:C *2912:A2 0.00012401
7 *2919:C *225:10 0
8 *222:10 *2912:A2 0.000189448
9 *222:10 *225:10 0
*RES
1 *2908:Y *222:10 23.8 
2 *222:10 *2919:C 16.5857 
3 *222:10 *2913:A 15.1571 
*END

*D_NET *223 0.0015815
*CONN
*I *2912:A2 I *D sky130_fd_sc_hd__a21bo_2
*I *2909:Y O *D sky130_fd_sc_hd__nor2_2
*CAP
1 *2912:A2 0.000312369
2 *2909:Y 0.000312369
3 *2912:A2 *2913:B 0.000128146
4 *2912:A2 *225:10 0
5 *2912:A2 *387:14 0.000142152
6 *2912:A1 *2912:A2 0.000142152
7 *2919:B *2912:A2 0.000230855
8 *2919:C *2912:A2 0.00012401
9 *222:10 *2912:A2 0.000189448
*RES
1 *2909:Y *2912:A2 35.2071 
*END

*D_NET *224 0.000657658
*CONN
*I *2911:B1 I *D sky130_fd_sc_hd__o21ai_2
*I *2910:X O *D sky130_fd_sc_hd__a22o_2
*CAP
1 *2911:B1 0.000225659
2 *2910:X 0.000225659
3 *2911:B1 *314:32 4.01527e-05
4 *2910:B1 *2911:B1 9.76689e-05
5 *2911:A2 *2911:B1 6.85188e-05
*RES
1 *2910:X *2911:B1 31.3143 
*END

*D_NET *225 0.00388924
*CONN
*I *2920:A2 I *D sky130_fd_sc_hd__o21ai_2
*I *2912:B1_N I *D sky130_fd_sc_hd__a21bo_2
*I *2911:Y O *D sky130_fd_sc_hd__o21ai_2
*CAP
1 *2920:A2 0.000457049
2 *2912:B1_N 8.19321e-06
3 *2911:Y 0.00114712
4 *225:10 0.00161236
5 *2912:B1_N *387:14 6.26774e-06
6 *2920:A2 *2908:A 0
7 *2920:A2 *233:14 5.49544e-05
8 *2920:A2 *337:12 0
9 *2920:A2 *338:19 0
10 *2920:A2 *374:10 2.84109e-05
11 *225:10 *2911:A1 0.000230626
12 *225:10 *2913:B 0
13 *225:10 *314:38 9.70217e-05
14 *225:10 *335:23 0
15 *225:10 *337:12 0
16 *225:10 *364:6 9.24825e-05
17 *2912:A2 *225:10 0
18 *2919:C *225:10 0
19 *2920:B1 *2920:A2 4.1331e-06
20 *212:10 *225:10 0.000150625
21 *222:10 *225:10 0
*RES
1 *2911:Y *225:10 30.175 
2 *225:10 *2912:B1_N 13.9295 
3 *225:10 *2920:A2 22.1036 
*END

*D_NET *226 0.00111835
*CONN
*I *2913:B I *D sky130_fd_sc_hd__xnor2_2
*I *2912:X O *D sky130_fd_sc_hd__a21bo_2
*CAP
1 *2913:B 0.000317631
2 *2912:X 0.000317631
3 *2913:B *387:14 0.000354939
4 *2912:A2 *2913:B 0.000128146
5 *225:10 *2913:B 0
*RES
1 *2912:X *2913:B 32.6536 
*END

*D_NET *227 0.00107085
*CONN
*I *2916:B I *D sky130_fd_sc_hd__and3_2
*I *2917:A1 I *D sky130_fd_sc_hd__a21oi_2
*I *2914:X O *D sky130_fd_sc_hd__or2_2
*CAP
1 *2916:B 8.24135e-05
2 *2917:A1 0
3 *2914:X 0.00016397
4 *227:10 0.000246383
5 *2916:B *2916:C 0.000120624
6 *2916:B *2918:A 1.40849e-05
7 *2916:B *2918:B 4.25427e-05
8 *2916:B *2921:B1 5.83233e-05
9 *2916:B *233:14 0.000196269
10 *227:10 *2917:B1 9.71197e-05
11 *227:10 *233:14 4.9119e-05
*RES
1 *2914:X *227:10 12.0589 
2 *227:10 *2917:A1 9.3 
3 *227:10 *2916:B 21.4607 
*END

*D_NET *228 0.000948781
*CONN
*I *2917:A2 I *D sky130_fd_sc_hd__a21oi_2
*I *2916:C I *D sky130_fd_sc_hd__and3_2
*I *2915:Y O *D sky130_fd_sc_hd__nand2_2
*CAP
1 *2917:A2 0
2 *2916:C 0.000135774
3 *2915:Y 0.000233723
4 *228:10 0.000369496
5 *2916:C *2918:A 4.46186e-06
6 *2916:C *2930:A_N 4.89264e-05
7 *2916:C *2930:B 0
8 *2916:C *230:12 2.89114e-05
9 *2916:C *233:14 6.8646e-06
10 *228:10 *2930:B 0
11 *228:10 *242:8 0
12 *228:10 *243:12 0
13 *2916:B *2916:C 0.000120624
*RES
1 *2915:Y *228:10 17.8179 
2 *228:10 *2916:C 16.9429 
3 *228:10 *2917:A2 13.8 
*END

*D_NET *229 0.000926454
*CONN
*I *2930:A_N I *D sky130_fd_sc_hd__and3b_2
*I *2918:A I *D sky130_fd_sc_hd__or2_4
*I *2916:X O *D sky130_fd_sc_hd__and3_2
*CAP
1 *2930:A_N 4.4664e-05
2 *2918:A 0.000129783
3 *2916:X 4.8182e-05
4 *229:8 0.000222629
5 *2918:A *2918:B 0.000222878
6 *2918:A *2930:B 9.42391e-05
7 *2918:A *363:10 2.89114e-05
8 *2930:A_N *2930:B 3.5707e-05
9 *229:8 *2929:A_N 2.59355e-05
10 *229:8 *230:12 6.05161e-06
11 *2916:B *2918:A 1.40849e-05
12 *2916:C *2918:A 4.46186e-06
13 *2916:C *2930:A_N 4.89264e-05
*RES
1 *2916:X *229:8 14.3357 
2 *229:8 *2918:A 17.8 
3 *229:8 *2930:A_N 15.1393 
*END

*D_NET *230 0.00154884
*CONN
*I *2929:A_N I *D sky130_fd_sc_hd__nand2b_2
*I *2918:B I *D sky130_fd_sc_hd__or2_4
*I *2917:Y O *D sky130_fd_sc_hd__a21oi_2
*CAP
1 *2929:A_N 7.24805e-05
2 *2918:B 7.84529e-05
3 *2917:Y 0.000152277
4 *230:12 0.00030321
5 *2918:B *2921:B1 5.0725e-05
6 *2929:A_N *2929:B 0.000169359
7 *230:12 *2917:B1 9.4724e-05
8 *230:12 *2929:B 0.000137983
9 *230:12 *243:12 0.000129868
10 *230:12 *339:10 3.34366e-05
11 *2916:B *2918:B 4.25427e-05
12 *2916:C *230:12 2.89114e-05
13 *2918:A *2918:B 0.000222878
14 *229:8 *2929:A_N 2.59355e-05
15 *229:8 *230:12 6.05161e-06
*RES
1 *2917:Y *230:12 22.1214 
2 *230:12 *2918:B 21.1571 
3 *230:12 *2929:A_N 11.0679 
*END

*D_NET *231 0.00136161
*CONN
*I *2922:A I *D sky130_fd_sc_hd__xnor2_2
*I *2927:A_N I *D sky130_fd_sc_hd__nand2b_2
*I *2918:X O *D sky130_fd_sc_hd__or2_4
*CAP
1 *2922:A 0
2 *2927:A_N 0.000178878
3 *2918:X 0.000161615
4 *231:8 0.000340493
5 *2927:A_N *2921:B1 0
6 *2927:A_N *2922:B 5.80217e-05
7 *2927:A_N *2927:B 9.80173e-05
8 *2927:A_N *2930:B 0.000177948
9 *231:8 *2921:B1 0
10 *231:8 *2930:B 0.000346639
*RES
1 *2918:X *231:8 18.175 
2 *231:8 *2927:A_N 18.2286 
3 *231:8 *2922:A 13.8 
*END

*D_NET *232 0.00101762
*CONN
*I *2921:A2 I *D sky130_fd_sc_hd__a21o_2
*I *2927:B I *D sky130_fd_sc_hd__nand2b_2
*I *2919:Y O *D sky130_fd_sc_hd__nor3_2
*CAP
1 *2921:A2 0
2 *2927:B 0.00020482
3 *2919:Y 0.000164354
4 *232:6 0.000369173
5 *2927:B *2921:A1 1.74352e-05
6 *2927:B *2921:B1 5.71472e-05
7 *2927:B *239:10 9.92409e-05
8 *232:6 *2921:A1 7.43578e-06
9 *2927:A_N *2927:B 9.80173e-05
*RES
1 *2919:Y *232:6 11.8893 
2 *232:6 *2927:B 13.9607 
3 *232:6 *2921:A2 9.3 
*END

*D_NET *233 0.00428764
*CONN
*I *2929:B I *D sky130_fd_sc_hd__nand2b_2
*I *2921:B1 I *D sky130_fd_sc_hd__a21o_2
*I *2920:Y O *D sky130_fd_sc_hd__o21ai_2
*CAP
1 *2929:B 0.000208248
2 *2921:B1 0.000375858
3 *2920:Y 0.000589174
4 *233:14 0.00117328
5 *2921:B1 *2921:A1 3.69697e-05
6 *2921:B1 *2922:B 5.80217e-05
7 *2921:B1 *2930:B 0
8 *2921:B1 *243:12 0.00020046
9 *2921:B1 *339:10 0.000128154
10 *2929:B *2930:C 3.18676e-05
11 *233:14 *2917:B1 0.000247738
12 *233:14 *243:12 6.8646e-06
13 *233:14 *339:10 4.73656e-05
14 *233:14 *374:10 0.000371025
15 *2916:B *2921:B1 5.83233e-05
16 *2916:B *233:14 0.000196269
17 *2916:C *233:14 6.8646e-06
18 *2918:B *2921:B1 5.0725e-05
19 *2920:A1 *233:14 3.18676e-05
20 *2920:A2 *233:14 5.49544e-05
21 *2927:A_N *2921:B1 0
22 *2927:B *2921:B1 5.71472e-05
23 *2929:A_N *2929:B 0.000169359
24 *227:10 *233:14 4.9119e-05
25 *230:12 *2929:B 0.000137983
26 *231:8 *2921:B1 0
*RES
1 *2920:Y *233:14 26.2643 
2 *233:14 *2921:B1 23.8714 
3 *233:14 *2929:B 18.0321 
*END

*D_NET *234 0.000228953
*CONN
*I *2922:B I *D sky130_fd_sc_hd__xnor2_2
*I *2921:X O *D sky130_fd_sc_hd__a21o_2
*CAP
1 *2922:B 5.64549e-05
2 *2921:X 5.64549e-05
3 *2921:B1 *2922:B 5.80217e-05
4 *2927:A_N *2922:B 5.80217e-05
*RES
1 *2921:X *2922:B 29.5464 
*END

*D_NET *235 0.00116982
*CONN
*I *2925:B I *D sky130_fd_sc_hd__nand2_2
*I *2924:B I *D sky130_fd_sc_hd__or2_2
*I *2923:X O *D sky130_fd_sc_hd__xor2_2
*CAP
1 *2925:B 0.000224565
2 *2924:B 0
3 *2923:X 0.000216752
4 *235:10 0.000441317
5 *2925:B *2925:A 0.000213875
6 *2925:B *2971:B1 0
7 *2925:B *243:12 0
8 *2925:B *340:10 5.80706e-06
9 *235:10 *243:12 0
10 *235:10 *340:10 6.75007e-05
*RES
1 *2923:X *235:10 17.6214 
2 *235:10 *2924:B 13.8 
3 *235:10 *2925:B 18.8536 
*END

*D_NET *236 0.000844586
*CONN
*I *2926:A I *D sky130_fd_sc_hd__nand2_2
*I *2924:X O *D sky130_fd_sc_hd__or2_2
*CAP
1 *2926:A 0.000260503
2 *2924:X 0.000260503
3 *2926:A *2925:A 0.000153047
4 *2926:A *2971:B1 0
5 *2926:A *242:8 0.000170532
*RES
1 *2924:X *2926:A 33.4393 
*END

*D_NET *237 0.004979
*CONN
*I *2947:A1 I *D sky130_fd_sc_hd__a21bo_2
*I *2940:A I *D sky130_fd_sc_hd__nand2_2
*I *2926:B I *D sky130_fd_sc_hd__nand2_2
*I *2925:Y O *D sky130_fd_sc_hd__nand2_2
*CAP
1 *2947:A1 0.000466255
2 *2940:A 0
3 *2926:B 0
4 *2925:Y 0.000388716
5 *237:25 0.00191061
6 *237:12 0.00183308
7 *2947:A1 *2941:A 0
8 *2947:A1 *2941:B 0
9 *2947:A1 *3192:A 0.00012401
10 *2947:A1 *246:12 0
11 *237:12 *2925:A 0.00014285
12 *237:12 *242:8 0
13 *237:12 *412:16 5.35516e-05
14 *237:25 *245:23 5.57914e-05
15 *237:25 *245:32 4.1331e-06
*RES
1 *2925:Y *237:12 24.8893 
2 *237:12 *2926:B 9.3 
3 *237:12 *237:25 34.1607 
4 *237:25 *2940:A 9.3 
5 *237:25 *2947:A1 26.6929 
*END

*D_NET *238 0.00234193
*CONN
*I *2961:A1 I *D sky130_fd_sc_hd__o41a_2
*I *2933:B1 I *D sky130_fd_sc_hd__a21o_2
*I *2932:A I *D sky130_fd_sc_hd__and3_2
*I *2926:Y O *D sky130_fd_sc_hd__nand2_2
*CAP
1 *2961:A1 0.000484333
2 *2933:B1 0
3 *2932:A 5.5551e-05
4 *2926:Y 0.000215592
5 *238:21 0.000629278
6 *238:8 0.000416088
7 *2932:A *2934:A_N 5.71472e-05
8 *2961:A1 *2961:A3 0
9 *2961:A1 *2961:A4 4.1331e-06
10 *2961:A1 *245:6 5.52238e-05
11 *2961:A1 *245:23 0.00034756
12 *238:8 *242:8 0
13 *238:8 *412:16 0
14 *238:21 *2934:B 6.58195e-05
15 *238:21 *242:8 0
16 *238:21 *242:21 1.11993e-05
*RES
1 *2926:Y *238:8 17.5679 
2 *238:8 *2932:A 14.7464 
3 *238:8 *238:21 7.66071 
4 *238:21 *2933:B1 9.3 
5 *238:21 *2961:A1 27.925 
*END

*D_NET *239 0.00178308
*CONN
*I *2928:B I *D sky130_fd_sc_hd__or2_2
*I *2931:C1 I *D sky130_fd_sc_hd__a211o_4
*I *2927:Y O *D sky130_fd_sc_hd__nand2b_2
*CAP
1 *2928:B 0
2 *2931:C1 0.000310317
3 *2927:Y 0.000514032
4 *239:10 0.000824349
5 *2931:C1 *243:12 0
6 *239:10 *2930:B 0
7 *239:10 *243:12 0
8 *2927:B *239:10 9.92409e-05
9 *2931:B1 *2931:C1 3.51442e-05
*RES
1 *2927:Y *239:10 22.3714 
2 *239:10 *2931:C1 19.4429 
3 *239:10 *2928:B 13.8 
*END

*D_NET *240 0.00274643
*CONN
*I *2930:B I *D sky130_fd_sc_hd__and3b_2
*I *2928:X O *D sky130_fd_sc_hd__or2_2
*CAP
1 *2930:B 0.00099158
2 *2928:X 0.00099158
3 *2930:B *2930:C 0.000105908
4 *2930:B *3096:B 0
5 *2930:B *242:8 2.8266e-06
6 *2930:B *243:12 0
7 *2916:C *2930:B 0
8 *2918:A *2930:B 9.42391e-05
9 *2921:B1 *2930:B 0
10 *2927:A_N *2930:B 0.000177948
11 *2930:A_N *2930:B 3.5707e-05
12 *228:10 *2930:B 0
13 *231:8 *2930:B 0.000346639
14 *239:10 *2930:B 0
*RES
1 *2928:X *2930:B 47.9929 
*END

*D_NET *241 0.000341335
*CONN
*I *2930:C I *D sky130_fd_sc_hd__and3b_2
*I *2929:Y O *D sky130_fd_sc_hd__nand2b_2
*CAP
1 *2930:C 0.00010178
2 *2929:Y 0.00010178
3 *2929:B *2930:C 3.18676e-05
4 *2930:B *2930:C 0.000105908
*RES
1 *2929:Y *2930:C 29.6402 
*END

*D_NET *242 0.00289814
*CONN
*I *2962:A I *D sky130_fd_sc_hd__and2_2
*I *2933:A1 I *D sky130_fd_sc_hd__a21o_2
*I *2932:B I *D sky130_fd_sc_hd__and3_2
*I *2930:X O *D sky130_fd_sc_hd__and3b_2
*CAP
1 *2962:A 9.76682e-05
2 *2933:A1 0
3 *2932:B 0
4 *2930:X 0.000980332
5 *242:21 0.000300227
6 *242:8 0.00118289
7 *2962:A *2962:B 5.80706e-06
8 *242:8 *2925:A 3.69865e-05
9 *242:8 *2978:C1 0
10 *242:8 *267:10 0
11 *242:8 *340:10 0.000109671
12 *242:8 *412:16 0
13 *242:21 *2934:B 0
14 *242:21 *2978:C1 0
15 *2926:A *242:8 0.000170532
16 *2930:B *242:8 2.8266e-06
17 *228:10 *242:8 0
18 *237:12 *242:8 0
19 *238:8 *242:8 0
20 *238:21 *242:8 0
21 *238:21 *242:21 1.11993e-05
*RES
1 *2930:X *242:8 33.3536 
2 *242:8 *2932:B 13.8 
3 *242:8 *242:21 3.625 
4 *242:21 *2933:A1 13.8 
5 *242:21 *2962:A 15.4429 
*END

*D_NET *243 0.00798004
*CONN
*I *2933:A2 I *D sky130_fd_sc_hd__a21o_2
*I *2978:A2 I *D sky130_fd_sc_hd__a2111o_2
*I *2932:C I *D sky130_fd_sc_hd__and3_2
*I *2963:A1 I *D sky130_fd_sc_hd__a21o_2
*I *2931:X O *D sky130_fd_sc_hd__a211o_4
*CAP
1 *2933:A2 0.000333802
2 *2978:A2 0
3 *2932:C 0.000330307
4 *2963:A1 0
5 *2931:X 0.0016213
6 *243:36 0.000443109
7 *243:18 0.000409932
8 *243:14 0.000416454
9 *243:12 0.00184882
10 *2932:C *2934:A_N 7.77652e-05
11 *2932:C *2963:A2 2.89114e-05
12 *2933:A2 *2978:C1 1.98839e-05
13 *243:12 *2914:A 7.8161e-05
14 *243:12 *2917:B1 2.26327e-05
15 *243:12 *2921:A1 7.83587e-05
16 *243:12 *2971:B1 2.95221e-07
17 *243:12 *2971:B2 1.09826e-05
18 *243:12 *312:27 5.77171e-05
19 *243:12 *312:29 0.000104736
20 *243:12 *339:10 7.57869e-05
21 *243:12 *340:10 0
22 *243:12 *398:10 5.71472e-05
23 *243:14 *2971:B1 0.00021799
24 *243:14 *2971:B2 0.000212183
25 *243:14 *2978:C1 7.4826e-05
26 *243:14 *267:10 0.000103993
27 *243:14 *271:8 0.000186941
28 *243:18 *2963:A2 2.89016e-05
29 *243:18 *2963:B1 6.05161e-06
30 *243:36 *2963:A2 0.000198698
31 *243:36 *2963:B1 0.000173797
32 *243:36 *2978:C1 5.08839e-05
33 *243:36 *269:10 3.34366e-05
34 *243:36 *271:8 1.41029e-05
35 *2900:B *243:12 0
36 *2912:A1 *243:12 6.7757e-05
37 *2921:B1 *243:12 0.00020046
38 *2925:B *243:12 0
39 *2928:A *243:12 9.23774e-05
40 *2930:B *243:12 0
41 *2931:C1 *243:12 0
42 *215:39 *243:12 0.000164815
43 *228:10 *243:12 0
44 *230:12 *243:12 0.000129868
45 *233:14 *243:12 6.8646e-06
46 *235:10 *243:12 0
47 *239:10 *243:12 0
*RES
1 *2931:X *243:12 48.0946 
2 *243:12 *243:14 9.22321 
3 *243:14 *243:18 5.44643 
4 *243:18 *2963:A1 9.3 
5 *243:18 *2932:C 13.5321 
6 *243:14 *243:36 8.19643 
7 *243:36 *2978:A2 9.3 
8 *243:36 *2933:A2 14.7821 
*END

*D_NET *244 0.00037191
*CONN
*I *2934:A_N I *D sky130_fd_sc_hd__and2b_2
*I *2932:X O *D sky130_fd_sc_hd__and3_2
*CAP
1 *2934:A_N 0.000118499
2 *2932:X 0.000118499
3 *2932:A *2934:A_N 5.71472e-05
4 *2932:C *2934:A_N 7.77652e-05
*RES
1 *2932:X *2934:A_N 21.1893 
*END

*D_NET *245 0.00550607
*CONN
*I *2948:A1 I *D sky130_fd_sc_hd__o21ai_4
*I *2956:A1 I *D sky130_fd_sc_hd__o31a_2
*I *2940:B I *D sky130_fd_sc_hd__nand2_2
*I *2934:B I *D sky130_fd_sc_hd__and2b_2
*I *2933:X O *D sky130_fd_sc_hd__a21o_2
*CAP
1 *2948:A1 0.000148787
2 *2956:A1 0.000108631
3 *2940:B 0
4 *2934:B 0.000116231
5 *2933:X 2.85076e-05
6 *245:32 0.000505454
7 *245:23 0.00113593
8 *245:6 0.00103263
9 *2948:A1 *2948:A2 0
10 *2956:A1 *250:8 0.000885751
11 *2956:A1 *393:35 0.000885751
12 *245:32 *2941:A 0
13 *245:32 *2941:B 0.000129868
14 *2961:A1 *245:6 5.52238e-05
15 *2961:A1 *245:23 0.00034756
16 *237:25 *245:23 5.57914e-05
17 *237:25 *245:32 4.1331e-06
18 *238:21 *2934:B 6.58195e-05
19 *242:21 *2934:B 0
*RES
1 *2933:X *245:6 9.83571 
2 *245:6 *2934:B 20.8536 
3 *245:6 *245:23 19.7143 
4 *245:23 *2940:B 13.8 
5 *245:23 *245:32 4.98214 
6 *245:32 *2956:A1 22.1393 
7 *245:32 *2948:A1 16.3536 
*END

*D_NET *246 0.0013005
*CONN
*I *2938:B I *D sky130_fd_sc_hd__nand3_2
*I *2937:A1 I *D sky130_fd_sc_hd__a21o_2
*I *2935:X O *D sky130_fd_sc_hd__or2_2
*CAP
1 *2938:B 0.000145665
2 *2937:A1 0
3 *2935:X 0.000304784
4 *246:12 0.000450448
5 *2938:B *2937:A2 2.9214e-06
6 *2938:B *2938:C 2.14314e-05
7 *2938:B *249:6 0.000144773
8 *246:12 *2938:A 0
9 *246:12 *3192:A 0
10 *246:12 *249:6 0.000230482
11 *246:12 *341:14 0
12 *2947:A1 *246:12 0
*RES
1 *2935:X *246:12 23.0321 
2 *246:12 *2937:A1 9.3 
3 *246:12 *2938:B 11.8 
*END

*D_NET *247 0.000929145
*CONN
*I *2938:C I *D sky130_fd_sc_hd__nand3_2
*I *2937:A2 I *D sky130_fd_sc_hd__a21o_2
*I *2936:Y O *D sky130_fd_sc_hd__nand2_2
*CAP
1 *2938:C 7.35445e-05
2 *2937:A2 2.31538e-05
3 *2936:Y 8.58881e-05
4 *247:12 0.000182586
5 *2938:C *249:6 4.88637e-05
6 *2938:C *393:37 0.000276211
7 *247:12 *249:6 3.18676e-05
8 *247:12 *341:14 0.000127446
9 *247:12 *393:37 5.52302e-05
10 *2938:B *2937:A2 2.9214e-06
11 *2938:B *2938:C 2.14314e-05
*RES
1 *2936:Y *247:12 20.4786 
2 *247:12 *2937:A2 9.72857 
3 *247:12 *2938:C 12.3179 
*END

*D_NET *248 0.00123337
*CONN
*I *2939:A I *D sky130_fd_sc_hd__nand2_2
*I *2947:B1_N I *D sky130_fd_sc_hd__a21bo_2
*I *2937:X O *D sky130_fd_sc_hd__a21o_2
*CAP
1 *2939:A 1.00162e-05
2 *2947:B1_N 7.75595e-05
3 *2937:X 4.09658e-05
4 *248:6 0.000128541
5 *2939:A *2939:B 5.7661e-06
6 *2939:A *2947:A2 1.04232e-05
7 *2947:B1_N *2947:A2 0.000125392
8 *2947:B1_N *250:6 0.000150536
9 *2947:B1_N *393:35 8.37621e-05
10 *2947:B1_N *393:37 0.000245896
11 *248:6 *2947:A2 4.88637e-05
12 *248:6 *249:6 7.61932e-05
13 *248:6 *393:37 0.000229456
*RES
1 *2937:X *248:6 11.4786 
2 *248:6 *2947:B1_N 13.0054 
3 *248:6 *2939:A 9.72857 
*END

*D_NET *249 0.00127994
*CONN
*I *2939:B I *D sky130_fd_sc_hd__nand2_2
*I *2947:A2 I *D sky130_fd_sc_hd__a21bo_2
*I *2938:Y O *D sky130_fd_sc_hd__nand3_2
*CAP
1 *2939:B 1.24159e-05
2 *2947:A2 9.63542e-05
3 *2938:Y 9.1893e-05
4 *249:6 0.000200663
5 *2947:A2 *250:6 5.71472e-05
6 *249:6 *2937:B1 5.71472e-05
7 *249:6 *393:37 4.16929e-05
8 *2938:B *249:6 0.000144773
9 *2938:C *249:6 4.88637e-05
10 *2939:A *2939:B 5.7661e-06
11 *2939:A *2947:A2 1.04232e-05
12 *2947:B1_N *2947:A2 0.000125392
13 *246:12 *249:6 0.000230482
14 *247:12 *249:6 3.18676e-05
15 *248:6 *2947:A2 4.88637e-05
16 *248:6 *249:6 7.61932e-05
*RES
1 *2938:Y *249:6 13.5321 
2 *249:6 *2947:A2 12.0321 
3 *249:6 *2939:B 9.72857 
*END

*D_NET *250 0.00396017
*CONN
*I *2948:A2 I *D sky130_fd_sc_hd__o21ai_4
*I *2941:A I *D sky130_fd_sc_hd__xnor2_2
*I *2956:A2 I *D sky130_fd_sc_hd__o31a_2
*I *2961:A2 I *D sky130_fd_sc_hd__o41a_2
*I *2939:Y O *D sky130_fd_sc_hd__nand2_2
*CAP
1 *2948:A2 0.000139855
2 *2941:A 0.000112655
3 *2956:A2 2.754e-05
4 *2961:A2 0.000170256
5 *2939:Y 0.000191321
6 *250:34 0.00025251
7 *250:8 0.000703687
8 *250:6 0.000697212
9 *2941:A *3192:A 0
10 *2948:A2 *3192:A 0
11 *2948:A2 *257:8 0.000179656
12 *2956:A2 *393:35 5.52423e-05
13 *2961:A2 *2961:A3 0.000141388
14 *2961:A2 *2961:A4 0
15 *250:6 *393:35 8.5742e-05
16 *250:8 *393:35 0.000109666
17 *2947:A1 *2941:A 0
18 *2947:A2 *250:6 5.71472e-05
19 *2947:B1_N *250:6 0.000150536
20 *2948:A1 *2948:A2 0
21 *2956:A1 *250:8 0.000885751
22 *245:32 *2941:A 0
*RES
1 *2939:Y *250:6 13.1214 
2 *250:6 *250:8 10.8036 
3 *250:8 *2961:A2 21.7286 
4 *250:8 *2956:A2 10.2464 
5 *250:6 *250:34 4.5 
6 *250:34 *2941:A 15.7464 
7 *250:34 *2948:A2 16.9607 
*END

*D_NET *251 0.000255084
*CONN
*I *2941:B I *D sky130_fd_sc_hd__xnor2_2
*I *2940:Y O *D sky130_fd_sc_hd__nand2_2
*CAP
1 *2941:B 6.26081e-05
2 *2940:Y 6.26081e-05
3 *2947:A1 *2941:B 0
4 *245:32 *2941:B 0.000129868
*RES
1 *2940:Y *2941:B 29.2429 
*END

*D_NET *252 0.00136404
*CONN
*I *2945:B I *D sky130_fd_sc_hd__nand3_2
*I *2944:A1 I *D sky130_fd_sc_hd__a21oi_2
*I *2942:X O *D sky130_fd_sc_hd__or2_2
*CAP
1 *2945:B 0.0001874
2 *2944:A1 0.000114207
3 *2942:X 9.4686e-05
4 *252:8 0.000396292
5 *2944:A1 *3193:A 0.000102197
6 *2945:B *2944:A2 0.000104166
7 *2945:B *253:6 4.38128e-05
8 *2945:B *341:14 0.000103267
9 *252:8 *2944:A2 1.76039e-05
10 *252:8 *341:14 0.000200413
*RES
1 *2942:X *252:8 16.3536 
2 *252:8 *2944:A1 15.9964 
3 *252:8 *2945:B 17.7643 
*END

*D_NET *253 0.000487476
*CONN
*I *2945:C I *D sky130_fd_sc_hd__nand3_2
*I *2944:A2 I *D sky130_fd_sc_hd__a21oi_2
*I *2943:Y O *D sky130_fd_sc_hd__nand2_2
*CAP
1 *2945:C 0
2 *2944:A2 0.000136209
3 *2943:Y 1.74066e-05
4 *253:6 0.000153616
5 *2944:A2 *2944:B1 0
6 *2944:A2 *341:14 1.46624e-05
7 *2944:A2 *342:8 0
8 *2945:B *2944:A2 0.000104166
9 *2945:B *253:6 4.38128e-05
10 *252:8 *2944:A2 1.76039e-05
*RES
1 *2943:Y *253:6 9.83571 
2 *253:6 *2944:A2 21.0857 
3 *253:6 *2945:C 9.3 
*END

*D_NET *254 0.00175533
*CONN
*I *2955:A1 I *D sky130_fd_sc_hd__o21a_2
*I *2946:A_N I *D sky130_fd_sc_hd__nand2b_2
*I *2944:Y O *D sky130_fd_sc_hd__a21oi_2
*CAP
1 *2955:A1 0.000195374
2 *2946:A_N 6.09714e-05
3 *2944:Y 0.000286716
4 *254:10 0.000543062
5 *2946:A_N *2955:B1 0
6 *2946:A_N *3192:A 5.76113e-05
7 *2946:A_N *256:12 0
8 *2955:A1 *2949:B 0.000226021
9 *2955:A1 *3192:A 0.000287041
10 *2955:A1 *256:12 0
11 *254:10 *2949:B 6.05161e-06
12 *254:10 *3193:A 9.24825e-05
13 *254:10 *256:12 0
*RES
1 *2944:Y *254:10 17.4875 
2 *254:10 *2946:A_N 15.2911 
3 *254:10 *2955:A1 19.3089 
*END

*D_NET *255 0.00138339
*CONN
*I *2946:B I *D sky130_fd_sc_hd__nand2b_2
*I *2955:B1 I *D sky130_fd_sc_hd__o21a_2
*I *2945:Y O *D sky130_fd_sc_hd__nand3_2
*CAP
1 *2946:B 0
2 *2955:B1 0.000298345
3 *2945:Y 0.000290153
4 *255:6 0.000588498
5 *2955:B1 *2949:B 0
6 *2955:B1 *3192:A 0
7 *2955:B1 *3194:A 0
8 *2955:B1 *256:12 0.000181966
9 *255:6 *256:12 2.44318e-05
10 *2946:A_N *2955:B1 0
*RES
1 *2945:Y *255:6 13.9429 
2 *255:6 *2955:B1 24.2286 
3 *255:6 *2946:B 9.3 
*END

*D_NET *256 0.00406271
*CONN
*I *2949:A I *D sky130_fd_sc_hd__xnor2_2
*I *2956:A3 I *D sky130_fd_sc_hd__o31a_2
*I *2961:A3 I *D sky130_fd_sc_hd__o41a_2
*I *2946:Y O *D sky130_fd_sc_hd__nand2b_2
*CAP
1 *2949:A 0
2 *2956:A3 4.66046e-05
3 *2961:A3 0.000310162
4 *2946:Y 0.000128622
5 *256:18 0.00112907
6 *256:12 0.000900927
7 *2956:A3 *393:35 9.90367e-05
8 *2961:A3 *2956:B1 0
9 *2961:A3 *2961:A4 0
10 *256:18 *2952:A 0.000582901
11 *256:18 *2952:B 9.73258e-05
12 *256:18 *2956:B1 0
13 *256:18 *2957:B 8.06427e-05
14 *256:18 *2960:A1 2.26424e-05
15 *256:18 *2960:B1_N 0.000172375
16 *256:18 *261:10 0.000103253
17 *256:18 *262:10 4.13573e-05
18 *2946:A_N *256:12 0
19 *2955:A1 *256:12 0
20 *2955:B1 *256:12 0.000181966
21 *2961:A1 *2961:A3 0
22 *2961:A2 *2961:A3 0.000141388
23 *254:10 *256:12 0
24 *255:6 *256:12 2.44318e-05
*RES
1 *2946:Y *256:12 21.1929 
2 *256:12 *256:18 21.5893 
3 *256:18 *2961:A3 19.55 
4 *256:18 *2956:A3 14.7464 
5 *256:12 *2949:A 9.3 
*END

*D_NET *257 0.000735376
*CONN
*I *2955:A2 I *D sky130_fd_sc_hd__o21a_2
*I *2948:B1 I *D sky130_fd_sc_hd__o21ai_4
*I *2947:X O *D sky130_fd_sc_hd__a21bo_2
*CAP
1 *2955:A2 9.92351e-05
2 *2948:B1 6.17105e-05
3 *2947:X 7.80345e-05
4 *257:8 0.00023898
5 *2955:A2 *2949:B 6.58289e-05
6 *2955:A2 *3194:A 0
7 *257:8 *2949:B 1.19309e-05
8 *257:8 *3192:A 0
9 *2948:A2 *257:8 0.000179656
*RES
1 *2947:X *257:8 16.05 
2 *257:8 *2948:B1 14.7464 
3 *257:8 *2955:A2 16.05 
*END

*D_NET *258 0.000835393
*CONN
*I *2949:B I *D sky130_fd_sc_hd__xnor2_2
*I *2948:Y O *D sky130_fd_sc_hd__o21ai_4
*CAP
1 *2949:B 0.000210111
2 *2948:Y 0.000210111
3 *2949:B *3192:A 0.000105338
4 *2955:A1 *2949:B 0.000226021
5 *2955:A2 *2949:B 6.58289e-05
6 *2955:B1 *2949:B 0
7 *254:10 *2949:B 6.05161e-06
8 *257:8 *2949:B 1.19309e-05
*RES
1 *2948:Y *2949:B 33.4214 
*END

*D_NET *259 0.00163323
*CONN
*I *2952:B I *D sky130_fd_sc_hd__and3_2
*I *2953:A1 I *D sky130_fd_sc_hd__a21oi_2
*I *2950:X O *D sky130_fd_sc_hd__or2_2
*CAP
1 *2952:B 0.000184991
2 *2953:A1 3.7434e-05
3 *2950:X 7.38334e-05
4 *259:6 0.000296258
5 *2952:B *2952:C 0.000123288
6 *2952:B *262:10 1.5942e-05
7 *2953:A1 *2950:B 0.000137983
8 *2953:A1 *2952:C 9.71197e-05
9 *2953:A1 *262:10 1.98839e-05
10 *259:6 *2950:A 4.88637e-05
11 *259:6 *2950:B 0.000174232
12 *259:6 *2953:B1 0.000320024
13 *259:6 *262:10 6.05161e-06
14 *256:18 *2952:B 9.73258e-05
*RES
1 *2950:X *259:6 12.7107 
2 *259:6 *2953:A1 10.6571 
3 *259:6 *2952:B 21.9964 
*END

*D_NET *260 0.000866891
*CONN
*I *2952:C I *D sky130_fd_sc_hd__and3_2
*I *2953:A2 I *D sky130_fd_sc_hd__a21oi_2
*I *2951:Y O *D sky130_fd_sc_hd__nand2_2
*CAP
1 *2952:C 0.000128758
2 *2953:A2 0
3 *2951:Y 7.10462e-05
4 *260:8 0.000199804
5 *2952:C *2950:B 4.72818e-05
6 *2952:C *262:10 0.000168903
7 *260:8 *2950:A 1.32552e-05
8 *260:8 *2950:B 1.74352e-05
9 *2952:B *2952:C 0.000123288
10 *2953:A1 *2952:C 9.71197e-05
*RES
1 *2951:Y *260:8 10.675 
2 *260:8 *2953:A2 9.3 
3 *260:8 *2952:C 22.0143 
*END

*D_NET *261 0.00187658
*CONN
*I *2954:A I *D sky130_fd_sc_hd__or2_2
*I *2960:B1_N I *D sky130_fd_sc_hd__o21ba_2
*I *2952:X O *D sky130_fd_sc_hd__and3_2
*CAP
1 *2954:A 9.06687e-05
2 *2960:B1_N 0.000356032
3 *2952:X 8.73858e-05
4 *261:10 0.000534086
5 *2954:A *2954:B 5.33005e-05
6 *2954:A *264:10 1.55885e-05
7 *2960:B1_N *2957:A 9.02232e-05
8 *2960:B1_N *2960:A1 0.000224761
9 *2960:B1_N *262:10 5.59013e-05
10 *261:10 *262:10 9.30022e-05
11 *256:18 *2960:B1_N 0.000172375
12 *256:18 *261:10 0.000103253
*RES
1 *2952:X *261:10 15.675 
2 *261:10 *2960:B1_N 20.7286 
3 *261:10 *2954:A 15.6036 
*END

*D_NET *262 0.00177076
*CONN
*I *2954:B I *D sky130_fd_sc_hd__or2_2
*I *2960:A1 I *D sky130_fd_sc_hd__o21ba_2
*I *2953:Y O *D sky130_fd_sc_hd__a21oi_2
*CAP
1 *2954:B 2.04426e-05
2 *2960:A1 0.000121397
3 *2953:Y 0.000318238
4 *262:10 0.000460077
5 *2954:B *264:10 2.59355e-05
6 *2960:A1 *2956:B1 0
7 *2960:A1 *2957:A 0.00010096
8 *2960:A1 *263:10 0
9 *2960:A1 *264:10 0
10 *2960:A1 *314:107 0
11 *262:10 *314:107 0
12 *262:10 *379:12 2.19684e-05
13 *2952:B *262:10 1.5942e-05
14 *2952:C *262:10 0.000168903
15 *2953:A1 *262:10 1.98839e-05
16 *2954:A *2954:B 5.33005e-05
17 *2960:B1_N *2960:A1 0.000224761
18 *2960:B1_N *262:10 5.59013e-05
19 *256:18 *2960:A1 2.26424e-05
20 *256:18 *262:10 4.13573e-05
21 *259:6 *262:10 6.05161e-06
22 *261:10 *262:10 9.30022e-05
*RES
1 *2953:Y *262:10 20.7464 
2 *262:10 *2960:A1 16.9964 
3 *262:10 *2954:B 14.3357 
*END

*D_NET *263 0.00168962
*CONN
*I *2957:A I *D sky130_fd_sc_hd__xor2_2
*I *2961:A4 I *D sky130_fd_sc_hd__o41a_2
*I *2954:X O *D sky130_fd_sc_hd__or2_2
*CAP
1 *2957:A 0.000146698
2 *2961:A4 0.000144843
3 *2954:X 0.000133573
4 *263:10 0.000425114
5 *2961:A4 *2956:B1 0.000200413
6 *2961:A4 *268:10 0.000198748
7 *263:10 *2956:B1 3.34366e-05
8 *263:10 *264:10 0.000172426
9 *263:10 *268:10 3.90513e-05
10 *263:10 *314:107 0
11 *2960:A1 *2957:A 0.00010096
12 *2960:A1 *263:10 0
13 *2960:B1_N *2957:A 9.02232e-05
14 *2961:A1 *2961:A4 4.1331e-06
15 *2961:A2 *2961:A4 0
16 *2961:A3 *2961:A4 0
*RES
1 *2954:X *263:10 16.9964 
2 *263:10 *2961:A4 18.4786 
3 *263:10 *2957:A 16.8 
*END

*D_NET *264 0.00300317
*CONN
*I *2960:A2 I *D sky130_fd_sc_hd__o21ba_2
*I *2956:B1 I *D sky130_fd_sc_hd__o31a_2
*I *2955:X O *D sky130_fd_sc_hd__o21a_2
*CAP
1 *2960:A2 0
2 *2956:B1 0.000169828
3 *2955:X 0.00103643
4 *264:10 0.00120626
5 *2956:B1 *393:35 0.000142856
6 *2954:A *264:10 1.55885e-05
7 *2954:B *264:10 2.59355e-05
8 *2960:A1 *2956:B1 0
9 *2960:A1 *264:10 0
10 *2961:A3 *2956:B1 0
11 *2961:A4 *2956:B1 0.000200413
12 *256:18 *2956:B1 0
13 *263:10 *2956:B1 3.34366e-05
14 *263:10 *264:10 0.000172426
*RES
1 *2955:X *264:10 26.6571 
2 *264:10 *2956:B1 18.0143 
3 *264:10 *2960:A2 13.8 
*END

*D_NET *265 0.000245044
*CONN
*I *2957:B I *D sky130_fd_sc_hd__xor2_2
*I *2956:X O *D sky130_fd_sc_hd__o31a_2
*CAP
1 *2957:B 8.22007e-05
2 *2956:X 8.22007e-05
3 *256:18 *2957:B 8.06427e-05
*RES
1 *2956:X *2957:B 20.2464 
*END

*D_NET *266 0.00264772
*CONN
*I *2959:B I *D sky130_fd_sc_hd__xnor2_2
*I *2979:A2 I *D sky130_fd_sc_hd__a31oi_2
*I *2971:A2_N I *D sky130_fd_sc_hd__o2bb2ai_4
*I *2958:X O *D sky130_fd_sc_hd__xor2_2
*CAP
1 *2959:B 0.000101404
2 *2979:A2 0
3 *2971:A2_N 0.000122196
4 *2958:X 0.000293634
5 *266:23 0.000473444
6 *266:10 0.00078787
7 *2959:B *345:17 0.000238165
8 *2971:A2_N *412:16 0.000360798
9 *266:23 *2968:A 0.000200413
10 *266:23 *2979:A3 6.97972e-05
11 *266:23 *276:10 0
12 *3119:A *266:23 0
*RES
1 *2958:X *266:10 18.3357 
2 *266:10 *2971:A2_N 17.2107 
3 *266:10 *266:23 11.9107 
4 *266:23 *2979:A2 9.3 
5 *266:23 *2959:B 11.9071 
*END

*D_NET *267 0.00269109
*CONN
*I *2978:C1 I *D sky130_fd_sc_hd__a2111o_2
*I *2964:A I *D sky130_fd_sc_hd__xor2_2
*I *2971:B1 I *D sky130_fd_sc_hd__o2bb2ai_4
*I *2959:Y O *D sky130_fd_sc_hd__xnor2_2
*CAP
1 *2978:C1 0.000374629
2 *2964:A 3.72884e-05
3 *2971:B1 0.00021379
4 *2959:Y 0.000257806
5 *267:10 0.000355465
6 *267:8 0.000736822
7 *2971:B1 *2925:A 0
8 *2978:C1 *2963:A2 0.000151333
9 *2978:C1 *2978:D1 9.60875e-05
10 *2925:B *2971:B1 0
11 *2926:A *2971:B1 0
12 *2933:A2 *2978:C1 1.98839e-05
13 *242:8 *2978:C1 0
14 *242:8 *267:10 0
15 *242:21 *2978:C1 0
16 *243:12 *2971:B1 2.95221e-07
17 *243:14 *2971:B1 0.00021799
18 *243:14 *2978:C1 7.4826e-05
19 *243:14 *267:10 0.000103993
20 *243:36 *2978:C1 5.08839e-05
*RES
1 *2959:Y *267:8 17.6214 
2 *267:8 *267:10 2.55357 
3 *267:10 *2971:B1 18.7821 
4 *267:10 *2964:A 14.3357 
5 *267:8 *2978:C1 20.3536 
*END

*D_NET *268 0.00142334
*CONN
*I *2961:B1 I *D sky130_fd_sc_hd__o41a_2
*I *2962:B I *D sky130_fd_sc_hd__and2_2
*I *2960:X O *D sky130_fd_sc_hd__o21ba_2
*CAP
1 *2961:B1 3.08975e-05
2 *2962:B 0.000291521
3 *2960:X 0.000222843
4 *268:10 0.000545262
5 *2962:B *269:10 7.15962e-05
6 *268:10 *314:107 1.76135e-05
7 *2961:A4 *268:10 0.000198748
8 *2962:A *2962:B 5.80706e-06
9 *263:10 *268:10 3.90513e-05
*RES
1 *2960:X *268:10 23.8893 
2 *268:10 *2962:B 23.7464 
3 *268:10 *2961:B1 9.83571 
*END

*D_NET *269 0.00294853
*CONN
*I *2978:D1 I *D sky130_fd_sc_hd__a2111o_2
*I *2963:B1 I *D sky130_fd_sc_hd__a21o_2
*I *2961:X O *D sky130_fd_sc_hd__o41a_2
*CAP
1 *2978:D1 7.60811e-05
2 *2963:B1 9.7452e-05
3 *2961:X 0.000876718
4 *269:10 0.00105025
5 *2963:B1 *2978:B1 0.00012401
6 *2963:B1 *312:64 1.6116e-05
7 *2978:D1 *284:12 2.51343e-06
8 *269:10 *2963:A2 3.65015e-05
9 *269:10 *2978:B1 2.41865e-05
10 *269:10 *2981:B 5.39629e-06
11 *269:10 *270:10 8.00806e-05
12 *269:10 *312:64 0.000178254
13 *2962:B *269:10 7.15962e-05
14 *2978:C1 *2978:D1 9.60875e-05
15 *243:18 *2963:B1 6.05161e-06
16 *243:36 *2963:B1 0.000173797
17 *243:36 *269:10 3.34366e-05
*RES
1 *2961:X *269:10 27.2286 
2 *269:10 *2963:B1 16.5857 
3 *269:10 *2978:D1 15.1571 
*END

*D_NET *270 0.00227062
*CONN
*I *2963:A2 I *D sky130_fd_sc_hd__a21o_2
*I *2978:A1 I *D sky130_fd_sc_hd__a2111o_2
*I *2962:X O *D sky130_fd_sc_hd__and2_2
*CAP
1 *2963:A2 0.000175183
2 *2978:A1 0
3 *2962:X 0.000697916
4 *270:10 0.000873099
5 *2932:C *2963:A2 2.89114e-05
6 *2978:C1 *2963:A2 0.000151333
7 *243:18 *2963:A2 2.89016e-05
8 *243:36 *2963:A2 0.000198698
9 *269:10 *2963:A2 3.65015e-05
10 *269:10 *270:10 8.00806e-05
*RES
1 *2962:X *270:10 22.3536 
2 *270:10 *2978:A1 13.8 
3 *270:10 *2963:A2 18.7464 
*END

*D_NET *271 0.00139704
*CONN
*I *2964:B I *D sky130_fd_sc_hd__xor2_2
*I *2971:B2 I *D sky130_fd_sc_hd__o2bb2ai_4
*I *2963:X O *D sky130_fd_sc_hd__a21o_2
*CAP
1 *2964:B 0
2 *2971:B2 0.000123989
3 *2963:X 0.000127415
4 *271:8 0.000251404
5 *2971:B2 *2972:B 0.000177941
6 *2971:B2 *312:27 9.52602e-05
7 *2971:B2 *312:64 1.6271e-05
8 *271:8 *312:64 0.000180555
9 *243:12 *2971:B2 1.09826e-05
10 *243:14 *2971:B2 0.000212183
11 *243:14 *271:8 0.000186941
12 *243:36 *271:8 1.41029e-05
*RES
1 *2963:X *271:8 18.4786 
2 *271:8 *2971:B2 18.7821 
3 *271:8 *2964:B 4.5 
*END

*D_NET *272 0.0029867
*CONN
*I *2967:A1 I *D sky130_fd_sc_hd__a21oi_2
*I *2969:B I *D sky130_fd_sc_hd__and3_2
*I *2965:X O *D sky130_fd_sc_hd__or2_2
*CAP
1 *2967:A1 0.000514414
2 *2969:B 0
3 *2965:X 0.000282947
4 *272:14 0.000797361
5 *2967:A1 *2967:A2 0.000169581
6 *2967:A1 *2967:B1 0
7 *2967:A1 *2969:C 4.23086e-05
8 *2967:A1 *276:10 0.000310292
9 *2967:A1 *312:14 0.000150625
10 *2967:A1 *313:10 0.000242571
11 *272:14 *2965:B 6.26167e-05
12 *272:14 *276:10 9.71197e-05
13 S[28] *272:14 0.000111056
14 *3119:A *2967:A1 0
15 *3154:A *272:14 0.000205803
*RES
1 *2965:X *272:14 23.9607 
2 *272:14 *2969:B 9.3 
3 *272:14 *2967:A1 29.3179 
*END

*D_NET *273 0.00156693
*CONN
*I *2967:A2 I *D sky130_fd_sc_hd__a21oi_2
*I *2969:C I *D sky130_fd_sc_hd__and3_2
*I *2966:Y O *D sky130_fd_sc_hd__nand2_2
*CAP
1 *2967:A2 0.000151903
2 *2969:C 0.000230071
3 *2966:Y 0
4 *273:6 0.000381974
5 *2967:A2 *314:20 0
6 *2969:C *2969:A 0.000144773
7 *2969:C *276:10 1.00073e-05
8 *2969:C *313:10 0.000128154
9 *2969:C *314:20 2.14757e-05
10 *2967:A1 *2967:A2 0.000169581
11 *2967:A1 *2969:C 4.23086e-05
12 *3118:A *2967:A2 0.000144512
13 *3118:A *2969:C 0.000142168
*RES
1 *2966:Y *273:6 13.8 
2 *273:6 *2969:C 18.5321 
3 *273:6 *2967:A2 17.8714 
*END

*D_NET *274 0.00197586
*CONN
*I *2968:A I *D sky130_fd_sc_hd__inv_2
*I *2970:A I *D sky130_fd_sc_hd__or2_2
*I *2967:Y O *D sky130_fd_sc_hd__a21oi_2
*CAP
1 *2968:A 0.000347331
2 *2970:A 0
3 *2967:Y 0.000258141
4 *274:8 0.000605472
5 *2968:A *2970:B 0
6 *2968:A *3195:A 0.00018372
7 *2968:A *276:10 0
8 *2968:A *312:25 0.000185643
9 *274:8 *2970:B 5.52302e-05
10 *274:8 *3196:A 0.000139907
11 *266:23 *2968:A 0.000200413
*RES
1 *2967:Y *274:8 12.7286 
2 *274:8 *2970:A 9.3 
3 *274:8 *2968:A 25.2821 
*END

*D_NET *275 0.000398582
*CONN
*I *2979:A3 I *D sky130_fd_sc_hd__a31oi_2
*I *2968:Y O *D sky130_fd_sc_hd__inv_2
*CAP
1 *2979:A3 0.000136243
2 *2968:Y 0.000136243
3 *2979:A3 *2971:A1_N 0
4 *2979:A3 *3195:A 5.62995e-05
5 *266:23 *2979:A3 6.97972e-05
*RES
1 *2968:Y *2979:A3 30.1893 
*END

*D_NET *276 0.00271052
*CONN
*I *2970:B I *D sky130_fd_sc_hd__or2_2
*I *2979:B1 I *D sky130_fd_sc_hd__a31oi_2
*I *2969:X O *D sky130_fd_sc_hd__and3_2
*CAP
1 *2970:B 0.000145509
2 *2979:B1 5.37304e-05
3 *2969:X 0.000501969
4 *276:10 0.000701209
5 *2970:B *3196:A 0.000162118
6 *2979:B1 *345:6 9.41642e-05
7 *276:10 *2969:A 9.21604e-05
8 *276:10 *3196:A 0.000315894
9 *276:10 *312:14 4.87953e-05
10 *276:10 *314:20 5.33334e-05
11 *276:10 *346:6 4.70078e-05
12 *2967:A1 *276:10 0.000310292
13 *2968:A *2970:B 0
14 *2968:A *276:10 0
15 *2969:C *276:10 1.00073e-05
16 *3119:A *276:10 2.19778e-05
17 *266:23 *276:10 0
18 *272:14 *276:10 9.71197e-05
19 *274:8 *2970:B 5.52302e-05
*RES
1 *2969:X *276:10 25.7821 
2 *276:10 *2979:B1 14.7464 
3 *276:10 *2970:B 16.5857 
*END

*D_NET *277 0.00264475
*CONN
*I *2978:B1 I *D sky130_fd_sc_hd__a2111o_2
*I *2972:A I *D sky130_fd_sc_hd__xnor2_2
*I *2970:X O *D sky130_fd_sc_hd__or2_2
*CAP
1 *2978:B1 0.000273126
2 *2972:A 0.000392359
3 *2970:X 0.000395125
4 *277:6 0.00106061
5 *2972:A *2971:A1_N 0.000209584
6 *2972:A *285:12 9.33907e-05
7 *2978:B1 *312:64 7.23529e-05
8 *2963:B1 *2978:B1 0.00012401
9 *269:10 *2978:B1 2.41865e-05
*RES
1 *2970:X *277:6 15.175 
2 *277:6 *2972:A 26.9607 
3 *277:6 *2978:B1 23.2464 
*END

*D_NET *278 0.000531752
*CONN
*I *2972:B I *D sky130_fd_sc_hd__xnor2_2
*I *2971:Y O *D sky130_fd_sc_hd__o2bb2ai_4
*CAP
1 *2972:B 8.97429e-05
2 *2971:Y 8.97429e-05
3 *2972:B *312:27 0.000174326
4 *2971:B2 *2972:B 0.000177941
*RES
1 *2971:Y *2972:B 30.3857 
*END

*D_NET *279 0.000945963
*CONN
*I *2975:A1 I *D sky130_fd_sc_hd__a21oi_2
*I *2976:B I *D sky130_fd_sc_hd__nand3_2
*I *2973:X O *D sky130_fd_sc_hd__or2_2
*CAP
1 *2975:A1 0
2 *2976:B 8.07761e-05
3 *2973:X 0.000224409
4 *279:8 0.000305185
5 *2976:B *2973:B 3.34366e-05
6 *2976:B *2976:A 0
7 *2976:B *2976:C 7.71321e-05
8 *2976:B *281:8 4.79842e-05
9 *2976:B *348:10 0
10 *279:8 *2973:A 5.49489e-05
11 *279:8 *2973:B 0.000122091
*RES
1 *2973:X *279:8 13.55 
2 *279:8 *2976:B 20.55 
3 *279:8 *2975:A1 9.3 
*END

*D_NET *280 0.000601664
*CONN
*I *2975:A2 I *D sky130_fd_sc_hd__a21oi_2
*I *2976:C I *D sky130_fd_sc_hd__nand3_2
*I *2974:Y O *D sky130_fd_sc_hd__nand2_2
*CAP
1 *2975:A2 0
2 *2976:C 9.97298e-05
3 *2974:Y 7.01518e-05
4 *280:8 0.000169882
5 *2976:C *2973:B 5.83304e-05
6 *280:8 *2973:B 4.80729e-05
7 *280:8 *2974:B 7.83659e-05
8 *2976:B *2976:C 7.71321e-05
9 *3156:A *2976:C 0
10 *3156:A *280:8 0
*RES
1 *2974:Y *280:8 15.4429 
2 *280:8 *2976:C 16.3536 
3 *280:8 *2975:A2 13.8 
*END

*D_NET *281 0.00258867
*CONN
*I *2977:A_N I *D sky130_fd_sc_hd__and2b_2
*I *2986:B1 I *D sky130_fd_sc_hd__a31o_4
*I *2975:Y O *D sky130_fd_sc_hd__a21oi_2
*CAP
1 *2977:A_N 0.000251769
2 *2986:B1 0.000337125
3 *2975:Y 0.000136099
4 *281:8 0.000724993
5 *2977:A_N *2981:A 7.02611e-05
6 *2986:B1 *2981:B 0.000364974
7 *2986:B1 *2986:A2 5.33005e-05
8 *2986:B1 *2986:A3 0.000141729
9 *2986:B1 *312:64 0.000215139
10 *2986:B1 *393:35 5.88126e-05
11 *281:8 *2976:A 0.000129868
12 *281:8 *312:64 5.66201e-05
13 *2976:B *281:8 4.79842e-05
*RES
1 *2975:Y *281:8 17.5679 
2 *281:8 *2986:B1 22.8893 
3 *281:8 *2977:A_N 17.6393 
*END

*D_NET *282 0.00162001
*CONN
*I *2977:B I *D sky130_fd_sc_hd__and2b_2
*I *2986:A2 I *D sky130_fd_sc_hd__a31o_4
*I *2976:Y O *D sky130_fd_sc_hd__nand3_2
*CAP
1 *2977:B 0
2 *2986:A2 0.000278526
3 *2976:Y 0.000228833
4 *282:10 0.000507358
5 *2986:A2 *2986:A3 0
6 *2986:A2 *312:64 0.000450632
7 *282:10 *312:64 0.000101363
8 *2986:B1 *2986:A2 5.33005e-05
*RES
1 *2976:Y *282:10 16.9071 
2 *282:10 *2986:A2 20.2286 
3 *282:10 *2977:B 13.8 
*END

*D_NET *283 0.000434018
*CONN
*I *2981:A I *D sky130_fd_sc_hd__xnor2_2
*I *2977:X O *D sky130_fd_sc_hd__and2b_2
*CAP
1 *2981:A 0.000181878
2 *2977:X 0.000181878
3 *2977:A_N *2981:A 7.02611e-05
*RES
1 *2977:X *2981:A 21.6357 
*END

*D_NET *284 0.00148923
*CONN
*I *2986:A1 I *D sky130_fd_sc_hd__a31o_4
*I *2980:A I *D sky130_fd_sc_hd__and2_2
*I *2978:X O *D sky130_fd_sc_hd__a2111o_2
*CAP
1 *2986:A1 0.000143024
2 *2980:A 0
3 *2978:X 0.000303888
4 *284:12 0.000446912
5 *2986:A1 *2980:B 3.61487e-05
6 *2986:A1 *2981:B 6.97972e-05
7 *2986:A1 *312:64 0.000148911
8 *284:12 *2986:A3 0
9 *284:12 *285:12 0
10 *284:12 *312:64 0.000338037
11 *2978:D1 *284:12 2.51343e-06
*RES
1 *2978:X *284:12 24.0321 
2 *284:12 *2980:A 9.3 
3 *284:12 *2986:A1 21.6214 
*END

*D_NET *285 0.00404118
*CONN
*I *2986:A3 I *D sky130_fd_sc_hd__a31o_4
*I *2980:B I *D sky130_fd_sc_hd__and2_2
*I *2979:Y O *D sky130_fd_sc_hd__a31oi_2
*CAP
1 *2986:A3 0.000268571
2 *2980:B 0.000233705
3 *2979:Y 0.000981501
4 *285:12 0.00148378
5 *2986:A3 *312:64 0
6 *2986:A3 *393:35 0.0001687
7 *285:12 *2971:A1_N 6.8529e-05
8 *285:12 *312:64 0
9 *285:12 *345:6 7.03393e-05
10 *285:12 *345:17 0.000494784
11 *2972:A *285:12 9.33907e-05
12 *2986:A1 *2980:B 3.61487e-05
13 *2986:A2 *2986:A3 0
14 *2986:B1 *2986:A3 0.000141729
15 *284:12 *2986:A3 0
16 *284:12 *285:12 0
*RES
1 *2979:Y *285:12 30.2643 
2 *285:12 *2980:B 17.6393 
3 *285:12 *2986:A3 19.6571 
*END

*D_NET *286 0.00107616
*CONN
*I *2981:B I *D sky130_fd_sc_hd__xnor2_2
*I *2980:X O *D sky130_fd_sc_hd__and2_2
*CAP
1 *2981:B 0.000315979
2 *2980:X 0.000315979
3 *2981:B *312:64 4.038e-06
4 *2986:A1 *2981:B 6.97972e-05
5 *2986:B1 *2981:B 0.000364974
6 *269:10 *2981:B 5.39629e-06
*RES
1 *2980:X *2981:B 34.6357 
*END

*D_NET *287 0.00232774
*CONN
*I *2983:B I *D sky130_fd_sc_hd__or2_2
*I *2984:B I *D sky130_fd_sc_hd__nand2_2
*I *2982:X O *D sky130_fd_sc_hd__xor2_2
*CAP
1 *2983:B 0.000146901
2 *2984:B 0.000117101
3 *2982:X 0.000142556
4 *287:8 0.000406557
5 *2983:B *2984:A 0.000317602
6 *2983:B *3199:A 4.97918e-05
7 *2983:B *393:12 1.18064e-05
8 *2984:B *2984:A 0.000247302
9 *2984:B *3101:A 2.14757e-05
10 *2984:B *3207:A 5.52238e-05
11 *287:8 *314:20 0
12 *287:8 *393:12 0.000235205
13 *3157:A *2983:B 0.00019187
14 *3157:A *287:8 0.00038435
*RES
1 *2982:X *287:8 19.3893 
2 *287:8 *2984:B 16.8179 
3 *287:8 *2983:B 18.7107 
*END

*D_NET *288 0.00138025
*CONN
*I *2985:A I *D sky130_fd_sc_hd__nand2_2
*I *2983:X O *D sky130_fd_sc_hd__or2_2
*CAP
1 *2985:A 0.000660814
2 *2983:X 0.000660814
3 *2985:A *2982:B 0
4 *2985:A *3020:B1 2.8266e-06
5 *2985:A *289:8 5.57914e-05
6 *2985:A *291:10 0
*RES
1 *2983:X *2985:A 38.6357 
*END

*D_NET *289 0.00130193
*CONN
*I *2985:B I *D sky130_fd_sc_hd__nand2_2
*I *3020:B1 I *D sky130_fd_sc_hd__o21ai_2
*I *2984:Y O *D sky130_fd_sc_hd__nand2_2
*CAP
1 *2985:B 2.76349e-05
2 *3020:B1 0.000242039
3 *2984:Y 4.93306e-05
4 *289:8 0.000319004
5 *2985:B *290:6 2.89114e-05
6 *3020:B1 *3020:A1 0.000423335
7 *3020:B1 *291:10 9.25014e-06
8 *289:8 *291:10 0.000143804
9 *2985:A *3020:B1 2.8266e-06
10 *2985:A *289:8 5.57914e-05
*RES
1 *2984:Y *289:8 15.7464 
2 *289:8 *3020:B1 19.425 
3 *289:8 *2985:B 14.3357 
*END

*D_NET *290 0.00132029
*CONN
*I *2987:A I *D sky130_fd_sc_hd__xor2_2
*I *3020:A2 I *D sky130_fd_sc_hd__o21ai_2
*I *2985:Y O *D sky130_fd_sc_hd__nand2_2
*CAP
1 *2987:A 2.23854e-05
2 *3020:A2 0.000217333
3 *2985:Y 0.000135648
4 *290:6 0.000375366
5 *3020:A2 *3207:A 0.000344925
6 *3020:A2 *314:20 0
7 *3020:A2 *393:12 0.000170542
8 *290:6 *2987:B 2.51837e-05
9 *2985:B *290:6 2.89114e-05
*RES
1 *2985:Y *290:6 11.4786 
2 *290:6 *3020:A2 24.0321 
3 *290:6 *2987:A 9.72857 
*END

*D_NET *291 0.00220927
*CONN
*I *2987:B I *D sky130_fd_sc_hd__xor2_2
*I *3020:A1 I *D sky130_fd_sc_hd__o21ai_2
*I *2986:X O *D sky130_fd_sc_hd__a31o_4
*CAP
1 *2987:B 2.5158e-05
2 *3020:A1 0.000232273
3 *2986:X 0.000348276
4 *291:10 0.000605706
5 *3020:A1 *2982:B 8.27403e-05
6 *3020:A1 *3207:A 0
7 *291:10 *2982:B 6.39262e-05
8 *291:10 *393:35 0.000249619
9 *2985:A *291:10 0
10 *3020:B1 *3020:A1 0.000423335
11 *3020:B1 *291:10 9.25014e-06
12 *289:8 *291:10 0.000143804
13 *290:6 *2987:B 2.51837e-05
*RES
1 *2986:X *291:10 22.3357 
2 *291:10 *3020:A1 20.1393 
3 *291:10 *2987:B 4.97321 
*END

*D_NET *292 0.000949388
*CONN
*I *2990:B I *D sky130_fd_sc_hd__xnor2_2
*I *2989:X O *D sky130_fd_sc_hd__mux2_1
*CAP
1 *2990:B 0.000271677
2 *2989:X 0.000271677
3 *2990:B *2989:A1 4.48206e-05
4 *2990:B *2989:S 0.000110204
5 *2990:B *309:10 5.57727e-05
6 *2990:B *358:10 9.12446e-05
7 *2990:B *358:12 0.000103993
*RES
1 *2989:X *2990:B 34.6357 
*END

*D_NET *293 0.000606337
*CONN
*I *2992:B I *D sky130_fd_sc_hd__xnor2_2
*I *2991:Y O *D sky130_fd_sc_hd__nand2_2
*CAP
1 *2992:B 0.000303169
2 *2991:Y 0.000303169
3 *2992:B *2991:B 0
4 *2992:B *2993:A2 0
*RES
1 *2991:Y *2992:B 32.9214 
*END

*D_NET *294 0.000462219
*CONN
*I *2994:B I *D sky130_fd_sc_hd__xnor2_2
*I *2993:Y O *D sky130_fd_sc_hd__a21oi_2
*CAP
1 *2994:B 0.000105236
2 *2993:Y 0.000105236
3 *3079:C *2994:B 0.000177227
4 *143:6 *2994:B 5.52302e-05
5 *150:21 *2994:B 1.92905e-05
*RES
1 *2993:Y *2994:B 30.3857 
*END

*D_NET *295 0.00530494
*CONN
*I *3003:A2 I *D sky130_fd_sc_hd__o211a_2
*I *2996:B I *D sky130_fd_sc_hd__xor2_2
*I *2997:A2 I *D sky130_fd_sc_hd__o21a_2
*I *2995:X O *D sky130_fd_sc_hd__and2_2
*CAP
1 *3003:A2 0
2 *2996:B 0.00016952
3 *2997:A2 8.76153e-05
4 *2995:X 0.000927177
5 *295:12 0.000613694
6 *295:10 0.00128374
7 *2996:B *2996:A 0.000180002
8 *2997:A2 *3002:B 0
9 *295:10 *3056:D1 0
10 *295:12 *3002:B 0
11 *2995:B *295:10 3.69047e-06
12 *3003:B1 *295:10 0.000103041
13 *3003:B1 *295:12 4.46186e-06
14 *3003:C1 *295:12 6.16958e-05
15 *3033:A *295:10 0
16 *3050:C1 *295:10 0.000209227
17 *3053:A *2996:B 0.000140933
18 *3053:A *2997:A2 1.69115e-05
19 *3053:B *2997:A2 5.33786e-05
20 *3053:C *2997:A2 3.79467e-05
21 *3057:A1 *295:10 0.000740893
22 *3057:C1 *295:10 0
23 *131:10 *295:12 0
24 *132:12 *295:10 1.02504e-05
25 *132:12 *295:12 0.000660768
*RES
1 *2995:X *295:10 32.2286 
2 *295:10 *295:12 9.83929 
3 *295:12 *2997:A2 16.05 
4 *295:12 *2996:B 8.25893 
5 *295:10 *3003:A2 13.8 
*END

*D_NET *296 0.00339327
*CONN
*I *2998:B I *D sky130_fd_sc_hd__xor2_2
*I *2999:A2 I *D sky130_fd_sc_hd__o21ai_2
*I *3001:A2 I *D sky130_fd_sc_hd__o21a_2
*I *2997:X O *D sky130_fd_sc_hd__o21a_2
*CAP
1 *2998:B 0.000325778
2 *2999:A2 0.000376801
3 *3001:A2 0.000175344
4 *2997:X 8.31973e-05
5 *296:21 0.00105484
6 *296:6 0.0006108
7 *2998:B *2998:A 0.000224366
8 *2999:A2 *3000:B 0
9 *2999:A2 *327:12 2.34204e-05
10 *3001:A2 *3002:B 3.67142e-05
11 *3001:A2 *328:12 2.71109e-05
12 *296:21 *2996:A 4.43157e-05
13 *296:21 *2998:A 7.48091e-05
14 *2997:B1 *296:6 4.58194e-05
15 *2997:B1 *296:21 6.05161e-06
16 *2999:B1 *2999:A2 4.1331e-06
17 *3045:A *296:21 9.60939e-05
18 *3053:A *2999:A2 0
19 *3053:C *3001:A2 0.000122751
20 *119:19 *3001:A2 0
21 *123:8 *2999:A2 0
22 *124:6 *296:21 4.33174e-05
23 *130:10 *3001:A2 1.76135e-05
*RES
1 *2997:X *296:6 10.2464 
2 *296:6 *3001:A2 22.0143 
3 *296:6 *296:21 4.64286 
4 *296:21 *2999:A2 24.8 
5 *296:21 *2998:B 4.90179 
*END

*D_NET *297 0.000800508
*CONN
*I *3000:B I *D sky130_fd_sc_hd__xnor2_2
*I *2999:Y O *D sky130_fd_sc_hd__o21ai_2
*CAP
1 *3000:B 0.000385798
2 *2999:Y 0.000385798
3 *2999:A2 *3000:B 0
4 *2999:B1 *3000:B 2.89114e-05
*RES
1 *2999:Y *3000:B 33.8679 
*END

*D_NET *298 0.00147717
*CONN
*I *3002:B I *D sky130_fd_sc_hd__xnor2_2
*I *3001:X O *D sky130_fd_sc_hd__o21a_2
*CAP
1 *3002:B 0.000449801
2 *3001:X 0.000449801
3 *2997:A2 *3002:B 0
4 *3001:A1 *3002:B 0.000148903
5 *3001:A2 *3002:B 3.67142e-05
6 *3001:B1 *3002:B 4.01768e-05
7 *3053:C *3002:B 0.000265385
8 *3053:D_N *3002:B 5.29554e-05
9 *127:8 *3002:B 0
10 *131:10 *3002:B 3.34366e-05
11 *295:12 *3002:B 0
*RES
1 *3001:X *3002:B 36.6893 
*END

*D_NET *299 0.000601608
*CONN
*I *3005:B I *D sky130_fd_sc_hd__xor2_2
*I *3004:B I *D sky130_fd_sc_hd__or2_2
*I *3003:X O *D sky130_fd_sc_hd__o211a_2
*CAP
1 *3005:B 0.000100499
2 *3004:B 0.000117021
3 *3003:X 8.32847e-05
4 *299:6 0.000300804
5 *3057:A1 *3004:B 0
6 *107:19 *3004:B 0
*RES
1 *3003:X *299:6 10.6571 
2 *299:6 *3004:B 20.2464 
3 *299:6 *3005:B 1.70536 
*END

*D_NET *300 0.00106479
*CONN
*I *3006:B I *D sky130_fd_sc_hd__nand2_2
*I *3008:A3 I *D sky130_fd_sc_hd__a31o_2
*I *3004:X O *D sky130_fd_sc_hd__or2_2
*CAP
1 *3006:B 0
2 *3008:A3 0.000104599
3 *3004:X 0.000246751
4 *300:12 0.00035135
5 *300:12 *3035:B 0
6 *300:12 *355:10 0
7 *3007:A *3008:A3 0
8 *3033:C *300:12 0.000177941
9 *3056:A1 *3008:A3 1.76039e-05
10 *106:18 *3008:A3 6.75007e-05
11 *106:18 *300:12 9.90431e-05
*RES
1 *3004:X *300:12 23.1393 
2 *300:12 *3008:A3 20.2464 
3 *300:12 *3006:B 9.3 
*END

*D_NET *301 0.000227084
*CONN
*I *3007:B I *D sky130_fd_sc_hd__xnor2_2
*I *3006:Y O *D sky130_fd_sc_hd__nand2_2
*CAP
1 *3007:B 6.40235e-05
2 *3006:Y 6.40235e-05
3 *106:12 *3007:B 9.90367e-05
*RES
1 *3006:Y *3007:B 19.9571 
*END

*D_NET *302 0.00278048
*CONN
*I *3009:B I *D sky130_fd_sc_hd__xor2_2
*I *3010:A2 I *D sky130_fd_sc_hd__o21ai_2
*I *3008:X O *D sky130_fd_sc_hd__a31o_2
*CAP
1 *3009:B 0.00038246
2 *3010:A2 9.2875e-05
3 *3008:X 0.000421692
4 *302:14 0.000897027
5 *3009:B *3009:A 2.47186e-05
6 *3009:B *3023:A 1.88482e-05
7 *3009:B *3056:C1 1.31516e-05
8 *3009:B *319:8 0
9 *3009:B *324:12 6.74815e-05
10 *3010:A2 *3011:B 3.69047e-06
11 *302:14 *3034:B 5.71472e-05
12 *302:14 *3056:C1 8.04765e-05
13 *302:14 *3180:A 5.52302e-05
14 *302:14 *319:8 0
15 *302:14 *357:12 0.00015304
16 S[9] *302:14 0
17 *3031:B *302:14 0.000173804
18 *3032:B *302:14 0
19 *3033:B *3009:B 0
20 *3056:A1 *302:14 0.000100143
21 *3128:A *302:14 3.86205e-05
22 *3130:A *302:14 2.91887e-05
23 *3158:A *3009:B 0.000112563
24 *108:24 *302:14 5.83233e-05
*RES
1 *3008:X *302:14 24.2286 
2 *302:14 *3010:A2 15.1571 
3 *302:14 *3009:B 11.3125 
*END

*D_NET *303 0.0020561
*CONN
*I *3011:B I *D sky130_fd_sc_hd__xnor2_2
*I *3010:Y O *D sky130_fd_sc_hd__o21ai_2
*CAP
1 *3011:B 0.000580809
2 *3010:Y 0.000580809
3 *3011:B *3021:B 0.000126439
4 *3011:B *3176:A 0.000176751
5 *3011:B *3177:A 0
6 *3011:B *3206:A 3.14078e-05
7 S[11] *3011:B 5.75731e-05
8 *3010:A2 *3011:B 3.69047e-06
9 *3010:B1 *3011:B 0.000335178
10 *3123:A *3011:B 0.000163442
11 *3133:A *3011:B 0
*RES
1 *3010:Y *3011:B 39.1536 
*END

*D_NET *304 0.000408791
*CONN
*I *3014:B I *D sky130_fd_sc_hd__xnor2_2
*I *3013:Y O *D sky130_fd_sc_hd__o21ai_2
*CAP
1 *3014:B 0.000144922
2 *3013:Y 0.000144922
3 *3013:A1 *3014:B 9.60875e-05
4 *3014:A *3014:B 2.28598e-05
*RES
1 *3013:Y *3014:B 21.2071 
*END

*D_NET *305 0.00204436
*CONN
*I *3016:B I *D sky130_fd_sc_hd__nand2_2
*I *3018:A2 I *D sky130_fd_sc_hd__o21ai_4
*I *3015:X O *D sky130_fd_sc_hd__or3_4
*CAP
1 *3016:B 0.000140726
2 *3018:A2 0.000163696
3 *3015:X 0.000427255
4 *305:10 0.000731677
5 *3018:A2 *3019:B 9.77274e-05
6 *2860:D *3016:B 5.41794e-05
7 *2860:D *305:10 0.000126446
8 *3015:B *305:10 3.69047e-06
9 *3018:A1 *3018:A2 0.00014285
10 *179:10 *3016:B 0.000114759
11 *182:14 *3016:B 4.13573e-05
*RES
1 *3015:X *305:10 20.4964 
2 *305:10 *3018:A2 17.2286 
3 *305:10 *3016:B 16.9607 
*END

*D_NET *306 0.000383352
*CONN
*I *3017:B I *D sky130_fd_sc_hd__xnor2_2
*I *3016:Y O *D sky130_fd_sc_hd__nand2_2
*CAP
1 *3017:B 3.77716e-05
2 *3016:Y 3.77716e-05
3 *2863:A2 *3017:B 0.000153047
4 *174:16 *3017:B 0.000154762
*RES
1 *3016:Y *3017:B 29.5464 
*END

*D_NET *307 0.0010485
*CONN
*I *3019:B I *D sky130_fd_sc_hd__xnor2_2
*I *3018:Y O *D sky130_fd_sc_hd__o21ai_4
*CAP
1 *3019:B 0.000109236
2 *3018:Y 0.000109236
3 *3018:A1 *3019:B 0.00014285
4 *3018:A2 *3019:B 9.77274e-05
5 *3018:B1 *3019:B 5.52238e-05
6 *181:12 *3019:B 0.000534222
*RES
1 *3018:Y *3019:B 23.6536 
*END

*D_NET *308 0.00182378
*CONN
*I *3055:A2 I *D sky130_fd_sc_hd__a21oi_2
*I *3054:A2 I *D sky130_fd_sc_hd__o211a_2
*I *3022:A I *D sky130_fd_sc_hd__xnor2_4
*I *3021:X O *D sky130_fd_sc_hd__xor2_4
*CAP
1 *3055:A2 0
2 *3054:A2 0.000219788
3 *3022:A 0
4 *3021:X 7.89765e-05
5 *308:14 0.000523742
6 *308:8 0.00038293
7 *3054:A2 *3054:B1 1.02504e-05
8 *3054:A2 *3056:D1 0
9 *308:14 *3055:A1 0.000318107
10 *3055:B1 *3054:A2 0
11 *3055:B1 *308:14 3.48705e-05
12 *134:10 *308:14 9.71197e-05
13 *152:10 *308:8 8.06331e-05
14 *158:8 *308:8 7.73662e-05
*RES
1 *3021:X *308:8 10.9464 
2 *308:8 *308:14 6.32143 
3 *308:14 *3022:A 9.3 
4 *308:14 *3054:A2 22.1036 
5 *308:8 *3055:A2 9.3 
*END

*D_NET *309 0.0041022
*CONN
*I *3075:A I *D sky130_fd_sc_hd__nor2_2
*I *3067:A I *D sky130_fd_sc_hd__and2_2
*I *3068:C1 I *D sky130_fd_sc_hd__o211a_2
*I *2988:A I *D sky130_fd_sc_hd__xor2_2
*I *2989:A1 I *D sky130_fd_sc_hd__mux2_1
*I *3105:X O *D sky130_fd_sc_hd__clkdlybuf4s25_1
*CAP
1 *3075:A 0.000160409
2 *3067:A 0
3 *3068:C1 0.000179348
4 *2988:A 0.000642409
5 *2989:A1 0.000154888
6 *3105:X 0.00015947
7 *309:54 0.000249286
8 *309:39 0.000910635
9 *309:10 0.000314358
10 *2989:A1 *2989:A0 7.43578e-06
11 *2989:A1 *2989:S 5.52238e-05
12 *3068:C1 *3068:A2 0
13 *309:10 *3066:B 3.67257e-05
14 *309:39 *3074:B 0.000190947
15 *2990:B *2989:A1 4.48206e-05
16 *2990:B *309:10 5.57727e-05
17 *3068:B1 *3068:C1 0.000395894
18 *3068:B1 *309:54 8.16036e-05
19 *3074:A *3068:C1 0
20 *3074:A *309:54 0
21 *3075:B *3075:A 5.7661e-06
22 *3108:A *309:39 6.16082e-05
23 *3216:A *309:39 5.71472e-05
24 *145:10 *3075:A 0.000107973
25 *155:14 *3068:C1 0.000230482
*RES
1 *3105:X *309:10 16.6929 
2 *309:10 *2989:A1 16.8893 
3 *309:10 *2988:A 13.8 
4 *2988:A *309:39 24.6214 
5 *309:39 *3068:C1 19.55 
6 *309:39 *309:54 6.44643 
7 *309:54 *3067:A 9.3 
8 *309:54 *3075:A 12.7464 
*END

*D_NET *310 0.00183647
*CONN
*I *2877:B1 I *D sky130_fd_sc_hd__a21oi_2
*I *2878:A I *D sky130_fd_sc_hd__and3_2
*I *3106:X O *D sky130_fd_sc_hd__clkdlybuf4s25_1
*CAP
1 *2877:B1 0
2 *2878:A 0.000117615
3 *3106:X 0.000400894
4 *310:10 0.000518509
5 *2878:A *2871:B 0
6 *2878:A *2876:A 0.000126209
7 *310:10 *2876:A 8.66228e-05
8 *310:10 *430:16 0.000320512
9 *2877:A2 *2878:A 8.2731e-05
10 *2878:B *2878:A 0
11 *2878:B *310:10 0
12 *2886:A2 *310:10 0.000128146
13 *193:12 *310:10 0
14 *194:8 *2878:A 5.52302e-05
*RES
1 *3106:X *310:10 22.0679 
2 *310:10 *2878:A 17.4964 
3 *310:10 *2877:B1 13.8 
*END

*D_NET *311 0.0087438
*CONN
*I *3082:A I *D sky130_fd_sc_hd__xor2_2
*I *3086:A I *D sky130_fd_sc_hd__or2_4
*I *3087:A I *D sky130_fd_sc_hd__nand2_2
*I *2871:A I *D sky130_fd_sc_hd__xor2_2
*I *2866:B I *D sky130_fd_sc_hd__xor2_2
*I *3170:X O *D sky130_fd_sc_hd__buf_6
*CAP
1 *3082:A 0.000223901
2 *3086:A 0
3 *3087:A 2.23854e-05
4 *2871:A 0
5 *2866:B 0.00277252
6 *3170:X 0.000305903
7 *311:68 0.00061228
8 *311:51 0.0020679
9 *311:14 0.00142128
10 *311:14 *2871:B 0.000154713
11 *311:14 *2876:A 0
12 *311:14 *2876:B 0.000369818
13 *311:14 *368:14 5.52302e-05
14 *311:51 *409:12 0.000148202
15 *311:68 *3086:B 6.87574e-05
16 *311:68 *3087:B 0.000128857
17 *311:68 *376:10 0
18 *2869:B *311:51 9.94037e-05
19 *2873:B1 *311:51 5.52302e-05
20 *3088:C *311:68 2.14658e-05
21 *3089:A1 *3087:A 0
22 *3135:A *311:68 9.25014e-06
23 *166:8 *311:68 5.17614e-05
24 *187:12 *311:51 9.97164e-05
25 *193:12 *311:14 5.52302e-05
*RES
1 *3170:X *311:14 22.1036 
2 *311:14 *2866:B 23.9554 
3 *311:14 *2871:A 13.8 
4 *2866:B *311:51 34.0982 
5 *311:51 *3087:A 9.72857 
6 *311:51 *311:68 16.5357 
7 *311:68 *3086:A 9.3 
8 *311:68 *3082:A 13.1214 
*END

*D_NET *312 0.00971114
*CONN
*I *2974:A I *D sky130_fd_sc_hd__nand2_2
*I *2973:A I *D sky130_fd_sc_hd__or2_2
*I *2923:A I *D sky130_fd_sc_hd__xor2_2
*I *2915:A I *D sky130_fd_sc_hd__nand2_2
*I *2914:A I *D sky130_fd_sc_hd__or2_2
*I *3171:A I *D sky130_fd_sc_hd__buf_6
*I *3100:X O *D sky130_fd_sc_hd__buf_4
*CAP
1 *2974:A 0.000264894
2 *2973:A 2.55335e-05
3 *2923:A 8.63338e-05
4 *2915:A 0.000109434
5 *2914:A 0.000124088
6 *3171:A 2.23854e-05
7 *3100:X 0.000310606
8 *312:64 0.00127192
9 *312:29 0.000438422
10 *312:27 0.000604913
11 *312:25 0.00178726
12 *312:14 0.000825074
13 *2914:A *2915:B 0.000112451
14 *2914:A *2923:B 0
15 *2915:A *2915:B 5.52302e-05
16 *2974:A *2974:B 0
17 *2974:A *2976:A 4.46186e-06
18 *2974:A *348:10 0.000190185
19 *312:14 *2967:B1 3.5707e-05
20 *312:14 *2969:A 9.41642e-05
21 *312:14 *3195:A 0.000120509
22 *312:14 *313:6 0.000140933
23 *312:25 *3195:A 0.000259608
24 *312:27 *2923:B 0
25 *312:27 *2971:A1_N 0
26 *312:29 *2923:B 0
27 *312:64 *2976:A 9.56968e-05
28 *2963:B1 *312:64 1.6116e-05
29 *2967:A1 *312:14 0.000150625
30 *2968:A *312:25 0.000185643
31 *2971:B2 *312:27 9.52602e-05
32 *2971:B2 *312:64 1.6271e-05
33 *2972:B *312:27 0.000174326
34 *2978:B1 *312:64 7.23529e-05
35 *2981:B *312:64 4.038e-06
36 *2986:A1 *312:64 0.000148911
37 *2986:A2 *312:64 0.000450632
38 *2986:A3 *312:64 0
39 *2986:B1 *312:64 0.000215139
40 *3119:A *312:14 2.8266e-06
41 *243:12 *2914:A 7.8161e-05
42 *243:12 *312:27 5.77171e-05
43 *243:12 *312:29 0.000104736
44 *269:10 *312:64 0.000178254
45 *271:8 *312:64 0.000180555
46 *276:10 *312:14 4.87953e-05
47 *279:8 *2973:A 5.49489e-05
48 *281:8 *312:64 5.66201e-05
49 *282:10 *312:64 0.000101363
50 *284:12 *312:64 0.000338037
51 *285:12 *312:64 0
*RES
1 *3100:X *312:14 25.0143 
2 *312:14 *3171:A 9.72857 
3 *312:14 *312:25 13.25 
4 *312:25 *312:27 7.10714 
5 *312:27 *312:29 4.375 
6 *312:29 *2914:A 16.9607 
7 *312:29 *2915:A 15.5857 
8 *312:27 *2923:A 15.1571 
9 *312:25 *312:64 25.375 
10 *312:64 *2973:A 14.3357 
11 *312:64 *2974:A 19.2464 
*END

*D_NET *313 0.00393306
*CONN
*I *2965:A I *D sky130_fd_sc_hd__or2_2
*I *2966:A I *D sky130_fd_sc_hd__nand2_2
*I *2958:A I *D sky130_fd_sc_hd__xor2_2
*I *2905:A I *D sky130_fd_sc_hd__xor2_2
*I *2901:A I *D sky130_fd_sc_hd__xor2_2
*I *3171:X O *D sky130_fd_sc_hd__buf_6
*CAP
1 *2965:A 0.000105199
2 *2966:A 0
3 *2958:A 0.000175223
4 *2905:A 0.000156933
5 *2901:A 0.000195679
6 *3171:X 0.000118085
7 *313:12 0.000548927
8 *313:10 0.000499161
9 *313:6 0.000350906
10 *2901:A *314:32 0.000391298
11 *2905:A *2905:B 4.70821e-05
12 *313:10 *314:20 0
13 *313:10 *314:32 0.000261539
14 *313:12 *2905:B 0
15 *313:12 *314:32 0.000381318
16 S[24] *313:10 0.000190051
17 *2920:A1 *2901:A 0
18 *2967:A1 *313:10 0.000242571
19 *2969:C *313:10 0.000128154
20 *3111:A *2901:A 0
21 *312:14 *313:6 0.000140933
*RES
1 *3171:X *313:6 11.4786 
2 *313:6 *313:10 11.9107 
3 *313:10 *313:12 4.98214 
4 *313:12 *2901:A 18.7821 
5 *313:12 *2905:A 16.3893 
6 *313:10 *2958:A 14.7464 
7 *313:6 *2966:A 9.3 
8 *2958:A *2965:A 20.3679 
*END

*D_NET *314 0.0194489
*CONN
*I *2951:A I *D sky130_fd_sc_hd__nand2_2
*I *2950:A I *D sky130_fd_sc_hd__or2_2
*I *2982:A I *D sky130_fd_sc_hd__xor2_2
*I *3100:A I *D sky130_fd_sc_hd__buf_4
*I *3104:A I *D sky130_fd_sc_hd__buf_6
*I *3091:A I *D sky130_fd_sc_hd__or2_2
*I *3092:A I *D sky130_fd_sc_hd__nand2_2
*I *3097:A I *D sky130_fd_sc_hd__nand2_2
*I *3096:A I *D sky130_fd_sc_hd__or2_2
*I *3101:X O *D sky130_fd_sc_hd__buf_6
*CAP
1 *2951:A 0
2 *2950:A 0.000502711
3 *2982:A 0
4 *3100:A 0
5 *3104:A 0
6 *3091:A 0.000202985
7 *3092:A 0
8 *3097:A 0
9 *3096:A 0.000106984
10 *3101:X 4.00453e-05
11 *314:107 0.00263186
12 *314:62 0.00056414
13 *314:51 0.000418737
14 *314:38 0.00122487
15 *314:32 0.0024175
16 *314:20 0.0019748
17 *314:10 0.000880988
18 *314:6 0.00243258
19 *2950:A *2950:B 0.000456329
20 *3091:A *3092:B 0.000198705
21 *3091:A *387:14 7.32272e-05
22 *3096:A *3096:B 7.8327e-05
23 *314:10 *3199:A 0.000149821
24 *314:20 *2965:B 0.000123126
25 *314:20 *2969:A 5.52238e-05
26 *314:20 *393:12 0
27 *314:32 *2901:B 0.000181609
28 *314:32 *2910:A1 0
29 *314:32 *2911:A1 0.000225616
30 *314:32 *2958:B 6.48154e-05
31 *314:32 *2965:B 7.28609e-05
32 *314:38 *2911:A1 2.28598e-05
33 *314:38 *3097:B 4.27935e-05
34 *314:38 *364:6 0.00169823
35 *314:107 *3101:A 5.33005e-05
36 *314:107 *3198:A 0.000347354
37 S[28] *314:20 0.000126855
38 S[29] *314:20 6.39262e-05
39 S[31] *314:10 0.000222427
40 S[31] *314:20 3.27544e-05
41 carryOut *314:10 0
42 *2901:A *314:32 0.000391298
43 *2910:A2 *314:32 6.32887e-05
44 *2911:A2 *314:32 0
45 *2911:B1 *314:32 4.01527e-05
46 *2960:A1 *314:107 0
47 *2967:A2 *314:20 0
48 *2969:C *314:20 2.14757e-05
49 *3020:A2 *314:20 0
50 *3094:A1 *3091:A 0
51 *3094:A1 *314:62 0
52 *3109:A *314:32 0
53 *3110:A *314:32 0
54 *3118:A *314:20 1.76699e-05
55 *3146:A *314:32 0.000165157
56 *3157:A *314:10 0
57 *176:10 *3096:A 0
58 *176:10 *314:62 0.000188586
59 *216:8 *314:32 0
60 *216:10 *314:32 0
61 *225:10 *314:38 9.70217e-05
62 *259:6 *2950:A 4.88637e-05
63 *260:8 *2950:A 1.32552e-05
64 *262:10 *314:107 0
65 *263:10 *314:107 0
66 *268:10 *314:107 1.76135e-05
67 *276:10 *314:20 5.33334e-05
68 *287:8 *314:20 0
69 *313:10 *314:20 0
70 *313:10 *314:32 0.000261539
71 *313:12 *314:32 0.000381318
*RES
1 *3101:X *314:6 9.83571 
2 *314:6 *314:10 12.2143 
3 *314:10 *314:20 18.375 
4 *314:20 *314:32 39.3929 
5 *314:32 *314:38 21.5179 
6 *314:38 *3096:A 20.2464 
7 *314:38 *314:51 0.946429 
8 *314:51 *3097:A 9.3 
9 *314:51 *314:62 11.6607 
10 *314:62 *3092:A 13.8 
11 *314:62 *3091:A 18.0143 
12 *314:32 *3104:A 9.3 
13 *314:20 *3100:A 9.3 
14 *314:10 *2982:A 13.8 
15 *314:6 *314:107 42.75 
16 *314:107 *2950:A 16.7464 
17 *314:107 *2951:A 9.3 
*END

*D_NET *315 0.00598764
*CONN
*I *3172:A I *D sky130_fd_sc_hd__buf_12
*I *3065:A I *D sky130_fd_sc_hd__xor2_4
*I *2936:A I *D sky130_fd_sc_hd__nand2_2
*I *2943:A I *D sky130_fd_sc_hd__nand2_2
*I *2942:A I *D sky130_fd_sc_hd__or2_2
*I *2935:A I *D sky130_fd_sc_hd__or2_2
*I *3102:X O *D sky130_fd_sc_hd__buf_8
*CAP
1 *3172:A 0
2 *3065:A 8.80931e-05
3 *2936:A 0
4 *2943:A 0.000187855
5 *2942:A 0
6 *2935:A 0.000156374
7 *3102:X 0.00103934
8 *315:61 0.00107107
9 *315:23 0.000270967
10 *315:8 0.000256784
11 *315:6 7.36651e-05
12 *2935:A *2935:B 4.87854e-05
13 *2935:A *2936:B 1.04232e-05
14 *2935:A *377:12 1.5424e-05
15 *2943:A *2942:B 0.000312107
16 *2943:A *317:12 0
17 *2943:A *341:14 0.000233111
18 *3065:A *316:10 9.80029e-05
19 *3065:A *370:12 0
20 *315:6 *377:12 0.000188586
21 *315:8 *377:12 5.52302e-05
22 *315:23 *317:12 0
23 *315:23 *341:14 0.00015234
24 *315:61 *316:10 1.17968e-05
25 *315:61 *317:12 0.000186662
26 *315:61 *317:23 0.00135526
27 *315:61 *370:12 0
28 *315:61 *377:12 2.44318e-05
29 S[26] *2943:A 0.00015134
*RES
1 *3102:X *315:6 11.0679 
2 *315:6 *315:8 0.535714 
3 *315:8 *2935:A 12.3357 
4 *315:8 *315:23 6.44643 
5 *315:23 *2942:A 13.8 
6 *315:23 *2943:A 20.2821 
7 *315:6 *2936:A 9.3 
8 *3102:X *315:61 36.1214 
9 *315:61 *3065:A 16.05 
10 *315:61 *3172:A 13.8 
*END

*D_NET *316 0.011653
*CONN
*I *2989:A0 I *D sky130_fd_sc_hd__mux2_1
*I *3058:B I *D sky130_fd_sc_hd__or2_4
*I *3059:A I *D sky130_fd_sc_hd__nand2_2
*I *3023:A I *D sky130_fd_sc_hd__xor2_4
*I *3021:A I *D sky130_fd_sc_hd__xor2_4
*I *3172:X O *D sky130_fd_sc_hd__buf_12
*CAP
1 *2989:A0 0.000526688
2 *3058:B 6.50994e-05
3 *3059:A 0
4 *3023:A 0.00199252
5 *3021:A 0
6 *3172:X 0.00165282
7 *316:32 0.00194925
8 *316:16 0.000603274
9 *316:10 0.00183778
10 *2989:A0 *2989:S 4.8843e-05
11 *2989:A0 *3023:B 8.15843e-05
12 *2989:A0 *319:8 0
13 *3023:A *3009:A 0.000122446
14 *3023:A *3021:B 0.000360348
15 *3023:A *3025:B 0
16 *3023:A *3200:A 0
17 *3023:A *319:8 0
18 *3023:A *385:10 0.000104489
19 *316:10 *3058:A 2.00751e-05
20 *316:16 *3058:A 0.000103445
21 *316:32 *3058:A 3.53302e-05
22 *316:32 *385:10 0.000531897
23 S[3] *3023:A 1.28585e-05
24 *2989:A1 *2989:A0 7.43578e-06
25 *3009:B *3023:A 1.88482e-05
26 *3025:A *3023:A 0
27 *3033:B *3023:A 0
28 *3060:B *316:10 0
29 *3060:C *316:10 0.000119618
30 *3065:A *316:10 9.80029e-05
31 *3072:A2 *3058:B 6.05161e-06
32 *3078:B *316:10 8.39e-05
33 *3116:A *3023:A 0.000165777
34 *3120:A *2989:A0 0
35 *3132:A *2989:A0 0
36 *3155:A *2989:A0 0.000198994
37 *3158:A *3023:A 6.39829e-05
38 *3210:A *3023:A 0
39 *3211:A *3023:A 0.000440711
40 *3219:A *3023:A 0
41 *137:8 *3058:B 1.55885e-05
42 *138:8 *316:10 5.66157e-05
43 *138:8 *316:16 0.000100823
44 *138:8 *316:32 0
45 *138:19 *316:10 0.000216057
46 *315:61 *316:10 1.17968e-05
*RES
1 *3172:X *316:10 46.5679 
2 *316:10 *316:16 7.5 
3 *316:16 *316:32 18.7679 
4 *316:32 *3021:A 9.3 
5 *316:32 *3023:A 43.3714 
6 *316:16 *3059:A 9.3 
7 *316:10 *3058:B 14.7643 
8 *3023:A *2989:A0 38.1893 
*END

*D_NET *317 0.0091502
*CONN
*I *3066:A I *D sky130_fd_sc_hd__xor2_2
*I *3174:A I *D sky130_fd_sc_hd__buf_8
*I *3217:A I *D sky130_fd_sc_hd__buf_2
*I *3076:D_N I *D sky130_fd_sc_hd__or4b_4
*I *3102:A I *D sky130_fd_sc_hd__buf_8
*I *3103:X O *D sky130_fd_sc_hd__buf_8
*CAP
1 *3066:A 0.000264009
2 *3174:A 0.000362061
3 *3217:A 0
4 *3076:D_N 5.48436e-05
5 *3102:A 0
6 *3103:X 0.00016164
7 *317:38 0.000451294
8 *317:27 0.000353366
9 *317:23 0.00260789
10 *317:12 0.00229623
11 *3076:D_N *3063:A 2.32625e-05
12 *3174:A *3062:A 0
13 *3174:A *3063:B 0
14 *317:12 *2942:B 0
15 *317:12 *377:12 0.000208685
16 *317:23 *2990:A 0.000192585
17 *317:23 *3062:A 0.000274272
18 *317:23 *3186:A 0
19 *317:27 *2990:A 0.00015234
20 *317:27 *3062:A 0.00011159
21 *317:38 *3063:A 7.43578e-06
22 *2943:A *317:12 0
23 *3064:C *3174:A 3.34295e-05
24 *3155:A *3174:A 0
25 *141:8 *3174:A 0
26 *145:6 *3066:A 5.33433e-05
27 *315:23 *317:12 0
28 *315:61 *317:12 0.000186662
29 *315:61 *317:23 0.00135526
*RES
1 *3103:X *317:12 22.6214 
2 *317:12 *3102:A 9.3 
3 *317:12 *317:23 48.1071 
4 *317:23 *317:27 9.17857 
5 *317:27 *3076:D_N 10.2464 
6 *317:27 *317:38 1.67857 
7 *317:38 *3217:A 9.3 
8 *317:38 *3174:A 24.6393 
9 *317:23 *3066:A 18.4429 
*END

*D_NET *318 0.00560099
*CONN
*I *3037:A I *D sky130_fd_sc_hd__xor2_2
*I *3041:A I *D sky130_fd_sc_hd__xor2_4
*I *3039:A I *D sky130_fd_sc_hd__xor2_4
*I *3173:X O *D sky130_fd_sc_hd__buf_12
*CAP
1 *3037:A 0.000232744
2 *3041:A 6.71205e-05
3 *3039:A 0.00015412
4 *3173:X 0.00187529
5 *318:12 0.000302021
6 *318:10 0.00218882
7 *3039:A *3039:B 9.90367e-05
8 *318:10 *3051:B 0.000112106
9 *318:10 *351:10 0.000105347
10 *318:12 *351:10 7.92879e-05
11 *3125:A *3039:A 0.000121606
12 *3125:A *318:12 9.57064e-05
13 *3161:A *3037:A 9.90431e-05
14 *3161:A *3039:A 0
15 *3161:A *318:12 0
16 *116:10 *3037:A 6.87476e-05
*RES
1 *3173:X *318:10 48.1929 
2 *318:10 *318:12 2.55357 
3 *318:12 *3039:A 17.6036 
4 *318:12 *3041:A 14.7464 
5 *318:10 *3037:A 18.0321 
*END

*D_NET *319 0.00790937
*CONN
*I *3218:A I *D sky130_fd_sc_hd__buf_4
*I *3173:A I *D sky130_fd_sc_hd__buf_12
*I *3034:A I *D sky130_fd_sc_hd__xnor2_2
*I *3174:X O *D sky130_fd_sc_hd__buf_8
*CAP
1 *3218:A 9.57427e-05
2 *3173:A 0
3 *3034:A 0.000201251
4 *3174:X 0.00101537
5 *319:18 0.00137539
6 *319:8 0.00228526
7 *319:8 *3009:A 0
8 *319:8 *3011:A 0.000128146
9 *319:8 *3023:B 8.39e-05
10 *319:8 *3064:A 0
11 *319:8 *3206:A 0
12 *319:8 *333:10 0.000343947
13 *319:8 *357:12 0
14 *319:18 *3206:A 0
15 *319:18 *355:10 0.000157399
16 S[9] *319:8 8.8872e-05
17 *2989:A0 *319:8 0
18 *3009:B *319:8 0
19 *3010:B1 *319:8 0.000399081
20 *3023:A *319:8 0
21 *3025:A *319:8 9.67361e-05
22 *3032:B *319:18 6.74911e-05
23 *3033:D *319:18 0.000525388
24 *3050:C1 *319:18 2.89114e-05
25 *3057:B1 *3034:A 6.54806e-05
26 *3057:B1 *319:18 0.00030669
27 *3064:C *319:8 0
28 *3080:B1 *3034:A 9.80173e-05
29 *3080:B1 *319:18 5.71472e-05
30 *3116:A *319:8 0
31 *3127:A *319:8 0
32 *3130:A *319:8 0
33 *3133:A *319:8 0
34 *3155:A *319:8 7.29187e-05
35 *3219:A *319:8 4.00025e-05
36 *111:10 *3218:A 9.90431e-05
37 *111:10 *319:18 0.00010326
38 *112:6 *319:18 0.000173921
39 *159:18 *3034:A 0
40 *302:14 *319:8 0
*RES
1 *3174:X *319:8 37.9071 
2 *319:8 *319:18 23.1429 
3 *319:18 *3034:A 22.2286 
4 *319:18 *3173:A 9.3 
5 *319:8 *3218:A 15.5679 
*END

*D_NET *320 0.00188762
*CONN
*I *2887:A I *D sky130_fd_sc_hd__nand3_2
*I *2886:B1 I *D sky130_fd_sc_hd__a21oi_2
*I *3107:X O *D sky130_fd_sc_hd__clkdlybuf4s25_1
*CAP
1 *2887:A 0
2 *2886:B1 0.000129043
3 *3107:X 0.000426896
4 *320:10 0.000555939
5 *320:10 *2894:A 0.00034321
6 *320:10 *430:10 0
7 *320:10 *430:16 0
8 *2886:A1 *2886:B1 6.58289e-05
9 *2894:B *320:10 0.000183684
10 *2895:B *320:10 9.60939e-05
11 *201:8 *2886:B1 4.1331e-06
12 *201:8 *320:10 5.38886e-05
13 *202:8 *320:10 0
14 *203:12 *2886:B1 2.89016e-05
*RES
1 *3107:X *320:10 23.9786 
2 *320:10 *2886:B1 16.5857 
3 *320:10 *2887:A 13.8 
*END

*D_NET *321 0.00140196
*CONN
*I *2991:B I *D sky130_fd_sc_hd__nand2_2
*I *2993:A2 I *D sky130_fd_sc_hd__a21oi_2
*I *3208:X O *D sky130_fd_sc_hd__buf_2
*CAP
1 *2991:B 0.000105925
2 *2993:A2 0.000124325
3 *3208:X 9.80154e-05
4 *321:8 0.000328265
5 *2991:A *2991:B 5.80706e-06
6 *2992:A *2993:A2 0.000174797
7 *2992:B *2991:B 0
8 *2992:B *2993:A2 0
9 *3073:A1 *2993:A2 5.80706e-06
10 *149:12 *2991:B 0.00025263
11 *149:12 *2993:A2 0.000306385
*RES
1 *3208:X *321:8 14.7464 
2 *321:8 *2993:A2 17.8714 
3 *321:8 *2991:B 16.9607 
*END

*D_NET *322 0.0023898
*CONN
*I *3070:A2 I *D sky130_fd_sc_hd__a211oi_2
*I *3068:A2 I *D sky130_fd_sc_hd__o211a_2
*I *3069:A2 I *D sky130_fd_sc_hd__a21oi_2
*I *3209:X O *D sky130_fd_sc_hd__buf_2
*CAP
1 *3070:A2 0.000293747
2 *3068:A2 0.00011517
3 *3069:A2 0
4 *3209:X 0.000251053
5 *322:19 0.000500907
6 *322:8 0.000343042
7 *3068:A2 *3068:A1 0.000226021
8 *3068:A2 *3069:A1 3.17148e-05
9 *3070:A2 *3070:A1 0.000254868
10 *322:8 *3069:A1 2.89016e-05
11 *322:19 *3069:A1 0.000133846
12 *3068:C1 *3068:A2 0
13 *3069:B1 *322:8 2.89016e-05
14 *3074:A *3068:A2 1.19309e-05
15 *3074:A *322:8 7.28814e-05
16 *3074:A *322:19 9.68146e-05
*RES
1 *3209:X *322:8 13.8536 
2 *322:8 *3069:A2 9.3 
3 *322:8 *322:19 6.98214 
4 *322:19 *3068:A2 16.9607 
5 *322:19 *3070:A2 18.8714 
*END

*D_NET *323 0.00471889
*CONN
*I *3011:A I *D sky130_fd_sc_hd__xnor2_2
*I *3056:D1 I *D sky130_fd_sc_hd__a2111o_2
*I *3210:X O *D sky130_fd_sc_hd__buf_2
*CAP
1 *3011:A 0.000739921
2 *3056:D1 0.000574882
3 *3210:X 0.000200768
4 *323:10 0.00151557
5 *3056:D1 *3030:A 5.52238e-05
6 *3056:D1 *3054:B1 0
7 *323:10 *3054:B1 4.43256e-05
8 *323:10 *354:10 0.000116905
9 *3010:B1 *3011:A 0.000128146
10 *3030:B *3056:D1 2.59355e-05
11 *3033:A *3056:D1 0.000631526
12 *3054:A2 *3056:D1 0
13 *104:8 *3056:D1 0.000474313
14 *104:8 *323:10 8.32242e-05
15 *295:10 *3056:D1 0
16 *319:8 *3011:A 0.000128146
*RES
1 *3210:X *323:10 17.7107 
2 *323:10 *3056:D1 28.425 
3 *323:10 *3011:A 31.9607 
*END

*D_NET *324 0.00283715
*CONN
*I *3009:A I *D sky130_fd_sc_hd__xor2_2
*I *3010:A1 I *D sky130_fd_sc_hd__o21ai_2
*I *3056:C1 I *D sky130_fd_sc_hd__a2111o_2
*I *3211:X O *D sky130_fd_sc_hd__buf_2
*CAP
1 *3009:A 0.000151441
2 *3010:A1 0
3 *3056:C1 0.000216508
4 *3211:X 0.000149126
5 *324:12 0.000426393
6 *324:6 0.000510452
7 *3056:C1 *3030:A 0.000223558
8 *324:6 *3021:B 0.000123673
9 *324:12 *3021:B 0.000119135
10 *3008:A2 *3056:C1 3.34366e-05
11 *3009:B *3009:A 2.47186e-05
12 *3009:B *3056:C1 1.31516e-05
13 *3009:B *324:12 6.74815e-05
14 *3023:A *3009:A 0.000122446
15 *3030:B *3056:C1 8.40835e-05
16 *3031:B *3056:C1 8.56716e-05
17 *3033:B *3056:C1 0.000176907
18 *3033:B *324:12 6.39901e-05
19 *3056:B1 *3056:C1 5.52238e-05
20 *3158:A *3009:A 2.39779e-05
21 *108:24 *3056:C1 2.94103e-05
22 *109:10 *3056:C1 5.58941e-05
23 *302:14 *3056:C1 8.04765e-05
24 *319:8 *3009:A 0
*RES
1 *3211:X *324:6 11.4786 
2 *324:6 *324:12 8.32143 
3 *324:12 *3056:C1 21.2643 
4 *324:12 *3010:A1 13.8 
5 *324:6 *3009:A 21.4607 
*END

*D_NET *325 0.000765241
*CONN
*I *3000:A I *D sky130_fd_sc_hd__xnor2_2
*I *3212:X O *D sky130_fd_sc_hd__buf_2
*CAP
1 *3000:A 0.00038262
2 *3212:X 0.00038262
*RES
1 *3212:X *3000:A 24.9214 
*END

*D_NET *326 0.0035984
*CONN
*I *3042:B I *D sky130_fd_sc_hd__nand2_2
*I *3043:B I *D sky130_fd_sc_hd__nor2_2
*I *3046:B1 I *D sky130_fd_sc_hd__a22o_2
*I *3213:X O *D sky130_fd_sc_hd__buf_2
*CAP
1 *3042:B 0.000136811
2 *3043:B 0.000123469
3 *3046:B1 0
4 *3213:X 0.00013438
5 *326:17 0.00055356
6 *326:8 0.000427661
7 *3042:B *3042:A 0.000146247
8 *3043:B *3043:A 0.000229443
9 *3043:B *352:21 5.66157e-05
10 *3043:B *352:23 0.000153047
11 *326:8 *352:6 7.61932e-05
12 *326:8 *352:21 2.95641e-05
13 *326:17 *3042:A 2.59355e-05
14 *326:17 *3046:A1 0.000285981
15 *326:17 *3046:B2 1.97695e-05
16 *326:17 *352:21 0.000972225
17 *2999:A1 *3043:B 0.000212841
18 *3046:A2 *326:17 1.46576e-05
*RES
1 *3213:X *326:8 11.9071 
2 *326:8 *3046:B1 9.3 
3 *326:8 *326:17 10.3036 
4 *326:17 *3043:B 23.5857 
5 *326:17 *3042:B 12.3179 
*END

*D_NET *327 0.00126976
*CONN
*I *2998:A I *D sky130_fd_sc_hd__xor2_2
*I *3045:B I *D sky130_fd_sc_hd__or2_2
*I *3214:X O *D sky130_fd_sc_hd__buf_2
*CAP
1 *2998:A 0.000199181
2 *3045:B 0
3 *3214:X 0.000239646
4 *327:12 0.000438827
5 *327:12 *2996:A 9.25014e-06
6 *2998:B *2998:A 0.000224366
7 *2999:A2 *327:12 2.34204e-05
8 *3053:A *327:12 3.4323e-05
9 *3214:A *327:12 2.59355e-05
10 *296:21 *2998:A 7.48091e-05
*RES
1 *3214:X *327:12 21.7107 
2 *327:12 *3045:B 9.3 
3 *327:12 *2998:A 14.3536 
*END

*D_NET *328 0.00158641
*CONN
*I *2996:A I *D sky130_fd_sc_hd__xor2_2
*I *2997:A1 I *D sky130_fd_sc_hd__o21a_2
*I *3215:X O *D sky130_fd_sc_hd__buf_2
*CAP
1 *2996:A 0.000279729
2 *2997:A1 0
3 *3215:X 0.000176747
4 *328:12 0.000456476
5 *2996:B *2996:A 0.000180002
6 *3001:A2 *328:12 2.71109e-05
7 *3045:A *2996:A 9.60939e-05
8 *3053:A *2996:A 0.000107503
9 *3053:B *328:12 2.31791e-05
10 *3053:C *328:12 0
11 *3214:A *328:12 3.18676e-05
12 *119:19 *328:12 0.000100831
13 *124:6 *2996:A 5.33005e-05
14 *296:21 *2996:A 4.43157e-05
15 *327:12 *2996:A 9.25014e-06
*RES
1 *3215:X *328:12 21.3 
2 *328:12 *2997:A1 9.3 
3 *328:12 *2996:A 24.8 
*END

*D_NET *329 0.00179304
*CONN
*I *2990:A I *D sky130_fd_sc_hd__xnor2_2
*I *3216:X O *D sky130_fd_sc_hd__buf_2
*CAP
1 *2990:A 0.000550739
2 *3216:X 0.000550739
3 *2990:A *3062:A 0.000346639
4 *317:23 *2990:A 0.000192585
5 *317:27 *2990:A 0.00015234
*RES
1 *3216:X *2990:A 39.4929 
*END

*D_NET *330 0.00117782
*CONN
*I *3063:A I *D sky130_fd_sc_hd__nand2_2
*I *3217:X O *D sky130_fd_sc_hd__buf_2
*CAP
1 *3063:A 0.000489458
2 *3217:X 0.000489458
3 *3063:A *3062:A 0
4 *3063:A *3063:B 0.000128618
5 *3076:B *3063:A 9.33978e-07
6 *3076:C *3063:A 6.78055e-06
7 *3076:D_N *3063:A 2.32625e-05
8 *141:8 *3063:A 0
9 *150:12 *3063:A 3.18676e-05
10 *317:38 *3063:A 7.43578e-06
*RES
1 *3217:X *3063:A 35.6357 
*END

*D_NET *331 0.00245954
*CONN
*I *3069:A1 I *D sky130_fd_sc_hd__a21oi_2
*I *3068:A1 I *D sky130_fd_sc_hd__o211a_2
*I *3070:A1 I *D sky130_fd_sc_hd__a211oi_2
*I *3074:B I *D sky130_fd_sc_hd__xnor2_4
*I *3108:X O *D sky130_fd_sc_hd__clkdlybuf4s25_1
*CAP
1 *3069:A1 0.000153708
2 *3068:A1 7.72233e-05
3 *3070:A1 0.000169522
4 *3074:B 0.000295606
5 *3108:X 0.000295606
6 *331:35 0.000230931
7 *331:20 0.000169522
8 *3068:A2 *3068:A1 0.000226021
9 *3068:A2 *3069:A1 3.17148e-05
10 *3069:B1 *3068:A1 0
11 *3069:B1 *3069:A1 0
12 *3070:A2 *3070:A1 0.000254868
13 *3070:C1 *3068:A1 0.000112106
14 *3074:A *3069:A1 5.71472e-05
15 *3216:A *3074:B 3.18676e-05
16 *147:10 *3068:A1 0
17 *309:39 *3074:B 0.000190947
18 *322:8 *3069:A1 2.89016e-05
19 *322:19 *3069:A1 0.000133846
*RES
1 *3108:X *3074:B 24.1 
2 *3074:B *331:20 9.3 
3 *331:20 *3070:A1 13.2821 
4 *331:20 *331:35 4.5 
5 *331:35 *3068:A1 16.7866 
6 *331:35 *3069:A1 17.2464 
*END

*D_NET *332 0.00253339
*CONN
*I *3029:A I *D sky130_fd_sc_hd__xor2_2
*I *3026:A I *D sky130_fd_sc_hd__xor2_2
*I *3218:X O *D sky130_fd_sc_hd__buf_4
*CAP
1 *3029:A 0
2 *3026:A 0.000650685
3 *3218:X 0.000152164
4 *332:10 0.000802849
5 *3026:A *3026:B 0
6 *3026:A *3028:A 0
7 *3026:A *3180:A 0
8 *3026:A *3205:A 0
9 *3026:A *3206:A 0
10 *332:10 *3180:A 0
11 S[7] *3026:A 0.000309784
12 S[8] *3026:A 6.76337e-05
13 *3007:A *3026:A 0
14 *3129:A *3026:A 0.000210806
15 *3165:A *3026:A 0.000224954
16 *3165:A *332:10 0.000114516
*RES
1 *3218:X *332:10 16.6929 
2 *332:10 *3026:A 28.4964 
3 *332:10 *3029:A 13.8 
*END

*D_NET *333 0.00332148
*CONN
*I *3024:B I *D sky130_fd_sc_hd__nand2_2
*I *3054:B1 I *D sky130_fd_sc_hd__o211a_2
*I *3219:X O *D sky130_fd_sc_hd__buf_2
*CAP
1 *3024:B 0.000183196
2 *3054:B1 0.00067572
3 *3219:X 9.00431e-05
4 *333:10 0.000948959
5 *3054:B1 *354:10 0.000573176
6 *3010:B1 *3024:B 9.76689e-05
7 *3025:A *333:10 0.000174542
8 *3054:A2 *3054:B1 1.02504e-05
9 *3056:D1 *3054:B1 0
10 *3210:A *3054:B1 0
11 *3219:A *333:10 0.000179656
12 *319:8 *333:10 0.000343947
13 *323:10 *3054:B1 4.43256e-05
*RES
1 *3219:X *333:10 22.675 
2 *333:10 *3054:B1 31.7286 
3 *333:10 *3024:B 12.7286 
*END

*D_NET *334 0.00712187
*CONN
*I *3062:A I *D sky130_fd_sc_hd__or2_2
*I *3220:X O *D sky130_fd_sc_hd__buf_2
*CAP
1 *3062:A 0.000658364
2 *3220:X 0.0024837
3 *334:8 0.00314207
4 *3062:A *3063:B 1.19309e-05
5 *2990:A *3062:A 0.000346639
6 *3063:A *3062:A 0
7 *3068:B1 *3062:A 0
8 *3076:A *3062:A 0
9 *3076:C *3062:A 9.33059e-05
10 *3174:A *3062:A 0
11 *317:23 *3062:A 0.000274272
12 *317:27 *3062:A 0.00011159
*RES
1 *3220:X *334:8 42.675 
2 *334:8 *3062:A 30.0143 
*END

*D_NET *335 0.00429677
*CONN
*I *2896:A I *D sky130_fd_sc_hd__xnor2_2
*I *2895:A I *D sky130_fd_sc_hd__and2_2
*I *2894:A I *D sky130_fd_sc_hd__or2_2
*I *2910:A1 I *D sky130_fd_sc_hd__a22o_2
*I *3109:X O *D sky130_fd_sc_hd__clkdlybuf4s25_1
*CAP
1 *2896:A 0
2 *2895:A 0.0001097
3 *2894:A 0.000253564
4 *2910:A1 0.000418281
5 *3109:X 8.88575e-05
6 *335:25 0.000504435
7 *335:23 0.000574978
8 *335:6 0.000940946
9 *2894:A *2893:B 0
10 *2894:A *398:10 2.59355e-05
11 *2910:A1 *387:14 0.000227532
12 *335:6 *387:14 0.000140933
13 *335:23 *2902:A 0
14 *335:23 *2911:A1 0
15 *335:23 *3190:A 6.19181e-05
16 *335:23 *337:12 0.000111132
17 S[20] *335:23 4.50149e-05
18 *2894:B *2894:A 7.79781e-06
19 *2895:B *2895:A 0.000151071
20 *2903:A1 *2894:A 8.15939e-05
21 *2903:B1 *2894:A 0
22 *2904:A *2910:A1 5.7616e-05
23 *2904:A *335:23 0
24 *2904:B *335:25 0
25 *2910:A2 *2910:A1 9.25014e-06
26 *3109:A *2910:A1 4.19624e-06
27 *3137:A *335:23 0
28 *212:10 *335:23 0
29 *212:10 *335:25 0
30 *217:8 *2910:A1 0.000138804
31 *217:8 *335:23 0
32 *225:10 *335:23 0
33 *314:32 *2910:A1 0
34 *320:10 *2894:A 0.00034321
*RES
1 *3109:X *335:6 10.6571 
2 *335:6 *2910:A1 25.3714 
3 *335:6 *335:23 13.4286 
4 *335:23 *335:25 2.55357 
5 *335:25 *2894:A 19.6214 
6 *335:25 *2895:A 16.3893 
7 *335:23 *2896:A 13.8 
*END

*D_NET *336 0.000835891
*CONN
*I *2921:A1 I *D sky130_fd_sc_hd__a21o_2
*I *3221:X O *D sky130_fd_sc_hd__buf_2
*CAP
1 *2921:A1 0.000235766
2 *3221:X 0.000235766
3 *2921:A1 *3190:A 0.00022416
4 *2921:B1 *2921:A1 3.69697e-05
5 *2927:B *2921:A1 1.74352e-05
6 *232:6 *2921:A1 7.43578e-06
7 *243:12 *2921:A1 7.83587e-05
*RES
1 *3221:X *2921:A1 31.35 
*END

*D_NET *337 0.00348918
*CONN
*I *2910:B2 I *D sky130_fd_sc_hd__a22o_2
*I *2902:A I *D sky130_fd_sc_hd__xnor2_2
*I *2911:A1 I *D sky130_fd_sc_hd__o21ai_2
*I *3110:X O *D sky130_fd_sc_hd__clkdlybuf4s25_1
*CAP
1 *2910:B2 0
2 *2902:A 0.000329707
3 *2911:A1 0.000330249
4 *3110:X 0.000469172
5 *337:14 0.000659956
6 *337:12 0.000469172
7 *2902:A *3190:A 3.60349e-05
8 *337:12 *3187:A 9.90367e-05
9 *337:12 *3190:A 9.90431e-05
10 S[20] *2911:A1 1.49084e-05
11 S[22] *2902:A 4.50149e-05
12 *2904:A *2902:A 2.26327e-05
13 *2904:A *2911:A1 0.000128125
14 *2911:A2 *2911:A1 5.52238e-05
15 *2920:A2 *337:12 0
16 *3109:A *337:12 0
17 *3110:A *337:12 0
18 *3137:A *2911:A1 1.94945e-05
19 *217:8 *2902:A 5.98502e-05
20 *217:27 *337:12 6.13217e-05
21 *225:10 *2911:A1 0.000230626
22 *225:10 *337:12 0
23 *314:32 *2911:A1 0.000225616
24 *314:38 *2911:A1 2.28598e-05
25 *335:23 *2902:A 0
26 *335:23 *2911:A1 0
27 *335:23 *337:12 0.000111132
*RES
1 *3110:X *337:12 27.8 
2 *337:12 *337:14 4.5 
3 *337:14 *2911:A1 22.0679 
4 *337:14 *2902:A 19.4607 
5 *337:12 *2910:B2 9.3 
*END

*D_NET *338 0.000939006
*CONN
*I *2906:A I *D sky130_fd_sc_hd__nor2_2
*I *2907:A I *D sky130_fd_sc_hd__nand2_2
*I *2908:A I *D sky130_fd_sc_hd__xnor2_2
*I *3111:X O *D sky130_fd_sc_hd__clkdlybuf4s25_1
*CAP
1 *2906:A 0.000112714
2 *2907:A 0
3 *2908:A 7.10834e-05
4 *3111:X 0
5 *338:19 0.000237177
6 *338:6 0.000195547
7 *2906:B *2906:A 5.7661e-06
8 *2908:B *2908:A 6.75007e-05
9 *2908:B *338:19 0.000135549
10 *2920:A2 *2908:A 0
11 *2920:A2 *338:19 0
12 *2920:B1 *338:19 6.8578e-05
13 *219:17 *2906:A 4.50908e-05
*RES
1 *3111:X *338:6 13.8 
2 *338:6 *2908:A 15.4429 
3 *338:6 *338:19 7.96429 
4 *338:19 *2907:A 9.3 
5 *338:19 *2906:A 11.5143 
*END

*D_NET *339 0.00478573
*CONN
*I *2917:B1 I *D sky130_fd_sc_hd__a21oi_2
*I *2916:A I *D sky130_fd_sc_hd__and3_2
*I *3112:X O *D sky130_fd_sc_hd__clkdlybuf4s25_1
*CAP
1 *2917:B1 7.00999e-05
2 *2916:A 0
3 *3112:X 0.00123369
4 *339:10 0.00130379
5 *339:10 *363:10 0.00140229
6 *2921:B1 *339:10 0.000128154
7 *3136:A *339:10 2.89114e-05
8 *227:10 *2917:B1 9.71197e-05
9 *230:12 *2917:B1 9.4724e-05
10 *230:12 *339:10 3.34366e-05
11 *233:14 *2917:B1 0.000247738
12 *233:14 *339:10 4.73656e-05
13 *243:12 *2917:B1 2.26327e-05
14 *243:12 *339:10 7.57869e-05
*RES
1 *3112:X *339:10 32.6036 
2 *339:10 *2916:A 13.8 
3 *339:10 *2917:B1 16.6929 
*END

*D_NET *340 0.00483825
*CONN
*I *2925:A I *D sky130_fd_sc_hd__nand2_2
*I *2924:A I *D sky130_fd_sc_hd__or2_2
*I *3113:X O *D sky130_fd_sc_hd__clkdlybuf4s25_1
*CAP
1 *2925:A 0.000140571
2 *2924:A 0
3 *3113:X 0.00191369
4 *340:10 0.00205426
5 *2925:B *2925:A 0.000213875
6 *2925:B *340:10 5.80706e-06
7 *2926:A *2925:A 0.000153047
8 *2971:B1 *2925:A 0
9 *235:10 *340:10 6.75007e-05
10 *237:12 *2925:A 0.00014285
11 *242:8 *2925:A 3.69865e-05
12 *242:8 *340:10 0.000109671
13 *243:12 *340:10 0
*RES
1 *3113:X *340:10 37.4071 
2 *340:10 *2924:A 13.8 
3 *340:10 *2925:A 18.7286 
*END

*D_NET *341 0.00264842
*CONN
*I *2937:B1 I *D sky130_fd_sc_hd__a21o_2
*I *2938:A I *D sky130_fd_sc_hd__nand3_2
*I *3114:X O *D sky130_fd_sc_hd__clkdlybuf4s25_1
*CAP
1 *2937:B1 1.13923e-05
2 *2938:A 0.00017801
3 *3114:X 0.000517748
4 *341:14 0.00070715
5 *2937:B1 *393:37 2.89016e-05
6 *341:14 *342:8 0
7 S[26] *341:14 0.000297552
8 *2943:A *341:14 0.000233111
9 *2944:A2 *341:14 1.46624e-05
10 *2945:B *341:14 0.000103267
11 *3115:A *341:14 1.92789e-05
12 *246:12 *2938:A 0
13 *246:12 *341:14 0
14 *247:12 *341:14 0.000127446
15 *249:6 *2937:B1 5.71472e-05
16 *252:8 *341:14 0.000200413
17 *315:23 *341:14 0.00015234
*RES
1 *3114:X *341:14 26.6571 
2 *341:14 *2938:A 15.7107 
3 *341:14 *2937:B1 14.3357 
*END

*D_NET *342 0.000481753
*CONN
*I *2945:A I *D sky130_fd_sc_hd__nand3_2
*I *2944:B1 I *D sky130_fd_sc_hd__a21oi_2
*I *3115:X O *D sky130_fd_sc_hd__clkdlybuf4s25_1
*CAP
1 *2945:A 0
2 *2944:B1 0.000129403
3 *3115:X 0.000111473
4 *342:8 0.000240877
5 *2944:B1 *3192:A 0
6 *342:8 *3192:A 0
7 *2944:A2 *2944:B1 0
8 *2944:A2 *342:8 0
9 *341:14 *342:8 0
*RES
1 *3115:X *342:8 15.7464 
2 *342:8 *2944:B1 16.05 
3 *342:8 *2945:A 13.8 
*END

*D_NET *343 0.00174978
*CONN
*I *3024:A I *D sky130_fd_sc_hd__nand2_2
*I *3025:B I *D sky130_fd_sc_hd__xnor2_4
*I *3054:C1 I *D sky130_fd_sc_hd__o211a_2
*I *3116:X O *D sky130_fd_sc_hd__clkdlybuf4s25_1
*CAP
1 *3024:A 0.000325087
2 *3025:B 0.000399406
3 *3054:C1 0.00023885
4 *3116:X 0
5 *343:4 0.000313169
6 *3054:C1 *3054:A1 0.00020643
7 *3054:C1 *350:8 5.42784e-05
8 *3010:B1 *3024:A 0
9 *3023:A *3025:B 0
10 *3123:A *3054:C1 2.89114e-05
11 *3127:A *3024:A 5.62053e-05
12 *3210:A *3025:B 0.000127439
*RES
1 *3116:X *343:4 9.3 
2 *343:4 *3054:C1 14.2286 
3 *343:4 *3025:B 19.9429 
4 *3025:B *3024:A 33.0464 
*END

*D_NET *344 0.00253577
*CONN
*I *2953:B1 I *D sky130_fd_sc_hd__a21oi_2
*I *2952:A I *D sky130_fd_sc_hd__and3_2
*I *3117:X O *D sky130_fd_sc_hd__clkdlybuf4s25_1
*CAP
1 *2953:B1 0.000264231
2 *2952:A 0.000332968
3 *3117:X 6.70248e-05
4 *344:8 0.000664224
5 *2952:A *3194:A 0.000176234
6 *344:8 *3194:A 0.000128161
7 *256:18 *2952:A 0.000582901
8 *259:6 *2953:B1 0.000320024
*RES
1 *3117:X *344:8 15.4429 
2 *344:8 *2952:A 21.5143 
3 *344:8 *2953:B1 19.2643 
*END

*D_NET *345 0.00265114
*CONN
*I *2971:A1_N I *D sky130_fd_sc_hd__o2bb2ai_4
*I *2959:A I *D sky130_fd_sc_hd__xnor2_2
*I *2979:A1 I *D sky130_fd_sc_hd__a31oi_2
*I *3118:X O *D sky130_fd_sc_hd__clkdlybuf4s25_1
*CAP
1 *2971:A1_N 0.00042899
2 *2959:A 0
3 *2979:A1 0
4 *3118:X 0.000118748
5 *345:17 0.000592389
6 *345:6 0.000282147
7 *345:6 *3195:A 5.33005e-05
8 *2959:B *345:17 0.000238165
9 *2972:A *2971:A1_N 0.000209584
10 *2979:A3 *2971:A1_N 0
11 *2979:B1 *345:6 9.41642e-05
12 *285:12 *2971:A1_N 6.8529e-05
13 *285:12 *345:6 7.03393e-05
14 *285:12 *345:17 0.000494784
15 *312:27 *2971:A1_N 0
*RES
1 *3118:X *345:6 11.8893 
2 *345:6 *2979:A1 9.3 
3 *345:6 *345:17 5.5 
4 *345:17 *2959:A 9.3 
5 *345:17 *2971:A1_N 27.3714 
*END

*D_NET *346 0.00220449
*CONN
*I *2967:B1 I *D sky130_fd_sc_hd__a21oi_2
*I *2969:A I *D sky130_fd_sc_hd__and3_2
*I *3119:X O *D sky130_fd_sc_hd__clkdlybuf4s25_1
*CAP
1 *2967:B1 0.00029867
2 *2969:A 0.000166015
3 *3119:X 0.00011115
4 *346:6 0.000575834
5 *2967:B1 *3195:A 0.0002253
6 *2967:B1 *3196:A 0.000129025
7 *346:6 *3196:A 0.000229456
8 *2967:A1 *2967:B1 0
9 *2969:C *2969:A 0.000144773
10 *276:10 *2969:A 9.21604e-05
11 *276:10 *346:6 4.70078e-05
12 *312:14 *2967:B1 3.5707e-05
13 *312:14 *2969:A 9.41642e-05
14 *314:20 *2969:A 5.52238e-05
*RES
1 *3119:X *346:6 12.3 
2 *346:6 *2969:A 13.1214 
3 *346:6 *2967:B1 25.2286 
*END

*D_NET *347 0.00121121
*CONN
*I *3071:B1 I *D sky130_fd_sc_hd__a21oi_2
*I *3064:A I *D sky130_fd_sc_hd__and3_2
*I *3120:X O *D sky130_fd_sc_hd__clkdlybuf4s25_1
*CAP
1 *3071:B1 0.000145058
2 *3064:A 7.09502e-05
3 *3120:X 0.000342132
4 *347:6 0.00055814
5 *3071:B1 *3063:B 0
6 *3064:B *3064:A 0
7 *3064:C *3064:A 4.15914e-05
8 *3064:C *3071:B1 5.33334e-05
9 *319:8 *3064:A 0
*RES
1 *3120:X *347:6 13.1214 
2 *347:6 *3064:A 19.6393 
3 *347:6 *3071:B1 11.925 
*END

*D_NET *348 0.00134771
*CONN
*I *2975:B1 I *D sky130_fd_sc_hd__a21oi_2
*I *2976:A I *D sky130_fd_sc_hd__nand3_2
*I *3121:X O *D sky130_fd_sc_hd__clkdlybuf4s25_1
*CAP
1 *2975:B1 0
2 *2976:A 6.62135e-05
3 *3121:X 0.000383081
4 *348:10 0.000449295
5 *348:10 *2973:B 0
6 *348:10 *2974:B 2.89114e-05
7 *2974:A *2976:A 4.46186e-06
8 *2974:A *348:10 0.000190185
9 *2976:B *2976:A 0
10 *2976:B *348:10 0
11 *281:8 *2976:A 0.000129868
12 *312:64 *2976:A 9.56968e-05
*RES
1 *3121:X *348:10 20.6929 
2 *348:10 *2976:A 16.05 
3 *348:10 *2975:B1 13.8 
*END

*D_NET *349 0.00199069
*CONN
*I *2983:A I *D sky130_fd_sc_hd__or2_2
*I *2984:A I *D sky130_fd_sc_hd__nand2_2
*I *3122:X O *D sky130_fd_sc_hd__clkdlybuf4s25_1
*CAP
1 *2983:A 0
2 *2984:A 0.000260727
3 *3122:X 0.000280203
4 *349:10 0.00054093
5 *2984:A *2982:B 0
6 *2984:A *3101:A 5.33005e-05
7 *2984:A *393:12 3.17148e-05
8 *2984:A *393:35 0.000258915
9 *349:10 *3199:A 0
10 *2983:B *2984:A 0.000317602
11 *2984:B *2984:A 0.000247302
*RES
1 *3122:X *349:10 17.8179 
2 *349:10 *2984:A 21.6036 
3 *349:10 *2983:A 13.8 
*END

*D_NET *350 0.0024667
*CONN
*I *3061:A I *D sky130_fd_sc_hd__nand3_2
*I *3060:A I *D sky130_fd_sc_hd__and3_2
*I *3072:B1 I *D sky130_fd_sc_hd__a21oi_2
*I *3123:X O *D sky130_fd_sc_hd__clkdlybuf4s25_1
*CAP
1 *3061:A 0
2 *3060:A 6.20457e-05
3 *3072:B1 0.000104537
4 *3123:X 0.000798882
5 *350:12 0.000211057
6 *350:8 0.000843357
7 *350:8 *3054:A1 7.02424e-05
8 *3054:C1 *350:8 5.42784e-05
9 *3060:B *3060:A 7.4826e-05
10 *3060:B *3072:B1 5.80706e-06
11 *3073:B1 *3060:A 4.79842e-05
12 *3073:B1 *350:8 2.44318e-05
13 *3073:B1 *350:12 5.71472e-05
14 *137:19 *3072:B1 0.000112106
15 *151:10 *3060:A 0
16 *151:10 *3072:B1 0
*RES
1 *3123:X *350:8 22.9964 
2 *350:8 *350:12 5.44643 
3 *350:12 *3072:B1 16.3536 
4 *350:12 *3060:A 15.7464 
5 *350:8 *3061:A 9.3 
*END

*D_NET *351 0.00119044
*CONN
*I *3051:B I *D sky130_fd_sc_hd__xnor2_2
*I *3038:A I *D sky130_fd_sc_hd__nand2_2
*I *3124:X O *D sky130_fd_sc_hd__clkdlybuf4s25_1
*CAP
1 *3051:B 6.97053e-05
2 *3038:A 0
3 *3124:X 0.000297843
4 *351:10 0.000367549
5 *3051:A *3051:B 6.16864e-05
6 *3051:A *351:10 4.1331e-06
7 *3161:A *351:10 0
8 *116:10 *351:10 9.27779e-05
9 *318:10 *3051:B 0.000112106
10 *318:10 *351:10 0.000105347
11 *318:12 *351:10 7.92879e-05
*RES
1 *3124:X *351:10 19.9429 
2 *351:10 *3038:A 13.8 
3 *351:10 *3051:B 16.3536 
*END

*D_NET *352 0.00403255
*CONN
*I *3042:A I *D sky130_fd_sc_hd__nand2_2
*I *3044:B I *D sky130_fd_sc_hd__xnor2_4
*I *3043:A I *D sky130_fd_sc_hd__nor2_2
*I *3046:B2 I *D sky130_fd_sc_hd__a22o_2
*I *3125:X O *D sky130_fd_sc_hd__clkdlybuf4s25_1
*CAP
1 *3042:A 0.000237656
2 *3044:B 0
3 *3043:A 8.83699e-05
4 *3046:B2 1.53865e-05
5 *3125:X 0.000105603
6 *352:23 0.000125391
7 *352:21 0.000760939
8 *352:6 0.000607253
9 *3043:A *353:10 0
10 *2999:A1 *352:21 6.8646e-06
11 *3042:B *3042:A 0.000146247
12 *3043:B *3043:A 0.000229443
13 *3043:B *352:21 5.66157e-05
14 *3043:B *352:23 0.000153047
15 *3047:B1 *352:21 0.00010096
16 *3126:A *3043:A 0
17 *123:8 *3043:A 6.0038e-05
18 *123:8 *352:21 7.05375e-05
19 *123:8 *352:23 0.000144512
20 *326:8 *352:6 7.61932e-05
21 *326:8 *352:21 2.95641e-05
22 *326:17 *3042:A 2.59355e-05
23 *326:17 *3046:B2 1.97695e-05
24 *326:17 *352:21 0.000972225
*RES
1 *3125:X *352:6 11.4786 
2 *352:6 *3046:B2 9.72857 
3 *352:6 *352:21 15.9464 
4 *352:21 *352:23 1.94643 
5 *352:23 *3043:A 16.6571 
6 *352:23 *3044:B 13.8 
7 *352:21 *3042:A 18.05 
*END

*D_NET *353 0.00253767
*CONN
*I *3047:A1 I *D sky130_fd_sc_hd__o21ai_2
*I *3040:B I *D sky130_fd_sc_hd__xnor2_4
*I *3046:A1 I *D sky130_fd_sc_hd__a22o_2
*I *3126:X O *D sky130_fd_sc_hd__clkdlybuf4s25_1
*CAP
1 *3047:A1 4.83942e-05
2 *3040:B 0.000235587
3 *3046:A1 0.000249772
4 *3126:X 0.000495182
5 *353:10 0.000932148
6 *3043:A *353:10 0
7 *3046:A2 *3046:A1 1.46576e-05
8 *3047:A2 *3047:A1 9.21958e-05
9 *3047:B1 *3040:B 0
10 *117:16 *3047:A1 0.000177948
11 *118:17 *3047:A1 5.80706e-06
12 *123:8 *3040:B 0
13 *123:8 *353:10 0
14 *326:17 *3046:A1 0.000285981
*RES
1 *3126:X *353:10 20.5679 
2 *353:10 *3046:A1 18.8536 
3 *353:10 *3040:B 16.9607 
4 *3040:B *3047:A1 29.85 
*END

*D_NET *354 0.00369761
*CONN
*I *3055:A1 I *D sky130_fd_sc_hd__a21oi_2
*I *3054:A1 I *D sky130_fd_sc_hd__o211a_2
*I *3022:B I *D sky130_fd_sc_hd__xnor2_4
*I *3127:X O *D sky130_fd_sc_hd__clkdlybuf4s25_1
*CAP
1 *3055:A1 8.05958e-05
2 *3054:A1 0.000317649
3 *3022:B 0.000163648
4 *3127:X 0.00037455
5 *354:10 0.000775251
6 *3033:B *3022:B 1.41706e-05
7 *3054:B1 *354:10 0.000573176
8 *3054:C1 *3054:A1 0.00020643
9 *3055:B1 *3055:A1 8.07313e-05
10 *3210:A *3022:B 8.86261e-05
11 *3210:A *354:10 0.000101076
12 *104:8 *3022:B 0.000275087
13 *104:8 *354:10 0.000141368
14 *308:14 *3055:A1 0.000318107
15 *323:10 *354:10 0.000116905
16 *350:8 *3054:A1 7.02424e-05
*RES
1 *3127:X *354:10 23.0321 
2 *354:10 *3022:B 17.2643 
3 *354:10 *3054:A1 18.3848 
4 *3022:B *3055:A1 21.6 
*END

*D_NET *355 0.00375751
*CONN
*I *3052:A I *D sky130_fd_sc_hd__xnor2_2
*I *3036:A_N I *D sky130_fd_sc_hd__and2b_2
*I *3035:B I *D sky130_fd_sc_hd__nand2b_2
*I *3128:X O *D sky130_fd_sc_hd__clkdlybuf4s25_1
*CAP
1 *3052:A 0.000431582
2 *3036:A_N 0.000129727
3 *3035:B 0.000284806
4 *3128:X 0.000433766
5 *355:25 0.0008437
6 *355:10 0.00100096
7 *3003:B1 *3052:A 6.07328e-05
8 *3008:B1 *355:10 0
9 *3033:A *355:10 1.19309e-05
10 *3033:B *355:10 7.32173e-05
11 *3033:C *3035:B 0
12 *3033:C *355:10 0
13 *3033:D *355:10 5.33005e-05
14 *3036:B *3036:A_N 5.52238e-05
15 *3050:C1 *3052:A 0.000221163
16 *3052:B *3052:A 0
17 *3057:A1 *3035:B 0
18 *3057:A1 *355:10 0
19 *113:10 *3052:A 0
20 *300:12 *3035:B 0
21 *300:12 *355:10 0
22 *319:18 *355:10 0.000157399
*RES
1 *3128:X *355:10 22.4964 
2 *355:10 *3035:B 18.5321 
3 *355:10 *355:25 8.73214 
4 *355:25 *3036:A_N 11.4786 
5 *355:25 *3052:A 26.1036 
*END

*D_NET *356 0.000568108
*CONN
*I *3027:A I *D sky130_fd_sc_hd__nand2_2
*I *3028:A I *D sky130_fd_sc_hd__xnor2_2
*I *3129:X O *D sky130_fd_sc_hd__clkdlybuf4s25_1
*CAP
1 *3027:A 9.89921e-05
2 *3028:A 7.18583e-05
3 *3129:X 0.00017085
4 *3027:A *3205:A 7.16452e-05
5 *3028:A *3026:B 0.000154762
6 S[7] *3028:A 0
7 *3026:A *3028:A 0
*RES
1 *3129:X *3028:A 29.5464 
2 *3129:X *3027:A 20.3857 
*END

*D_NET *357 0.00254113
*CONN
*I *3031:A I *D sky130_fd_sc_hd__nor2_2
*I *3032:A I *D sky130_fd_sc_hd__xnor2_2
*I *3030:A I *D sky130_fd_sc_hd__nand2_2
*I *3130:X O *D sky130_fd_sc_hd__clkdlybuf4s25_1
*CAP
1 *3031:A 0.000126463
2 *3032:A 0
3 *3030:A 0.000344084
4 *3130:X 0.000380715
5 *357:12 0.000598336
6 *3030:B *3030:A 0.000120671
7 *3031:B *3031:A 9.80173e-05
8 *3031:B *357:12 4.88515e-05
9 *3032:B *357:12 0
10 *3056:A1 *3030:A 9.41642e-05
11 *3056:C1 *3030:A 0.000223558
12 *3056:D1 *3030:A 5.52238e-05
13 *3130:A *357:12 6.043e-05
14 *109:10 *3030:A 1.32552e-05
15 *135:10 *3030:A 0.000224322
16 *302:14 *357:12 0.00015304
17 *319:8 *357:12 0
*RES
1 *3130:X *357:12 22.425 
2 *357:12 *3030:A 17.2643 
3 *357:12 *3032:A 9.3 
4 *3130:X *3031:A 20.7964 
*END

*D_NET *358 0.00264655
*CONN
*I *3066:B I *D sky130_fd_sc_hd__xor2_2
*I *2988:B I *D sky130_fd_sc_hd__xor2_2
*I *2989:S I *D sky130_fd_sc_hd__mux2_1
*I *3131:X O *D sky130_fd_sc_hd__dlymetal6s2s_1
*CAP
1 *3066:B 0.000175921
2 *2988:B 0
3 *2989:S 0.000269856
4 *3131:X 0.000321203
5 *358:12 0.000330013
6 *358:10 0.000557282
7 *358:10 *3175:A 0.000368104
8 *358:10 *3186:A 0
9 *358:12 *3175:A 0.000177941
10 S[0] *358:12 0
11 *2989:A0 *2989:S 4.8843e-05
12 *2989:A1 *2989:S 5.52238e-05
13 *2990:B *2989:S 0.000110204
14 *2990:B *358:10 9.12446e-05
15 *2990:B *358:12 0.000103993
16 *309:10 *3066:B 3.67257e-05
*RES
1 *3131:X *358:10 21.4429 
2 *358:10 *358:12 2.55357 
3 *358:12 *2989:S 19.3536 
4 *358:12 *2988:B 4.5 
5 *358:10 *3066:B 7.45536 
*END

*D_NET *359 0.000368833
*CONN
*I *3023:B I *D sky130_fd_sc_hd__xor2_4
*I *3132:X O *D sky130_fd_sc_hd__clkdlybuf4s25_1
*CAP
1 *3023:B 0.000101674
2 *3132:X 0.000101674
3 *2989:A0 *3023:B 8.15843e-05
4 *319:8 *3023:B 8.39e-05
*RES
1 *3132:X *3023:B 30.0821 
*END

*D_NET *360 0.00267781
*CONN
*I *3021:B I *D sky130_fd_sc_hd__xor2_4
*I *3133:X O *D sky130_fd_sc_hd__clkdlybuf4s25_1
*CAP
1 *3021:B 0.000499457
2 *3133:X 0.000499457
3 *3021:B *385:10 0.000459391
4 *3010:B1 *3021:B 0.000150618
5 *3011:B *3021:B 0.000126439
6 *3023:A *3021:B 0.000360348
7 *3133:A *3021:B 0
8 *3211:A *3021:B 0.000339296
9 *324:6 *3021:B 0.000123673
10 *324:12 *3021:B 0.000119135
*RES
1 *3133:X *3021:B 44.1893 
*END

*D_NET *361 0.000216212
*CONN
*I *3082:B I *D sky130_fd_sc_hd__xor2_2
*I *3134:X O *D sky130_fd_sc_hd__clkdlybuf4s25_1
*CAP
1 *3082:B 0.000108106
2 *3134:X 0.000108106
3 *3082:B *401:10 0
*RES
1 *3134:X *3082:B 20.2464 
*END

*D_NET *362 0.000977339
*CONN
*I *3086:B I *D sky130_fd_sc_hd__or2_4
*I *3087:B I *D sky130_fd_sc_hd__nand2_2
*I *3135:X O *D sky130_fd_sc_hd__clkdlybuf4s25_1
*CAP
1 *3086:B 0.000121449
2 *3087:B 0.000253963
3 *3135:X 0
4 *362:4 0.000375411
5 *3087:B *376:10 0
6 *3135:A *3087:B 2.89016e-05
7 *311:68 *3086:B 6.87574e-05
8 *311:68 *3087:B 0.000128857
*RES
1 *3135:X *362:4 9.3 
2 *362:4 *3087:B 22.1214 
3 *362:4 *3086:B 11.0857 
*END

*D_NET *363 0.00471549
*CONN
*I *3091:B I *D sky130_fd_sc_hd__or2_2
*I *3092:B I *D sky130_fd_sc_hd__nand2_2
*I *3136:X O *D sky130_fd_sc_hd__clkdlybuf4s25_1
*CAP
1 *3091:B 0
2 *3092:B 0.000187684
3 *3136:X 0.00131388
4 *363:10 0.00150156
5 *3092:B *387:14 5.35516e-05
6 *2918:A *363:10 2.89114e-05
7 *3091:A *3092:B 0.000198705
8 *3093:C *3092:B 0
9 *3110:A *363:10 2.89114e-05
10 *339:10 *363:10 0.00140229
*RES
1 *3136:X *363:10 39.8893 
2 *363:10 *3092:B 18.0321 
3 *363:10 *3091:B 13.8 
*END

*D_NET *364 0.00327432
*CONN
*I *3097:B I *D sky130_fd_sc_hd__nand2_2
*I *3096:B I *D sky130_fd_sc_hd__or2_2
*I *3137:X O *D sky130_fd_sc_hd__clkdlybuf4s25_1
*CAP
1 *3097:B 2.16932e-05
2 *3096:B 9.05654e-05
3 *3137:X 0.000568986
4 *364:6 0.000681244
5 *2930:B *3096:B 0
6 *3096:A *3096:B 7.8327e-05
7 *225:10 *364:6 9.24825e-05
8 *314:38 *3097:B 4.27935e-05
9 *314:38 *364:6 0.00169823
*RES
1 *3137:X *364:6 25.4429 
2 *364:6 *3096:B 20.2464 
3 *364:6 *3097:B 9.83571 
*END

*D_NET *365 0.00140032
*CONN
*I *3083:A I *D sky130_fd_sc_hd__nand2_2
*I *3084:A I *D sky130_fd_sc_hd__or2_2
*I *3138:X O *D sky130_fd_sc_hd__clkdlybuf4s25_1
*CAP
1 *3083:A 0.000516826
2 *3084:A 0
3 *3138:X 8.10224e-05
4 *365:8 0.000597849
5 *3083:A *401:10 5.74562e-05
6 *365:8 *401:10 8.15939e-05
7 *3085:A *3083:A 1.32552e-05
8 *164:12 *3083:A 5.23142e-05
*RES
1 *3138:X *365:8 15.7464 
2 *365:8 *3084:A 13.8 
3 *365:8 *3083:A 20.8179 
*END

*D_NET *366 0.000880696
*CONN
*I *2866:A I *D sky130_fd_sc_hd__xor2_2
*I *3139:X O *D sky130_fd_sc_hd__clkdlybuf4s25_1
*CAP
1 *2866:A 0.000425578
2 *3139:X 0.000425578
3 *2869:B *2866:A 1.02504e-05
4 *3139:A *2866:A 1.92905e-05
*RES
1 *3139:X *2866:A 32.9571 
*END

*D_NET *367 0.00051727
*CONN
*I *2871:B I *D sky130_fd_sc_hd__xor2_2
*I *3140:X O *D sky130_fd_sc_hd__clkdlybuf4s25_1
*CAP
1 *2871:B 0.000139329
2 *3140:X 0.000139329
3 *2871:B *2876:A 8.39e-05
4 *2878:A *2871:B 0
5 *311:14 *2871:B 0.000154713
*RES
1 *3140:X *2871:B 22.3714 
*END

*D_NET *368 0.00145718
*CONN
*I *2875:B I *D sky130_fd_sc_hd__or2_2
*I *2876:B I *D sky130_fd_sc_hd__nand2_2
*I *3141:X O *D sky130_fd_sc_hd__clkdlybuf4s25_1
*CAP
1 *2875:B 0
2 *2876:B 0.000244491
3 *3141:X 0.000144039
4 *368:14 0.00038853
5 *368:14 *2875:A 0.000148616
6 *368:14 *2876:A 4.46186e-06
7 *368:14 *430:16 5.76816e-05
8 *193:12 *368:14 4.43157e-05
9 *311:14 *2876:B 0.000369818
10 *311:14 *368:14 5.52302e-05
*RES
1 *3141:X *368:14 22.0321 
2 *368:14 *2876:B 23.925 
3 *368:14 *2875:B 9.3 
*END

*D_NET *369 0.000475486
*CONN
*I *2884:B I *D sky130_fd_sc_hd__or2_2
*I *2885:B I *D sky130_fd_sc_hd__nand2_2
*I *3142:X O *D sky130_fd_sc_hd__clkdlybuf4s25_1
*CAP
1 *2884:B 0.000113202
2 *2885:B 0
3 *3142:X 5.31131e-05
4 *369:6 0.000166315
5 *2884:B *2884:A 0.000142856
*RES
1 *3142:X *369:6 10.2464 
2 *369:6 *2885:B 9.3 
3 *369:6 *2884:B 11.4964 
*END

*D_NET *370 0.00281424
*CONN
*I *3065:B I *D sky130_fd_sc_hd__xor2_4
*I *3143:X O *D sky130_fd_sc_hd__clkdlybuf4s25_1
*CAP
1 *3065:B 0
2 *3143:X 0.00140712
3 *370:12 0.00140712
4 *3065:A *370:12 0
5 *144:8 *370:12 0
6 *315:61 *370:12 0
*RES
1 *3143:X *370:12 41.175 
2 *370:12 *3065:B 9.3 
*END

*D_NET *371 0.000890878
*CONN
*I *2893:B I *D sky130_fd_sc_hd__xor2_2
*I *3144:X O *D sky130_fd_sc_hd__clkdlybuf4s25_1
*CAP
1 *2893:B 0.000245814
2 *3144:X 0.000245814
3 *2893:B *2893:A 2.89016e-05
4 *2894:A *2893:B 0
5 *2894:B *2893:B 0.00010326
6 *2904:B *2893:B 0.000150625
7 *209:10 *2893:B 5.52302e-05
8 *209:34 *2893:B 6.12335e-05
*RES
1 *3144:X *2893:B 23.6125 
*END

*D_NET *372 0.000568933
*CONN
*I *2901:B I *D sky130_fd_sc_hd__xor2_2
*I *3145:X O *D sky130_fd_sc_hd__clkdlybuf4s25_1
*CAP
1 *2901:B 0.000130365
2 *3145:X 0.000130365
3 *216:8 *2901:B 0.000126593
4 *314:32 *2901:B 0.000181609
*RES
1 *3145:X *2901:B 22.675 
*END

*D_NET *373 0.000610669
*CONN
*I *2905:B I *D sky130_fd_sc_hd__xor2_2
*I *3146:X O *D sky130_fd_sc_hd__clkdlybuf4s25_1
*CAP
1 *2905:B 0.000231313
2 *3146:X 0.000231313
3 *2905:A *2905:B 4.70821e-05
4 *219:6 *2905:B 0.00010096
5 *313:12 *2905:B 0
*RES
1 *3146:X *2905:B 22.4696 
*END

*D_NET *374 0.00286126
*CONN
*I *2914:B I *D sky130_fd_sc_hd__or2_2
*I *2915:B I *D sky130_fd_sc_hd__nand2_2
*I *3147:X O *D sky130_fd_sc_hd__clkdlybuf4s25_1
*CAP
1 *2914:B 0
2 *2915:B 0.000206517
3 *3147:X 0.000287748
4 *374:10 0.000494265
5 *2915:B *2923:B 0
6 *374:10 *2923:B 0.000821082
7 *2914:A *2915:B 0.000112451
8 *2915:A *2915:B 5.52302e-05
9 *2920:A1 *374:10 0.00048453
10 *2920:A2 *374:10 2.84109e-05
11 *233:14 *374:10 0.000371025
*RES
1 *3147:X *374:10 20.55 
2 *374:10 *2915:B 22.5143 
3 *374:10 *2914:B 9.3 
*END

*D_NET *375 0.00352865
*CONN
*I *2923:B I *D sky130_fd_sc_hd__xor2_2
*I *3148:X O *D sky130_fd_sc_hd__clkdlybuf4s25_1
*CAP
1 *2923:B 0.00133785
2 *3148:X 0.00133785
3 *2914:A *2923:B 0
4 *2915:B *2923:B 0
5 *2920:B1 *2923:B 0
6 *3147:A *2923:B 3.18676e-05
7 *312:27 *2923:B 0
8 *312:29 *2923:B 0
9 *374:10 *2923:B 0.000821082
*RES
1 *3148:X *2923:B 38.0232 
*END

*D_NET *376 0.00142938
*CONN
*I *3088:A I *D sky130_fd_sc_hd__and3_2
*I *3089:B1 I *D sky130_fd_sc_hd__a21oi_2
*I *3149:X O *D sky130_fd_sc_hd__clkdlybuf4s25_1
*CAP
1 *3088:A 0.000120884
2 *3089:B1 0
3 *3149:X 0.000484291
4 *376:10 0.000605175
5 *2862:A2 *3088:A 1.76135e-05
6 *3087:B *376:10 0
7 *3088:B *3088:A 0
8 *3088:B *376:10 0
9 *3088:C *3088:A 2.59093e-05
10 *3135:A *376:10 0
11 *165:8 *376:10 0
12 *168:12 *3088:A 0.000175512
13 *311:68 *376:10 0
*RES
1 *3149:X *376:10 20.4607 
2 *376:10 *3089:B1 13.8 
3 *376:10 *3088:A 16.9607 
*END

*D_NET *377 0.00231323
*CONN
*I *2936:B I *D sky130_fd_sc_hd__nand2_2
*I *2935:B I *D sky130_fd_sc_hd__or2_2
*I *3150:X O *D sky130_fd_sc_hd__clkdlybuf4s25_1
*CAP
1 *2936:B 1.99857e-05
2 *2935:B 5.57984e-05
3 *3150:X 0.000728519
4 *377:12 0.000804303
5 *377:12 *3103:A 0.000153054
6 *2935:A *2935:B 4.87854e-05
7 *2935:A *2936:B 1.04232e-05
8 *2935:A *377:12 1.5424e-05
9 *3151:A *377:12 0
10 *315:6 *377:12 0.000188586
11 *315:8 *377:12 5.52302e-05
12 *315:61 *377:12 2.44318e-05
13 *317:12 *377:12 0.000208685
*RES
1 *3150:X *377:12 32.8 
2 *377:12 *2935:B 10.2464 
3 *377:12 *2936:B 9.72857 
*END

*D_NET *378 0.00126325
*CONN
*I *2943:B I *D sky130_fd_sc_hd__nand2_2
*I *2942:B I *D sky130_fd_sc_hd__or2_2
*I *3151:X O *D sky130_fd_sc_hd__clkdlybuf4s25_1
*CAP
1 *2943:B 0
2 *2942:B 0.000195499
3 *3151:X 0.000247333
4 *378:8 0.000442833
5 *2943:A *2942:B 0.000312107
6 *3151:A *2942:B 1.02504e-05
7 *3151:A *378:8 5.52302e-05
8 *317:12 *2942:B 0
*RES
1 *3151:X *378:8 13.55 
2 *378:8 *2942:B 23.2821 
3 *378:8 *2943:B 9.3 
*END

*D_NET *379 0.00136213
*CONN
*I *2951:B I *D sky130_fd_sc_hd__nand2_2
*I *2950:B I *D sky130_fd_sc_hd__or2_2
*I *3152:X O *D sky130_fd_sc_hd__clkdlybuf4s25_1
*CAP
1 *2951:B 0
2 *2950:B 9.49982e-05
3 *3152:X 0.000158451
4 *379:12 0.00025345
5 *379:12 *3198:A 0
6 *2950:A *2950:B 0.000456329
7 *2952:C *2950:B 4.72818e-05
8 *2953:A1 *2950:B 0.000137983
9 *259:6 *2950:B 0.000174232
10 *260:8 *2950:B 1.74352e-05
11 *262:10 *379:12 2.19684e-05
*RES
1 *3152:X *379:12 20.7821 
2 *379:12 *2950:B 13.9607 
3 *379:12 *2951:B 9.3 
*END

*D_NET *380 0.000221614
*CONN
*I *2958:B I *D sky130_fd_sc_hd__xor2_2
*I *3153:X O *D sky130_fd_sc_hd__clkdlybuf4s25_1
*CAP
1 *2958:B 6.05357e-05
2 *3153:X 6.05357e-05
3 *2958:B *2965:B 3.57269e-05
4 *314:32 *2958:B 6.48154e-05
*RES
1 *3153:X *2958:B 19.9429 
*END

*D_NET *381 0.00119877
*CONN
*I *2966:B I *D sky130_fd_sc_hd__nand2_2
*I *2965:B I *D sky130_fd_sc_hd__or2_2
*I *3154:X O *D sky130_fd_sc_hd__clkdlybuf4s25_1
*CAP
1 *2966:B 3.08226e-05
2 *2965:B 0.000346521
3 *3154:X 0.000377344
4 S[28] *2965:B 0.000149748
5 *2958:B *2965:B 3.57269e-05
6 *272:14 *2965:B 6.26167e-05
7 *314:20 *2965:B 0.000123126
8 *314:32 *2965:B 7.28609e-05
*RES
1 *3154:X *2965:B 35.1536 
2 *3154:X *2966:B 19.1357 
*END

*D_NET *382 0.000864832
*CONN
*I *3062:B I *D sky130_fd_sc_hd__or2_2
*I *3063:B I *D sky130_fd_sc_hd__nand2_2
*I *3155:X O *D sky130_fd_sc_hd__clkdlybuf4s25_1
*CAP
1 *3062:B 0
2 *3063:B 0.000164779
3 *3155:X 0.000103958
4 *382:6 0.000268738
5 *3063:B *3197:A 2.89114e-05
6 *382:6 *3197:A 0.000122159
7 *3062:A *3063:B 1.19309e-05
8 *3063:A *3063:B 0.000128618
9 *3071:B1 *3063:B 0
10 *3174:A *3063:B 0
11 *141:8 *3063:B 0
12 *142:8 *3063:B 3.57366e-05
*RES
1 *3155:X *382:6 11.4786 
2 *382:6 *3063:B 22.1214 
3 *382:6 *3062:B 9.3 
*END

*D_NET *383 0.00198999
*CONN
*I *2974:B I *D sky130_fd_sc_hd__nand2_2
*I *2973:B I *D sky130_fd_sc_hd__or2_2
*I *3156:X O *D sky130_fd_sc_hd__clkdlybuf4s25_1
*CAP
1 *2974:B 0.000125441
2 *2973:B 0.000202964
3 *3156:X 0.000472338
4 *383:8 0.000800744
5 *2974:A *2974:B 0
6 *2976:B *2973:B 3.34366e-05
7 *2976:C *2973:B 5.83304e-05
8 *3156:A *2974:B 0
9 *3156:A *383:8 1.92905e-05
10 *279:8 *2973:B 0.000122091
11 *280:8 *2973:B 4.80729e-05
12 *280:8 *2974:B 7.83659e-05
13 *348:10 *2973:B 0
14 *348:10 *2974:B 2.89114e-05
*RES
1 *3156:X *383:8 19.2643 
2 *383:8 *2973:B 17.7286 
3 *383:8 *2974:B 16.2821 
*END

*D_NET *384 0.00148222
*CONN
*I *2982:B I *D sky130_fd_sc_hd__xor2_2
*I *3157:X O *D sky130_fd_sc_hd__clkdlybuf4s25_1
*CAP
1 *2982:B 0.000471275
2 *3157:X 0.000471275
3 *2982:B *3207:A 0.000393005
4 *2982:B *393:12 0
5 *2984:A *2982:B 0
6 *2985:A *2982:B 0
7 *3020:A1 *2982:B 8.27403e-05
8 *291:10 *2982:B 6.39262e-05
*RES
1 *3157:X *2982:B 28.0411 
*END

*D_NET *385 0.00365413
*CONN
*I *3058:A I *D sky130_fd_sc_hd__or2_4
*I *3059:B I *D sky130_fd_sc_hd__nand2_2
*I *3158:X O *D sky130_fd_sc_hd__clkdlybuf4s25_1
*CAP
1 *3058:A 0.000376882
2 *3059:B 0
3 *3158:X 0.000822869
4 *385:10 0.00119975
5 *3021:B *385:10 0.000459391
6 *3023:A *385:10 0.000104489
7 *316:10 *3058:A 2.00751e-05
8 *316:16 *3058:A 0.000103445
9 *316:32 *3058:A 3.53302e-05
10 *316:32 *385:10 0.000531897
*RES
1 *3158:X *385:10 26.7107 
2 *385:10 *3059:B 9.3 
3 *385:10 *3058:A 24.0857 
*END

*D_NET *386 0.000590738
*CONN
*I *3037:B I *D sky130_fd_sc_hd__xor2_2
*I *3159:X O *D sky130_fd_sc_hd__clkdlybuf4s25_1
*CAP
1 *3037:B 0.000197835
2 *3159:X 0.000197835
3 *3124:A *3037:B 5.5782e-05
4 *3161:A *3037:B 0.000116545
5 *3162:A *3037:B 2.27416e-05
*RES
1 *3159:X *3037:B 22.9071 
*END

*D_NET *387 0.00481014
*CONN
*I *3094:B1 I *D sky130_fd_sc_hd__a21oi_2
*I *3093:A I *D sky130_fd_sc_hd__and3_2
*I *3160:X O *D sky130_fd_sc_hd__clkdlybuf4s25_1
*CAP
1 *3094:B1 0
2 *3093:A 5.15383e-05
3 *3160:X 0.0015142
4 *387:14 0.00156574
5 *2910:A1 *387:14 0.000227532
6 *2912:A1 *387:14 0.000158101
7 *2912:A2 *387:14 0.000142152
8 *2912:B1_N *387:14 6.26774e-06
9 *2913:B *387:14 0.000354939
10 *3091:A *387:14 7.32272e-05
11 *3092:B *387:14 5.35516e-05
12 *3093:B *387:14 7.03393e-05
13 *3093:C *3093:A 0.000104956
14 *3093:C *387:14 0.000103299
15 *3094:A1 *387:14 5.83304e-05
16 *170:8 *387:14 9.30093e-05
17 *173:10 *3093:A 3.48705e-05
18 *173:10 *387:14 5.71472e-05
19 *335:6 *387:14 0.000140933
*RES
1 *3160:X *387:14 47.1929 
2 *387:14 *3093:A 10.9786 
3 *387:14 *3094:B1 9.3 
*END

*D_NET *388 0.000736858
*CONN
*I *3041:B I *D sky130_fd_sc_hd__xor2_4
*I *3161:X O *D sky130_fd_sc_hd__clkdlybuf4s25_1
*CAP
1 *3041:B 0.000368429
2 *3161:X 0.000368429
3 *3125:A *3041:B 0
4 *3213:A *3041:B 0
5 *118:6 *3041:B 0
*RES
1 *3161:X *3041:B 32.2429 
*END

*D_NET *389 0.000668453
*CONN
*I *3039:B I *D sky130_fd_sc_hd__xor2_4
*I *3162:X O *D sky130_fd_sc_hd__clkdlybuf4s25_1
*CAP
1 *3039:B 0.000284708
2 *3162:X 0.000284708
3 *3039:A *3039:B 9.90367e-05
*RES
1 *3162:X *3039:B 23.2607 
*END

*D_NET *390 0.00211641
*CONN
*I *3034:B I *D sky130_fd_sc_hd__xnor2_2
*I *3163:X O *D sky130_fd_sc_hd__clkdlybuf4s25_1
*CAP
1 *3034:B 0.000567383
2 *3163:X 0.000567383
3 *3034:B *3180:A 0.000719516
4 *3034:B *400:12 0.00010096
5 *3008:A2 *3034:B 4.87953e-05
6 *3008:B1 *3034:B 5.52302e-05
7 *302:14 *3034:B 5.71472e-05
*RES
1 *3163:X *3034:B 32.6893 
*END

*D_NET *391 0.00222544
*CONN
*I *3026:B I *D sky130_fd_sc_hd__xor2_2
*I *3164:X O *D sky130_fd_sc_hd__clkdlybuf4s25_1
*CAP
1 *3026:B 0.0007907
2 *3164:X 0.0007907
3 *3026:B *3201:A 0
4 *3026:B *3205:A 6.15226e-05
5 S[4] *3026:B 2.04825e-05
6 S[7] *3026:B 0
7 *3004:A *3026:B 6.05161e-06
8 *3026:A *3026:B 0
9 *3027:B *3026:B 0.000225817
10 *3028:A *3026:B 0.000154762
11 *105:8 *3026:B 0.000154762
12 *106:12 *3026:B 2.06413e-05
*RES
1 *3164:X *3026:B 31.3357 
*END

*D_NET *392 0.000392848
*CONN
*I *3029:B I *D sky130_fd_sc_hd__xor2_2
*I *3165:X O *D sky130_fd_sc_hd__clkdlybuf4s25_1
*CAP
1 *3029:B 4.61519e-05
2 *3165:X 4.61519e-05
3 *3029:B *3206:A 0.000150272
4 *3163:A *3029:B 0.000150272
*RES
1 *3165:X *3029:B 20.2464 
*END

*D_NET *393 0.0121807
*CONN
*I *3220:A I *D sky130_fd_sc_hd__buf_2
*I *3103:A I *D sky130_fd_sc_hd__buf_8
*I *3101:A I *D sky130_fd_sc_hd__buf_6
*I *3166:X O *D sky130_fd_sc_hd__buf_8
*CAP
1 *3220:A 9.84686e-05
2 *3103:A 0.000224063
3 *3101:A 0.000234112
4 *3166:X 0.000344389
5 *393:37 0.000977286
6 *393:35 0.00309216
7 *393:12 0.00301591
8 *3101:A *3199:A 0.000153047
9 *393:12 *3207:A 8.40012e-05
10 *2937:B1 *393:37 2.89016e-05
11 *2938:C *393:37 0.000276211
12 *2947:B1_N *393:35 8.37621e-05
13 *2947:B1_N *393:37 0.000245896
14 *2956:A1 *393:35 0.000885751
15 *2956:A2 *393:35 5.52423e-05
16 *2956:A3 *393:35 9.90367e-05
17 *2956:B1 *393:35 0.000142856
18 *2982:B *393:12 0
19 *2983:B *393:12 1.18064e-05
20 *2984:A *3101:A 5.33005e-05
21 *2984:A *393:12 3.17148e-05
22 *2984:A *393:35 0.000258915
23 *2984:B *3101:A 2.14757e-05
24 *2986:A3 *393:35 0.0001687
25 *2986:B1 *393:35 5.88126e-05
26 *3020:A2 *393:12 0.000170542
27 *3157:A *3101:A 0.000151333
28 *247:12 *393:37 5.52302e-05
29 *248:6 *393:37 0.000229456
30 *249:6 *393:37 4.16929e-05
31 *250:6 *393:35 8.5742e-05
32 *250:8 *393:35 0.000109666
33 *287:8 *393:12 0.000235205
34 *291:10 *393:35 0.000249619
35 *314:20 *393:12 0
36 *314:107 *3101:A 5.33005e-05
37 *377:12 *3103:A 0.000153054
*RES
1 *3166:X *393:12 27.3714 
2 *393:12 *3101:A 22.55 
3 *393:12 *393:35 40.0179 
4 *393:35 *393:37 12.4464 
5 *393:37 *3103:A 22.675 
6 *393:37 *3220:A 10.9786 
*END

*D_NET *394 0.00138239
*CONN
*I *3175:A I *D sky130_fd_sc_hd__clkdlybuf4s25_1
*I *2988:X O *D sky130_fd_sc_hd__xor2_2
*CAP
1 *3175:A 0.000251511
2 *2988:X 0.000251511
3 S[0] *3175:A 6.89449e-05
4 S[1] *3175:A 0.000264378
5 *358:10 *3175:A 0.000368104
6 *358:12 *3175:A 0.000177941
*RES
1 *2988:X *3175:A 36.1714 
*END

*D_NET *395 0.000641446
*CONN
*I *3176:A I *D sky130_fd_sc_hd__clkbuf_4
*I *3009:X O *D sky130_fd_sc_hd__xor2_2
*CAP
1 *3176:A 0.000118815
2 *3009:X 0.000118815
3 S[10] *3176:A 0
4 S[11] *3176:A 0.000164063
5 *3010:B1 *3176:A 6.30023e-05
6 *3011:B *3176:A 0.000176751
*RES
1 *3009:X *3176:A 31.975 
*END

*D_NET *396 0.000753459
*CONN
*I *3177:A I *D sky130_fd_sc_hd__buf_6
*I *3011:Y O *D sky130_fd_sc_hd__xnor2_2
*CAP
1 *3177:A 0.000135853
2 *3011:Y 0.000135853
3 S[11] *3177:A 0.000176725
4 *3011:B *3177:A 0
5 *3133:A *3177:A 0.000305028
*RES
1 *3011:Y *3177:A 32.2786 
*END

*D_NET *397 0.000862961
*CONN
*I *3178:A I *D sky130_fd_sc_hd__clkdlybuf4s25_1
*I *3012:X O *D sky130_fd_sc_hd__xor2_2
*CAP
1 *3178:A 0.000330483
2 *3012:X 0.000330483
3 *3178:A *3179:A 0.000201995
*RES
1 *3012:X *3178:A 34.4571 
*END

*D_NET *398 0.00453918
*CONN
*I *3099:B1 I *D sky130_fd_sc_hd__a21oi_2
*I *3098:A I *D sky130_fd_sc_hd__and3_2
*I *3167:X O *D sky130_fd_sc_hd__clkdlybuf4s25_1
*CAP
1 *3099:B1 0.000127653
2 *3098:A 0
3 *3167:X 0.00176167
4 *398:10 0.00188932
5 *2894:A *398:10 2.59355e-05
6 *2903:A1 *398:10 9.90431e-05
7 *2931:A1 *398:10 0.000276211
8 *3098:B *3099:B1 6.97972e-05
9 *3098:C *3099:B1 0
10 *3098:C *398:10 0
11 *177:12 *398:10 0
12 *184:12 *398:10 0.000232399
13 *243:12 *398:10 5.71472e-05
*RES
1 *3167:X *398:10 42.6393 
2 *398:10 *3098:A 13.8 
3 *398:10 *3099:B1 16.6571 
*END

*D_NET *399 0.00178707
*CONN
*I *3179:A I *D sky130_fd_sc_hd__dlymetal6s4s_1
*I *3014:Y O *D sky130_fd_sc_hd__xnor2_2
*CAP
1 *3179:A 0.000727605
2 *3014:Y 0.000727605
3 S[12] *3179:A 0.000129868
4 *3178:A *3179:A 0.000201995
*RES
1 *3014:Y *3179:A 40.35 
*END

*D_NET *400 0.00838479
*CONN
*I *3180:A I *D sky130_fd_sc_hd__buf_6
*I *3017:Y O *D sky130_fd_sc_hd__xnor2_2
*CAP
1 *3180:A 0.00164549
2 *3017:Y 0.00183454
3 *400:12 0.00348003
4 *3180:A *3206:A 0.000549025
5 *3026:A *3180:A 0
6 *3034:B *3180:A 0.000719516
7 *3034:B *400:12 0.00010096
8 *302:14 *3180:A 5.52302e-05
9 *332:10 *3180:A 0
*RES
1 *3017:Y *400:12 39.5679 
2 *400:12 *3180:A 44.2821 
*END

*D_NET *401 0.00471911
*CONN
*I *3181:A I *D sky130_fd_sc_hd__buf_6
*I *3019:Y O *D sky130_fd_sc_hd__xnor2_2
*CAP
1 *3181:A 0.000155095
2 *3019:Y 0.00167668
3 *401:10 0.00183178
4 S[15] *3181:A 1.33343e-05
5 *2861:B1 *401:10 0.000293408
6 *3012:A *401:10 0
7 *3015:C *401:10 0.000175512
8 *3082:B *401:10 0
9 *3083:A *401:10 5.74562e-05
10 *3085:B *401:10 7.83366e-05
11 *160:10 *401:10 0.000228558
12 *160:12 *401:10 0
13 *164:12 *401:10 0
14 *169:10 *401:10 0
15 *181:12 *401:10 0.000127353
16 *365:8 *401:10 8.15939e-05
*RES
1 *3019:Y *401:10 47.4071 
2 *401:10 *3181:A 16.3893 
*END

*D_NET *402 0.000775154
*CONN
*I *3182:A I *D sky130_fd_sc_hd__dlymetal6s2s_1
*I *2870:X O *D sky130_fd_sc_hd__xor2_2
*CAP
1 *3182:A 0.000328886
2 *2870:X 0.000328886
3 S[19] *3182:A 0.000117381
*RES
1 *2870:X *3182:A 33.6714 
*END

*D_NET *403 0.00148934
*CONN
*I *3183:A I *D sky130_fd_sc_hd__clkbuf_2
*I *2874:Y O *D sky130_fd_sc_hd__xnor2_2
*CAP
1 *3183:A 0.000647059
2 *2874:Y 0.000647059
3 *3183:A *3184:A 5.62995e-05
4 S[16] *3183:A 0.000102197
5 S[17] *3183:A 1.92905e-05
6 S[18] *3183:A 1.74352e-05
*RES
1 *2874:Y *3183:A 29.3321 
*END

*D_NET *404 0.00192931
*CONN
*I *3184:A I *D sky130_fd_sc_hd__clkbuf_4
*I *2883:X O *D sky130_fd_sc_hd__xor2_2
*CAP
1 *3184:A 0.000776492
2 *2883:X 0.000776492
3 S[18] *3184:A 0.000320024
4 *2874:A *3184:A 0
5 *2889:B *3184:A 0
6 *3183:A *3184:A 5.62995e-05
7 *185:12 *3184:A 0
*RES
1 *2883:X *3184:A 42.8679 
*END

*D_NET *405 0.0035714
*CONN
*I *3185:A I *D sky130_fd_sc_hd__buf_2
*I *2892:X O *D sky130_fd_sc_hd__xor2_2
*CAP
1 *3185:A 0
2 *2892:X 0.0017857
3 *405:12 0.0017857
*RES
1 *2892:X *405:12 49.5857 
2 *405:12 *3185:A 9.3 
*END

*D_NET *406 0.000441685
*CONN
*I *3186:A I *D sky130_fd_sc_hd__clkdlybuf4s25_1
*I *2990:Y O *D sky130_fd_sc_hd__xnor2_2
*CAP
1 *3186:A 0.000169739
2 *2990:Y 0.000169739
3 S[1] *3186:A 0.000102207
4 *317:23 *3186:A 0
5 *358:10 *3186:A 0
*RES
1 *2990:Y *3186:A 31.0107 
*END

*D_NET *407 0.00217876
*CONN
*I *3187:A I *D sky130_fd_sc_hd__clkbuf_2
*I *2900:Y O *D sky130_fd_sc_hd__xnor2_2
*CAP
1 *3187:A 0.000692265
2 *2900:Y 0.000692265
3 *2900:A *3187:A 0.000126026
4 *2909:B *3187:A 8.23728e-06
5 *2919:A *3187:A 0.000200209
6 *2919:B *3187:A 2.93922e-05
7 *215:39 *3187:A 0
8 *217:27 *3187:A 0.000331326
9 *337:12 *3187:A 9.90367e-05
*RES
1 *2900:Y *3187:A 40.5821 
*END

*D_NET *408 0.000686395
*CONN
*I *3188:A I *D sky130_fd_sc_hd__buf_6
*I *2904:Y O *D sky130_fd_sc_hd__xnor2_2
*CAP
1 *3188:A 0.000277576
2 *2904:Y 0.000277576
3 *3188:A *430:8 8.08376e-05
4 *3188:A *430:10 5.04045e-05
5 *3144:A *3188:A 0
*RES
1 *2904:Y *3188:A 33.225 
*END

*D_NET *409 0.00227471
*CONN
*I *2867:A I *D sky130_fd_sc_hd__nand2_2
*I *2868:A I *D sky130_fd_sc_hd__or2_2
*I *2881:C1 I *D sky130_fd_sc_hd__o211a_2
*I *3168:X O *D sky130_fd_sc_hd__clkdlybuf4s25_1
*CAP
1 *2867:A 0
2 *2868:A 1.49144e-05
3 *2881:C1 0.000363062
4 *3168:X 0.000159287
5 *409:16 0.000610198
6 *409:12 0.000391508
7 *409:12 *420:10 0.000125724
8 *2867:B *2868:A 5.38444e-06
9 *2867:B *2881:C1 4.73286e-05
10 *2867:B *409:16 7.51937e-05
11 *2881:B1 *2881:C1 0.00011962
12 *186:8 *2881:C1 1.76039e-05
13 *186:12 *2881:C1 0.000141734
14 *187:12 *409:12 5.49489e-05
15 *311:51 *409:12 0.000148202
*RES
1 *3168:X *409:12 22.1214 
2 *409:12 *409:16 3.32143 
3 *409:16 *2881:C1 24.6036 
4 *409:16 *2868:A 9.72857 
5 *409:12 *2867:A 9.3 
*END

*D_NET *410 0.000245831
*CONN
*I *3189:A I *D sky130_fd_sc_hd__buf_6
*I *2913:Y O *D sky130_fd_sc_hd__xnor2_2
*CAP
1 *3189:A 5.14873e-05
2 *2913:Y 5.14873e-05
3 *3189:A *3190:A 0.000142856
*RES
1 *2913:Y *3189:A 19.9571 
*END

*D_NET *411 0.00323111
*CONN
*I *3190:A I *D sky130_fd_sc_hd__buf_6
*I *2922:Y O *D sky130_fd_sc_hd__xnor2_2
*CAP
1 *3190:A 0.00099249
2 *2922:Y 0.00099249
3 S[22] *3190:A 4.50149e-05
4 *2902:A *3190:A 3.60349e-05
5 *2910:A2 *3190:A 1.46576e-05
6 *2910:B1 *3190:A 0.000159284
7 *2913:A *3190:A 0.000139625
8 *2921:A1 *3190:A 0.00022416
9 *3189:A *3190:A 0.000142856
10 *3221:A *3190:A 0.000141729
11 *217:27 *3190:A 0.000181803
12 *335:23 *3190:A 6.19181e-05
13 *337:12 *3190:A 9.90431e-05
*RES
1 *2922:Y *3190:A 46.35 
*END

*D_NET *412 0.0041579
*CONN
*I *3191:A I *D sky130_fd_sc_hd__clkbuf_4
*I *2934:X O *D sky130_fd_sc_hd__and2b_2
*CAP
1 *3191:A 0
2 *2934:X 0.00187177
3 *412:16 0.00187177
4 *2971:A2_N *412:16 0.000360798
5 *237:12 *412:16 5.35516e-05
6 *238:8 *412:16 0
7 *242:8 *412:16 0
*RES
1 *2934:X *412:16 49.5679 
2 *412:16 *3191:A 9.3 
*END

*D_NET *413 0.00204469
*CONN
*I *3192:A I *D sky130_fd_sc_hd__buf_6
*I *2941:Y O *D sky130_fd_sc_hd__xnor2_2
*CAP
1 *3192:A 0.000735346
2 *2941:Y 0.000735346
3 *2941:A *3192:A 0
4 *2944:B1 *3192:A 0
5 *2946:A_N *3192:A 5.76113e-05
6 *2947:A1 *3192:A 0.00012401
7 *2948:A2 *3192:A 0
8 *2949:B *3192:A 0.000105338
9 *2955:A1 *3192:A 0.000287041
10 *2955:B1 *3192:A 0
11 *246:12 *3192:A 0
12 *257:8 *3192:A 0
13 *342:8 *3192:A 0
*RES
1 *2941:Y *3192:A 42.225 
*END

*D_NET *414 0.000772653
*CONN
*I *3193:A I *D sky130_fd_sc_hd__buf_6
*I *2949:Y O *D sky130_fd_sc_hd__xnor2_2
*CAP
1 *3193:A 0.000288987
2 *2949:Y 0.000288987
3 *2944:A1 *3193:A 0.000102197
4 *254:10 *3193:A 9.24825e-05
*RES
1 *2949:Y *3193:A 24.4929 
*END

*D_NET *415 0.00164258
*CONN
*I *3194:A I *D sky130_fd_sc_hd__buf_4
*I *2957:X O *D sky130_fd_sc_hd__xor2_2
*CAP
1 *3194:A 0.000669093
2 *2957:X 0.000669093
3 *2952:A *3194:A 0.000176234
4 *2955:A2 *3194:A 0
5 *2955:B1 *3194:A 0
6 *3117:A *3194:A 0
7 *344:8 *3194:A 0.000128161
*RES
1 *2957:X *3194:A 40.1357 
*END

*D_NET *416 0.00254473
*CONN
*I *3195:A I *D sky130_fd_sc_hd__buf_4
*I *2964:X O *D sky130_fd_sc_hd__xor2_2
*CAP
1 *3195:A 0.000712414
2 *2964:X 0.000712414
3 *3195:A *3196:A 0.000221163
4 *2967:B1 *3195:A 0.0002253
5 *2968:A *3195:A 0.00018372
6 *2979:A3 *3195:A 5.62995e-05
7 *312:14 *3195:A 0.000120509
8 *312:25 *3195:A 0.000259608
9 *345:6 *3195:A 5.33005e-05
*RES
1 *2964:X *3195:A 43.0464 
*END

*D_NET *417 0.00314589
*CONN
*I *3196:A I *D sky130_fd_sc_hd__buf_6
*I *2972:Y O *D sky130_fd_sc_hd__xnor2_2
*CAP
1 *3196:A 0.000974164
2 *2972:Y 0.000974164
3 *2967:B1 *3196:A 0.000129025
4 *2970:B *3196:A 0.000162118
5 *3195:A *3196:A 0.000221163
6 *274:8 *3196:A 0.000139907
7 *276:10 *3196:A 0.000315894
8 *346:6 *3196:A 0.000229456
*RES
1 *2972:Y *3196:A 44.7429 
*END

*D_NET *418 0.00234762
*CONN
*I *3197:A I *D sky130_fd_sc_hd__clkdlybuf4s25_1
*I *2992:Y O *D sky130_fd_sc_hd__xnor2_2
*CAP
1 *3197:A 0.000933517
2 *2992:Y 0.000933517
3 *3063:B *3197:A 2.89114e-05
4 *3079:C *3197:A 0
5 *3155:A *3197:A 0.000274288
6 *155:14 *3197:A 5.52302e-05
7 *382:6 *3197:A 0.000122159
*RES
1 *2992:Y *3197:A 44.7786 
*END

*D_NET *419 0.00147738
*CONN
*I *3198:A I *D sky130_fd_sc_hd__buf_6
*I *2981:Y O *D sky130_fd_sc_hd__xnor2_2
*CAP
1 *3198:A 0.000565015
2 *2981:Y 0.000565015
3 *3156:A *3198:A 0
4 *314:107 *3198:A 0.000347354
5 *379:12 *3198:A 0
*RES
1 *2981:Y *3198:A 38.5464 
*END

*D_NET *420 0.00386352
*CONN
*I *2890:A1 I *D sky130_fd_sc_hd__a211oi_2
*I *2872:A I *D sky130_fd_sc_hd__xnor2_2
*I *2882:A1 I *D sky130_fd_sc_hd__a211oi_2
*I *2881:A1 I *D sky130_fd_sc_hd__o211a_2
*I *3169:X O *D sky130_fd_sc_hd__clkdlybuf4s25_1
*CAP
1 *2890:A1 0.000550973
2 *2872:A 0
3 *2882:A1 4.05809e-05
4 *2881:A1 0.000185488
5 *3169:X 0.000366675
6 *420:36 0.000681181
7 *420:25 0.000222153
8 *420:10 0.000603528
9 *2882:A2 *2881:A1 0.000258356
10 *2882:B1 *420:36 0
11 *2882:C1 *2881:A1 0.00040605
12 *2882:C1 *2882:A1 9.90367e-05
13 *2883:B *420:36 0
14 *2889:A *2890:A1 8.81343e-05
15 *2889:A *420:36 4.1331e-06
16 *2890:C1 *2881:A1 5.68713e-05
17 *2890:C1 *2890:A1 0
18 *2890:C1 *420:36 0
19 *3168:A *420:10 5.26184e-05
20 *190:17 *2890:A1 9.93955e-05
21 *190:25 *2881:A1 2.26232e-05
22 *197:12 *2890:A1 0
23 *409:12 *420:10 0.000125724
*RES
1 *3169:X *420:10 20.5321 
2 *420:10 *2881:A1 19.5589 
3 *420:10 *420:25 0.732143 
4 *420:25 *2882:A1 14.7464 
5 *420:25 *420:36 2.25 
6 *420:36 *2872:A 13.8 
7 *420:36 *2890:A1 23.675 
*END

*D_NET *421 0.00102717
*CONN
*I *3199:A I *D sky130_fd_sc_hd__buf_6
*I *2987:X O *D sky130_fd_sc_hd__xor2_2
*CAP
1 *3199:A 0.000247873
2 *2987:X 0.000247873
3 S[31] *3199:A 0
4 carryOut *3199:A 0.000128161
5 *2983:B *3199:A 4.97918e-05
6 *3101:A *3199:A 0.000153047
7 *3122:A *3199:A 0
8 *3157:A *3199:A 5.06044e-05
9 *314:10 *3199:A 0.000149821
10 *349:10 *3199:A 0
*RES
1 *2987:X *3199:A 34.9393 
*END

*D_NET *422 0.0017043
*CONN
*I *3200:A I *D sky130_fd_sc_hd__clkdlybuf4s25_1
*I *2994:Y O *D sky130_fd_sc_hd__xnor2_2
*CAP
1 *3200:A 0.000847026
2 *2994:Y 0.000847026
3 *3023:A *3200:A 0
4 *3210:A *3200:A 1.02504e-05
*RES
1 *2994:Y *3200:A 37.9929 
*END

*D_NET *423 0.00150066
*CONN
*I *3201:A I *D sky130_fd_sc_hd__clkdlybuf4s25_1
*I *2996:X O *D sky130_fd_sc_hd__xor2_2
*CAP
1 *3201:A 0.000639212
2 *2996:X 0.000639212
3 *3026:B *3201:A 0
4 *3027:B *3201:A 0
5 *3164:A *3201:A 0.000162728
6 *105:8 *3201:A 0
7 *106:12 *3201:A 5.95088e-05
8 *107:10 *3201:A 0
9 *107:19 *3201:A 0
*RES
1 *2996:X *3201:A 39.7964 
*END

*D_NET *424 0.000275625
*CONN
*I *3202:A I *D sky130_fd_sc_hd__clkdlybuf4s25_1
*I *2998:X O *D sky130_fd_sc_hd__xor2_2
*CAP
1 *3202:A 0.000137813
2 *2998:X 0.000137813
3 S[6] *3202:A 0
*RES
1 *2998:X *3202:A 30.1536 
*END

*D_NET *425 0.000275625
*CONN
*I *3203:A I *D sky130_fd_sc_hd__clkdlybuf4s25_1
*I *3000:Y O *D sky130_fd_sc_hd__xnor2_2
*CAP
1 *3203:A 0.000137813
2 *3000:Y 0.000137813
*RES
1 *3000:Y *3203:A 30.1536 
*END

*D_NET *426 0.000960156
*CONN
*I *3204:A I *D sky130_fd_sc_hd__dlymetal6s4s_1
*I *3002:Y O *D sky130_fd_sc_hd__xnor2_2
*CAP
1 *3204:A 0.000480078
2 *3002:Y 0.000480078
*RES
1 *3002:Y *3204:A 26.5286 
*END

*D_NET *427 0.00073286
*CONN
*I *3205:A I *D sky130_fd_sc_hd__clkdlybuf4s25_1
*I *3005:X O *D sky130_fd_sc_hd__xor2_2
*CAP
1 *3205:A 0.000289537
2 *3005:X 0.000289537
3 S[4] *3205:A 2.06178e-05
4 *3026:A *3205:A 0
5 *3026:B *3205:A 6.15226e-05
6 *3027:A *3205:A 7.16452e-05
7 *106:12 *3205:A 0
*RES
1 *3005:X *3205:A 32.5464 
*END

*D_NET *428 0.00235619
*CONN
*I *3206:A I *D sky130_fd_sc_hd__buf_6
*I *3007:Y O *D sky130_fd_sc_hd__xnor2_2
*CAP
1 *3206:A 0.00071143
2 *3007:Y 0.00071143
3 *3007:A *3206:A 5.73209e-05
4 *3010:B1 *3206:A 5.71472e-05
5 *3011:B *3206:A 3.14078e-05
6 *3026:A *3206:A 0
7 *3029:B *3206:A 0.000150272
8 *3163:A *3206:A 4.464e-05
9 *3180:A *3206:A 0.000549025
10 *111:10 *3206:A 4.35141e-05
11 *319:8 *3206:A 0
12 *319:18 *3206:A 0
*RES
1 *3007:Y *3206:A 43.2071 
*END

*D_NET *429 0.00136423
*CONN
*I *3207:A I *D sky130_fd_sc_hd__buf_6
*I *3020:Y O *D sky130_fd_sc_hd__o21ai_2
*CAP
1 *3207:A 0.000243539
2 *3020:Y 0.000243539
3 *2982:B *3207:A 0.000393005
4 *2984:B *3207:A 5.52238e-05
5 *3020:A1 *3207:A 0
6 *3020:A2 *3207:A 0.000344925
7 *393:12 *3207:A 8.40012e-05
*RES
1 *3020:Y *3207:A 35.85 
*END

*D_NET *430 0.00494372
*CONN
*I *2893:A I *D sky130_fd_sc_hd__xor2_2
*I *2884:A I *D sky130_fd_sc_hd__or2_2
*I *2885:A I *D sky130_fd_sc_hd__nand2_2
*I *3170:A I *D sky130_fd_sc_hd__buf_6
*I *2875:A I *D sky130_fd_sc_hd__or2_2
*I *2876:A I *D sky130_fd_sc_hd__nand2_2
*I *3104:X O *D sky130_fd_sc_hd__buf_6
*CAP
1 *2893:A 0.000247768
2 *2884:A 0.00010478
3 *2885:A 0
4 *3170:A 6.22772e-05
5 *2875:A 0.000167538
6 *2876:A 0.000177721
7 *3104:X 0.000179149
8 *430:47 0.00010478
9 *430:27 0.000229816
10 *430:16 0.000505847
11 *430:10 0.000732839
12 *430:8 0.000831629
13 *2871:B *2876:A 8.39e-05
14 *2878:A *2876:A 0.000126209
15 *2884:B *2884:A 0.000142856
16 *2886:A2 *430:16 2.72545e-05
17 *2893:B *2893:A 2.89016e-05
18 *2894:B *430:10 0
19 *2910:A2 *430:8 9.21958e-05
20 *3107:A *430:8 0
21 *3107:A *430:10 0
22 *3188:A *430:8 8.08376e-05
23 *3188:A *430:10 5.04045e-05
24 *193:12 *2875:A 6.0741e-05
25 *193:12 *3170:A 7.3237e-05
26 *202:8 *430:16 0.000106299
27 *209:10 *430:8 0.000108848
28 *310:10 *2876:A 8.66228e-05
29 *310:10 *430:16 0.000320512
30 *311:14 *2876:A 0
31 *320:10 *430:10 0
32 *320:10 *430:16 0
33 *368:14 *2875:A 0.000148616
34 *368:14 *2876:A 4.46186e-06
35 *368:14 *430:16 5.76816e-05
*RES
1 *3104:X *430:8 18.7821 
2 *430:8 *430:10 6.80357 
3 *430:10 *430:16 8.375 
4 *430:16 *2876:A 18.7821 
5 *430:16 *430:27 4.5 
6 *430:27 *2875:A 13.1571 
7 *430:27 *3170:A 10.6571 
8 *430:10 *430:47 4.5 
9 *430:47 *2885:A 9.3 
10 *430:47 *2884:A 11.4786 
11 *430:8 *2893:A 17.6393 
*END
