*SPEF "ieee 1481-1999"
*DESIGN "addsub32"
*DATE "09:29:42 Tuesday September 29, 2026"
*VENDOR "The OpenROAD Project"
*PROGRAM "OpenROAD"
*VERSION "dcf36133a369abc8f3c5e5738cd4d82e4903c0e0"
*DESIGN_FLOW "NAME_SCOPE LOCAL" "PIN_CAP NONE"
*DIVIDER /
*DELIMITER :
*BUS_DELIMITER []
*T_UNIT 1 NS
*C_UNIT 1 PF
*R_UNIT 1 OHM
*L_UNIT 1 HENRY

*NAME_MAP
*1 A[0]
*2 A[10]
*3 A[11]
*4 A[12]
*5 A[13]
*6 A[14]
*7 A[15]
*8 A[16]
*9 A[17]
*10 A[18]
*11 A[19]
*12 A[1]
*13 A[20]
*14 A[21]
*15 A[22]
*16 A[23]
*17 A[24]
*18 A[25]
*19 A[26]
*20 A[27]
*21 A[28]
*22 A[29]
*23 A[2]
*24 A[30]
*25 A[31]
*26 A[3]
*27 A[4]
*28 A[5]
*29 A[6]
*30 A[7]
*31 A[8]
*32 A[9]
*33 B[0]
*34 B[10]
*35 B[11]
*36 B[12]
*37 B[13]
*38 B[14]
*39 B[15]
*40 B[16]
*41 B[17]
*42 B[18]
*43 B[19]
*44 B[1]
*45 B[20]
*46 B[21]
*47 B[22]
*48 B[23]
*49 B[24]
*50 B[25]
*51 B[26]
*52 B[27]
*53 B[28]
*54 B[29]
*55 B[2]
*56 B[30]
*57 B[31]
*58 B[3]
*59 B[4]
*60 B[5]
*61 B[6]
*62 B[7]
*63 B[8]
*64 B[9]
*65 S[0]
*66 S[10]
*67 S[11]
*68 S[12]
*69 S[13]
*70 S[14]
*71 S[15]
*72 S[16]
*73 S[17]
*74 S[18]
*75 S[19]
*76 S[1]
*77 S[20]
*78 S[21]
*79 S[22]
*80 S[23]
*81 S[24]
*82 S[25]
*83 S[26]
*84 S[27]
*85 S[28]
*86 S[29]
*87 S[2]
*88 S[30]
*89 S[31]
*90 S[3]
*91 S[4]
*92 S[5]
*93 S[6]
*94 S[7]
*95 S[8]
*96 S[9]
*99 carryOut
*100 sub
*101 _000_
*102 _001_
*103 _002_
*104 _003_
*105 _004_
*106 _005_
*107 _006_
*108 _007_
*109 _008_
*110 _009_
*111 _010_
*112 _011_
*113 _012_
*114 _013_
*115 _014_
*116 _015_
*117 _016_
*118 _017_
*119 _018_
*120 _019_
*121 _020_
*122 _021_
*123 _022_
*124 _023_
*125 _024_
*126 _025_
*127 _026_
*128 _027_
*129 _028_
*130 _029_
*131 _030_
*132 _031_
*133 _032_
*134 _033_
*135 _034_
*136 _035_
*137 _036_
*138 _037_
*139 _038_
*140 _039_
*141 _040_
*142 _041_
*143 _042_
*144 _043_
*145 _044_
*146 _045_
*147 _046_
*148 _047_
*149 _048_
*150 _049_
*151 _050_
*152 _051_
*153 _052_
*154 _053_
*155 _054_
*156 _055_
*157 _056_
*158 _057_
*159 _058_
*160 _059_
*161 _060_
*162 _061_
*163 _062_
*164 _063_
*165 _064_
*166 _065_
*167 _066_
*168 _067_
*169 _068_
*170 _069_
*171 _070_
*172 _071_
*173 _072_
*174 _073_
*175 _074_
*176 _075_
*177 _076_
*178 _077_
*179 _078_
*180 _079_
*181 _080_
*182 _081_
*183 _082_
*184 _083_
*185 _084_
*186 _085_
*187 _086_
*188 _087_
*189 _088_
*190 _089_
*191 _090_
*192 _091_
*193 _092_
*194 _093_
*195 _094_
*196 _095_
*197 _096_
*198 _097_
*199 _098_
*200 _099_
*201 _100_
*202 _101_
*203 _102_
*204 _103_
*205 _104_
*206 _105_
*207 _106_
*208 _107_
*209 _108_
*210 _109_
*211 _110_
*212 _111_
*213 _112_
*214 _113_
*215 _114_
*216 _115_
*217 _116_
*218 _117_
*219 _118_
*220 _119_
*221 _120_
*222 _121_
*223 _122_
*224 _123_
*225 _124_
*226 _125_
*227 _126_
*228 _127_
*229 _128_
*230 _129_
*231 _130_
*232 _131_
*233 _132_
*234 _133_
*235 _134_
*236 _135_
*237 _136_
*238 _137_
*239 _138_
*240 _139_
*241 _140_
*242 _141_
*243 _142_
*244 _143_
*245 _144_
*246 _145_
*247 _146_
*248 _147_
*249 _148_
*250 _149_
*251 _150_
*252 _151_
*253 _152_
*254 _153_
*255 _154_
*256 _155_
*257 _156_
*258 _157_
*259 _158_
*260 _159_
*261 _160_
*262 _161_
*263 _162_
*264 _163_
*265 _164_
*266 _165_
*267 _166_
*268 _167_
*269 _168_
*270 _169_
*271 _170_
*272 _171_
*273 _172_
*274 _173_
*275 _174_
*276 _175_
*277 _176_
*278 _177_
*279 _178_
*280 _179_
*281 _180_
*282 _181_
*283 _182_
*284 _183_
*285 _184_
*286 _185_
*287 _186_
*288 _187_
*289 _188_
*290 _189_
*291 _190_
*292 _191_
*293 _192_
*294 _193_
*295 _194_
*296 _195_
*297 _196_
*298 _197_
*299 _198_
*300 _199_
*301 _200_
*302 _201_
*303 _202_
*304 _203_
*305 _204_
*306 _205_
*307 _206_
*308 _207_
*309 _208_
*310 _209_
*311 _210_
*312 _211_
*313 _212_
*314 _213_
*315 _214_
*316 _215_
*317 _216_
*318 _217_
*319 _218_
*320 _219_
*321 _220_
*322 _221_
*323 _222_
*324 _223_
*325 _224_
*326 _225_
*327 _226_
*328 _227_
*329 _228_
*330 _229_
*331 _230_
*332 _231_
*333 _232_
*334 _233_
*335 _234_
*336 _235_
*337 _236_
*338 _237_
*339 _238_
*340 _239_
*341 _240_
*342 _241_
*343 _242_
*344 _243_
*345 _244_
*346 _245_
*347 _246_
*348 _247_
*349 _248_
*350 _249_
*351 _250_
*352 _251_
*353 _252_
*354 _253_
*355 _254_
*356 _255_
*357 _256_
*358 _257_
*359 _258_
*360 _259_
*361 _260_
*362 _261_
*363 _262_
*364 _263_
*365 _264_
*366 _265_
*367 _266_
*368 _267_
*369 _268_
*370 _269_
*371 _270_
*372 _271_
*373 _272_
*374 _273_
*375 _274_
*376 _275_
*377 _276_
*378 _277_
*379 _278_
*380 _279_
*381 _280_
*382 _281_
*383 _282_
*384 _283_
*385 _284_
*386 _285_
*387 _286_
*388 _287_
*389 _288_
*390 _289_
*391 _290_
*392 _291_
*393 _292_
*394 _293_
*395 _294_
*396 _295_
*397 _296_
*398 _297_
*399 _298_
*400 _299_
*401 _300_
*402 _301_
*403 _302_
*404 _303_
*405 _304_
*406 _305_
*407 _306_
*408 _307_
*409 _308_
*410 _309_
*411 _310_
*412 _311_
*413 _312_
*414 _313_
*415 _314_
*416 _315_
*417 _316_
*418 _317_
*419 _318_
*420 _319_
*421 _320_
*422 _321_
*423 _322_
*424 _323_
*425 _324_
*426 _325_
*427 _326_
*428 _327_
*429 _328_
*430 _329_
*431 _330_
*432 _331_
*433 _332_
*434 _333_
*435 _334_
*436 _335_
*437 _336_
*438 _337_
*439 _338_
*440 _339_
*441 _340_
*442 _341_
*443 _342_
*444 _343_
*445 _344_
*446 _345_
*447 _346_
*448 _347_
*449 _348_
*450 _349_
*451 _350_
*452 _351_
*453 _352_
*454 net1
*455 net10
*456 net101
*457 net102
*458 net103
*459 net104
*460 net105
*461 net106
*462 net107
*463 net108
*464 net109
*465 net11
*466 net110
*467 net111
*468 net112
*469 net113
*470 net114
*471 net115
*472 net116
*473 net117
*474 net118
*475 net119
*476 net12
*477 net120
*478 net121
*479 net122
*480 net123
*481 net124
*482 net125
*483 net126
*484 net127
*485 net128
*486 net129
*487 net13
*488 net130
*489 net131
*490 net132
*491 net133
*492 net134
*493 net135
*494 net136
*495 net137
*496 net138
*497 net139
*498 net14
*499 net140
*500 net141
*501 net142
*502 net143
*503 net144
*504 net145
*505 net147
*506 net148
*507 net15
*508 net158
*509 net16
*510 net166
*511 net167
*512 net17
*513 net18
*514 net187
*515 net19
*516 net2
*517 net20
*518 net203
*519 net204
*520 net205
*521 net206
*522 net21
*523 net22
*524 net23
*525 net24
*526 net25
*527 net26
*528 net27
*529 net28
*530 net29
*531 net3
*532 net30
*533 net31
*534 net32
*535 net33
*536 net34
*537 net35
*538 net36
*539 net37
*540 net38
*541 net39
*542 net4
*543 net40
*544 net41
*545 net42
*546 net43
*547 net44
*548 net45
*549 net46
*550 net47
*551 net48
*552 net49
*553 net5
*554 net50
*555 net51
*556 net52
*557 net53
*558 net54
*559 net55
*560 net56
*561 net57
*562 net58
*563 net59
*564 net6
*565 net60
*566 net61
*567 net62
*568 net63
*569 net64
*570 net65
*571 net66
*572 net67
*573 net68
*574 net69
*575 net7
*576 net70
*577 net71
*578 net72
*579 net73
*580 net74
*581 net75
*582 net76
*583 net77
*584 net78
*585 net79
*586 net8
*587 net80
*588 net81
*589 net82
*590 net83
*591 net84
*592 net85
*593 net86
*594 net87
*595 net88
*596 net89
*597 net9
*598 net90
*599 net91
*600 net92
*601 net93
*602 net94
*603 net95
*604 net96
*605 net97
*606 net98
*607 net99
*608 FILLER_0_102
*609 FILLER_0_113
*610 FILLER_0_116
*611 FILLER_0_12
*612 FILLER_0_136
*613 FILLER_0_139
*614 FILLER_0_141
*615 FILLER_0_15
*616 FILLER_0_151
*617 FILLER_0_169
*618 FILLER_0_18
*619 FILLER_0_189
*620 FILLER_0_192
*621 FILLER_0_195
*622 FILLER_0_197
*623 FILLER_0_200
*624 FILLER_0_203
*625 FILLER_0_206
*626 FILLER_0_21
*627 FILLER_0_24
*628 FILLER_0_29
*629 FILLER_0_3
*630 FILLER_0_42
*631 FILLER_0_45
*632 FILLER_0_55
*633 FILLER_0_6
*634 FILLER_0_85
*635 FILLER_0_9
*636 FILLER_10_100
*637 FILLER_10_103
*638 FILLER_10_122
*639 FILLER_10_125
*640 FILLER_10_128
*641 FILLER_10_131
*642 FILLER_10_134
*643 FILLER_10_137
*644 FILLER_10_141
*645 FILLER_10_144
*646 FILLER_10_147
*647 FILLER_10_150
*648 FILLER_10_157
*649 FILLER_10_197
*650 FILLER_10_3
*651 FILLER_10_49
*652 FILLER_10_73
*653 FILLER_10_76
*654 FILLER_10_85
*655 FILLER_10_88
*656 FILLER_10_91
*657 FILLER_10_94
*658 FILLER_10_97
*659 FILLER_11_100
*660 FILLER_11_103
*661 FILLER_11_106
*662 FILLER_11_109
*663 FILLER_11_113
*664 FILLER_11_141
*665 FILLER_11_144
*666 FILLER_11_147
*667 FILLER_11_166
*668 FILLER_11_173
*669 FILLER_11_206
*670 FILLER_11_3
*671 FILLER_11_50
*672 FILLER_11_53
*673 FILLER_11_64
*674 FILLER_11_67
*675 FILLER_11_70
*676 FILLER_11_73
*677 FILLER_11_94
*678 FILLER_11_97
*679 FILLER_12_101
*680 FILLER_12_104
*681 FILLER_12_107
*682 FILLER_12_110
*683 FILLER_12_113
*684 FILLER_12_116
*685 FILLER_12_119
*686 FILLER_12_122
*687 FILLER_12_125
*688 FILLER_12_128
*689 FILLER_12_131
*690 FILLER_12_141
*691 FILLER_12_151
*692 FILLER_12_197
*693 FILLER_12_3
*694 FILLER_12_37
*695 FILLER_12_49
*696 FILLER_12_52
*697 FILLER_12_55
*698 FILLER_12_6
*699 FILLER_12_63
*700 FILLER_12_66
*701 FILLER_12_69
*702 FILLER_12_72
*703 FILLER_12_85
*704 FILLER_12_95
*705 FILLER_12_98
*706 FILLER_13_101
*707 FILLER_13_104
*708 FILLER_13_107
*709 FILLER_13_110
*710 FILLER_13_113
*711 FILLER_13_116
*712 FILLER_13_119
*713 FILLER_13_122
*714 FILLER_13_154
*715 FILLER_13_164
*716 FILLER_13_167
*717 FILLER_13_188
*718 FILLER_13_205
*719 FILLER_13_50
*720 FILLER_13_53
*721 FILLER_13_57
*722 FILLER_13_60
*723 FILLER_13_63
*724 FILLER_13_66
*725 FILLER_13_69
*726 FILLER_13_72
*727 FILLER_13_84
*728 FILLER_13_87
*729 FILLER_13_95
*730 FILLER_13_98
*731 FILLER_14_102
*732 FILLER_14_105
*733 FILLER_14_108
*734 FILLER_14_111
*735 FILLER_14_114
*736 FILLER_14_117
*737 FILLER_14_120
*738 FILLER_14_123
*739 FILLER_14_126
*740 FILLER_14_129
*741 FILLER_14_136
*742 FILLER_14_139
*743 FILLER_14_141
*744 FILLER_14_144
*745 FILLER_14_147
*746 FILLER_14_174
*747 FILLER_14_195
*748 FILLER_14_197
*749 FILLER_14_25
*750 FILLER_14_50
*751 FILLER_14_53
*752 FILLER_14_56
*753 FILLER_14_63
*754 FILLER_14_66
*755 FILLER_14_69
*756 FILLER_14_72
*757 FILLER_14_75
*758 FILLER_14_78
*759 FILLER_14_81
*760 FILLER_14_90
*761 FILLER_14_93
*762 FILLER_14_96
*763 FILLER_14_99
*764 FILLER_15_102
*765 FILLER_15_105
*766 FILLER_15_108
*767 FILLER_15_111
*768 FILLER_15_113
*769 FILLER_15_116
*770 FILLER_15_119
*771 FILLER_15_122
*772 FILLER_15_125
*773 FILLER_15_128
*774 FILLER_15_131
*775 FILLER_15_134
*776 FILLER_15_137
*777 FILLER_15_140
*778 FILLER_15_143
*779 FILLER_15_146
*780 FILLER_15_149
*781 FILLER_15_152
*782 FILLER_15_155
*783 FILLER_15_158
*784 FILLER_15_169
*785 FILLER_15_183
*786 FILLER_15_204
*787 FILLER_15_207
*788 FILLER_15_27
*789 FILLER_15_49
*790 FILLER_15_52
*791 FILLER_15_55
*792 FILLER_15_57
*793 FILLER_15_60
*794 FILLER_15_63
*795 FILLER_15_66
*796 FILLER_15_69
*797 FILLER_15_72
*798 FILLER_15_75
*799 FILLER_15_78
*800 FILLER_15_81
*801 FILLER_15_84
*802 FILLER_15_87
*803 FILLER_15_90
*804 FILLER_15_93
*805 FILLER_15_96
*806 FILLER_15_99
*807 FILLER_16_105
*808 FILLER_16_108
*809 FILLER_16_111
*810 FILLER_16_114
*811 FILLER_16_121
*812 FILLER_16_141
*813 FILLER_16_144
*814 FILLER_16_147
*815 FILLER_16_150
*816 FILLER_16_175
*817 FILLER_16_19
*818 FILLER_16_205
*819 FILLER_16_51
*820 FILLER_16_54
*821 FILLER_16_57
*822 FILLER_16_60
*823 FILLER_16_63
*824 FILLER_16_66
*825 FILLER_16_69
*826 FILLER_16_72
*827 FILLER_16_75
*828 FILLER_16_78
*829 FILLER_16_81
*830 FILLER_16_85
*831 FILLER_16_88
*832 FILLER_16_91
*833 FILLER_16_94
*834 FILLER_16_97
*835 FILLER_17_110
*836 FILLER_17_113
*837 FILLER_17_116
*838 FILLER_17_148
*839 FILLER_17_165
*840 FILLER_17_169
*841 FILLER_17_172
*842 FILLER_17_175
*843 FILLER_17_207
*844 FILLER_17_52
*845 FILLER_17_55
*846 FILLER_17_57
*847 FILLER_17_60
*848 FILLER_17_63
*849 FILLER_17_66
*850 FILLER_17_69
*851 FILLER_17_72
*852 FILLER_17_75
*853 FILLER_17_78
*854 FILLER_17_81
*855 FILLER_17_84
*856 FILLER_17_87
*857 FILLER_17_90
*858 FILLER_18_109
*859 FILLER_18_112
*860 FILLER_18_124
*861 FILLER_18_127
*862 FILLER_18_133
*863 FILLER_18_136
*864 FILLER_18_139
*865 FILLER_18_141
*866 FILLER_18_144
*867 FILLER_18_165
*868 FILLER_18_168
*869 FILLER_18_171
*870 FILLER_18_194
*871 FILLER_18_197
*872 FILLER_18_3
*873 FILLER_18_41
*874 FILLER_18_50
*875 FILLER_18_60
*876 FILLER_18_63
*877 FILLER_18_66
*878 FILLER_18_69
*879 FILLER_18_72
*880 FILLER_18_75
*881 FILLER_18_78
*882 FILLER_18_81
*883 FILLER_18_85
*884 FILLER_18_88
*885 FILLER_18_91
*886 FILLER_19_106
*887 FILLER_19_109
*888 FILLER_19_128
*889 FILLER_19_131
*890 FILLER_19_134
*891 FILLER_19_137
*892 FILLER_19_140
*893 FILLER_19_143
*894 FILLER_19_146
*895 FILLER_19_149
*896 FILLER_19_152
*897 FILLER_19_162
*898 FILLER_19_165
*899 FILLER_19_169
*900 FILLER_19_172
*901 FILLER_19_175
*902 FILLER_19_178
*903 FILLER_19_181
*904 FILLER_19_191
*905 FILLER_19_206
*906 FILLER_19_38
*907 FILLER_19_57
*908 FILLER_19_63
*909 FILLER_19_66
*910 FILLER_19_69
*911 FILLER_19_72
*912 FILLER_19_75
*913 FILLER_19_78
*914 FILLER_19_81
*915 FILLER_19_84
*916 FILLER_19_87
*917 FILLER_19_90
*918 FILLER_19_93
*919 FILLER_19_96
*920 FILLER_19_99
*921 FILLER_1_101
*922 FILLER_1_104
*923 FILLER_1_113
*924 FILLER_1_12
*925 FILLER_1_135
*926 FILLER_1_15
*927 FILLER_1_153
*928 FILLER_1_167
*929 FILLER_1_18
*930 FILLER_1_185
*931 FILLER_1_193
*932 FILLER_1_196
*933 FILLER_1_199
*934 FILLER_1_202
*935 FILLER_1_205
*936 FILLER_1_21
*937 FILLER_1_24
*938 FILLER_1_3
*939 FILLER_1_44
*940 FILLER_1_53
*941 FILLER_1_6
*942 FILLER_1_75
*943 FILLER_1_9
*944 FILLER_20_100
*945 FILLER_20_103
*946 FILLER_20_106
*947 FILLER_20_109
*948 FILLER_20_112
*949 FILLER_20_115
*950 FILLER_20_118
*951 FILLER_20_121
*952 FILLER_20_124
*953 FILLER_20_127
*954 FILLER_20_130
*955 FILLER_20_133
*956 FILLER_20_136
*957 FILLER_20_139
*958 FILLER_20_141
*959 FILLER_20_144
*960 FILLER_20_147
*961 FILLER_20_150
*962 FILLER_20_153
*963 FILLER_20_156
*964 FILLER_20_159
*965 FILLER_20_162
*966 FILLER_20_165
*967 FILLER_20_168
*968 FILLER_20_171
*969 FILLER_20_177
*970 FILLER_20_180
*971 FILLER_20_197
*972 FILLER_20_3
*973 FILLER_20_52
*974 FILLER_20_71
*975 FILLER_20_74
*976 FILLER_20_77
*977 FILLER_20_80
*978 FILLER_20_83
*979 FILLER_20_85
*980 FILLER_20_88
*981 FILLER_20_91
*982 FILLER_20_94
*983 FILLER_20_97
*984 FILLER_21_100
*985 FILLER_21_103
*986 FILLER_21_106
*987 FILLER_21_109
*988 FILLER_21_113
*989 FILLER_21_116
*990 FILLER_21_119
*991 FILLER_21_122
*992 FILLER_21_125
*993 FILLER_21_128
*994 FILLER_21_131
*995 FILLER_21_134
*996 FILLER_21_137
*997 FILLER_21_140
*998 FILLER_21_143
*999 FILLER_21_146
*1000 FILLER_21_149
*1001 FILLER_21_15
*1002 FILLER_21_152
*1003 FILLER_21_155
*1004 FILLER_21_158
*1005 FILLER_21_161
*1006 FILLER_21_164
*1007 FILLER_21_167
*1008 FILLER_21_169
*1009 FILLER_21_181
*1010 FILLER_21_204
*1011 FILLER_21_207
*1012 FILLER_21_3
*1013 FILLER_21_36
*1014 FILLER_21_52
*1015 FILLER_21_55
*1016 FILLER_21_6
*1017 FILLER_21_70
*1018 FILLER_21_73
*1019 FILLER_21_76
*1020 FILLER_21_79
*1021 FILLER_21_82
*1022 FILLER_21_85
*1023 FILLER_21_88
*1024 FILLER_21_91
*1025 FILLER_21_94
*1026 FILLER_21_97
*1027 FILLER_22_100
*1028 FILLER_22_103
*1029 FILLER_22_106
*1030 FILLER_22_109
*1031 FILLER_22_112
*1032 FILLER_22_115
*1033 FILLER_22_118
*1034 FILLER_22_121
*1035 FILLER_22_124
*1036 FILLER_22_127
*1037 FILLER_22_130
*1038 FILLER_22_133
*1039 FILLER_22_136
*1040 FILLER_22_139
*1041 FILLER_22_141
*1042 FILLER_22_144
*1043 FILLER_22_147
*1044 FILLER_22_158
*1045 FILLER_22_161
*1046 FILLER_22_164
*1047 FILLER_22_167
*1048 FILLER_22_187
*1049 FILLER_22_197
*1050 FILLER_22_25
*1051 FILLER_22_33
*1052 FILLER_22_43
*1053 FILLER_22_46
*1054 FILLER_22_49
*1055 FILLER_22_75
*1056 FILLER_22_78
*1057 FILLER_22_81
*1058 FILLER_22_85
*1059 FILLER_22_88
*1060 FILLER_22_91
*1061 FILLER_22_94
*1062 FILLER_22_97
*1063 FILLER_23_102
*1064 FILLER_23_126
*1065 FILLER_23_129
*1066 FILLER_23_132
*1067 FILLER_23_135
*1068 FILLER_23_138
*1069 FILLER_23_141
*1070 FILLER_23_164
*1071 FILLER_23_167
*1072 FILLER_23_169
*1073 FILLER_23_180
*1074 FILLER_23_188
*1075 FILLER_23_26
*1076 FILLER_23_29
*1077 FILLER_23_49
*1078 FILLER_23_52
*1079 FILLER_23_55
*1080 FILLER_23_57
*1081 FILLER_23_60
*1082 FILLER_23_63
*1083 FILLER_23_66
*1084 FILLER_23_69
*1085 FILLER_23_72
*1086 FILLER_23_75
*1087 FILLER_23_90
*1088 FILLER_23_93
*1089 FILLER_23_96
*1090 FILLER_23_99
*1091 FILLER_24_133
*1092 FILLER_24_136
*1093 FILLER_24_139
*1094 FILLER_24_141
*1095 FILLER_24_144
*1096 FILLER_24_147
*1097 FILLER_24_158
*1098 FILLER_24_161
*1099 FILLER_24_164
*1100 FILLER_24_167
*1101 FILLER_24_170
*1102 FILLER_24_173
*1103 FILLER_24_176
*1104 FILLER_24_193
*1105 FILLER_24_197
*1106 FILLER_24_27
*1107 FILLER_24_29
*1108 FILLER_24_3
*1109 FILLER_24_32
*1110 FILLER_24_35
*1111 FILLER_24_58
*1112 FILLER_24_76
*1113 FILLER_24_79
*1114 FILLER_24_82
*1115 FILLER_24_85
*1116 FILLER_24_88
*1117 FILLER_24_91
*1118 FILLER_24_94
*1119 FILLER_24_97
*1120 FILLER_25_102
*1121 FILLER_25_105
*1122 FILLER_25_108
*1123 FILLER_25_111
*1124 FILLER_25_113
*1125 FILLER_25_116
*1126 FILLER_25_119
*1127 FILLER_25_122
*1128 FILLER_25_125
*1129 FILLER_25_136
*1130 FILLER_25_139
*1131 FILLER_25_155
*1132 FILLER_25_158
*1133 FILLER_25_161
*1134 FILLER_25_164
*1135 FILLER_25_167
*1136 FILLER_25_174
*1137 FILLER_25_177
*1138 FILLER_25_18
*1139 FILLER_25_180
*1140 FILLER_25_183
*1141 FILLER_25_186
*1142 FILLER_25_21
*1143 FILLER_25_24
*1144 FILLER_25_27
*1145 FILLER_25_3
*1146 FILLER_25_30
*1147 FILLER_25_33
*1148 FILLER_25_39
*1149 FILLER_25_42
*1150 FILLER_25_45
*1151 FILLER_25_48
*1152 FILLER_25_51
*1153 FILLER_25_54
*1154 FILLER_25_57
*1155 FILLER_25_60
*1156 FILLER_25_63
*1157 FILLER_25_66
*1158 FILLER_25_69
*1159 FILLER_25_72
*1160 FILLER_25_75
*1161 FILLER_25_78
*1162 FILLER_25_81
*1163 FILLER_25_84
*1164 FILLER_25_87
*1165 FILLER_25_90
*1166 FILLER_25_93
*1167 FILLER_25_96
*1168 FILLER_25_99
*1169 FILLER_26_100
*1170 FILLER_26_103
*1171 FILLER_26_106
*1172 FILLER_26_109
*1173 FILLER_26_112
*1174 FILLER_26_115
*1175 FILLER_26_118
*1176 FILLER_26_121
*1177 FILLER_26_124
*1178 FILLER_26_127
*1179 FILLER_26_137
*1180 FILLER_26_141
*1181 FILLER_26_144
*1182 FILLER_26_158
*1183 FILLER_26_161
*1184 FILLER_26_164
*1185 FILLER_26_180
*1186 FILLER_26_183
*1187 FILLER_26_186
*1188 FILLER_26_206
*1189 FILLER_26_27
*1190 FILLER_26_29
*1191 FILLER_26_3
*1192 FILLER_26_46
*1193 FILLER_26_49
*1194 FILLER_26_52
*1195 FILLER_26_55
*1196 FILLER_26_58
*1197 FILLER_26_6
*1198 FILLER_26_61
*1199 FILLER_26_64
*1200 FILLER_26_67
*1201 FILLER_26_78
*1202 FILLER_26_81
*1203 FILLER_26_85
*1204 FILLER_26_88
*1205 FILLER_26_9
*1206 FILLER_26_91
*1207 FILLER_26_94
*1208 FILLER_26_97
*1209 FILLER_27_101
*1210 FILLER_27_104
*1211 FILLER_27_156
*1212 FILLER_27_159
*1213 FILLER_27_162
*1214 FILLER_27_165
*1215 FILLER_27_198
*1216 FILLER_27_27
*1217 FILLER_27_30
*1218 FILLER_27_48
*1219 FILLER_27_51
*1220 FILLER_27_54
*1221 FILLER_27_95
*1222 FILLER_27_98
*1223 FILLER_28_102
*1224 FILLER_28_118
*1225 FILLER_28_128
*1226 FILLER_28_138
*1227 FILLER_28_141
*1228 FILLER_28_149
*1229 FILLER_28_152
*1230 FILLER_28_158
*1231 FILLER_28_161
*1232 FILLER_28_164
*1233 FILLER_28_167
*1234 FILLER_28_170
*1235 FILLER_28_178
*1236 FILLER_28_181
*1237 FILLER_28_194
*1238 FILLER_28_197
*1239 FILLER_28_25
*1240 FILLER_28_29
*1241 FILLER_28_32
*1242 FILLER_28_49
*1243 FILLER_28_52
*1244 FILLER_28_55
*1245 FILLER_28_58
*1246 FILLER_28_70
*1247 FILLER_28_73
*1248 FILLER_28_76
*1249 FILLER_28_90
*1250 FILLER_28_93
*1251 FILLER_28_96
*1252 FILLER_28_99
*1253 FILLER_29_101
*1254 FILLER_29_111
*1255 FILLER_29_113
*1256 FILLER_29_116
*1257 FILLER_29_123
*1258 FILLER_29_126
*1259 FILLER_29_136
*1260 FILLER_29_139
*1261 FILLER_29_142
*1262 FILLER_29_145
*1263 FILLER_29_148
*1264 FILLER_29_151
*1265 FILLER_29_154
*1266 FILLER_29_157
*1267 FILLER_29_160
*1268 FILLER_29_163
*1269 FILLER_29_166
*1270 FILLER_29_169
*1271 FILLER_29_172
*1272 FILLER_29_175
*1273 FILLER_29_178
*1274 FILLER_29_186
*1275 FILLER_29_194
*1276 FILLER_29_197
*1277 FILLER_29_204
*1278 FILLER_29_207
*1279 FILLER_29_37
*1280 FILLER_29_46
*1281 FILLER_29_57
*1282 FILLER_29_77
*1283 FILLER_29_8
*1284 FILLER_29_80
*1285 FILLER_29_83
*1286 FILLER_29_86
*1287 FILLER_29_89
*1288 FILLER_29_92
*1289 FILLER_29_95
*1290 FILLER_29_98
*1291 FILLER_2_113
*1292 FILLER_2_133
*1293 FILLER_2_141
*1294 FILLER_2_160
*1295 FILLER_2_18
*1296 FILLER_2_193
*1297 FILLER_2_197
*1298 FILLER_2_204
*1299 FILLER_2_207
*1300 FILLER_2_21
*1301 FILLER_2_24
*1302 FILLER_2_27
*1303 FILLER_2_29
*1304 FILLER_2_3
*1305 FILLER_2_40
*1306 FILLER_2_46
*1307 FILLER_2_6
*1308 FILLER_2_66
*1309 FILLER_2_69
*1310 FILLER_2_9
*1311 FILLER_2_93
*1312 FILLER_30_117
*1313 FILLER_30_145
*1314 FILLER_30_148
*1315 FILLER_30_163
*1316 FILLER_30_166
*1317 FILLER_30_169
*1318 FILLER_30_172
*1319 FILLER_30_197
*1320 FILLER_30_36
*1321 FILLER_30_46
*1322 FILLER_30_49
*1323 FILLER_30_52
*1324 FILLER_30_55
*1325 FILLER_30_58
*1326 FILLER_30_71
*1327 FILLER_30_92
*1328 FILLER_30_95
*1329 FILLER_31_113
*1330 FILLER_31_119
*1331 FILLER_31_122
*1332 FILLER_31_125
*1333 FILLER_31_145
*1334 FILLER_31_166
*1335 FILLER_31_169
*1336 FILLER_31_172
*1337 FILLER_31_175
*1338 FILLER_31_178
*1339 FILLER_31_181
*1340 FILLER_31_184
*1341 FILLER_31_187
*1342 FILLER_31_38
*1343 FILLER_31_50
*1344 FILLER_31_57
*1345 FILLER_31_60
*1346 FILLER_31_74
*1347 FILLER_31_92
*1348 FILLER_31_95
*1349 FILLER_32_124
*1350 FILLER_32_130
*1351 FILLER_32_133
*1352 FILLER_32_136
*1353 FILLER_32_139
*1354 FILLER_32_141
*1355 FILLER_32_144
*1356 FILLER_32_15
*1357 FILLER_32_154
*1358 FILLER_32_157
*1359 FILLER_32_177
*1360 FILLER_32_180
*1361 FILLER_32_183
*1362 FILLER_32_186
*1363 FILLER_32_189
*1364 FILLER_32_192
*1365 FILLER_32_195
*1366 FILLER_32_197
*1367 FILLER_32_29
*1368 FILLER_32_41
*1369 FILLER_32_58
*1370 FILLER_32_78
*1371 FILLER_32_85
*1372 FILLER_32_88
*1373 FILLER_33_121
*1374 FILLER_33_132
*1375 FILLER_33_135
*1376 FILLER_33_158
*1377 FILLER_33_180
*1378 FILLER_33_183
*1379 FILLER_33_186
*1380 FILLER_33_189
*1381 FILLER_33_192
*1382 FILLER_33_195
*1383 FILLER_33_198
*1384 FILLER_33_201
*1385 FILLER_33_204
*1386 FILLER_33_207
*1387 FILLER_33_3
*1388 FILLER_33_57
*1389 FILLER_33_60
*1390 FILLER_33_81
*1391 FILLER_33_84
*1392 FILLER_33_87
*1393 FILLER_34_103
*1394 FILLER_34_106
*1395 FILLER_34_111
*1396 FILLER_34_122
*1397 FILLER_34_125
*1398 FILLER_34_128
*1399 FILLER_34_141
*1400 FILLER_34_177
*1401 FILLER_34_180
*1402 FILLER_34_183
*1403 FILLER_34_186
*1404 FILLER_34_189
*1405 FILLER_34_192
*1406 FILLER_34_195
*1407 FILLER_34_197
*1408 FILLER_34_200
*1409 FILLER_34_203
*1410 FILLER_34_206
*1411 FILLER_34_29
*1412 FILLER_34_3
*1413 FILLER_34_43
*1414 FILLER_34_46
*1415 FILLER_34_57
*1416 FILLER_34_6
*1417 FILLER_34_85
*1418 FILLER_34_9
*1419 FILLER_3_113
*1420 FILLER_3_116
*1421 FILLER_3_119
*1422 FILLER_3_143
*1423 FILLER_3_151
*1424 FILLER_3_154
*1425 FILLER_3_157
*1426 FILLER_3_160
*1427 FILLER_3_163
*1428 FILLER_3_166
*1429 FILLER_3_181
*1430 FILLER_3_184
*1431 FILLER_3_187
*1432 FILLER_3_190
*1433 FILLER_3_193
*1434 FILLER_3_24
*1435 FILLER_3_27
*1436 FILLER_3_3
*1437 FILLER_3_32
*1438 FILLER_3_47
*1439 FILLER_3_57
*1440 FILLER_3_65
*1441 FILLER_3_68
*1442 FILLER_3_71
*1443 FILLER_3_74
*1444 FILLER_3_96
*1445 FILLER_4_111
*1446 FILLER_4_114
*1447 FILLER_4_117
*1448 FILLER_4_120
*1449 FILLER_4_127
*1450 FILLER_4_130
*1451 FILLER_4_133
*1452 FILLER_4_136
*1453 FILLER_4_139
*1454 FILLER_4_141
*1455 FILLER_4_144
*1456 FILLER_4_147
*1457 FILLER_4_150
*1458 FILLER_4_16
*1459 FILLER_4_164
*1460 FILLER_4_167
*1461 FILLER_4_170
*1462 FILLER_4_176
*1463 FILLER_4_179
*1464 FILLER_4_182
*1465 FILLER_4_185
*1466 FILLER_4_188
*1467 FILLER_4_197
*1468 FILLER_4_29
*1469 FILLER_4_3
*1470 FILLER_4_55
*1471 FILLER_4_58
*1472 FILLER_4_65
*1473 FILLER_4_68
*1474 FILLER_4_71
*1475 FILLER_4_92
*1476 FILLER_4_95
*1477 FILLER_5_109
*1478 FILLER_5_113
*1479 FILLER_5_132
*1480 FILLER_5_135
*1481 FILLER_5_159
*1482 FILLER_5_181
*1483 FILLER_5_184
*1484 FILLER_5_38
*1485 FILLER_5_51
*1486 FILLER_5_54
*1487 FILLER_5_70
*1488 FILLER_5_73
*1489 FILLER_5_87
*1490 FILLER_5_90
*1491 FILLER_6_102
*1492 FILLER_6_141
*1493 FILLER_6_160
*1494 FILLER_6_163
*1495 FILLER_6_166
*1496 FILLER_6_169
*1497 FILLER_6_175
*1498 FILLER_6_197
*1499 FILLER_6_27
*1500 FILLER_6_34
*1501 FILLER_6_43
*1502 FILLER_6_46
*1503 FILLER_6_49
*1504 FILLER_6_52
*1505 FILLER_6_55
*1506 FILLER_6_58
*1507 FILLER_6_61
*1508 FILLER_6_64
*1509 FILLER_6_67
*1510 FILLER_6_77
*1511 FILLER_6_80
*1512 FILLER_6_83
*1513 FILLER_6_85
*1514 FILLER_6_88
*1515 FILLER_7_113
*1516 FILLER_7_118
*1517 FILLER_7_121
*1518 FILLER_7_124
*1519 FILLER_7_127
*1520 FILLER_7_130
*1521 FILLER_7_133
*1522 FILLER_7_145
*1523 FILLER_7_148
*1524 FILLER_7_151
*1525 FILLER_7_154
*1526 FILLER_7_157
*1527 FILLER_7_160
*1528 FILLER_7_163
*1529 FILLER_7_166
*1530 FILLER_7_169
*1531 FILLER_7_172
*1532 FILLER_7_175
*1533 FILLER_7_24
*1534 FILLER_7_51
*1535 FILLER_7_54
*1536 FILLER_7_65
*1537 FILLER_7_68
*1538 FILLER_7_71
*1539 FILLER_7_74
*1540 FILLER_7_77
*1541 FILLER_7_95
*1542 FILLER_7_98
*1543 FILLER_8_106
*1544 FILLER_8_121
*1545 FILLER_8_139
*1546 FILLER_8_141
*1547 FILLER_8_144
*1548 FILLER_8_147
*1549 FILLER_8_150
*1550 FILLER_8_153
*1551 FILLER_8_156
*1552 FILLER_8_159
*1553 FILLER_8_193
*1554 FILLER_8_197
*1555 FILLER_8_26
*1556 FILLER_8_29
*1557 FILLER_8_3
*1558 FILLER_8_64
*1559 FILLER_8_67
*1560 FILLER_8_82
*1561 FILLER_8_92
*1562 FILLER_8_95
*1563 FILLER_9_113
*1564 FILLER_9_116
*1565 FILLER_9_119
*1566 FILLER_9_122
*1567 FILLER_9_125
*1568 FILLER_9_128
*1569 FILLER_9_131
*1570 FILLER_9_134
*1571 FILLER_9_137
*1572 FILLER_9_140
*1573 FILLER_9_143
*1574 FILLER_9_146
*1575 FILLER_9_149
*1576 FILLER_9_167
*1577 FILLER_9_169
*1578 FILLER_9_188
*1579 FILLER_9_48
*1580 FILLER_9_51
*1581 FILLER_9_54
*1582 FILLER_9_57
*1583 FILLER_9_66
*1584 FILLER_9_69
*1585 FILLER_9_72
*1586 FILLER_9_75
*1587 FILLER_9_78
*1588 FILLER_9_81
*1589 FILLER_9_88
*1590 FILLER_9_91
*1591 FILLER_9_94
*1592 PHY_EDGE_ROW_0_Left_35
*1593 PHY_EDGE_ROW_0_Right_0
*1594 PHY_EDGE_ROW_10_Left_45
*1595 PHY_EDGE_ROW_10_Right_10
*1596 PHY_EDGE_ROW_11_Left_46
*1597 PHY_EDGE_ROW_11_Right_11
*1598 PHY_EDGE_ROW_12_Left_47
*1599 PHY_EDGE_ROW_12_Right_12
*1600 PHY_EDGE_ROW_13_Left_48
*1601 PHY_EDGE_ROW_13_Right_13
*1602 PHY_EDGE_ROW_14_Left_49
*1603 PHY_EDGE_ROW_14_Right_14
*1604 PHY_EDGE_ROW_15_Left_50
*1605 PHY_EDGE_ROW_15_Right_15
*1606 PHY_EDGE_ROW_16_Left_51
*1607 PHY_EDGE_ROW_16_Right_16
*1608 PHY_EDGE_ROW_17_Left_52
*1609 PHY_EDGE_ROW_17_Right_17
*1610 PHY_EDGE_ROW_18_Left_53
*1611 PHY_EDGE_ROW_18_Right_18
*1612 PHY_EDGE_ROW_19_Left_54
*1613 PHY_EDGE_ROW_19_Right_19
*1614 PHY_EDGE_ROW_1_Left_36
*1615 PHY_EDGE_ROW_1_Right_1
*1616 PHY_EDGE_ROW_20_Left_55
*1617 PHY_EDGE_ROW_20_Right_20
*1618 PHY_EDGE_ROW_21_Left_56
*1619 PHY_EDGE_ROW_21_Right_21
*1620 PHY_EDGE_ROW_22_Left_57
*1621 PHY_EDGE_ROW_22_Right_22
*1622 PHY_EDGE_ROW_23_Left_58
*1623 PHY_EDGE_ROW_23_Right_23
*1624 PHY_EDGE_ROW_24_Left_59
*1625 PHY_EDGE_ROW_24_Right_24
*1626 PHY_EDGE_ROW_25_Left_60
*1627 PHY_EDGE_ROW_25_Right_25
*1628 PHY_EDGE_ROW_26_Left_61
*1629 PHY_EDGE_ROW_26_Right_26
*1630 PHY_EDGE_ROW_27_Left_62
*1631 PHY_EDGE_ROW_27_Right_27
*1632 PHY_EDGE_ROW_28_Left_63
*1633 PHY_EDGE_ROW_28_Right_28
*1634 PHY_EDGE_ROW_29_Left_64
*1635 PHY_EDGE_ROW_29_Right_29
*1636 PHY_EDGE_ROW_2_Left_37
*1637 PHY_EDGE_ROW_2_Right_2
*1638 PHY_EDGE_ROW_30_Left_65
*1639 PHY_EDGE_ROW_30_Right_30
*1640 PHY_EDGE_ROW_31_Left_66
*1641 PHY_EDGE_ROW_31_Right_31
*1642 PHY_EDGE_ROW_32_Left_67
*1643 PHY_EDGE_ROW_32_Right_32
*1644 PHY_EDGE_ROW_33_Left_68
*1645 PHY_EDGE_ROW_33_Right_33
*1646 PHY_EDGE_ROW_34_Left_69
*1647 PHY_EDGE_ROW_34_Right_34
*1648 PHY_EDGE_ROW_3_Left_38
*1649 PHY_EDGE_ROW_3_Right_3
*1650 PHY_EDGE_ROW_4_Left_39
*1651 PHY_EDGE_ROW_4_Right_4
*1652 PHY_EDGE_ROW_5_Left_40
*1653 PHY_EDGE_ROW_5_Right_5
*1654 PHY_EDGE_ROW_6_Left_41
*1655 PHY_EDGE_ROW_6_Right_6
*1656 PHY_EDGE_ROW_7_Left_42
*1657 PHY_EDGE_ROW_7_Right_7
*1658 PHY_EDGE_ROW_8_Left_43
*1659 PHY_EDGE_ROW_8_Right_8
*1660 PHY_EDGE_ROW_9_Left_44
*1661 PHY_EDGE_ROW_9_Right_9
*1662 TAP_TAPCELL_ROW_0_70
*1663 TAP_TAPCELL_ROW_0_71
*1664 TAP_TAPCELL_ROW_0_72
*1665 TAP_TAPCELL_ROW_0_73
*1666 TAP_TAPCELL_ROW_0_74
*1667 TAP_TAPCELL_ROW_0_75
*1668 TAP_TAPCELL_ROW_0_76
*1669 TAP_TAPCELL_ROW_10_108
*1670 TAP_TAPCELL_ROW_10_109
*1671 TAP_TAPCELL_ROW_10_110
*1672 TAP_TAPCELL_ROW_10_111
*1673 TAP_TAPCELL_ROW_11_112
*1674 TAP_TAPCELL_ROW_11_113
*1675 TAP_TAPCELL_ROW_11_114
*1676 TAP_TAPCELL_ROW_12_115
*1677 TAP_TAPCELL_ROW_12_116
*1678 TAP_TAPCELL_ROW_12_117
*1679 TAP_TAPCELL_ROW_12_118
*1680 TAP_TAPCELL_ROW_13_119
*1681 TAP_TAPCELL_ROW_13_120
*1682 TAP_TAPCELL_ROW_13_121
*1683 TAP_TAPCELL_ROW_14_122
*1684 TAP_TAPCELL_ROW_14_123
*1685 TAP_TAPCELL_ROW_14_124
*1686 TAP_TAPCELL_ROW_14_125
*1687 TAP_TAPCELL_ROW_15_126
*1688 TAP_TAPCELL_ROW_15_127
*1689 TAP_TAPCELL_ROW_15_128
*1690 TAP_TAPCELL_ROW_16_129
*1691 TAP_TAPCELL_ROW_16_130
*1692 TAP_TAPCELL_ROW_16_131
*1693 TAP_TAPCELL_ROW_16_132
*1694 TAP_TAPCELL_ROW_17_133
*1695 TAP_TAPCELL_ROW_17_134
*1696 TAP_TAPCELL_ROW_17_135
*1697 TAP_TAPCELL_ROW_18_136
*1698 TAP_TAPCELL_ROW_18_137
*1699 TAP_TAPCELL_ROW_18_138
*1700 TAP_TAPCELL_ROW_18_139
*1701 TAP_TAPCELL_ROW_19_140
*1702 TAP_TAPCELL_ROW_19_141
*1703 TAP_TAPCELL_ROW_19_142
*1704 TAP_TAPCELL_ROW_1_77
*1705 TAP_TAPCELL_ROW_1_78
*1706 TAP_TAPCELL_ROW_1_79
*1707 TAP_TAPCELL_ROW_20_143
*1708 TAP_TAPCELL_ROW_20_144
*1709 TAP_TAPCELL_ROW_20_145
*1710 TAP_TAPCELL_ROW_20_146
*1711 TAP_TAPCELL_ROW_21_147
*1712 TAP_TAPCELL_ROW_21_148
*1713 TAP_TAPCELL_ROW_21_149
*1714 TAP_TAPCELL_ROW_22_150
*1715 TAP_TAPCELL_ROW_22_151
*1716 TAP_TAPCELL_ROW_22_152
*1717 TAP_TAPCELL_ROW_22_153
*1718 TAP_TAPCELL_ROW_23_154
*1719 TAP_TAPCELL_ROW_23_155
*1720 TAP_TAPCELL_ROW_23_156
*1721 TAP_TAPCELL_ROW_24_157
*1722 TAP_TAPCELL_ROW_24_158
*1723 TAP_TAPCELL_ROW_24_159
*1724 TAP_TAPCELL_ROW_24_160
*1725 TAP_TAPCELL_ROW_25_161
*1726 TAP_TAPCELL_ROW_25_162
*1727 TAP_TAPCELL_ROW_25_163
*1728 TAP_TAPCELL_ROW_26_164
*1729 TAP_TAPCELL_ROW_26_165
*1730 TAP_TAPCELL_ROW_26_166
*1731 TAP_TAPCELL_ROW_26_167
*1732 TAP_TAPCELL_ROW_27_168
*1733 TAP_TAPCELL_ROW_27_169
*1734 TAP_TAPCELL_ROW_27_170
*1735 TAP_TAPCELL_ROW_28_171
*1736 TAP_TAPCELL_ROW_28_172
*1737 TAP_TAPCELL_ROW_28_173
*1738 TAP_TAPCELL_ROW_28_174
*1739 TAP_TAPCELL_ROW_29_175
*1740 TAP_TAPCELL_ROW_29_176
*1741 TAP_TAPCELL_ROW_29_177
*1742 TAP_TAPCELL_ROW_2_80
*1743 TAP_TAPCELL_ROW_2_81
*1744 TAP_TAPCELL_ROW_2_82
*1745 TAP_TAPCELL_ROW_2_83
*1746 TAP_TAPCELL_ROW_30_178
*1747 TAP_TAPCELL_ROW_30_179
*1748 TAP_TAPCELL_ROW_30_180
*1749 TAP_TAPCELL_ROW_30_181
*1750 TAP_TAPCELL_ROW_31_182
*1751 TAP_TAPCELL_ROW_31_183
*1752 TAP_TAPCELL_ROW_31_184
*1753 TAP_TAPCELL_ROW_32_185
*1754 TAP_TAPCELL_ROW_32_186
*1755 TAP_TAPCELL_ROW_32_187
*1756 TAP_TAPCELL_ROW_32_188
*1757 TAP_TAPCELL_ROW_33_189
*1758 TAP_TAPCELL_ROW_33_190
*1759 TAP_TAPCELL_ROW_33_191
*1760 TAP_TAPCELL_ROW_34_192
*1761 TAP_TAPCELL_ROW_34_193
*1762 TAP_TAPCELL_ROW_34_194
*1763 TAP_TAPCELL_ROW_34_195
*1764 TAP_TAPCELL_ROW_34_196
*1765 TAP_TAPCELL_ROW_34_197
*1766 TAP_TAPCELL_ROW_34_198
*1767 TAP_TAPCELL_ROW_3_84
*1768 TAP_TAPCELL_ROW_3_85
*1769 TAP_TAPCELL_ROW_3_86
*1770 TAP_TAPCELL_ROW_4_87
*1771 TAP_TAPCELL_ROW_4_88
*1772 TAP_TAPCELL_ROW_4_89
*1773 TAP_TAPCELL_ROW_4_90
*1774 TAP_TAPCELL_ROW_5_91
*1775 TAP_TAPCELL_ROW_5_92
*1776 TAP_TAPCELL_ROW_5_93
*1777 TAP_TAPCELL_ROW_6_94
*1778 TAP_TAPCELL_ROW_6_95
*1779 TAP_TAPCELL_ROW_6_96
*1780 TAP_TAPCELL_ROW_6_97
*1781 TAP_TAPCELL_ROW_7_100
*1782 TAP_TAPCELL_ROW_7_98
*1783 TAP_TAPCELL_ROW_7_99
*1784 TAP_TAPCELL_ROW_8_101
*1785 TAP_TAPCELL_ROW_8_102
*1786 TAP_TAPCELL_ROW_8_103
*1787 TAP_TAPCELL_ROW_8_104
*1788 TAP_TAPCELL_ROW_9_105
*1789 TAP_TAPCELL_ROW_9_106
*1790 TAP_TAPCELL_ROW_9_107
*1791 _353_
*1792 _354_
*1793 _355_
*1794 _356_
*1795 _357_
*1796 _358_
*1797 _359_
*1798 _360_
*1799 _361_
*1800 _362_
*1801 _363_
*1802 _364_
*1803 _365_
*1804 _366_
*1805 _367_
*1806 _368_
*1807 _369_
*1808 _370_
*1809 _371_
*1810 _372_
*1811 _373_
*1812 _374_
*1813 _375_
*1814 _376_
*1815 _377_
*1816 _378_
*1817 _379_
*1818 _380_
*1819 _381_
*1820 _382_
*1821 _383_
*1822 _384_
*1823 _385_
*1824 _386_
*1825 _387_
*1826 _388_
*1827 _389_
*1828 _390_
*1829 _391_
*1830 _392_
*1831 _393_
*1832 _394_
*1833 _395_
*1834 _396_
*1835 _397_
*1836 _398_
*1837 _399_
*1838 _400_
*1839 _401_
*1840 _402_
*1841 _403_
*1842 _404_
*1843 _405_
*1844 _406_
*1845 _407_
*1846 _408_
*1847 _409_
*1848 _410_
*1849 _411_
*1850 _412_
*1851 _413_
*1852 _414_
*1853 _415_
*1854 _416_
*1855 _417_
*1856 _418_
*1857 _419_
*1858 _420_
*1859 _421_
*1860 _422_
*1861 _423_
*1862 _424_
*1863 _425_
*1864 _426_
*1865 _427_
*1866 _428_
*1867 _429_
*1868 _430_
*1869 _431_
*1870 _432_
*1871 _433_
*1872 _434_
*1873 _435_
*1874 _436_
*1875 _437_
*1876 _438_
*1877 _439_
*1878 _440_
*1879 _441_
*1880 _442_
*1881 _443_
*1882 _444_
*1883 _445_
*1884 _446_
*1885 _447_
*1886 _448_
*1887 _449_
*1888 _450_
*1889 _451_
*1890 _452_
*1891 _453_
*1892 _454_
*1893 _455_
*1894 _456_
*1895 _457_
*1896 _458_
*1897 _459_
*1898 _460_
*1899 _461_
*1900 _462_
*1901 _463_
*1902 _464_
*1903 _465_
*1904 _466_
*1905 _467_
*1906 _468_
*1907 _469_
*1908 _470_
*1909 _471_
*1910 _472_
*1911 _473_
*1912 _474_
*1913 _475_
*1914 _476_
*1915 _477_
*1916 _478_
*1917 _479_
*1918 _480_
*1919 _481_
*1920 _482_
*1921 _483_
*1922 _484_
*1923 _485_
*1924 _486_
*1925 _487_
*1926 _488_
*1927 _489_
*1928 _490_
*1929 _491_
*1930 _492_
*1931 _493_
*1932 _494_
*1933 _495_
*1934 _496_
*1935 _497_
*1936 _498_
*1937 _499_
*1938 _500_
*1939 _501_
*1940 _502_
*1941 _503_
*1942 _504_
*1943 _505_
*1944 _506_
*1945 _507_
*1946 _508_
*1947 _509_
*1948 _510_
*1949 _511_
*1950 _512_
*1951 _513_
*1952 _514_
*1953 _515_
*1954 _516_
*1955 _517_
*1956 _518_
*1957 _519_
*1958 _520_
*1959 _521_
*1960 _522_
*1961 _523_
*1962 _524_
*1963 _525_
*1964 _526_
*1965 _527_
*1966 _528_
*1967 _529_
*1968 _530_
*1969 _531_
*1970 _532_
*1971 _533_
*1972 _534_
*1973 _535_
*1974 _536_
*1975 _537_
*1976 _538_
*1977 _539_
*1978 _540_
*1979 _541_
*1980 _542_
*1981 _543_
*1982 _544_
*1983 _545_
*1984 _546_
*1985 _547_
*1986 _548_
*1987 _549_
*1988 _550_
*1989 _551_
*1990 _552_
*1991 _553_
*1992 _554_
*1993 _555_
*1994 _556_
*1995 _557_
*1996 _558_
*1997 _559_
*1998 _560_
*1999 _561_
*2000 _562_
*2001 _563_
*2002 _564_
*2003 _565_
*2004 _566_
*2005 _567_
*2006 _568_
*2007 _569_
*2008 _570_
*2009 _571_
*2010 _572_
*2011 _573_
*2012 _574_
*2013 _575_
*2014 _576_
*2015 _577_
*2016 _578_
*2017 _579_
*2018 _580_
*2019 _581_
*2020 _582_
*2021 _583_
*2022 _584_
*2023 _585_
*2024 _586_
*2025 _587_
*2026 _588_
*2027 _589_
*2028 _590_
*2029 _591_
*2030 _592_
*2031 _593_
*2032 _594_
*2033 _595_
*2034 _596_
*2035 _597_
*2036 _598_
*2037 _599_
*2038 _600_
*2039 _601_
*2040 _602_
*2041 _603_
*2042 _604_
*2043 _605_
*2044 _606_
*2045 _607_
*2046 _608_
*2047 _609_
*2048 _610_
*2049 _611_
*2050 _612_
*2051 _613_
*2052 _614_
*2053 _615_
*2054 _616_
*2055 _617_
*2056 _618_
*2057 _619_
*2058 _620_
*2059 _621_
*2060 _622_
*2061 _623_
*2062 _624_
*2063 _625_
*2064 _626_
*2065 _627_
*2066 _628_
*2067 _629_
*2068 _630_
*2069 _631_
*2070 _632_
*2071 _633_
*2072 _634_
*2073 _635_
*2074 _636_
*2075 _637_
*2076 _638_
*2077 _639_
*2078 _640_
*2079 _641_
*2080 _642_
*2081 _643_
*2082 _644_
*2083 _645_
*2084 _646_
*2085 _647_
*2086 _648_
*2087 _649_
*2088 _650_
*2089 _651_
*2090 _652_
*2091 _653_
*2092 _654_
*2093 _655_
*2094 _656_
*2095 _657_
*2096 _658_
*2097 _659_
*2098 _660_
*2099 _661_
*2100 _662_
*2101 _663_
*2102 _664_
*2103 _665_
*2104 _666_
*2105 _667_
*2106 _668_
*2107 _669_
*2108 _670_
*2109 _671_
*2110 _672_
*2111 _673_
*2112 _674_
*2113 _675_
*2114 _676_
*2115 _677_
*2116 _678_
*2117 _679_
*2118 _680_
*2119 _681_
*2120 _682_
*2121 _683_
*2122 _684_
*2123 _685_
*2124 _686_
*2125 _687_
*2126 _688_
*2127 _689_
*2128 _690_
*2129 _691_
*2130 _692_
*2131 _693_
*2132 _694_
*2133 _695_
*2134 _696_
*2135 _697_
*2136 _698_
*2137 _699_
*2138 _700_
*2139 _701_
*2140 _702_
*2141 _703_
*2142 _704_
*2143 _705_
*2144 _706_
*2145 _707_
*2146 _708_
*2147 _709_
*2148 _710_
*2149 _711_
*2150 _712_
*2151 _713_
*2152 _714_
*2153 _715_
*2154 _716_
*2155 _717_
*2156 _718_
*2157 _719_
*2158 _720_
*2159 _721_
*2160 _722_
*2161 _723_
*2162 _724_
*2163 _725_
*2164 _726_
*2165 _727_
*2166 _728_
*2167 _729_
*2168 _730_
*2169 _731_
*2170 _732_
*2171 _733_
*2172 _734_
*2173 _735_
*2174 _736_
*2175 _737_
*2176 _738_
*2177 fanout101
*2178 fanout103
*2179 fanout105
*2180 fanout106
*2181 fanout107
*2182 fanout108
*2183 fanout109
*2184 fanout111
*2185 fanout113
*2186 fanout115
*2187 fanout116
*2188 fanout117
*2189 fanout99
*2190 input1
*2191 input10
*2192 input11
*2193 input12
*2194 input13
*2195 input14
*2196 input15
*2197 input16
*2198 input17
*2199 input18
*2200 input19
*2201 input2
*2202 input20
*2203 input21
*2204 input22
*2205 input23
*2206 input24
*2207 input25
*2208 input26
*2209 input27
*2210 input28
*2211 input29
*2212 input3
*2213 input30
*2214 input31
*2215 input32
*2216 input33
*2217 input34
*2218 input35
*2219 input36
*2220 input37
*2221 input38
*2222 input39
*2223 input4
*2224 input40
*2225 input41
*2226 input42
*2227 input43
*2228 input44
*2229 input45
*2230 input46
*2231 input47
*2232 input48
*2233 input49
*2234 input5
*2235 input50
*2236 input51
*2237 input52
*2238 input53
*2239 input54
*2240 input55
*2241 input56
*2242 input57
*2243 input58
*2244 input59
*2245 input6
*2246 input60
*2247 input61
*2248 input62
*2249 input63
*2250 input64
*2251 input65
*2252 input7
*2253 input8
*2254 input9
*2255 load_slew102
*2256 load_slew104
*2257 load_slew110
*2258 load_slew112
*2259 load_slew114
*2260 output66
*2261 output67
*2262 output68
*2263 output69
*2264 output70
*2265 output71
*2266 output72
*2267 output73
*2268 output74
*2269 output75
*2270 output76
*2271 output77
*2272 output78
*2273 output79
*2274 output80
*2275 output81
*2276 output82
*2277 output83
*2278 output84
*2279 output85
*2280 output86
*2281 output87
*2282 output88
*2283 output89
*2284 output90
*2285 output91
*2286 output92
*2287 output93
*2288 output94
*2289 output95
*2290 output96
*2291 output97
*2292 output98
*2293 rebuffer118
*2294 rebuffer119
*2295 rebuffer120
*2296 rebuffer121
*2297 rebuffer122
*2298 rebuffer123
*2299 rebuffer124
*2300 rebuffer125
*2301 rebuffer126
*2302 rebuffer127
*2303 rebuffer128
*2304 rebuffer129
*2305 rebuffer130
*2306 rebuffer131
*2307 rebuffer132
*2308 rebuffer133
*2309 rebuffer134
*2310 rebuffer135
*2311 rebuffer136
*2312 rebuffer137
*2313 rebuffer138
*2314 rebuffer139
*2315 rebuffer140
*2316 rebuffer141
*2317 rebuffer142
*2318 rebuffer143
*2319 rebuffer144
*2320 rebuffer145
*2321 rebuffer147
*2322 rebuffer148
*2323 rebuffer158
*2324 rebuffer166
*2325 rebuffer167
*2326 rebuffer187
*2327 rebuffer203
*2328 rebuffer204
*2329 rebuffer205
*2330 rebuffer206

*PORTS
A[0] I
A[10] I
A[11] I
A[12] I
A[13] I
A[14] I
A[15] I
A[16] I
A[17] I
A[18] I
A[19] I
A[1] I
A[20] I
A[21] I
A[22] I
A[23] I
A[24] I
A[25] I
A[26] I
A[27] I
A[28] I
A[29] I
A[2] I
A[30] I
A[31] I
A[3] I
A[4] I
A[5] I
A[6] I
A[7] I
A[8] I
A[9] I
B[0] I
B[10] I
B[11] I
B[12] I
B[13] I
B[14] I
B[15] I
B[16] I
B[17] I
B[18] I
B[19] I
B[1] I
B[20] I
B[21] I
B[22] I
B[23] I
B[24] I
B[25] I
B[26] I
B[27] I
B[28] I
B[29] I
B[2] I
B[30] I
B[31] I
B[3] I
B[4] I
B[5] I
B[6] I
B[7] I
B[8] I
B[9] I
S[0] O
S[10] O
S[11] O
S[12] O
S[13] O
S[14] O
S[15] O
S[16] O
S[17] O
S[18] O
S[19] O
S[1] O
S[20] O
S[21] O
S[22] O
S[23] O
S[24] O
S[25] O
S[26] O
S[27] O
S[28] O
S[29] O
S[2] O
S[30] O
S[31] O
S[3] O
S[4] O
S[5] O
S[6] O
S[7] O
S[8] O
S[9] O
carryOut O
sub I

*D_NET *1 0.00431491
*CONN
*P A[0] I
*I *2190:A I *D sky130_fd_sc_hd__clkdlybuf4s25_1
*CAP
1 A[0] 0.00178542
2 *2190:A 0
3 *1:11 0.00178542
4 *1:11 *1846:B 5.58975e-06
5 *1:11 *1848:A1 2.38603e-05
6 *1:11 *23:13 0.000263196
7 *1:11 *33:11 0.000243367
8 *1:11 *55:17 0.000208068
9 *1:11 *58:11 0
10 *1:11 *458:22 0
11 *1:11 *570:28 0
*RES
1 A[0] *1:11 28.8662 
2 *1:11 *2190:A 23 
*END

*D_NET *2 0.00211491
*CONN
*P A[10] I
*I *2201:A I *D sky130_fd_sc_hd__clkdlybuf4s25_1
*CAP
1 A[10] 0.000948763
2 *2201:A 0
3 *2:13 0.000948763
4 *2:13 S[10] 0
5 *2:13 *34:11 0.000169108
6 *2:13 *35:13 4.82774e-05
7 *2:13 *95:8 0
*RES
1 A[10] *2:13 39.9608 
2 *2:13 *2201:A 23 
*END

*D_NET *3 0.00189623
*CONN
*P A[11] I
*I *2212:A I *D sky130_fd_sc_hd__clkdlybuf4s25_1
*CAP
1 A[11] 0.000588356
2 *2212:A 0
3 *3:11 0.000588356
4 *3:11 S[11] 0.000527038
5 *3:11 *35:13 0.000143247
6 *3:11 *481:8 4.92359e-05
7 *3:11 *531:10 0
*RES
1 A[11] *3:11 27.6602 
2 *3:11 *2212:A 23 
*END

*D_NET *4 0.00191323
*CONN
*P A[12] I
*I *2223:A I *D sky130_fd_sc_hd__clkdlybuf4s25_1
*CAP
1 A[12] 0.000557716
2 *2223:A 0
3 *4:11 0.000557716
4 *4:11 S[13] 0.000395853
5 *4:11 *37:11 0.000401944
6 *4:11 *57:13 0
*RES
1 A[12] *4:11 30.6664 
2 *4:11 *2223:A 23 
*END

*D_NET *5 0.00152424
*CONN
*P A[13] I
*I *2234:A I *D sky130_fd_sc_hd__clkdlybuf4s25_1
*CAP
1 A[13] 0.000304656
2 *2234:A 0.000304656
3 *2234:A S[14] 0.000318617
4 *2234:A *37:11 0.000572959
5 *2234:A *606:10 2.33476e-05
*RES
1 A[13] *2234:A 48.3669 
*END

*D_NET *6 0.00159779
*CONN
*P A[14] I
*I *2245:A I *D sky130_fd_sc_hd__clkdlybuf4s25_1
*CAP
1 A[14] 0.000287689
2 *2245:A 0
3 *6:11 0.000287689
4 *6:11 S[15] 0.000406037
5 *6:11 *2221:A 0.000395853
6 *6:11 *25:13 0.00022052
7 *6:11 *526:10 0
*RES
1 A[14] *6:11 27.8493 
2 *6:11 *2245:A 23 
*END

*D_NET *7 0.00207818
*CONN
*P A[15] I
*I *2252:A I *D sky130_fd_sc_hd__clkdlybuf4s25_1
*CAP
1 A[15] 0.000531175
2 *2252:A 0
3 *7:13 0.000531175
4 *7:13 *8:17 0.000183039
5 *7:13 *9:15 0.000138444
6 *7:13 *10:13 0.000130159
7 *7:13 *39:13 0.00038608
8 *7:13 *42:15 0.000178106
*RES
1 A[15] *7:13 34.9364 
2 *7:13 *2252:A 23 
*END

*D_NET *8 0.00215095
*CONN
*P A[16] I
*I *2253:A I *D sky130_fd_sc_hd__clkdlybuf4s25_1
*CAP
1 A[16] 0.000570502
2 *2253:A 0
3 *8:17 0.000570502
4 *8:17 S[18] 0.00010459
5 *8:17 *10:13 4.79417e-05
6 *8:17 *40:15 0.000566401
7 *8:17 *42:15 0.000107978
8 *7:13 *8:17 0.000183039
*RES
1 A[16] *8:17 36.7502 
2 *8:17 *2253:A 23 
*END

*D_NET *9 0.00188662
*CONN
*P A[17] I
*I *2254:A I *D sky130_fd_sc_hd__clkdlybuf4s25_1
*CAP
1 A[17] 0.000502966
2 *2254:A 0
3 *9:15 0.000502966
4 *9:15 *12:15 0.00030675
5 *9:15 *39:13 3.32897e-05
6 *9:15 *41:17 0.000345502
7 *9:15 *575:6 5.67058e-05
8 *7:13 *9:15 0.000138444
*RES
1 A[17] *9:15 31.3057 
2 *9:15 *2254:A 23 
*END

*D_NET *10 0.0017386
*CONN
*P A[18] I
*I *2191:A I *D sky130_fd_sc_hd__clkdlybuf4s25_1
*CAP
1 A[18] 0.000605433
2 *2191:A 0
3 *10:13 0.000605433
4 *10:13 S[17] 0.00010988
5 *10:13 S[18] 0.000208068
6 *10:13 *39:13 2.11157e-05
7 *10:13 *40:15 0
8 *10:13 *42:15 1.05658e-05
9 *10:13 *545:12 0
10 *7:13 *10:13 0.000130159
11 *8:17 *10:13 4.79417e-05
*RES
1 A[18] *10:13 34.5458 
2 *10:13 *2191:A 23 
*END

*D_NET *11 0.00365269
*CONN
*P A[19] I
*I *2192:A I *D sky130_fd_sc_hd__clkdlybuf4s25_1
*CAP
1 A[19] 0.000973321
2 *2192:A 0
3 *11:15 0.000973321
4 *11:15 S[17] 0
5 *11:15 S[19] 5.44766e-05
6 *11:15 *1900:A_N 4.81278e-05
7 *11:15 *2227:A 0.000641054
8 *11:15 *283:14 0.000248979
9 *11:15 *463:71 0
10 *11:15 *465:10 0.000139352
11 *11:15 *570:16 0.00057406
*RES
1 A[19] *11:15 36.3784 
2 *11:15 *2192:A 23 
*END

*D_NET *12 0.00468682
*CONN
*P A[1] I
*I *2193:A I *D sky130_fd_sc_hd__clkdlybuf4s25_1
*CAP
1 A[1] 0.00100392
2 *2193:A 0
3 *12:15 0.00100392
4 *12:15 *1852:B1 0.000262476
5 *12:15 *23:13 0.000323658
6 *12:15 *39:13 0
7 *12:15 *41:17 0.000289296
8 *12:15 *44:11 0.000329599
9 *12:15 *233:6 0.000228001
10 *12:15 *459:55 0.000105749
11 *12:15 *459:65 0.000310647
12 *12:15 *460:18 0
13 *12:15 *547:35 0.000522803
14 *9:15 *12:15 0.00030675
*RES
1 A[1] *12:15 46.8858 
2 *12:15 *2193:A 23 
*END

*D_NET *13 0.00170808
*CONN
*P A[20] I
*I *2194:A I *D sky130_fd_sc_hd__clkdlybuf4s25_1
*CAP
1 A[20] 0.000549724
2 *2194:A 0
3 *13:11 0.000549724
4 *13:11 S[22] 0
5 *13:11 *45:11 0.000378829
6 *13:11 *77:10 7.53721e-05
7 *13:11 *487:10 0
8 *13:11 *491:8 0.000154433
9 *13:11 *584:8 0
*RES
1 A[20] *13:11 30.9626 
2 *13:11 *2194:A 23 
*END

*D_NET *14 0.00226457
*CONN
*P A[21] I
*I *2195:A I *D sky130_fd_sc_hd__clkdlybuf4s25_1
*CAP
1 A[21] 0.000763311
2 *2195:A 0
3 *14:11 0.000763311
4 *14:11 *1927:B1_N 1.12349e-05
5 *14:11 *46:7 0.000615797
6 *14:11 *498:6 3.22051e-05
7 *14:11 *498:21 7.87147e-05
8 *14:11 *549:8 0
*RES
1 A[21] *14:11 35.4761 
2 *14:11 *2195:A 23 
*END

*D_NET *15 0.00142572
*CONN
*P A[22] I
*I *2196:A I *D sky130_fd_sc_hd__clkdlybuf4s25_1
*CAP
1 A[22] 0.000712862
2 *2196:A 0
3 *15:9 0.000712862
4 *15:9 *16:9 0
5 *15:9 *47:11 0
*RES
1 A[22] *15:9 30.4839 
2 *15:9 *2196:A 23 
*END

*D_NET *16 0.00333938
*CONN
*P A[23] I
*I *2197:A I *D sky130_fd_sc_hd__clkdlybuf4s25_1
*CAP
1 A[23] 0.000868716
2 *2197:A 0
3 *16:9 0.000868716
4 *16:9 *1954:C 0.000164995
5 *16:9 *1968:A 0.000312348
6 *16:9 *48:13 0.000679437
7 *16:9 *332:19 1.01436e-05
8 *16:9 *348:10 0
9 *16:9 *512:16 0
10 *16:9 *579:10 0.000435022
11 *16:9 *590:8 0
12 *15:9 *16:9 0
*RES
1 A[23] *16:9 41.4418 
2 *16:9 *2197:A 23 
*END

*D_NET *17 0.00218732
*CONN
*P A[24] I
*I *2198:A I *D sky130_fd_sc_hd__clkdlybuf4s25_1
*CAP
1 A[24] 0.00071018
2 *2198:A 0
3 *17:11 0.00071018
4 *17:11 S[16] 0
5 *17:11 S[25] 0.000598575
6 *17:11 *2277:A 5.50106e-05
7 *17:11 *82:8 9.74625e-05
8 *17:11 *512:10 1.59094e-05
*RES
1 A[24] *17:11 34.4404 
2 *17:11 *2198:A 23 
*END

*D_NET *18 0.00143283
*CONN
*P A[25] I
*I *2199:A I *D sky130_fd_sc_hd__clkdlybuf4s25_1
*CAP
1 A[25] 0.000716415
2 *2199:A 0
3 *18:9 0.000716415
4 *18:9 S[27] 0
5 *18:9 *50:13 0
*RES
1 A[25] *18:9 30.4839 
2 *18:9 *2199:A 23 
*END

*D_NET *19 0.00223117
*CONN
*P A[26] I
*I *2200:A I *D sky130_fd_sc_hd__clkdlybuf4s25_1
*CAP
1 A[26] 0.00071992
2 *2200:A 0
3 *19:11 0.00071992
4 *19:11 *50:13 0.00010018
5 *19:11 *51:9 0.00060104
6 *19:11 *554:10 9.01041e-05
*RES
1 A[26] *19:11 35.3932 
2 *19:11 *2200:A 23 
*END

*D_NET *20 0.00167891
*CONN
*P A[27] I
*I *2202:A I *D sky130_fd_sc_hd__clkdlybuf4s25_1
*CAP
1 A[27] 0.00057833
2 *2202:A 0.00057833
3 *2202:A S[30] 1.08153e-05
4 *2202:A *2283:A 0.000105399
5 *2202:A *52:11 0.000406037
6 *2202:A *415:42 0
*RES
1 A[27] *2202:A 49.5092 
*END

*D_NET *21 0.0011156
*CONN
*P A[28] I
*I *2203:A I *D sky130_fd_sc_hd__clkdlybuf4s25_1
*CAP
1 A[28] 0.000443637
2 *2203:A 0.000443637
3 *2203:A S[28] 0
4 *2203:A *53:13 0.000228328
*RES
1 A[28] *2203:A 49.7929 
*END

*D_NET *22 0.00136835
*CONN
*P A[29] I
*I *2204:A I *D sky130_fd_sc_hd__clkdlybuf4s25_1
*CAP
1 A[29] 0.000455478
2 *2204:A 0
3 *22:11 0.000455478
4 *22:11 S[29] 9.87435e-05
5 *22:11 *54:13 0.000202458
6 *22:11 *558:10 0.000156197
*RES
1 A[29] *22:11 28.5536 
2 *22:11 *2204:A 23 
*END

*D_NET *23 0.00138366
*CONN
*P A[2] I
*I *2205:A I *D sky130_fd_sc_hd__clkdlybuf4s25_1
*CAP
1 A[2] 0.000398402
2 *2205:A 0
3 *23:13 0.000398402
4 *23:13 *58:11 0
5 *1:11 *23:13 0.000263196
6 *12:15 *23:13 0.000323658
*RES
1 A[2] *23:13 29.4561 
2 *23:13 *2205:A 23 
*END

*D_NET *24 0.00118935
*CONN
*P A[30] I
*I *2206:A I *D sky130_fd_sc_hd__clkdlybuf4s25_1
*CAP
1 A[30] 0.000287614
2 *2206:A 0.000287614
3 *2206:A S[15] 0.000208128
4 *2206:A *2241:A 0.000395853
5 *2206:A *25:13 1.01436e-05
6 *2206:A *525:8 0
*RES
1 A[30] *2206:A 49.4407 
*END

*D_NET *25 0.00268588
*CONN
*P A[31] I
*I *2207:A I *D sky130_fd_sc_hd__clkdlybuf4s25_1
*CAP
1 A[31] 0.00058327
2 *2207:A 0
3 *25:13 0.00058327
4 *25:13 S[15] 9.98044e-05
5 *25:13 S[31] 0.000419073
6 *25:13 *2058:B 0.000141954
7 *25:13 *2221:A 0.000431193
8 *25:13 *526:8 0.000119313
9 *25:13 *526:10 7.7341e-05
10 *2206:A *25:13 1.01436e-05
11 *6:11 *25:13 0.00022052
*RES
1 A[31] *25:13 35.0816 
2 *25:13 *2207:A 23 
*END

*D_NET *26 0.00209328
*CONN
*P A[3] I
*I *2208:A I *D sky130_fd_sc_hd__clkdlybuf4s25_1
*CAP
1 A[3] 0.000703598
2 *2208:A 0
3 *26:9 0.000703598
4 *26:9 S[3] 0
5 *26:9 S[7] 0.000511329
6 *26:9 *2166:B 6.07611e-06
7 *26:9 *168:10 5.50106e-05
8 *26:9 *169:8 5.86535e-05
9 *26:9 *171:8 0
10 *26:9 *532:27 5.50106e-05
11 *26:9 *567:10 0
*RES
1 A[3] *26:9 33.6843 
2 *26:9 *2208:A 23 
*END

*D_NET *27 0.00122833
*CONN
*P A[4] I
*I *2209:A I *D sky130_fd_sc_hd__clkdlybuf4s25_1
*CAP
1 A[4] 0.000614167
2 *2209:A 0
3 *27:9 0.000614167
4 *27:9 S[12] 0
5 *27:9 S[4] 0
6 *27:9 *59:9 0
*RES
1 A[4] *27:9 28.05 
2 *27:9 *2209:A 23 
*END

*D_NET *28 0.00186991
*CONN
*P A[5] I
*I *2210:A I *D sky130_fd_sc_hd__clkdlybuf4s25_1
*CAP
1 A[5] 0.000583829
2 *2210:A 0
3 *28:11 0.000583829
4 *28:11 *60:9 0.000680949
5 *28:11 *183:10 0
6 *28:11 *453:66 1.05441e-05
7 *28:11 *529:14 1.07603e-05
*RES
1 A[5] *28:11 31.3643 
2 *28:11 *2210:A 23 
*END

*D_NET *29 0.00270148
*CONN
*P A[6] I
*I *2211:A I *D sky130_fd_sc_hd__clkdlybuf4s25_1
*CAP
1 A[6] 0.000922466
2 *2211:A 0
3 *29:11 0.000922466
4 *29:11 *2247:A 0.000735839
5 *29:11 *248:18 0.000120712
6 *29:11 *493:32 0
*RES
1 A[6] *29:11 27.7499 
2 *29:11 *2211:A 23 
*END

*D_NET *30 0.00194521
*CONN
*P A[7] I
*I *2213:A I *D sky130_fd_sc_hd__clkdlybuf4s25_1
*CAP
1 A[7] 0.000403817
2 *2213:A 0
3 *30:11 0.000403817
4 *30:11 S[7] 0.000499048
5 *30:11 *62:9 0.000638532
*RES
1 A[7] *30:11 30.5771 
2 *30:11 *2213:A 23 
*END

*D_NET *31 0.00174051
*CONN
*P A[8] I
*I *2214:A I *D sky130_fd_sc_hd__clkdlybuf4s25_1
*CAP
1 A[8] 0.000578038
2 *2214:A 0
3 *31:9 0.000578038
4 *31:9 *63:9 0.000507821
5 *31:9 *160:8 7.66085e-05
6 *31:9 *533:10 0
7 *31:9 *605:8 0
*RES
1 A[8] *31:9 31.2193 
2 *31:9 *2214:A 23 
*END

*D_NET *32 0.00176128
*CONN
*P A[9] I
*I *2215:A I *D sky130_fd_sc_hd__clkdlybuf4s25_1
*CAP
1 A[9] 0.000624978
2 *2215:A 0
3 *32:11 0.000624978
4 *32:11 *2153:A1 0
5 *32:11 *64:9 0.000511329
6 *32:11 *569:10 0
7 *32:11 *569:19 0
*RES
1 A[9] *32:11 31.3643 
2 *32:11 *2215:A 23 
*END

*D_NET *33 0.00225174
*CONN
*P B[0] I
*I *2216:A I *D sky130_fd_sc_hd__dlymetal6s4s_1
*CAP
1 B[0] 0.000810689
2 *2216:A 0
3 *33:11 0.000810689
4 *33:11 S[0] 0
5 *33:11 S[2] 5.44766e-05
6 *33:11 *55:17 0.000208068
7 *33:11 *454:29 0
8 *33:11 *496:32 0.000124448
9 *1:11 *33:11 0.000243367
*RES
1 B[0] *33:11 27.3206 
2 *33:11 *2216:A 23 
*END

*D_NET *34 0.00189259
*CONN
*P B[10] I
*I *2217:A I *D sky130_fd_sc_hd__clkdlybuf4s25_1
*CAP
1 B[10] 0.000677632
2 *2217:A 0
3 *34:11 0.000677632
4 *34:11 S[10] 0
5 *34:11 S[11] 0.000203112
6 *34:11 *35:13 0
7 *34:11 *447:26 0
8 *34:11 *480:8 0.000114083
9 *34:11 *481:8 5.10221e-05
10 *2:13 *34:11 0.000169108
*RES
1 B[10] *34:11 32.075 
2 *34:11 *2217:A 23 
*END

*D_NET *35 0.00180415
*CONN
*P B[11] I
*I *2218:A I *D sky130_fd_sc_hd__clkdlybuf4s25_1
*CAP
1 B[11] 0.000769
2 *2218:A 0
3 *35:13 0.000769
4 *35:13 *36:13 7.4623e-05
5 *2:13 *35:13 4.82774e-05
6 *3:11 *35:13 0.000143247
7 *34:11 *35:13 0
*RES
1 B[11] *35:13 36.1256 
2 *35:13 *2218:A 23 
*END

*D_NET *36 0.00175647
*CONN
*P B[12] I
*I *2219:A I *D sky130_fd_sc_hd__clkdlybuf4s25_1
*CAP
1 B[12] 0.000793123
2 *2219:A 0
3 *36:13 0.000793123
4 *36:13 S[13] 9.56003e-05
5 *35:13 *36:13 7.4623e-05
*RES
1 B[12] *36:13 38.3153 
2 *36:13 *2219:A 23 
*END

*D_NET *37 0.00231502
*CONN
*P B[13] I
*I *2220:A I *D sky130_fd_sc_hd__clkdlybuf4s25_1
*CAP
1 B[13] 0.000582197
2 *2220:A 0
3 *37:11 0.000582197
4 *37:11 S[13] 0.000153072
5 *37:11 *553:8 2.26497e-05
6 *37:11 *561:10 0
7 *2234:A *37:11 0.000572959
8 *4:11 *37:11 0.000401944
*RES
1 B[13] *37:11 27.1103 
2 *37:11 *2220:A 23 
*END

*D_NET *38 0.0018624
*CONN
*P B[14] I
*I *2221:A I *D sky130_fd_sc_hd__clkdlybuf4s25_1
*CAP
1 B[14] 0.000385839
2 *2221:A 0.000385839
3 *2221:A S[15] 2.06286e-05
4 *2221:A S[31] 7.47504e-05
5 *2221:A *2058:B 3.70187e-05
6 *2221:A *430:12 7.80612e-05
7 *2221:A *578:18 5.32119e-05
8 *6:11 *2221:A 0.000395853
9 *25:13 *2221:A 0.000431193
*RES
1 B[14] *2221:A 49.4234 
*END

*D_NET *39 0.00214452
*CONN
*P B[15] I
*I *2222:A I *D sky130_fd_sc_hd__clkdlybuf4s25_1
*CAP
1 B[15] 0.000733826
2 *2222:A 0
3 *39:13 0.000733826
4 *39:13 *40:15 0.00010459
5 *39:13 *41:17 0.00011217
6 *39:13 *42:15 1.96267e-05
7 *7:13 *39:13 0.00038608
8 *9:15 *39:13 3.32897e-05
9 *10:13 *39:13 2.11157e-05
10 *12:15 *39:13 0
*RES
1 B[15] *39:13 35.9159 
2 *39:13 *2222:A 23 
*END

*D_NET *40 0.0019653
*CONN
*P B[16] I
*I *2224:A I *D sky130_fd_sc_hd__clkdlybuf4s25_1
*CAP
1 B[16] 0.000566505
2 *2224:A 0
3 *40:15 0.000566505
4 *40:15 *41:17 0.00010459
5 *40:15 *586:6 5.67058e-05
6 *8:17 *40:15 0.000566401
7 *10:13 *40:15 0
8 *39:13 *40:15 0.00010459
*RES
1 B[16] *40:15 34.7823 
2 *40:15 *2224:A 23 
*END

*D_NET *41 0.00419841
*CONN
*P B[17] I
*I *2225:A I *D sky130_fd_sc_hd__clkdlybuf4s25_1
*CAP
1 B[17] 0.00131297
2 *2225:A 0
3 *41:17 0.00131297
4 *41:17 *1842:B 0.000139352
5 *41:17 *42:15 0
6 *41:17 *228:14 5.3304e-05
7 *41:17 *230:8 0.00043868
8 *41:17 *460:18 0
9 *41:17 *541:6 8.95707e-05
10 *9:15 *41:17 0.000345502
11 *12:15 *41:17 0.000289296
12 *39:13 *41:17 0.00011217
13 *40:15 *41:17 0.00010459
*RES
1 B[17] *41:17 44.5274 
2 *41:17 *2225:A 23 
*END

*D_NET *42 0.00142562
*CONN
*P B[18] I
*I *2226:A I *D sky130_fd_sc_hd__clkdlybuf4s25_1
*CAP
1 B[18] 0.000434495
2 *2226:A 0
3 *42:15 0.000434495
4 *42:15 S[18] 7.1712e-05
5 *42:15 *103:8 0.00010018
6 *42:15 *476:33 4.37033e-05
7 *42:15 *545:12 2.4754e-05
8 *7:13 *42:15 0.000178106
9 *8:17 *42:15 0.000107978
10 *10:13 *42:15 1.05658e-05
11 *39:13 *42:15 1.96267e-05
12 *41:17 *42:15 0
*RES
1 B[18] *42:15 29.6011 
2 *42:15 *2226:A 23 
*END

*D_NET *43 0.00238275
*CONN
*P B[19] I
*I *2227:A I *D sky130_fd_sc_hd__clkdlybuf4s25_1
*CAP
1 B[19] 0.000847138
2 *2227:A 0.000847138
3 *2227:A S[22] 0
4 *2227:A *1900:C 6.12496e-06
5 *2227:A *287:10 1.79749e-05
6 *2227:A *463:83 2.05503e-05
7 *2227:A *465:12 2.76611e-06
8 *11:15 *2227:A 0.000641054
*RES
1 B[19] *2227:A 49.7022 
*END

*D_NET *44 0.0024477
*CONN
*P B[1] I
*I *2228:A I *D sky130_fd_sc_hd__clkdlybuf4s25_1
*CAP
1 B[1] 0.000676942
2 *2228:A 0
3 *44:11 0.000676942
4 *44:11 *58:11 0.000605604
5 *44:11 *103:12 0.000105399
6 *44:11 *570:28 5.32119e-05
7 *12:15 *44:11 0.000329599
*RES
1 B[1] *44:11 27.0543 
2 *44:11 *2228:A 23 
*END

*D_NET *45 0.00229058
*CONN
*P B[20] I
*I *2229:A I *D sky130_fd_sc_hd__clkdlybuf4s25_1
*CAP
1 B[20] 0.000538883
2 *2229:A 0
3 *45:11 0.000538883
4 *45:11 S[20] 0.000366675
5 *45:11 *293:10 5.91772e-05
6 *45:11 *304:42 0.000189433
7 *45:11 *487:10 2.19643e-05
8 *45:11 *570:16 3.34818e-06
9 *45:11 *584:8 0.000193388
10 *13:11 *45:11 0.000378829
*RES
1 B[20] *45:11 30.2409 
2 *45:11 *2229:A 23 
*END

*D_NET *46 0.00153876
*CONN
*P B[21] I
*I *2230:A I *D sky130_fd_sc_hd__clkdlybuf4s25_1
*CAP
1 B[21] 0.000461482
2 *2230:A 0
3 *46:7 0.000461482
4 *14:11 *46:7 0.000615797
*RES
1 B[21] *46:7 29.8625 
2 *46:7 *2230:A 23 
*END

*D_NET *47 0.00241918
*CONN
*P B[22] I
*I *2231:A I *D sky130_fd_sc_hd__clkdlybuf4s25_1
*CAP
1 B[22] 0.00113487
2 *2231:A 0
3 *47:11 0.00113487
4 *47:11 S[23] 0
5 *47:11 *1939:B 0
6 *47:11 *1941:A 2.93845e-05
7 *47:11 *321:10 0.000111852
8 *47:11 *550:8 8.19644e-06
9 *15:9 *47:11 0
*RES
1 B[22] *47:11 36.4289 
2 *47:11 *2231:A 23 
*END

*D_NET *48 0.0027224
*CONN
*P B[23] I
*I *2232:A I *D sky130_fd_sc_hd__clkdlybuf4s25_1
*CAP
1 B[23] 0.000672986
2 *2232:A 0
3 *48:13 0.000672986
4 *48:13 S[16] 0.000188087
5 *48:13 *512:10 0.000130424
6 *48:13 *512:16 0.000304057
7 *48:13 *570:69 7.44257e-05
8 *16:9 *48:13 0.000679437
*RES
1 B[23] *48:13 37.8375 
2 *48:13 *2232:A 23 
*END

*D_NET *49 0.00233144
*CONN
*P B[24] I
*I *2233:A I *D sky130_fd_sc_hd__clkdlybuf4s25_1
*CAP
1 B[24] 0.000762642
2 *2233:A 0
3 *49:17 0.000762642
4 *49:17 S[24] 0.000414863
5 *49:17 S[25] 1.04162e-05
6 *49:17 *349:8 4.6318e-06
7 *49:17 *353:6 0.000181925
8 *49:17 *570:75 0.000194318
9 *49:17 *590:8 0
*RES
1 B[24] *49:17 36.7396 
2 *49:17 *2233:A 23 
*END

*D_NET *50 0.00253049
*CONN
*P B[25] I
*I *2235:A I *D sky130_fd_sc_hd__clkdlybuf4s25_1
*CAP
1 B[25] 0.000687518
2 *2235:A 0
3 *50:13 0.000687518
4 *50:13 S[27] 0.000583818
5 *50:13 *51:9 0
6 *50:13 *84:10 0.000284323
7 *50:13 *592:14 0.000187129
8 *18:9 *50:13 0
9 *19:11 *50:13 0.00010018
*RES
1 B[25] *50:13 36.0146 
2 *50:13 *2235:A 23 
*END

*D_NET *51 0.0023325
*CONN
*P B[26] I
*I *2236:A I *D sky130_fd_sc_hd__clkdlybuf4s25_1
*CAP
1 B[26] 0.000675385
2 *2236:A 0
3 *51:9 0.000675385
4 *51:9 *472:6 0.000141954
5 *51:9 *472:106 5.3304e-05
6 *51:9 *473:83 0.000185434
7 *51:9 *513:8 0
8 *51:9 *554:10 0
9 *51:9 *592:14 0
10 *19:11 *51:9 0.00060104
11 *50:13 *51:9 0
*RES
1 B[26] *51:9 34.3782 
2 *51:9 *2236:A 23 
*END

*D_NET *52 0.00176708
*CONN
*P B[27] I
*I *2237:A I *D sky130_fd_sc_hd__clkdlybuf4s25_1
*CAP
1 B[27] 0.000391864
2 *2237:A 0
3 *52:11 0.000391864
4 *52:11 S[30] 0.000395853
5 *52:11 *2283:A 0
6 *52:11 *88:10 0.00018146
7 *52:11 *556:8 0
8 *2202:A *52:11 0.000406037
*RES
1 B[27] *52:11 29.61 
2 *52:11 *2237:A 23 
*END

*D_NET *53 0.00147043
*CONN
*P B[28] I
*I *2238:A I *D sky130_fd_sc_hd__clkdlybuf4s25_1
*CAP
1 B[28] 0.00062105
2 *2238:A 0
3 *53:13 0.00062105
4 *2203:A *53:13 0.000228328
*RES
1 B[28] *53:13 33.8975 
2 *53:13 *2238:A 23 
*END

*D_NET *54 0.00151301
*CONN
*P B[29] I
*I *2239:A I *D sky130_fd_sc_hd__clkdlybuf4s25_1
*CAP
1 B[29] 0.000554047
2 *2239:A 0
3 *54:13 0.000554047
4 *54:13 S[29] 0.000202458
5 *54:13 *558:10 0
6 *22:11 *54:13 0.000202458
*RES
1 B[29] *54:13 32.8795 
2 *54:13 *2239:A 23 
*END

*D_NET *55 0.00318939
*CONN
*P B[2] I
*I *2240:A I *D sky130_fd_sc_hd__clkdlybuf4s25_1
*CAP
1 B[2] 0.000977019
2 *2240:A 0
3 *55:17 0.000977019
4 *55:17 *2310:A 9.84794e-05
5 *55:17 *436:8 0
6 *55:17 *456:10 0.00018282
7 *55:17 *493:10 0.000157973
8 *55:17 *535:8 0.000260631
9 *55:17 *535:30 0.000119313
10 *1:11 *55:17 0.000208068
11 *33:11 *55:17 0.000208068
*RES
1 B[2] *55:17 43.3494 
2 *55:17 *2240:A 23 
*END

*D_NET *56 0.00141725
*CONN
*P B[30] I
*I *2241:A I *D sky130_fd_sc_hd__clkdlybuf4s25_1
*CAP
1 B[30] 0.000267188
2 *2241:A 0.000267188
3 *2241:A S[30] 0.000409416
4 *2241:A *88:10 7.76035e-05
5 *2241:A *417:10 0
6 *2206:A *2241:A 0.000395853
*RES
1 B[30] *2241:A 49.7929 
*END

*D_NET *57 0.00172648
*CONN
*P B[31] I
*I *2242:A I *D sky130_fd_sc_hd__clkdlybuf4s25_1
*CAP
1 B[31] 0.0007159
2 *2242:A 0
3 *57:13 0.0007159
4 *57:13 S[14] 0.00014734
5 *57:13 carryOut 0.00014734
6 *4:11 *57:13 0
*RES
1 B[31] *57:13 36.1256 
2 *57:13 *2242:A 23 
*END

*D_NET *58 0.0045684
*CONN
*P B[3] I
*I *2243:A I *D sky130_fd_sc_hd__clkdlybuf4s25_1
*CAP
1 B[3] 0.00147199
2 *2243:A 0
3 *58:11 0.00147199
4 *58:11 *1850:B2 0
5 *58:11 *2064:B 0.000248979
6 *58:11 *2065:S 0.000150724
7 *58:11 *229:10 0.000166532
8 *58:11 *230:10 0
9 *58:11 *436:8 0
10 *58:11 *459:65 0.000216721
11 *58:11 *460:18 0.000235848
12 *58:11 *496:32 0
13 *58:11 *508:14 0
14 *58:11 *571:10 0
15 *1:11 *58:11 0
16 *23:13 *58:11 0
17 *44:11 *58:11 0.000605604
*RES
1 B[3] *58:11 45.1168 
2 *58:11 *2243:A 23 
*END

*D_NET *59 0.00122833
*CONN
*P B[4] I
*I *2244:A I *D sky130_fd_sc_hd__clkdlybuf4s25_1
*CAP
1 B[4] 0.000614167
2 *2244:A 0
3 *59:9 0.000614167
4 *27:9 *59:9 0
*RES
1 B[4] *59:9 28.05 
2 *59:9 *2244:A 23 
*END

*D_NET *60 0.0015315
*CONN
*P B[5] I
*I *2246:A I *D sky130_fd_sc_hd__clkdlybuf4s25_1
*CAP
1 B[5] 0.000425276
2 *2246:A 0
3 *60:9 0.000425276
4 *28:11 *60:9 0.000680949
*RES
1 B[5] *60:9 28.05 
2 *60:9 *2246:A 23 
*END

*D_NET *61 0.0020048
*CONN
*P B[6] I
*I *2247:A I *D sky130_fd_sc_hd__clkdlybuf4s25_1
*CAP
1 B[6] 0.000597037
2 *2247:A 0.000597037
3 *2247:A S[1] 0
4 *2247:A *248:18 2.43903e-05
5 *2247:A *508:14 5.04995e-05
6 *29:11 *2247:A 0.000735839
*RES
1 B[6] *2247:A 49.35 
*END

*D_NET *62 0.00157509
*CONN
*P B[7] I
*I *2248:A I *D sky130_fd_sc_hd__clkdlybuf4s25_1
*CAP
1 B[7] 0.000468279
2 *2248:A 0
3 *62:9 0.000468279
4 *62:9 S[7] 0
5 *30:11 *62:9 0.000638532
*RES
1 B[7] *62:9 29.0029 
2 *62:9 *2248:A 23 
*END

*D_NET *63 0.00143589
*CONN
*P B[8] I
*I *2249:A I *D sky130_fd_sc_hd__clkdlybuf4s25_1
*CAP
1 B[8] 0.000435149
2 *2249:A 0
3 *63:9 0.000435149
4 *63:9 S[9] 0
5 *63:9 *568:6 5.50106e-05
6 *63:9 *605:8 2.76611e-06
7 *31:9 *63:9 0.000507821
*RES
1 B[8] *63:9 28.05 
2 *63:9 *2249:A 23 
*END

*D_NET *64 0.00139412
*CONN
*P B[9] I
*I *2250:A I *D sky130_fd_sc_hd__clkdlybuf4s25_1
*CAP
1 B[9] 0.000431655
2 *2250:A 0
3 *64:9 0.000431655
4 *64:9 *569:10 1.94812e-05
5 *32:11 *64:9 0.000511329
*RES
1 B[9] *64:9 28.05 
2 *64:9 *2250:A 23 
*END

*D_NET *65 0.0024594
*CONN
*P S[0] O
*I *2260:X O *D sky130_fd_sc_hd__clkdlybuf4s25_1
*CAP
1 S[0] 0.000242823
2 *2260:X 0.000427652
3 *65:8 0.000670476
4 S[0] S[1] 0.000352168
5 S[0] S[2] 0.00010459
6 *65:8 *76:10 0.000125378
7 *65:8 *436:8 0.000263399
8 *65:8 *571:10 0.000272917
9 *33:11 S[0] 0
*RES
1 *2260:X *65:8 48.8854 
2 *65:8 S[0] 9.30293 
*END

*D_NET *66 0.00261112
*CONN
*P S[10] O
*I *2261:X O *D sky130_fd_sc_hd__clkbuf_2
*CAP
1 S[10] 0.000878232
2 *2261:X 0
3 *66:6 0.000878232
4 S[10] S[8] 0.000214131
5 S[10] *2261:A 0.000400005
6 S[10] *95:8 0.000189493
7 S[10] *447:26 5.10221e-05
8 *2:13 S[10] 0
9 *34:11 S[10] 0
*RES
1 *2261:X *66:6 38 
2 *66:6 S[10] 22.3485 
*END

*D_NET *67 0.00241847
*CONN
*P S[11] O
*I *2262:X O *D sky130_fd_sc_hd__buf_4
*CAP
1 S[11] 0.00075668
2 *2262:X 7.28238e-05
3 *67:10 0.000829504
4 *67:10 *145:36 0
5 *67:10 *147:10 2.93154e-05
6 *3:11 S[11] 0.000527038
7 *34:11 S[11] 0.000203112
*RES
1 *2262:X *67:10 47.3775 
2 *67:10 S[11] 2.7328 
*END

*D_NET *68 0.00166035
*CONN
*P S[12] O
*I *2263:X O *D sky130_fd_sc_hd__dlymetal6s4s_1
*CAP
1 S[12] 0.000655835
2 *2263:X 9.72028e-05
3 *68:8 0.000753038
4 S[12] S[4] 0
5 S[12] *528:14 7.02069e-05
6 S[12] *600:12 8.16149e-05
7 *68:8 *1822:A2 2.45549e-06
8 *27:9 S[12] 0
*RES
1 *2263:X *68:8 39.0979 
2 *68:8 S[12] 14.5414 
*END

*D_NET *69 0.00203802
*CONN
*P S[13] O
*I *2264:X O *D sky130_fd_sc_hd__dlygate4sd1_1
*CAP
1 S[13] 0.000684395
2 *2264:X 0.000684395
3 S[13] *553:8 2.47015e-05
4 *4:11 S[13] 0.000395853
5 *36:13 S[13] 9.56003e-05
6 *37:11 S[13] 0.000153072
*RES
1 *2264:X S[13] 48.8821 
*END

*D_NET *70 0.00178947
*CONN
*P S[14] O
*I *2265:X O *D sky130_fd_sc_hd__buf_6
*CAP
1 S[14] 0.000559119
2 *2265:X 0.000559119
3 S[14] S[31] 0
4 S[14] carryOut 0.000199695
5 S[14] *2054:B 0
6 S[14] *427:22 5.58152e-06
7 *2234:A S[14] 0.000318617
8 *57:13 S[14] 0.00014734
*RES
1 *2265:X S[14] 48.7963 
*END

*D_NET *71 0.00132826
*CONN
*P S[15] O
*I *2266:X O *D sky130_fd_sc_hd__clkbuf_4
*CAP
1 S[15] 0.000271838
2 *2266:X 0.000271838
3 S[15] S[30] 0
4 S[15] *526:10 4.99857e-05
5 *2206:A S[15] 0.000208128
6 *2221:A S[15] 2.06286e-05
7 *6:11 S[15] 0.000406037
8 *25:13 S[15] 9.98044e-05
*RES
1 *2266:X S[15] 48.9082 
*END

*D_NET *72 0.00176082
*CONN
*P S[16] O
*I *2267:X O *D sky130_fd_sc_hd__buf_6
*CAP
1 S[16] 0.000701601
2 *2267:X 2.86067e-05
3 *72:8 0.000730208
4 S[16] S[25] 0
5 S[16] *512:10 5.561e-05
6 S[16] *590:8 0
7 *72:8 *1973:B1_N 5.67058e-05
8 *17:11 S[16] 0
9 *48:13 S[16] 0.000188087
*RES
1 *2267:X *72:8 38.6214 
2 *72:8 S[16] 16.9754 
*END

*D_NET *73 0.00115327
*CONN
*P S[17] O
*I *2268:X O *D sky130_fd_sc_hd__buf_6
*CAP
1 S[17] 0.000339903
2 *2268:X 0.000181793
3 *73:10 0.000521695
4 S[17] S[18] 0
5 S[17] S[19] 0
6 *73:10 *1889:A2 0
7 *73:10 *1889:B1_N 0
8 *73:10 *570:16 0
9 *10:13 S[17] 0.00010988
10 *11:15 S[17] 0
*RES
1 *2268:X *73:10 49.4904 
2 *73:10 S[17] 1.3888 
*END

*D_NET *74 0.00216728
*CONN
*P S[18] O
*I *2269:X O *D sky130_fd_sc_hd__buf_6
*CAP
1 S[18] 0.00070472
2 *2269:X 7.84835e-05
3 *74:10 0.000783203
4 *74:10 *274:8 2.60807e-06
5 *74:10 *463:83 6.48105e-05
6 *74:10 *570:18 0.00014908
7 S[17] S[18] 0
8 *8:17 S[18] 0.00010459
9 *10:13 S[18] 0.000208068
10 *42:15 S[18] 7.1712e-05
*RES
1 *2269:X *74:10 48.0818 
2 *74:10 S[18] 2.59093 
*END

*D_NET *75 0.00105116
*CONN
*P S[19] O
*I *2270:X O *D sky130_fd_sc_hd__buf_6
*CAP
1 S[19] 7.64977e-05
2 *2270:X 0.000421842
3 *75:10 0.00049834
4 S[17] S[19] 0
5 *11:15 S[19] 5.44766e-05
*RES
1 *2270:X *75:10 46.2961 
2 *75:10 S[19] 8.3584 
*END

*D_NET *76 0.00242914
*CONN
*P S[1] O
*I *2271:X O *D sky130_fd_sc_hd__buf_6
*CAP
1 S[1] 0.000231928
2 *2271:X 0.00053809
3 *76:10 0.000770017
4 *76:10 S[2] 0
5 *76:10 *2066:A 0.000168821
6 *76:10 *2066:B 5.3304e-05
7 *76:10 *2067:A1 8.92578e-05
8 *76:10 *2271:A 0.00010018
9 S[0] S[1] 0.000352168
10 *2247:A S[1] 0
11 *65:8 *76:10 0.000125378
*RES
1 *2271:X *76:10 48.9268 
2 *76:10 S[1] 9.21707 
*END

*D_NET *77 0.00176121
*CONN
*P S[20] O
*I *2272:X O *D sky130_fd_sc_hd__buf_8
*CAP
1 S[20] 0.000218899
2 *2272:X 0.000331357
3 *77:10 0.000550257
4 *77:10 *1909:B 0.000144231
5 *77:10 *293:10 7.4416e-05
6 *13:11 *77:10 7.53721e-05
7 *45:11 S[20] 0.000366675
*RES
1 *2272:X *77:10 44.4111 
2 *77:10 S[20] 9.21707 
*END

*D_NET *78 0.00165911
*CONN
*P S[21] O
*I *2273:X O *D sky130_fd_sc_hd__buf_8
*CAP
1 S[21] 0.000662906
2 *2273:X 0.000127377
3 *78:8 0.000790284
4 *78:8 *463:8 2.18409e-05
5 *78:8 *585:10 5.67058e-05
*RES
1 *2273:X *78:8 40.5271 
2 *78:8 S[21] 14.5104 
*END

*D_NET *79 0.00147078
*CONN
*P S[22] O
*I *2274:X O *D sky130_fd_sc_hd__buf_6
*CAP
1 S[22] 0.000274563
2 *2274:X 0.000460829
3 *79:10 0.000735392
4 *79:10 *463:71 0
5 *2227:A S[22] 0
6 *13:11 S[22] 0
*RES
1 *2274:X *79:10 45.4675 
2 *79:10 S[22] 9.04533 
*END

*D_NET *80 0.00153681
*CONN
*P S[23] O
*I *2275:X O *D sky130_fd_sc_hd__buf_6
*CAP
1 S[23] 0.000649348
2 *2275:X 0.000112444
3 *80:10 0.000761792
4 *80:10 *1939:B 1.32314e-05
5 *47:11 S[23] 0
*RES
1 *2275:X *80:10 40.0714 
2 *80:10 S[23] 14.1582 
*END

*D_NET *81 0.00167916
*CONN
*P S[24] O
*I *2276:X O *D sky130_fd_sc_hd__buf_6
*CAP
1 S[24] 0.000479726
2 *2276:X 0.000150566
3 *81:8 0.000630293
4 *81:8 *473:10 3.7122e-06
5 *49:17 S[24] 0.000414863
*RES
1 *2276:X *81:8 40.5271 
2 *81:8 S[24] 14.5104 
*END

*D_NET *82 0.00210758
*CONN
*P S[25] O
*I *2277:X O *D sky130_fd_sc_hd__buf_6
*CAP
1 S[25] 0.000494808
2 *2277:X 0.000178248
3 *82:8 0.000673056
4 *82:8 *2277:A 5.50106e-05
5 S[16] S[25] 0
6 *17:11 S[25] 0.000598575
7 *17:11 *82:8 9.74625e-05
8 *49:17 S[25] 1.04162e-05
*RES
1 *2277:X *82:8 41.48 
2 *82:8 S[25] 15.2146 
*END

*D_NET *83 0.00166291
*CONN
*P S[26] O
*I *2278:X O *D sky130_fd_sc_hd__buf_6
*CAP
1 S[26] 0.000662906
2 *2278:X 0.00011846
3 *83:8 0.000781366
4 *83:8 *2278:A 0.00010018
*RES
1 *2278:X *83:8 40.5271 
2 *83:8 S[26] 14.5104 
*END

*D_NET *84 0.00222523
*CONN
*P S[27] O
*I *2279:X O *D sky130_fd_sc_hd__buf_6
*CAP
1 S[27] 0.000444913
2 *2279:X 0.000233633
3 *84:10 0.000678546
4 *18:9 S[27] 0
5 *50:13 S[27] 0.000583818
6 *50:13 *84:10 0.000284323
*RES
1 *2279:X *84:10 42.93 
2 *84:10 S[27] 14.1582 
*END

*D_NET *85 0.00184118
*CONN
*P S[28] O
*I *2280:X O *D sky130_fd_sc_hd__clkbuf_2
*CAP
1 S[28] 0.000402716
2 *2280:X 0.000247725
3 *85:8 0.000650441
4 S[28] S[29] 0.000481117
5 *85:8 *2037:B2 0
6 *85:8 *558:10 5.91772e-05
7 *85:8 *594:8 0
8 *2203:A S[28] 0
*RES
1 *2280:X *85:8 42.8989 
2 *85:8 S[28] 9.7024 
*END

*D_NET *86 0.00190097
*CONN
*P S[29] O
*I *2281:X O *D sky130_fd_sc_hd__clkbuf_4
*CAP
1 S[29] 0.00053565
2 *2281:X 0.00053565
3 S[29] *2037:B2 2.47015e-05
4 S[29] *523:10 2.26497e-05
5 S[28] S[29] 0.000481117
6 *22:11 S[29] 9.87435e-05
7 *54:13 S[29] 0.000202458
*RES
1 *2281:X S[29] 48.6245 
*END

*D_NET *87 0.00159899
*CONN
*P S[2] O
*I *2282:X O *D sky130_fd_sc_hd__buf_6
*CAP
1 S[2] 0.00039559
2 *2282:X 0.00032437
3 *87:8 0.00071996
4 S[0] S[2] 0.00010459
5 *33:11 S[2] 5.44766e-05
6 *76:10 S[2] 0
*RES
1 *2282:X *87:8 43.8621 
2 *87:8 S[2] 15.3702 
*END

*D_NET *88 0.00170654
*CONN
*P S[30] O
*I *2283:X O *D sky130_fd_sc_hd__buf_6
*CAP
1 S[30] 0.000161878
2 *2283:X 0.000153816
3 *88:10 0.000315694
4 *88:10 *2283:A 0
5 S[15] S[30] 0
6 *2202:A S[30] 1.08153e-05
7 *2241:A S[30] 0.000409416
8 *2241:A *88:10 7.76035e-05
9 *52:11 S[30] 0.000395853
10 *52:11 *88:10 0.00018146
*RES
1 *2283:X *88:10 49.8425 
2 *88:10 S[30] 1.4448 
*END

*D_NET *89 0.00213637
*CONN
*P S[31] O
*I *2284:X O *D sky130_fd_sc_hd__buf_6
*CAP
1 S[31] 0.000542487
2 *2284:X 0.000542487
3 S[31] carryOut 0.000531284
4 S[31] *429:21 0
5 S[31] *430:12 2.62862e-05
6 S[14] S[31] 0
7 *2221:A S[31] 7.47504e-05
8 *25:13 S[31] 0.000419073
*RES
1 *2284:X S[31] 49.7668 
*END

*D_NET *90 0.00146222
*CONN
*P S[3] O
*I *2285:X O *D sky130_fd_sc_hd__buf_6
*CAP
1 S[3] 0.000695921
2 *2285:X 0
3 *90:6 0.000695921
4 S[3] S[5] 0
5 S[3] *567:10 7.03766e-05
6 S[3] *603:12 0
7 *26:9 S[3] 0
*RES
1 *2285:X *90:6 38 
2 *90:6 S[3] 15.2457 
*END

*D_NET *91 0.00172238
*CONN
*P S[4] O
*I *2286:X O *D sky130_fd_sc_hd__buf_6
*CAP
1 S[4] 0.000552752
2 *2286:X 0.000301472
3 *91:8 0.000854224
4 *91:8 *528:14 1.39317e-05
5 S[12] S[4] 0
6 *27:9 S[4] 0
*RES
1 *2286:X *91:8 42.9093 
2 *91:8 S[4] 12.0764 
*END

*D_NET *92 0.00131342
*CONN
*P S[5] O
*I *2287:X O *D sky130_fd_sc_hd__buf_6
*CAP
1 S[5] 0.00055632
2 *2287:X 0.00010039
3 *92:8 0.000656711
4 S[5] S[6] 0
5 S[3] S[5] 0
*RES
1 *2287:X *92:8 39.5743 
2 *92:8 S[5] 12.0764 
*END

*D_NET *93 0.00153608
*CONN
*P S[6] O
*I *2288:X O *D sky130_fd_sc_hd__buf_6
*CAP
1 S[6] 0.00055632
2 *2288:X 0.000160458
3 *93:8 0.000716778
4 *93:8 *565:10 4.04598e-06
5 *93:8 *602:12 9.84794e-05
6 S[5] S[6] 0
*RES
1 *2288:X *93:8 41.0036 
2 *93:8 S[6] 12.0764 
*END

*D_NET *94 0.00174235
*CONN
*P S[7] O
*I *2289:X O *D sky130_fd_sc_hd__buf_6
*CAP
1 S[7] 0.000227319
2 *2289:X 0.000105172
3 *94:8 0.00033249
4 *94:8 *567:10 6.69899e-05
5 *26:9 S[7] 0.000511329
6 *30:11 S[7] 0.000499048
7 *62:9 S[7] 0
*RES
1 *2289:X *94:8 40.0507 
2 *94:8 S[7] 12.4286 
*END

*D_NET *95 0.00169405
*CONN
*P S[8] O
*I *2290:X O *D sky130_fd_sc_hd__buf_6
*CAP
1 S[8] 0.000331322
2 *2290:X 0.000313891
3 *95:8 0.000645213
4 S[10] S[8] 0.000214131
5 S[10] *95:8 0.000189493
6 *2:13 *95:8 0
*RES
1 *2290:X *95:8 45.3639 
2 *95:8 S[8] 9.4448 
*END

*D_NET *96 0.00143252
*CONN
*P S[9] O
*I *2291:X O *D sky130_fd_sc_hd__buf_4
*CAP
1 S[9] 0.00060319
2 *2291:X 8.08228e-05
3 *96:8 0.000684013
4 S[9] *605:8 9.48381e-06
5 *96:8 *2291:A 5.50049e-05
6 *63:9 S[9] 0
*RES
1 *2291:X *96:8 39.5743 
2 *96:8 S[9] 12.7807 
*END

*D_NET *99 0.00228383
*CONN
*P carryOut O
*I *2292:X O *D sky130_fd_sc_hd__buf_2
*CAP
1 carryOut 0.000257696
2 *2292:X 0.000215174
3 *99:8 0.00047287
4 *99:8 *2057:B1_N 0.000222225
5 *99:8 *428:25 3.95159e-06
6 *99:8 *526:10 1.28035e-05
7 *99:8 *578:18 7.8712e-05
8 *99:8 *606:10 0.000142075
9 S[14] carryOut 0.000199695
10 S[31] carryOut 0.000531284
11 *57:13 carryOut 0.00014734
*RES
1 *2292:X *99:8 43.2511 
2 *99:8 carryOut 9.78827 
*END

*D_NET *100 0.000972236
*CONN
*P sub I
*I *2251:A I *D sky130_fd_sc_hd__buf_8
*CAP
1 sub 0.000486118
2 *2251:A 0
3 *100:13 0.000486118
*RES
1 sub *100:13 30.8259 
2 *100:13 *2251:A 23 
*END

*D_NET *101 0.00139571
*CONN
*I *2123:A2 I *D sky130_fd_sc_hd__o21ai_2
*I *2121:B I *D sky130_fd_sc_hd__nand2_2
*I *2099:Y O *D sky130_fd_sc_hd__inv_2
*CAP
1 *2123:A2 0
2 *2121:B 4.47995e-05
3 *2099:Y 9.75807e-05
4 *101:27 0.000160636
5 *101:12 0.000326208
6 *101:8 0.000218352
7 *2121:B *450:6 1.59094e-05
8 *101:8 *453:121 0
9 *101:8 *538:40 6.51161e-05
10 *101:12 *450:6 6.33627e-05
11 *101:12 *467:6 0.00010018
12 *101:27 *125:10 2.93845e-05
13 *101:27 *453:121 0.000217473
14 *101:27 *538:40 0
15 *101:27 *542:24 5.67058e-05
16 *101:27 *607:41 0
*RES
1 *2099:Y *101:8 39.9057 
2 *101:8 *101:12 18.0036 
3 *101:12 *2121:B 23.6214 
4 *101:12 *101:27 33.9357 
5 *101:27 *2123:A2 23 
*END

*D_NET *102 0.00265663
*CONN
*I *1798:A2 I *D sky130_fd_sc_hd__o21bai_2
*I *1797:A2 I *D sky130_fd_sc_hd__o21ai_4
*I *1793:A I *D sky130_fd_sc_hd__nand2_2
*I *2100:Y O *D sky130_fd_sc_hd__inv_2
*CAP
1 *1798:A2 0.000215846
2 *1797:A2 0
3 *1793:A 0
4 *2100:Y 0.00012095
5 *102:31 0.000401795
6 *102:23 0.000816191
7 *102:12 0.000237634
8 *102:8 0.000160034
9 *1798:A2 *493:32 7.46187e-05
10 *102:8 *1795:A2 0
11 *102:8 *493:32 1.83564e-05
12 *102:23 *493:32 9.46813e-05
13 *102:31 *1795:A2 0.000278669
14 *102:31 *182:8 5.1986e-05
15 *102:31 *457:76 1.14452e-05
16 *102:31 *529:46 8.81493e-05
17 *102:31 *565:41 8.62783e-05
*RES
1 *2100:Y *102:8 40.2579 
2 *102:8 *102:12 15.6214 
3 *102:12 *1793:A 23 
4 *102:12 *102:23 3.52143 
5 *102:23 *102:31 38.0786 
6 *102:31 *1797:A2 23 
7 *102:23 *1798:A2 26.3764 
*END

*D_NET *103 0.00292295
*CONN
*I *1843:A I *D sky130_fd_sc_hd__nand3_4
*I *2101:Y O *D sky130_fd_sc_hd__inv_2
*CAP
1 *1843:A 0
2 *2101:Y 0.000125866
3 *103:12 0.000543751
4 *103:8 0.000669617
5 *103:8 *460:8 0.000355029
6 *103:8 *476:33 5.79042e-05
7 *103:8 *545:12 0.000401899
8 *103:8 *545:21 0.000213069
9 *103:12 *228:14 4.6318e-06
10 *103:12 *476:33 0
11 *103:12 *521:8 0
12 *103:12 *543:8 8.41115e-05
13 *103:12 *544:20 6.18132e-05
14 *103:12 *570:18 1.86869e-05
15 *103:12 *570:28 0.000180997
16 *42:15 *103:8 0.00010018
17 *44:11 *103:12 0.000105399
*RES
1 *2101:Y *103:8 44.815 
2 *103:8 *103:12 27.1179 
3 *103:12 *1843:A 23 
*END

*D_NET *104 0.000796556
*CONN
*I *1991:A I *D sky130_fd_sc_hd__or3_4
*I *1992:B1 I *D sky130_fd_sc_hd__o21ai_2
*I *2102:Y O *D sky130_fd_sc_hd__inv_2
*CAP
1 *1991:A 2.1727e-05
2 *1992:B1 0.000141147
3 *2102:Y 0.000116704
4 *104:6 0.000279578
5 *1991:A *1991:C 4.00259e-06
6 *1992:B1 *1992:A2 0.000151601
7 *104:6 *1991:C 7.42621e-05
8 *104:6 *1992:A2 7.53384e-06
*RES
1 *2102:Y *104:6 25.5271 
2 *104:6 *1992:B1 26.0036 
3 *104:6 *1991:A 23.4971 
*END

*D_NET *105 0.00307385
*CONN
*I *2106:B I *D sky130_fd_sc_hd__or2_4
*I *2104:B I *D sky130_fd_sc_hd__nand2_4
*I *1893:B I *D sky130_fd_sc_hd__nand3_2
*I *2103:X O *D sky130_fd_sc_hd__xor2_4
*CAP
1 *2106:B 7.8414e-05
2 *2104:B 0
3 *1893:B 0
4 *2103:X 0.000377665
5 *105:30 9.15697e-05
6 *105:24 0.000340725
7 *105:9 0.000548406
8 *2106:B *462:14 0.000123506
9 *2106:B *545:21 1.85916e-05
10 *105:9 *1895:A2 0.000187065
11 *105:9 *1895:B1 5.73309e-05
12 *105:9 *278:27 0.000102389
13 *105:9 *281:10 9.53225e-05
14 *105:24 *1894:A2 5.3304e-05
15 *105:24 *1895:A2 4.5051e-05
16 *105:24 *266:29 0.000166522
17 *105:24 *462:14 9.5877e-05
18 *105:24 *510:8 0.000164282
19 *105:24 *545:21 8.06804e-06
20 *105:30 *1885:B 2.84912e-05
21 *105:30 *273:10 0.000219882
22 *105:30 *510:8 0.000271392
*RES
1 *2103:X *105:9 8.08893 
2 *105:9 *1893:B 23 
3 *105:9 *105:24 34.4536 
4 *105:24 *105:30 33.6664 
5 *105:30 *2104:B 23 
6 *105:24 *2106:B 24.5743 
*END

*D_NET *106 0.0032697
*CONN
*I *2107:A I *D sky130_fd_sc_hd__nand2_2
*I *1915:C I *D sky130_fd_sc_hd__nand4b_4
*I *1883:A1 I *D sky130_fd_sc_hd__a21bo_2
*I *2105:A I *D sky130_fd_sc_hd__inv_2
*I *1894:A1 I *D sky130_fd_sc_hd__a21bo_2
*I *2104:Y O *D sky130_fd_sc_hd__nand2_4
*CAP
1 *2107:A 9.71861e-05
2 *1915:C 0.000185344
3 *1883:A1 0
4 *2105:A 0
5 *1894:A1 0
6 *2104:Y 0.0004532
7 *106:50 0.000551595
8 *106:37 0.000563309
9 *106:26 0.000698016
10 *106:8 4.94278e-05
11 *1915:C *2107:B 1.32314e-05
12 *1915:C *298:8 0
13 *2107:A *2107:B 5.67058e-05
14 *106:8 *1917:A 0.000140949
15 *106:8 *510:8 0.000140949
16 *106:26 *273:16 1.24376e-05
17 *106:37 *107:8 0
18 *106:37 *108:40 2.76611e-06
19 *106:37 *263:12 0.000171906
20 *106:37 *269:12 0
21 *106:50 *108:40 0.000121232
22 *106:50 *263:12 1.14452e-05
*RES
1 *2104:Y *106:8 39.9057 
2 *106:8 *1894:A1 38 
3 *2104:Y *106:26 29.38 
4 *106:26 *2105:A 23 
5 *106:26 *106:37 21.09 
6 *106:37 *1883:A1 38 
7 *106:37 *106:50 20.5721 
8 *106:50 *1915:C 26.0243 
9 *106:50 *2107:A 25.0714 
*END

*D_NET *107 0.000593329
*CONN
*I *1892:A I *D sky130_fd_sc_hd__or3b_4
*I *2105:Y O *D sky130_fd_sc_hd__inv_2
*CAP
1 *1892:A 2.9927e-05
2 *2105:Y 0.000110493
3 *107:8 0.00014042
4 *1892:A *108:27 2.02872e-05
5 *1892:A *263:21 9.84794e-05
6 *1892:A *269:22 5.50049e-05
7 *107:8 *108:40 0
8 *107:8 *269:12 0.000138718
9 *107:8 *492:23 0
10 *106:37 *107:8 0
*RES
1 *2105:Y *107:8 40.2579 
2 *107:8 *1892:A 39.0979 
*END

*D_NET *108 0.00259944
*CONN
*I *2107:B I *D sky130_fd_sc_hd__nand2_2
*I *1915:D I *D sky130_fd_sc_hd__nand4b_4
*I *1883:B1_N I *D sky130_fd_sc_hd__a21bo_2
*I *1892:C_N I *D sky130_fd_sc_hd__or3b_4
*I *2106:X O *D sky130_fd_sc_hd__or2_4
*CAP
1 *2107:B 1.99383e-05
2 *1915:D 1.99383e-05
3 *1883:B1_N 0
4 *1892:C_N 3.58766e-05
5 *2106:X 0.000269638
6 *108:40 0.000281375
7 *108:27 0.000513905
8 *108:12 0.000268407
9 *108:10 0.000269638
10 *1892:C_N *263:21 2.4754e-05
11 *1892:C_N *269:22 9.84794e-05
12 *1892:C_N *278:6 5.70419e-05
13 *108:10 *2104:A 8.41115e-05
14 *108:10 *269:12 0.000111253
15 *108:10 *462:14 6.71408e-06
16 *108:10 *492:23 0
17 *108:27 *2322:A 0
18 *108:27 *263:21 8.53622e-05
19 *108:27 *269:22 0.000125571
20 *108:40 *263:21 2.91057e-05
21 *108:40 *270:8 8.41115e-05
22 *1892:A *108:27 2.02872e-05
23 *1915:C *2107:B 1.32314e-05
24 *2107:A *2107:B 5.67058e-05
25 *106:37 *108:40 2.76611e-06
26 *106:50 *108:40 0.000121232
27 *107:8 *108:40 0
*RES
1 *2106:X *108:10 43.3443 
2 *108:10 *108:12 15 
3 *108:12 *1892:C_N 24.5743 
4 *108:12 *108:27 5.10089 
5 *108:27 *1883:B1_N 23 
6 *108:27 *108:40 36.3955 
7 *108:40 *1915:D 23 
8 *1915:D *2107:B 46.6214 
*END

*D_NET *109 0.00058073
*CONN
*I *1876:A I *D sky130_fd_sc_hd__xor2_2
*I *2107:Y O *D sky130_fd_sc_hd__nand2_2
*CAP
1 *1876:A 0
2 *2107:Y 0.000268081
3 *109:10 0.000268081
4 *109:10 *341:16 3.3123e-05
5 *109:10 *475:10 1.14452e-05
*RES
1 *2107:Y *109:10 43.0129 
2 *109:10 *1876:A 38 
*END

*D_NET *110 0.00114617
*CONN
*I *2111:B I *D sky130_fd_sc_hd__nand3b_2
*I *2110:A1 I *D sky130_fd_sc_hd__a21bo_2
*I *2108:Y O *D sky130_fd_sc_hd__nand2_2
*CAP
1 *2111:B 0.000188454
2 *2110:A1 0
3 *2108:Y 0.000236342
4 *110:12 0.000188454
5 *110:10 0.000236342
6 *2111:B *2111:C 8.03422e-05
7 *2111:B *112:6 2.65879e-05
8 *2111:B *575:20 1.57571e-05
9 *110:10 *453:134 0.000169674
10 *110:10 *575:20 4.21594e-06
*RES
1 *2108:Y *110:10 41.8321 
2 *110:10 *110:12 15 
3 *110:12 *2110:A1 23 
4 *110:12 *2111:B 26.9979 
*END

*D_NET *111 0.00061308
*CONN
*I *2111:C I *D sky130_fd_sc_hd__nand3b_2
*I *2110:A2 I *D sky130_fd_sc_hd__a21bo_2
*I *2109:Y O *D sky130_fd_sc_hd__nand2b_2
*CAP
1 *2111:C 6.61456e-05
2 *2110:A2 0
3 *2109:Y 9.85954e-05
4 *111:10 6.61456e-05
5 *111:8 9.85954e-05
6 *2111:C *112:6 2.4754e-05
7 *2111:C *575:20 9.67842e-05
8 *111:8 *453:134 6.58373e-05
9 *111:8 *575:20 1.58805e-05
10 *2111:B *2111:C 8.03422e-05
*RES
1 *2109:Y *111:8 39.9057 
2 *111:8 *111:10 15 
3 *111:10 *2110:A2 23 
4 *111:10 *2111:C 25.0714 
*END

*D_NET *112 0.00462053
*CONN
*I *2127:A I *D sky130_fd_sc_hd__nand3_2
*I *2134:A I *D sky130_fd_sc_hd__nand2_2
*I *2135:A I *D sky130_fd_sc_hd__nand4_2
*I *2110:X O *D sky130_fd_sc_hd__a21bo_2
*CAP
1 *2127:A 0
2 *2134:A 0
3 *2135:A 0
4 *2110:X 0.000858284
5 *112:33 0.000250695
6 *112:23 0.000505123
7 *112:14 0.000106422
8 *112:6 0.00121913
9 *112:6 *1873:B1 0.000168687
10 *112:6 *113:6 0.000356724
11 *112:6 *575:20 0.000310653
12 *112:14 *2128:B 0.000166513
13 *112:14 *2135:B 5.50106e-05
14 *112:14 *133:29 0
15 *112:14 *137:10 8.62783e-05
16 *112:14 *262:8 0
17 *112:23 *1873:B1 0.00026113
18 *112:23 *2127:B 0
19 *112:23 *129:6 1.14876e-05
20 *112:33 *2134:B 7.52623e-05
21 *112:33 *258:10 0
22 *112:33 *262:8 0.000137788
23 *2111:B *112:6 2.65879e-05
24 *2111:C *112:6 2.4754e-05
*RES
1 *2110:X *112:6 36.0086 
2 *112:6 *112:14 32.8793 
3 *112:14 *2135:A 23 
4 *112:6 *112:23 4.205 
5 *112:23 *112:33 34.3293 
6 *112:33 *2134:A 23 
7 *112:23 *2127:A 23 
*END

*D_NET *113 0.00406188
*CONN
*I *1873:B1 I *D sky130_fd_sc_hd__a2bb2o_2
*I *2134:B I *D sky130_fd_sc_hd__nand2_2
*I *1872:A1_N I *D sky130_fd_sc_hd__o2bb2a_2
*I *2135:B I *D sky130_fd_sc_hd__nand4_2
*I *2128:A I *D sky130_fd_sc_hd__nand2_2
*I *2111:Y O *D sky130_fd_sc_hd__nand3b_2
*CAP
1 *1873:B1 0.000155244
2 *2134:B 0.000272281
3 *1872:A1_N 0
4 *2135:B 0.000234082
5 *2128:A 0
6 *2111:Y 0.000139384
7 *113:34 0.000441999
8 *113:12 0.000399245
9 *113:8 0.000334882
10 *113:6 0.000294628
11 *1873:B1 *1873:A1_N 0.000192277
12 *1873:B1 *129:6 1.21972e-05
13 *1873:B1 *129:10 1.02695e-05
14 *1873:B1 *261:8 1.14762e-05
15 *2134:B *1872:B1 9.84794e-05
16 *2134:B *607:31 0.000280282
17 *2135:B *2095:C1 0
18 *2135:B *130:8 2.93747e-05
19 *2135:B *133:29 1.32314e-05
20 *2135:B *137:10 7.42621e-05
21 *113:12 *2128:B 5.93278e-05
22 *113:12 *473:14 0
23 *113:34 *1872:A2_N 3.39231e-05
24 *113:34 *2128:B 3.2457e-05
25 *113:34 *261:12 0
26 *113:34 *473:14 0
27 *113:34 *607:31 2.57636e-05
28 *112:6 *1873:B1 0.000168687
29 *112:6 *113:6 0.000356724
30 *112:14 *2135:B 5.50106e-05
31 *112:23 *1873:B1 0.00026113
32 *112:33 *2134:B 7.52623e-05
*RES
1 *2111:Y *113:6 26.9564 
2 *113:6 *113:8 15 
3 *113:8 *113:12 17.61 
4 *113:12 *2128:A 23 
5 *113:12 *2135:B 27.9507 
6 *113:8 *113:34 18.6146 
7 *113:34 *1872:A1_N 23 
8 *113:34 *2134:B 29.3696 
9 *113:6 *1873:B1 27.93 
*END

*D_NET *114 0.00324906
*CONN
*I *2126:A1 I *D sky130_fd_sc_hd__o211ai_2
*I *2129:A2 I *D sky130_fd_sc_hd__o21ai_2
*I *2116:A1 I *D sky130_fd_sc_hd__o21ai_4
*I *2112:X O *D sky130_fd_sc_hd__and2_4
*CAP
1 *2126:A1 0
2 *2129:A2 0.000241514
3 *2116:A1 3.40581e-05
4 *2112:X 8.43311e-05
5 *114:25 0.000523199
6 *114:12 0.000381032
7 *114:8 0.00014962
8 *2116:A1 *2115:A2 2.02872e-05
9 *2116:A1 *2116:A2 5.3304e-05
10 *2116:A1 *117:8 9.84794e-05
11 *2129:A2 *2129:A1 0.000226009
12 *2129:A2 *2129:B1 0
13 *2129:A2 *2131:D1 3.70094e-05
14 *2129:A2 *118:14 0.000394994
15 *2129:A2 *118:35 0.000138727
16 *114:8 *117:12 9.48381e-06
17 *114:8 *540:19 0.000138727
18 *114:12 *2115:A2 2.02872e-05
19 *114:12 *2116:A2 4.08664e-05
20 *114:12 *117:8 0.000135037
21 *114:25 *2129:A1 6.07611e-06
22 *114:25 *115:8 0.000138718
23 *114:25 *116:20 4.95545e-05
24 *114:25 *116:29 8.67978e-05
25 *114:25 *117:12 0
26 *114:25 *118:35 3.82956e-05
27 *114:25 *540:23 1.37246e-05
28 *114:25 *607:125 0.000188926
*RES
1 *2112:X *114:8 39.9057 
2 *114:8 *114:12 16.5743 
3 *114:12 *2116:A1 24.0979 
4 *114:12 *114:25 21.7529 
5 *114:25 *2129:A2 45.1879 
6 *114:25 *2126:A1 38 
*END

*D_NET *115 0.000654404
*CONN
*I *2116:A2 I *D sky130_fd_sc_hd__o21ai_4
*I *2113:Y O *D sky130_fd_sc_hd__nor2_2
*CAP
1 *2116:A2 4.11105e-05
2 *2113:Y 5.622e-05
3 *115:8 9.73305e-05
4 *2116:A2 *2115:A2 9.41704e-05
5 *115:8 *116:20 0.000132685
6 *2116:A1 *2116:A2 5.3304e-05
7 *114:12 *2116:A2 4.08664e-05
8 *114:25 *115:8 0.000138718
*RES
1 *2113:Y *115:8 39.9057 
2 *115:8 *2116:A2 39.0979 
*END

*D_NET *116 0.00272158
*CONN
*I *2126:A2 I *D sky130_fd_sc_hd__o211ai_2
*I *2129:A1 I *D sky130_fd_sc_hd__o21ai_2
*I *2115:B1 I *D sky130_fd_sc_hd__a21o_2
*I *2114:Y O *D sky130_fd_sc_hd__o21bai_2
*CAP
1 *2126:A2 0
2 *2129:A1 0.000210107
3 *2115:B1 0
4 *2114:Y 2.95207e-05
5 *116:29 0.000340586
6 *116:20 0.000336941
7 *116:6 0.00049694
8 *2129:A1 *2126:C1 5.58171e-05
9 *2129:A1 *2131:D1 0
10 *116:6 *2113:A 1.24376e-05
11 *116:6 *2114:A2 1.5769e-05
12 *116:6 *578:10 8.60475e-05
13 *116:20 *2113:A 0.000181131
14 *116:20 *2115:A2 5.67058e-05
15 *116:20 *117:8 0.000103637
16 *116:20 *578:10 0.000182826
17 *116:20 *607:98 5.41288e-05
18 *116:20 *607:106 3.31683e-05
19 *116:29 *2126:C1 2.46933e-05
20 *116:29 *117:12 0
21 *2129:A2 *2129:A1 0.000226009
22 *114:25 *2129:A1 6.07611e-06
23 *114:25 *116:20 4.95545e-05
24 *114:25 *116:29 8.67978e-05
25 *115:8 *116:20 0.000132685
*RES
1 *2114:Y *116:6 24.0979 
2 *116:6 *116:20 38.1821 
3 *116:20 *2115:B1 23 
4 *116:6 *116:29 17.61 
5 *116:29 *2129:A1 42.6607 
6 *116:29 *2126:A2 38 
*END

*D_NET *117 0.00292993
*CONN
*I *2131:B1 I *D sky130_fd_sc_hd__o2111ai_4
*I *2115:X O *D sky130_fd_sc_hd__a21o_2
*CAP
1 *2131:B1 0
2 *2115:X 0.000389332
3 *117:12 0.000530002
4 *117:8 0.000919334
5 *117:8 *2115:A2 1.03836e-05
6 *117:8 *607:98 2.65879e-05
7 *117:12 *2126:C1 0.000481112
8 *117:12 *118:8 0.00011273
9 *117:12 *121:31 1.14452e-05
10 *117:12 *127:8 0
11 *117:12 *540:19 0
12 *117:12 *540:23 0
13 *117:12 *564:25 0.000102365
14 *2116:A1 *117:8 9.84794e-05
15 *114:8 *117:12 9.48381e-06
16 *114:12 *117:8 0.000135037
17 *114:25 *117:12 0
18 *116:20 *117:8 0.000103637
19 *116:29 *117:12 0
*RES
1 *2115:X *117:8 45.2914 
2 *117:8 *117:12 27.1179 
3 *117:12 *2131:B1 23 
*END

*D_NET *118 0.00593485
*CONN
*I *2129:B1 I *D sky130_fd_sc_hd__o21ai_2
*I *2127:B I *D sky130_fd_sc_hd__nand3_2
*I *2095:B1 I *D sky130_fd_sc_hd__o211a_2
*I *2131:D1 I *D sky130_fd_sc_hd__o2111ai_4
*I *2116:Y O *D sky130_fd_sc_hd__o21ai_4
*CAP
1 *2129:B1 0.000141775
2 *2127:B 0.000207977
3 *2095:B1 4.96026e-05
4 *2131:D1 0.000261354
5 *2116:Y 0.000326978
6 *118:35 0.000977527
7 *118:14 0.00135743
8 *118:10 0.000517908
9 *118:8 0.000326978
10 *2095:B1 *128:23 6.16531e-05
11 *2095:B1 *133:10 4.21594e-06
12 *2095:B1 *133:29 1.4471e-05
13 *2095:B1 *258:10 1.37246e-05
14 *2127:B *128:23 0.000130433
15 *2127:B *452:8 0
16 *2127:B *607:31 4.38638e-05
17 *2129:B1 *2094:A 1.94693e-05
18 *2131:D1 *2126:C1 0
19 *2131:D1 *133:8 6.17437e-06
20 *2131:D1 *538:40 1.20811e-05
21 *118:8 *127:8 4.23817e-05
22 *118:8 *564:25 0.000169683
23 *118:35 *128:8 0.000387151
24 *118:35 *133:29 0.000140259
25 *2129:A1 *2131:D1 0
26 *2129:A2 *2129:B1 0
27 *2129:A2 *2131:D1 3.70094e-05
28 *2129:A2 *118:14 0.000394994
29 *2129:A2 *118:35 0.000138727
30 *112:23 *2127:B 0
31 *114:25 *118:35 3.82956e-05
32 *117:12 *118:8 0.00011273
*RES
1 *2116:Y *118:8 45.1879 
2 *118:8 *118:10 15 
3 *118:10 *118:14 20.3857 
4 *118:14 *2131:D1 42.785 
5 *118:14 *118:35 42.1593 
6 *118:35 *2095:B1 39.2014 
7 *118:35 *2127:B 41.9771 
8 *118:10 *2129:B1 25.0714 
*END

*D_NET *119 0.00293006
*CONN
*I *2119:A2 I *D sky130_fd_sc_hd__o21bai_4
*I *2131:A1 I *D sky130_fd_sc_hd__o2111ai_4
*I *2130:A1 I *D sky130_fd_sc_hd__o21ai_2
*I *2125:B2 I *D sky130_fd_sc_hd__o2bb2ai_4
*I *2117:X O *D sky130_fd_sc_hd__and2_4
*CAP
1 *2119:A2 0.000110527
2 *2131:A1 0.000333074
3 *2130:A1 0.000172621
4 *2125:B2 0.000198037
5 *2117:X 0.000282497
6 *119:22 0.000479628
7 *2119:A2 *2119:B1_N 0.00014196
8 *2119:A2 *121:10 0.000358425
9 *2130:A1 *2130:A2 5.3304e-05
10 *2130:A1 *2130:B1 9.84794e-05
11 *2130:A1 *126:16 0.000137651
12 *2130:A1 *132:10 1.56762e-05
13 *2130:A1 *468:10 5.3304e-05
14 *2131:A1 *2317:A 0.000150977
15 *2131:A1 *132:10 0.000136486
16 *2131:A1 *450:12 1.52259e-05
17 *2131:A1 *468:12 3.47781e-05
18 *119:22 *2125:B1 0
19 *119:22 *450:12 1.86973e-05
20 *119:22 *468:12 0.000138718
*RES
1 *2117:X *2125:B2 49.5007 
2 *2117:X *119:22 39.9057 
3 *119:22 *2130:A1 40.0507 
4 *119:22 *2131:A1 44.1107 
5 *2130:A1 *2119:A2 49.9564 
*END

*D_NET *120 0.00182493
*CONN
*I *2119:A1 I *D sky130_fd_sc_hd__o21bai_4
*I *2118:Y O *D sky130_fd_sc_hd__nor2_2
*CAP
1 *2119:A1 0.000452786
2 *2118:Y 0.000178889
3 *120:8 0.000631675
4 *2119:A1 *2124:B1 8.41115e-05
5 *2119:A1 *145:12 0
6 *2119:A1 *145:36 9.48381e-06
7 *2119:A1 *147:10 0
8 *2119:A1 *468:12 0
9 *2119:A1 *468:14 0
10 *2119:A1 *531:10 0
11 *2119:A1 *539:10 0
12 *2119:A1 *542:8 0
13 *120:8 *1819:A1 5.50106e-05
14 *120:8 *2118:A 6.17437e-06
15 *120:8 *145:14 0.000125213
16 *120:8 *145:36 0.000128723
17 *120:8 *538:20 0.00015286
*RES
1 *2118:Y *120:8 42.9093 
2 *120:8 *2119:A1 45.54 
*END

*D_NET *121 0.00493803
*CONN
*I *2093:A1_N I *D sky130_fd_sc_hd__o2bb2ai_2
*I *2126:C1 I *D sky130_fd_sc_hd__o211ai_2
*I *2131:C1 I *D sky130_fd_sc_hd__o2111ai_4
*I *2130:B1 I *D sky130_fd_sc_hd__o21ai_2
*I *2119:Y O *D sky130_fd_sc_hd__o21bai_4
*CAP
1 *2093:A1_N 6.74574e-06
2 *2126:C1 0.000336287
3 *2131:C1 0
4 *2130:B1 3.20321e-05
5 *2119:Y 0.000291626
6 *121:31 0.001084
7 *121:10 0.00107811
8 *2093:A1_N *2093:B2 5.67058e-05
9 *2093:A1_N *2126:B1 5.67058e-05
10 *2126:C1 *2126:B1 9.5877e-05
11 *2130:B1 *2130:A2 5.90675e-06
12 *2130:B1 *132:10 5.67058e-05
13 *2130:B1 *468:10 0
14 *121:10 *2119:B1_N 2.4754e-05
15 *121:10 *2130:A2 7.25633e-05
16 *121:31 *2258:A 0.000401899
17 *121:31 *126:16 9.39054e-05
18 *121:31 *127:8 0
19 *121:31 *132:10 0.000180218
20 *121:31 *450:6 3.40181e-05
21 *121:31 *538:40 0
22 *2119:A2 *121:10 0.000358425
23 *2129:A1 *2126:C1 5.58171e-05
24 *2130:A1 *2130:B1 9.84794e-05
25 *2131:D1 *2126:C1 0
26 *116:29 *2126:C1 2.46933e-05
27 *117:12 *2126:C1 0.000481112
28 *117:12 *121:31 1.14452e-05
*RES
1 *2119:Y *121:10 30.3329 
2 *121:10 *2130:B1 24.595 
3 *121:10 *121:31 29.5 
4 *121:31 *2131:C1 38 
5 *121:31 *2126:C1 45.5814 
6 *2126:C1 *2093:A1_N 46.6214 
*END

*D_NET *122 0.00369355
*CONN
*I *2091:A2 I *D sky130_fd_sc_hd__a32o_2
*I *2125:A1_N I *D sky130_fd_sc_hd__o2bb2ai_4
*I *2132:A1 I *D sky130_fd_sc_hd__a21o_2
*I *2120:Y O *D sky130_fd_sc_hd__nand2_2
*CAP
1 *2091:A2 0
2 *2125:A1_N 0.000226592
3 *2132:A1 0.000572228
4 *2120:Y 0.000255366
5 *122:39 7.38232e-05
6 *122:12 0.000724997
7 *122:10 0.000255366
8 *2125:A1_N *2125:A2_N 2.64616e-05
9 *2132:A1 *2125:A2_N 4.05745e-05
10 *2132:A1 *542:24 0.000614963
11 *122:10 *2120:A 4.63415e-05
12 *122:10 *467:10 4.99753e-06
13 *122:10 *469:14 0.000110913
14 *122:10 *538:28 0.000111852
15 *122:10 *538:40 0.000188926
16 *122:39 *123:12 0.000221184
17 *122:39 *542:39 0.000218962
*RES
1 *2120:Y *122:10 42.64 
2 *122:10 *122:12 15 
3 *122:12 *2132:A1 30.7679 
4 *122:12 *2125:A1_N 26.5214 
5 *2132:A1 *122:39 40.9621 
6 *122:39 *2091:A2 38 
*END

*D_NET *123 0.000592715
*CONN
*I *2091:A3 I *D sky130_fd_sc_hd__a32o_2
*I *2132:A2 I *D sky130_fd_sc_hd__a21o_2
*I *2121:Y O *D sky130_fd_sc_hd__nand2_2
*CAP
1 *2091:A3 0
2 *2132:A2 0
3 *2121:Y 3.09382e-05
4 *123:12 8.6315e-05
5 *123:6 0.000117253
6 *123:6 *450:6 2.93845e-05
7 *123:12 *607:41 0.000107641
8 *122:39 *123:12 0.000221184
*RES
1 *2121:Y *123:6 23.6214 
2 *123:6 *123:12 32.9621 
3 *123:12 *2132:A2 23 
4 *123:6 *2091:A3 23 
*END

*D_NET *124 0.000775143
*CONN
*I *2125:A2_N I *D sky130_fd_sc_hd__o2bb2ai_4
*I *2123:B1 I *D sky130_fd_sc_hd__o21ai_2
*I *2122:X O *D sky130_fd_sc_hd__o21a_2
*CAP
1 *2125:A2_N 0.000118131
2 *2123:B1 2.79296e-05
3 *2122:X 9.89761e-05
4 *124:10 0.000146061
5 *124:8 9.89761e-05
6 *2123:B1 *542:24 5.50049e-05
7 *2125:A2_N *542:24 4.08664e-05
8 *124:8 *538:40 1.12487e-05
9 *124:8 *542:24 0.000110913
10 *124:8 *607:41 0
11 *2125:A1_N *2125:A2_N 2.64616e-05
12 *2132:A1 *2125:A2_N 4.05745e-05
*RES
1 *2122:X *124:8 39.9057 
2 *124:8 *124:10 15 
3 *124:10 *2123:B1 23.6214 
4 *124:10 *2125:A2_N 25.0507 
*END

*D_NET *125 0.00344202
*CONN
*I *2133:A I *D sky130_fd_sc_hd__and2_2
*I *2135:C I *D sky130_fd_sc_hd__nand4_2
*I *2123:Y O *D sky130_fd_sc_hd__o21ai_2
*CAP
1 *2133:A 0
2 *2135:C 0
3 *2123:Y 0.000460808
4 *125:24 0.000316496
5 *125:14 0.000352805
6 *125:10 0.000497118
7 *125:10 *134:14 0.000272306
8 *125:10 *135:10 1.47563e-05
9 *125:10 *258:10 0.000164282
10 *125:10 *542:24 0.000130426
11 *125:10 *542:39 2.64616e-05
12 *125:14 *135:24 2.64616e-05
13 *125:24 *2133:B 5.50049e-05
14 *125:24 *2135:D 0.000304998
15 *125:24 *133:29 2.93845e-05
16 *125:24 *134:14 1.61305e-05
17 *125:24 *135:10 5.41288e-05
18 *125:24 *135:24 4.21378e-05
19 *125:24 *262:8 0.000648933
20 *101:27 *125:10 2.93845e-05
*RES
1 *2123:Y *125:10 47.5493 
2 *125:10 *125:14 15.6214 
3 *125:14 *125:24 40.7921 
4 *125:24 *2135:C 23 
5 *125:14 *2133:A 23 
*END

*D_NET *126 0.00326333
*CONN
*I *2130:A2 I *D sky130_fd_sc_hd__o21ai_2
*I *2131:A2 I *D sky130_fd_sc_hd__o2111ai_4
*I *2125:B1 I *D sky130_fd_sc_hd__o2bb2ai_4
*I *2124:Y O *D sky130_fd_sc_hd__o21ai_4
*CAP
1 *2130:A2 0.000110925
2 *2131:A2 0.000321803
3 *2125:B1 0.000148211
4 *2124:Y 0.000332841
5 *126:16 0.000677528
6 *126:12 0.00031844
7 *126:10 0.000332841
8 *2125:B1 *127:8 0
9 *2125:B1 *468:12 0
10 *2125:B1 *539:24 0
11 *2130:A2 *468:10 0
12 *2131:A2 *127:8 0
13 *2131:A2 *450:12 0
14 *126:10 *2124:A2 0.000185434
15 *126:10 *468:12 7.03766e-05
16 *126:10 *539:10 0.000139657
17 *126:10 *539:16 5.50049e-05
18 *126:16 *450:6 0.000183733
19 *126:16 *468:10 2.32004e-05
20 *2130:A1 *2130:A2 5.3304e-05
21 *2130:A1 *126:16 0.000137651
22 *2130:B1 *2130:A2 5.90675e-06
23 *119:22 *2125:B1 0
24 *121:10 *2130:A2 7.25633e-05
25 *121:31 *126:16 9.39054e-05
*RES
1 *2124:Y *126:10 44.815 
2 *126:10 *126:12 15 
3 *126:12 *126:16 19.9093 
4 *126:16 *2125:B1 40.61 
5 *126:16 *2131:A2 43.365 
6 *126:12 *2130:A2 25.4236 
*END

*D_NET *127 0.00201542
*CONN
*I *2126:B1 I *D sky130_fd_sc_hd__o211ai_2
*I *2093:A2_N I *D sky130_fd_sc_hd__o2bb2ai_2
*I *2125:Y O *D sky130_fd_sc_hd__o2bb2ai_4
*CAP
1 *2126:B1 0.000137237
2 *2093:A2_N 0
3 *2125:Y 0.000642205
4 *127:12 0.000176955
5 *127:8 0.000681922
6 *2126:B1 *2093:B2 8.36576e-05
7 *2126:B1 *128:8 0
8 *127:8 *451:10 0
9 *127:8 *471:8 0
10 *127:12 *2093:B2 9.84794e-05
11 *2093:A1_N *2126:B1 5.67058e-05
12 *2125:B1 *127:8 0
13 *2126:C1 *2126:B1 9.5877e-05
14 *2131:A2 *127:8 0
15 *117:12 *127:8 0
16 *118:8 *127:8 4.23817e-05
17 *121:31 *127:8 0
*RES
1 *2125:Y *127:8 49.0614 
2 *127:8 *127:12 16.0979 
3 *127:12 *2093:A2_N 23 
4 *127:12 *2126:B1 26.5214 
*END

*D_NET *128 0.00248217
*CONN
*I *2127:C I *D sky130_fd_sc_hd__nand3_2
*I *2095:C1 I *D sky130_fd_sc_hd__o211a_2
*I *2126:Y O *D sky130_fd_sc_hd__o211ai_2
*CAP
1 *2127:C 0
2 *2095:C1 5.51514e-05
3 *2126:Y 0.000317698
4 *128:23 8.12534e-05
5 *128:8 0.000454103
6 *2095:C1 *2095:A2 8.57697e-07
7 *2095:C1 *133:29 5.3304e-05
8 *128:8 *2093:B2 0.000471127
9 *128:8 *2095:A1 5.45324e-05
10 *128:8 *2095:A2 1.06045e-05
11 *128:8 *133:29 0.000181125
12 *128:23 *136:10 4.21594e-06
13 *128:23 *258:10 0.000218962
14 *128:23 *452:8 0
15 *2095:B1 *128:23 6.16531e-05
16 *2126:B1 *128:8 0
17 *2127:B *128:23 0.000130433
18 *2135:B *2095:C1 0
19 *118:35 *128:8 0.000387151
*RES
1 *2126:Y *128:8 34.6 
2 *128:8 *2095:C1 24.1186 
3 *128:8 *128:23 32.9621 
4 *128:23 *2127:C 23 
*END

*D_NET *129 0.00175658
*CONN
*I *1873:B2 I *D sky130_fd_sc_hd__a2bb2o_2
*I *1872:A2_N I *D sky130_fd_sc_hd__o2bb2a_2
*I *2128:B I *D sky130_fd_sc_hd__nand2_2
*I *2127:Y O *D sky130_fd_sc_hd__nand3_2
*CAP
1 *1873:B2 0
2 *1872:A2_N 0.000127182
3 *2128:B 0.00012359
4 *2127:Y 5.97433e-05
5 *129:10 0.000356904
6 *129:6 0.000165874
7 *1872:A2_N *1872:B2 1.12487e-05
8 *1872:A2_N *261:12 8.4047e-05
9 *1872:A2_N *607:31 9.84794e-05
10 *2128:B *1872:B2 1.22803e-05
11 *2128:B *137:10 3.97399e-05
12 *129:6 *607:31 0.000136743
13 *129:10 *1873:A1_N 0.000104561
14 *129:10 *261:8 5.50106e-05
15 *129:10 *607:31 5.50049e-05
16 *1873:B1 *129:6 1.21972e-05
17 *1873:B1 *129:10 1.02695e-05
18 *112:14 *2128:B 0.000166513
19 *112:23 *129:6 1.14876e-05
20 *113:12 *2128:B 5.93278e-05
21 *113:34 *1872:A2_N 3.39231e-05
22 *113:34 *2128:B 3.2457e-05
*RES
1 *2127:Y *129:6 24.5743 
2 *129:6 *129:10 17.5271 
3 *129:10 *2128:B 41.6664 
4 *129:10 *1872:A2_N 40.6514 
5 *129:6 *1873:B2 23 
*END

*D_NET *130 0.00160451
*CONN
*I *1874:B I *D sky130_fd_sc_hd__nand3_4
*I *2128:Y O *D sky130_fd_sc_hd__nand2_2
*CAP
1 *1874:B 0
2 *2128:Y 6.34684e-05
3 *130:12 0.0007241
4 *130:8 0.000787568
5 *130:12 *1874:A 0
6 *130:12 *262:8 0
7 *2135:B *130:8 2.93747e-05
*RES
1 *2128:Y *130:8 39.0979 
2 *130:8 *130:12 28.5264 
3 *130:12 *1874:B 23 
*END

*D_NET *131 0.000452366
*CONN
*I *2094:A I *D sky130_fd_sc_hd__xnor2_2
*I *2129:Y O *D sky130_fd_sc_hd__o21ai_2
*CAP
1 *2094:A 0.000216448
2 *2129:Y 0.000216448
3 *2129:B1 *2094:A 1.94693e-05
*RES
1 *2129:Y *2094:A 49.9771 
*END

*D_NET *132 0.00179408
*CONN
*I *2093:B1 I *D sky130_fd_sc_hd__o2bb2ai_2
*I *2092:A I *D sky130_fd_sc_hd__xnor2_2
*I *2130:Y O *D sky130_fd_sc_hd__o21ai_2
*CAP
1 *2093:B1 0.000333062
2 *2092:A 0
3 *2130:Y 0.000146868
4 *132:10 0.000479929
5 *2093:B1 *2055:A 1.24376e-05
6 *2093:B1 *2317:A 0.000225691
7 *2093:B1 *451:10 0
8 *2093:B1 *501:12 1.57571e-05
9 *132:10 *2317:A 1.37349e-05
10 *132:10 *450:12 8.16459e-05
11 *132:10 *468:10 9.58714e-05
12 *2130:A1 *132:10 1.56762e-05
13 *2130:B1 *132:10 5.67058e-05
14 *2131:A1 *132:10 0.000136486
15 *121:31 *132:10 0.000180218
*RES
1 *2130:Y *132:10 42.3086 
2 *132:10 *2092:A 38 
3 *132:10 *2093:B1 45.83 
*END

*D_NET *133 0.00470561
*CONN
*I *1872:B1 I *D sky130_fd_sc_hd__o2bb2a_2
*I *1873:A1_N I *D sky130_fd_sc_hd__a2bb2o_2
*I *2095:A1 I *D sky130_fd_sc_hd__o211a_2
*I *2131:Y O *D sky130_fd_sc_hd__o2111ai_4
*CAP
1 *1872:B1 0.000150127
2 *1873:A1_N 5.35161e-05
3 *2095:A1 1.49517e-05
4 *2131:Y 0.000596407
5 *133:29 0.000645422
6 *133:10 0.000664017
7 *133:8 0.000803693
8 *1872:B1 *1872:B2 3.04021e-05
9 *1872:B1 *137:10 9.21347e-06
10 *1872:B1 *262:8 0.00021356
11 *1872:B1 *607:31 8.4047e-05
12 *2095:A1 *2093:B2 5.45324e-05
13 *133:8 *453:121 3.39386e-05
14 *133:8 *538:40 1.14762e-05
15 *133:10 *258:10 0
16 *133:10 *449:8 0.000166666
17 *133:10 *607:35 0
18 *133:29 *2135:D 2.93845e-05
19 *133:29 *137:10 8.96586e-05
20 *133:29 *262:8 0.00015795
21 *133:29 *452:8 4.6318e-06
22 *1873:B1 *1873:A1_N 0.000192277
23 *2095:B1 *133:10 4.21594e-06
24 *2095:B1 *133:29 1.4471e-05
25 *2095:C1 *133:29 5.3304e-05
26 *2131:D1 *133:8 6.17437e-06
27 *2134:B *1872:B1 9.84794e-05
28 *2135:B *133:29 1.32314e-05
29 *112:14 *133:29 0
30 *118:35 *133:29 0.000140259
31 *125:24 *133:29 2.93845e-05
32 *128:8 *2095:A1 5.45324e-05
33 *128:8 *133:29 0.000181125
34 *129:10 *1873:A1_N 0.000104561
*RES
1 *2131:Y *133:8 45.7679 
2 *133:8 *133:10 4.72286 
3 *133:10 *2095:A1 38.6162 
4 *133:10 *133:29 38.9693 
5 *133:29 *1873:A1_N 40.1543 
6 *133:29 *1872:B1 42.06 
*END

*D_NET *134 0.00219477
*CONN
*I *2135:D I *D sky130_fd_sc_hd__nand4_2
*I *2133:B I *D sky130_fd_sc_hd__and2_2
*I *2132:X O *D sky130_fd_sc_hd__a21o_2
*CAP
1 *2135:D 0.000290224
2 *2133:B 1.50079e-05
3 *2132:X 0.000262007
4 *134:14 0.000567239
5 *2133:B *135:24 5.50049e-05
6 *2135:D *135:30 7.95668e-05
7 *2135:D *258:10 0.000151517
8 *134:14 *135:10 8.62783e-05
9 *134:14 *258:10 4.98399e-06
10 *134:14 *262:8 5.11935e-06
11 *125:10 *134:14 0.000272306
12 *125:24 *2133:B 5.50049e-05
13 *125:24 *2135:D 0.000304998
14 *125:24 *134:14 1.61305e-05
15 *133:29 *2135:D 2.93845e-05
*RES
1 *2132:X *134:14 43.075 
2 *134:14 *2133:B 38.6214 
3 *134:14 *2135:D 46.8657 
*END

*D_NET *135 0.00185221
*CONN
*I *2091:B2 I *D sky130_fd_sc_hd__a32o_2
*I *2089:B I *D sky130_fd_sc_hd__nand2_2
*I *2090:A I *D sky130_fd_sc_hd__xor2_2
*I *2133:X O *D sky130_fd_sc_hd__and2_2
*CAP
1 *2091:B2 7.87461e-05
2 *2089:B 0
3 *2090:A 0
4 *2133:X 0.000408295
5 *135:30 7.3918e-05
6 *135:24 0.000309558
7 *135:10 0.0002514
8 *2091:B2 *450:6 4.04598e-06
9 *135:10 *1874:A 0
10 *135:10 *258:10 8.09007e-05
11 *135:10 *259:10 1.14452e-05
12 *135:10 *262:8 0.000110521
13 *135:30 *258:10 0.000165049
14 *2133:B *135:24 5.50049e-05
15 *2135:D *135:30 7.95668e-05
16 *125:10 *135:10 1.47563e-05
17 *125:14 *135:24 2.64616e-05
18 *125:24 *135:10 5.41288e-05
19 *125:24 *135:24 4.21378e-05
20 *134:14 *135:10 8.62783e-05
*RES
1 *2133:X *135:10 44.2971 
2 *135:10 *2090:A 38 
3 *2133:X *135:24 25.5271 
4 *135:24 *135:30 32.2579 
5 *135:30 *2089:B 23 
6 *135:24 *2091:B2 24.0979 
*END

*D_NET *136 0.000547709
*CONN
*I *2096:A I *D sky130_fd_sc_hd__xor2_2
*I *2134:Y O *D sky130_fd_sc_hd__nand2_2
*CAP
1 *2096:A 0
2 *2134:Y 0.000269638
3 *136:10 0.000269638
4 *136:10 *258:10 0
5 *136:10 *452:8 4.21594e-06
6 *136:10 *607:35 0
7 *136:10 *607:98 0
8 *128:23 *136:10 4.21594e-06
*RES
1 *2134:Y *136:10 42.3086 
2 *136:10 *2096:A 38 
*END

*D_NET *137 0.00136511
*CONN
*I *1872:B2 I *D sky130_fd_sc_hd__o2bb2a_2
*I *1873:A2_N I *D sky130_fd_sc_hd__a2bb2o_2
*I *2135:Y O *D sky130_fd_sc_hd__nand4_2
*CAP
1 *1872:B2 0.0001586
2 *1873:A2_N 0
3 *2135:Y 0.000232993
4 *137:10 0.000391593
5 *1872:B2 *261:12 0.000187986
6 *1872:B2 *262:8 0
7 *1872:B2 *607:31 4.08537e-05
8 *1872:A2_N *1872:B2 1.12487e-05
9 *1872:B1 *1872:B2 3.04021e-05
10 *1872:B1 *137:10 9.21347e-06
11 *2128:B *1872:B2 1.22803e-05
12 *2128:B *137:10 3.97399e-05
13 *2135:B *137:10 7.42621e-05
14 *112:14 *137:10 8.62783e-05
15 *133:29 *137:10 8.96586e-05
*RES
1 *2135:Y *137:10 42.3086 
2 *137:10 *1873:A2_N 38 
3 *137:10 *1872:B2 41.3143 
*END

*D_NET *138 0.00324083
*CONN
*I *2087:A1_N I *D sky130_fd_sc_hd__a2bb2oi_2
*I *2141:A1 I *D sky130_fd_sc_hd__o21a_2
*I *2140:A2 I *D sky130_fd_sc_hd__o21bai_4
*I *2136:X O *D sky130_fd_sc_hd__and2_4
*CAP
1 *2087:A1_N 0.000196931
2 *2141:A1 0
3 *2140:A2 0.000180952
4 *2136:X 0.000292313
5 *138:12 0.000291652
6 *138:8 0.000599943
7 *2087:A1_N *2139:A2 0.000173181
8 *2087:A1_N *2298:A 5.67058e-05
9 *2087:A1_N *140:19 0.000133231
10 *2087:A1_N *147:30 2.18506e-05
11 *2140:A2 *2140:A1 7.44354e-05
12 *2140:A2 *142:8 9.2606e-05
13 *2140:A2 *516:14 9.84794e-05
14 *2140:A2 *604:8 0.000114846
15 *138:8 *2086:B 0.000221406
16 *138:8 *447:26 4.70852e-05
17 *138:8 *536:14 0.000477639
18 *138:12 *140:19 0.000163352
19 *138:12 *516:14 4.21594e-06
20 *138:12 *536:23 0
*RES
1 *2136:X *138:8 45.7679 
2 *138:8 *138:12 17.2579 
3 *138:12 *2140:A2 27.9507 
4 *138:12 *2141:A1 23 
5 *138:8 *2087:A1_N 43.5307 
*END

*D_NET *139 0.001572
*CONN
*I *2140:A1 I *D sky130_fd_sc_hd__o21bai_4
*I *2137:Y O *D sky130_fd_sc_hd__nor2_2
*CAP
1 *2140:A1 0.000401857
2 *2137:Y 0.000118523
3 *139:8 0.00052038
4 *139:8 *2137:B 0.000114083
5 *139:8 *2290:A 0.000148402
6 *139:8 *536:23 0.000194318
7 *2140:A2 *2140:A1 7.44354e-05
*RES
1 *2137:Y *139:8 42.0186 
2 *139:8 *2140:A1 42.9093 
*END

*D_NET *140 0.00193174
*CONN
*I *2087:A2_N I *D sky130_fd_sc_hd__a2bb2oi_2
*I *2139:B1 I *D sky130_fd_sc_hd__a21o_4
*I *2141:A2 I *D sky130_fd_sc_hd__o21a_2
*I *2138:Y O *D sky130_fd_sc_hd__o21ai_2
*CAP
1 *2087:A2_N 1.56221e-05
2 *2139:B1 7.90877e-05
3 *2141:A2 0
4 *2138:Y 0.000113164
5 *140:19 0.000366845
6 *140:8 0.000385299
7 *2087:A2_N *2139:A2 5.50106e-05
8 *2087:A2_N *147:30 2.32101e-05
9 *2139:B1 *2087:B1 1.22822e-05
10 *2139:B1 *2139:A1 0.000112457
11 *2139:B1 *2139:A2 2.32004e-05
12 *2139:B1 *147:30 0.000278081
13 *140:8 *470:24 0
14 *140:8 *516:14 0
15 *140:19 *2139:A1 0
16 *140:19 *142:14 0.000170899
17 *140:19 *470:24 0
18 *140:19 *516:14 0
19 *2087:A1_N *140:19 0.000133231
20 *138:12 *140:19 0.000163352
*RES
1 *2138:Y *140:8 39.9057 
2 *140:8 *2141:A2 38 
3 *140:8 *140:19 21.4836 
4 *140:19 *2139:B1 26.9979 
5 *140:19 *2087:A2_N 23.6214 
*END

*D_NET *141 0.00301658
*CONN
*I *1819:B1 I *D sky130_fd_sc_hd__o22a_2
*I *1820:A2 I *D sky130_fd_sc_hd__o221a_2
*I *2149:C I *D sky130_fd_sc_hd__nand4_4
*I *2139:X O *D sky130_fd_sc_hd__a21o_4
*CAP
1 *1819:B1 0.000181142
2 *1820:A2 0.000142843
3 *2149:C 0
4 *2139:X 0.000299599
5 *141:19 0.000423299
6 *141:10 0.000398913
7 *1819:B1 *470:8 0.000140259
8 *1819:B1 *474:8 5.40866e-05
9 *1819:B1 *477:10 2.71291e-05
10 *1819:B1 *478:10 0.000107242
11 *1819:B1 *538:20 0.000120326
12 *1820:A2 *1820:B1 3.61695e-05
13 *1820:A2 *1820:B2 0.000223692
14 *1820:A2 *2147:A1 9.67842e-05
15 *141:10 *142:24 6.71188e-05
16 *141:10 *470:16 0
17 *141:10 *477:10 0.000426061
18 *141:10 *478:16 8.76088e-05
19 *141:19 *477:10 9.28739e-05
20 *141:19 *478:10 1.58805e-05
21 *141:19 *478:16 7.55491e-05
*RES
1 *2139:X *141:10 46.12 
2 *141:10 *2149:C 38 
3 *141:10 *141:19 2.61 
4 *141:19 *1820:A2 41.5007 
5 *141:19 *1819:B1 42.8886 
*END

*D_NET *142 0.00460649
*CONN
*I *2141:B1 I *D sky130_fd_sc_hd__o21a_2
*I *2087:B1 I *D sky130_fd_sc_hd__a2bb2oi_2
*I *2149:B I *D sky130_fd_sc_hd__nand4_4
*I *2140:Y O *D sky130_fd_sc_hd__o21bai_4
*CAP
1 *2141:B1 0
2 *2087:B1 0.000362643
3 *2149:B 0
4 *2140:Y 0.000256662
5 *142:24 0.000620675
6 *142:14 0.00122013
7 *142:8 0.00049347
8 *2087:B1 *2139:A1 1.32314e-05
9 *2087:B1 *2139:A2 0.000267173
10 *2087:B1 *2298:A 7.91198e-05
11 *2087:B1 *447:26 2.93845e-05
12 *142:8 *604:8 3.46673e-05
13 *142:14 *2139:A1 0
14 *142:14 *143:10 4.90891e-05
15 *142:14 *470:24 0
16 *142:24 *2139:A1 0.000168821
17 *142:24 *2149:D 0.000137651
18 *142:24 *2295:A 0.000187986
19 *142:24 *146:8 7.15126e-05
20 *142:24 *470:16 0.000271373
21 *2139:B1 *2087:B1 1.22822e-05
22 *2140:A2 *142:8 9.2606e-05
23 *140:19 *142:14 0.000170899
24 *141:10 *142:24 6.71188e-05
*RES
1 *2140:Y *142:8 27.205 
2 *142:8 *142:14 34.7229 
3 *142:14 *142:24 42.0557 
4 *142:24 *2149:B 23 
5 *142:14 *2087:B1 30.3329 
6 *142:8 *2141:B1 23 
*END

*D_NET *143 0.000473675
*CONN
*I *2086:A I *D sky130_fd_sc_hd__xor2_2
*I *2141:X O *D sky130_fd_sc_hd__o21a_2
*CAP
1 *2086:A 0
2 *2141:X 0.000165832
3 *143:10 0.000165832
4 *143:10 *470:18 0
5 *143:10 *470:24 3.62164e-05
6 *143:10 *604:8 5.67058e-05
7 *142:14 *143:10 4.90891e-05
*RES
1 *2141:X *143:10 40.8793 
2 *143:10 *2086:A 38 
*END

*D_NET *144 0.00251813
*CONN
*I *2145:A2 I *D sky130_fd_sc_hd__o21bai_4
*I *2144:A1 I *D sky130_fd_sc_hd__o21ba_2
*I *2142:Y O *D sky130_fd_sc_hd__nor2_2
*CAP
1 *2145:A2 6.5942e-05
2 *2144:A1 0.00023494
3 *2142:Y 0.000382656
4 *144:8 0.000683538
5 *2144:A1 *2148:A2 6.70914e-05
6 *2144:A1 *2148:B1 3.22879e-05
7 *2144:A1 *145:36 0.00026599
8 *2144:A1 *148:12 1.62015e-05
9 *2144:A1 *481:24 5.50049e-05
10 *2145:A2 *145:36 0.000138718
11 *2145:A2 *148:12 3.96053e-05
12 *144:8 *2142:B 0.000355029
13 *144:8 *537:27 0.000181125
*RES
1 *2142:Y *144:8 43.8621 
2 *144:8 *2144:A1 42.2879 
3 *144:8 *2145:A2 39.9057 
*END

*D_NET *145 0.00480779
*CONN
*I *2299:A I *D sky130_fd_sc_hd__buf_2
*I *2144:A2 I *D sky130_fd_sc_hd__o21ba_2
*I *2145:A1 I *D sky130_fd_sc_hd__o21bai_4
*I *1819:A1 I *D sky130_fd_sc_hd__o22a_2
*I *2143:X O *D sky130_fd_sc_hd__and2_4
*CAP
1 *2299:A 0.000371188
2 *2144:A2 0
3 *2145:A1 0
4 *1819:A1 8.82656e-05
5 *2143:X 0.000275508
6 *145:36 0.000365169
7 *145:14 0.000147579
8 *145:12 0.000504861
9 *145:8 0.000727074
10 *1819:A1 *1819:A2 0.000268868
11 *1819:A1 *2118:A 5.10686e-05
12 *1819:A1 *538:20 2.65879e-05
13 *2299:A *2146:A2 5.50106e-05
14 *2299:A *2146:B1 0.000143655
15 *2299:A *148:10 0.000295317
16 *2299:A *531:10 2.93747e-05
17 *2299:A *537:42 1.22803e-05
18 *2299:A *542:12 0.000201049
19 *145:8 *2143:B 7.15126e-05
20 *145:8 *2146:A2 8.48502e-06
21 *145:8 *148:10 5.3304e-05
22 *145:8 *542:12 9.52332e-06
23 *145:12 *148:10 8.4047e-05
24 *145:12 *148:12 3.47781e-05
25 *145:14 *1819:A2 9.58714e-05
26 *145:36 *147:10 0
27 *145:36 *148:12 0
28 *145:36 *537:14 0.000164282
29 *2119:A1 *145:12 0
30 *2119:A1 *145:36 9.48381e-06
31 *2144:A1 *145:36 0.00026599
32 *2145:A2 *145:36 0.000138718
33 *67:10 *145:36 0
34 *120:8 *1819:A1 5.50106e-05
35 *120:8 *145:14 0.000125213
36 *120:8 *145:36 0.000128723
*RES
1 *2143:X *145:8 41.48 
2 *145:8 *145:12 16.5536 
3 *145:12 *145:14 1.57429 
4 *145:14 *1819:A1 26.5007 
5 *145:14 *2145:A1 23 
6 *145:12 *145:36 38.0579 
7 *145:36 *2144:A2 23 
8 *145:8 *2299:A 48.0671 
*END

*D_NET *146 0.00394776
*CONN
*I *1819:B2 I *D sky130_fd_sc_hd__o22a_2
*I *1820:A1 I *D sky130_fd_sc_hd__o221a_2
*I *2144:X O *D sky130_fd_sc_hd__o21ba_2
*CAP
1 *1819:B2 6.57055e-05
2 *1820:A1 0.000454902
3 *2144:X 0.000575117
4 *146:10 0.000661631
5 *146:8 0.00071614
6 *1819:B2 *470:16 6.6869e-05
7 *1819:B2 *474:8 0.000126343
8 *1820:A1 *1820:B1 0.000117043
9 *1820:A1 *1820:B2 3.45862e-05
10 *1820:A1 *1820:C1 9.62764e-05
11 *1820:A1 *1821:B1 1.37232e-05
12 *1820:A1 *2147:A1 3.70071e-06
13 *146:8 *2148:A2 2.02872e-05
14 *146:8 *2148:B1 0.000274078
15 *146:8 *2149:D 1.21972e-05
16 *146:8 *147:30 0.000228903
17 *146:8 *481:24 1.03955e-05
18 *146:10 *470:16 0.000175449
19 *146:10 *474:8 9.03784e-05
20 *146:10 *477:10 0.000132521
21 *142:24 *146:8 7.15126e-05
*RES
1 *2144:X *146:8 46.7207 
2 *146:8 *146:10 4.72286 
3 *146:10 *1820:A1 44.7114 
4 *146:10 *1819:B2 39.9057 
*END

*D_NET *147 0.00421317
*CONN
*I *2298:A I *D sky130_fd_sc_hd__buf_2
*I *2149:A I *D sky130_fd_sc_hd__nand4_4
*I *2145:Y O *D sky130_fd_sc_hd__o21bai_4
*CAP
1 *2298:A 0.000250626
2 *2149:A 0
3 *2145:Y 0.000518791
4 *147:30 0.000607709
5 *147:12 0.000858335
6 *147:10 0.000518791
7 *2298:A *2139:A2 2.18409e-05
8 *2298:A *447:26 5.50106e-05
9 *2298:A *448:10 5.67058e-05
10 *147:10 *2144:B1_N 0.000396711
11 *147:10 *448:10 0
12 *147:10 *531:10 5.33597e-05
13 *147:10 *537:14 0
14 *147:10 *538:20 1.39317e-05
15 *147:30 *2139:A1 3.53115e-05
16 *147:30 *2139:A2 1.03836e-05
17 *147:30 *2148:A2 9.84794e-05
18 *147:30 *2295:A 0
19 *2087:A1_N *2298:A 5.67058e-05
20 *2087:A1_N *147:30 2.18506e-05
21 *2087:A2_N *147:30 2.32101e-05
22 *2087:B1 *2298:A 7.91198e-05
23 *2119:A1 *147:10 0
24 *2139:B1 *147:30 0.000278081
25 *67:10 *147:10 2.93154e-05
26 *145:36 *147:10 0
27 *146:8 *147:30 0.000228903
*RES
1 *2145:Y *147:10 47.2179 
2 *147:10 *147:12 15 
3 *147:12 *147:30 41.2271 
4 *147:30 *2149:A 23 
5 *147:12 *2298:A 28.4064 
*END

*D_NET *148 0.00350078
*CONN
*I *1819:A2 I *D sky130_fd_sc_hd__o22a_2
*I *2147:B1 I *D sky130_fd_sc_hd__a21o_4
*I *2148:A2 I *D sky130_fd_sc_hd__o21ai_2
*I *2146:Y O *D sky130_fd_sc_hd__o21ai_4
*CAP
1 *1819:A2 0.000302933
2 *2147:B1 2.71027e-05
3 *2148:A2 0.000246549
4 *2146:Y 0.00020509
5 *148:12 0.000422658
6 *148:10 0.00065703
7 *1819:A2 *470:8 6.17437e-06
8 *1819:A2 *538:20 2.81406e-06
9 *2147:B1 *2142:B 5.67058e-05
10 *2147:B1 *2147:A1 3.71251e-05
11 *2147:B1 *537:27 4.17736e-05
12 *2148:A2 *2142:A 2.76611e-06
13 *2148:A2 *2295:A 0
14 *2148:A2 *149:8 0
15 *2148:A2 *470:16 0
16 *2148:A2 *481:24 5.50049e-05
17 *148:10 *2146:A2 2.02872e-05
18 *148:10 *537:42 0.000100778
19 *148:12 *2142:A 3.95159e-06
20 *148:12 *537:42 0.000238185
21 *1819:A1 *1819:A2 0.000268868
22 *2144:A1 *2148:A2 6.70914e-05
23 *2144:A1 *148:12 1.62015e-05
24 *2145:A2 *148:12 3.96053e-05
25 *2299:A *148:10 0.000295317
26 *145:8 *148:10 5.3304e-05
27 *145:12 *148:10 8.4047e-05
28 *145:12 *148:12 3.47781e-05
29 *145:14 *1819:A2 9.58714e-05
30 *145:36 *148:12 0
31 *146:8 *2148:A2 2.02872e-05
32 *147:30 *2148:A2 9.84794e-05
*RES
1 *2146:Y *148:10 43.0336 
2 *148:10 *148:12 3.66643 
3 *148:12 *2148:A2 42.8886 
4 *148:12 *2147:B1 39.0979 
5 *148:10 *1819:A2 42.4329 
*END

*D_NET *149 0.0017673
*CONN
*I *2149:D I *D sky130_fd_sc_hd__nand4_4
*I *2295:A I *D sky130_fd_sc_hd__buf_2
*I *2147:X O *D sky130_fd_sc_hd__a21o_4
*CAP
1 *2149:D 0.000370536
2 *2295:A 0.00016193
3 *2147:X 0.000114618
4 *149:8 0.000647084
5 *2149:D *151:51 3.22879e-05
6 *2295:A *470:16 1.12487e-05
7 *149:8 *470:16 9.176e-05
8 *2148:A2 *2295:A 0
9 *2148:A2 *149:8 0
10 *142:24 *2149:D 0.000137651
11 *142:24 *2295:A 0.000187986
12 *146:8 *2149:D 1.21972e-05
13 *147:30 *2295:A 0
*RES
1 *2147:X *149:8 40.61 
2 *149:8 *2295:A 40.9621 
3 *149:8 *2149:D 44.3593 
*END

*D_NET *150 0.00173954
*CONN
*I *2088:A I *D sky130_fd_sc_hd__xor2_2
*I *2148:Y O *D sky130_fd_sc_hd__o21ai_2
*CAP
1 *2088:A 0
2 *2148:Y 0.00049137
3 *150:10 0.00049137
4 *150:10 *2144:B1_N 0.000169674
5 *150:10 *448:10 5.61311e-05
6 *150:10 *481:24 0.000176873
7 *150:10 *537:14 0.000354122
*RES
1 *2148:Y *150:10 46.5964 
2 *150:10 *2088:A 38 
*END

*D_NET *151 0.00461874
*CONN
*I *2293:A I *D sky130_fd_sc_hd__buf_2
*I *1821:A1 I *D sky130_fd_sc_hd__o21ai_2
*I *2165:B I *D sky130_fd_sc_hd__nor2_4
*I *1830:A_N I *D sky130_fd_sc_hd__nand4b_4
*I *2149:Y O *D sky130_fd_sc_hd__nand4_4
*CAP
1 *2293:A 0
2 *1821:A1 9.01904e-05
3 *2165:B 0
4 *1830:A_N 0
5 *2149:Y 0
6 *151:51 0.000551762
7 *151:22 9.56254e-05
8 *151:16 0.000711171
9 *151:8 0.0010218
10 *151:4 0.000867826
11 *1821:A1 *206:21 0
12 *1821:A1 *209:8 0.000101708
13 *151:16 *2165:A 9.84794e-05
14 *151:16 *206:21 0
15 *151:16 *209:8 9.26098e-05
16 *151:22 *574:16 0.000248979
17 *151:22 *607:41 0.000124873
18 *151:51 *206:21 0
19 *151:51 *207:10 0
20 *151:51 *469:25 8.22906e-05
21 *151:51 *474:8 0
22 *151:51 *478:10 0.000309206
23 *151:51 *478:16 8.62876e-05
24 *151:51 *542:12 0.000103647
25 *2149:D *151:51 3.22879e-05
*RES
1 *2149:Y *151:4 23 
2 *151:4 *151:8 18.9564 
3 *151:8 *151:16 26.1029 
4 *151:16 *151:22 33.3143 
5 *151:22 *1830:A_N 23 
6 *151:16 *2165:B 23 
7 *151:8 *1821:A1 39.9057 
8 *151:4 *151:51 41.5171 
9 *151:51 *2293:A 23 
*END

*D_NET *152 0.000353562
*CONN
*I *2154:B I *D sky130_fd_sc_hd__nand3b_2
*I *2150:Y O *D sky130_fd_sc_hd__nand2b_2
*CAP
1 *2154:B 0
2 *2150:Y 8.03775e-05
3 *152:8 8.03775e-05
4 *152:8 *153:10 2.36844e-05
5 *152:8 *154:14 8.06039e-05
6 *152:8 *156:12 8.85189e-05
*RES
1 *2150:Y *152:8 40.2579 
2 *152:8 *2154:B 38 
*END

*D_NET *153 0.000817402
*CONN
*I *2154:C I *D sky130_fd_sc_hd__nand3b_2
*I *2151:Y O *D sky130_fd_sc_hd__nand2_2
*CAP
1 *2154:C 0
2 *2151:Y 0.00019316
3 *153:10 0.00019316
4 *153:10 *2150:A_N 0.000143655
5 *153:10 *156:12 6.6869e-05
6 *153:10 *478:75 0.000185428
7 *153:10 *534:21 1.14452e-05
8 *153:10 *569:25 0
9 *152:8 *153:10 2.36844e-05
*RES
1 *2151:Y *153:10 43.0129 
2 *153:10 *2154:C 38 
*END

*D_NET *154 0.00482552
*CONN
*I *2155:A1 I *D sky130_fd_sc_hd__o21ai_2
*I *2163:A1 I *D sky130_fd_sc_hd__o2111a_2
*I *2164:A1 I *D sky130_fd_sc_hd__o2111ai_4
*I *1818:A1_N I *D sky130_fd_sc_hd__a2bb2oi_2
*I *2152:X O *D sky130_fd_sc_hd__and2_2
*CAP
1 *2155:A1 4.23203e-05
2 *2163:A1 0.000126846
3 *2164:A1 0.000316744
4 *1818:A1_N 0.000134147
5 *2152:X 0.000190901
6 *154:27 0.000571033
7 *154:14 0.000433721
8 *154:10 0.000405353
9 *1818:A1_N *1818:B2 9.91798e-05
10 *2155:A1 *2152:A 2.02872e-05
11 *2155:A1 *2155:A2 5.3304e-05
12 *2155:A1 *2155:B1 5.3304e-05
13 *2155:A1 *155:12 4.17736e-05
14 *2163:A1 *2085:A1 2.93845e-05
15 *2163:A1 *155:46 0.000153218
16 *2163:A1 *162:18 5.50106e-05
17 *2163:A1 *443:22 0
18 *2164:A1 *2164:A2 0.000137999
19 *2164:A1 *2164:C1 9.41704e-05
20 *154:10 *2152:A 0.000547258
21 *154:10 *2152:B 9.41704e-05
22 *154:10 *2155:A2 0
23 *154:10 *155:12 0.000222624
24 *154:14 *155:16 0.000404996
25 *154:14 *156:12 9.02453e-05
26 *154:27 *155:16 3.70187e-05
27 *154:27 *155:29 0.000210668
28 *154:27 *155:46 5.94125e-05
29 *154:27 *156:12 2.70366e-05
30 *154:27 *156:25 9.27917e-05
31 *152:8 *154:14 8.06039e-05
*RES
1 *2152:X *154:10 29.9807 
2 *154:10 *154:14 20.4271 
3 *154:14 *1818:A1_N 40.5479 
4 *154:14 *154:27 4.01857 
5 *154:27 *2164:A1 43.4064 
6 *154:27 *2163:A1 40.8793 
7 *154:10 *2155:A1 24.0979 
*END

*D_NET *155 0.00410636
*CONN
*I *2155:A2 I *D sky130_fd_sc_hd__o21ai_2
*I *2163:A2 I *D sky130_fd_sc_hd__o2111a_2
*I *2164:A2 I *D sky130_fd_sc_hd__o2111ai_4
*I *1818:A2_N I *D sky130_fd_sc_hd__a2bb2oi_2
*I *2153:Y O *D sky130_fd_sc_hd__o21ai_2
*CAP
1 *2155:A2 0.000100623
2 *2163:A2 0
3 *2164:A2 0.000133272
4 *1818:A2_N 0
5 *2153:Y 7.30046e-05
6 *155:46 9.91964e-05
7 *155:29 0.000407753
8 *155:16 0.00037875
9 *155:12 0.000516233
10 *155:8 0.000285149
11 *2155:A2 *2155:B1 4.79641e-05
12 *2164:A2 *2164:C1 5.3304e-05
13 *155:8 *2153:A1 0
14 *155:8 *534:21 5.56203e-05
15 *155:8 *569:19 4.83778e-05
16 *155:16 *2153:A1 8.4047e-05
17 *155:16 *164:20 0
18 *155:16 *478:27 0.000185104
19 *155:16 *534:21 0
20 *155:29 *2164:C1 9.41704e-05
21 *155:29 *164:20 0
22 *155:46 *2163:B1 0.000187996
23 *155:46 *156:25 3.47781e-05
24 *2155:A1 *2155:A2 5.3304e-05
25 *2155:A1 *155:12 4.17736e-05
26 *2163:A1 *155:46 0.000153218
27 *2164:A1 *2164:A2 0.000137999
28 *154:10 *2155:A2 0
29 *154:10 *155:12 0.000222624
30 *154:14 *155:16 0.000404996
31 *154:27 *155:16 3.70187e-05
32 *154:27 *155:29 0.000210668
33 *154:27 *155:46 5.94125e-05
*RES
1 *2153:Y *155:8 39.9057 
2 *155:8 *155:12 19.4329 
3 *155:12 *155:16 21.1314 
4 *155:16 *1818:A2_N 38 
5 *155:16 *155:29 19.06 
6 *155:29 *2164:A2 26.1693 
7 *155:29 *155:46 32.9621 
8 *155:46 *2163:A2 23 
9 *155:12 *2155:A2 25.0714 
*END

*D_NET *156 0.00352106
*CONN
*I *2155:B1 I *D sky130_fd_sc_hd__o21ai_2
*I *2163:B1 I *D sky130_fd_sc_hd__o2111a_2
*I *2164:C1 I *D sky130_fd_sc_hd__o2111ai_4
*I *1818:B2 I *D sky130_fd_sc_hd__a2bb2oi_2
*I *2154:Y O *D sky130_fd_sc_hd__nand3b_2
*CAP
1 *2155:B1 0.000186586
2 *2163:B1 8.07132e-05
3 *2164:C1 9.67116e-05
4 *1818:B2 0.000314295
5 *2154:Y 0.000456261
6 *156:25 0.00029076
7 *156:12 0.000697304
8 *1818:B2 *164:20 0.000103647
9 *2155:B1 *2152:A 5.3304e-05
10 *2155:B1 *2159:A1 0
11 *2155:B1 *157:10 2.93845e-05
12 *2163:B1 *162:33 0.000151907
13 *2163:B1 *166:8 9.21347e-06
14 *156:12 *569:25 0
15 *156:12 *574:16 0
16 *156:12 *607:41 0
17 *156:25 *162:33 1.14452e-05
18 *156:25 *166:8 9.20311e-06
19 *156:25 *607:41 0
20 *1818:A1_N *1818:B2 9.91798e-05
21 *2155:A1 *2155:B1 5.3304e-05
22 *2155:A2 *2155:B1 4.79641e-05
23 *2164:A1 *2164:C1 9.41704e-05
24 *2164:A2 *2164:C1 5.3304e-05
25 *152:8 *156:12 8.85189e-05
26 *153:10 *156:12 6.6869e-05
27 *154:14 *156:12 9.02453e-05
28 *154:27 *156:12 2.70366e-05
29 *154:27 *156:25 9.27917e-05
30 *155:29 *2164:C1 9.41704e-05
31 *155:46 *2163:B1 0.000187996
32 *155:46 *156:25 3.47781e-05
*RES
1 *2154:Y *156:12 43.8414 
2 *156:12 *1818:B2 44.3593 
3 *156:12 *156:25 2.96214 
4 *156:25 *2164:C1 40.0507 
5 *156:25 *2163:B1 40.61 
6 *2154:Y *2155:B1 49.9771 
*END

*D_NET *157 0.000402456
*CONN
*I *2084:A I *D sky130_fd_sc_hd__xor2_2
*I *2155:Y O *D sky130_fd_sc_hd__o21ai_2
*CAP
1 *2084:A 0
2 *2155:Y 0.000153351
3 *157:10 0.000153351
4 *157:10 *2153:A1 0
5 *157:10 *568:57 6.63698e-05
6 *2155:B1 *157:10 2.93845e-05
*RES
1 *2155:Y *157:10 41.2314 
2 *157:10 *2084:A 38 
*END

*D_NET *158 0.00157441
*CONN
*I *2083:A1 I *D sky130_fd_sc_hd__o22a_2
*I *2162:A2 I *D sky130_fd_sc_hd__o21bai_4
*I *2161:A1 I *D sky130_fd_sc_hd__o21ba_2
*I *2156:X O *D sky130_fd_sc_hd__and2_4
*CAP
1 *2083:A1 0.000212181
2 *2162:A2 0
3 *2161:A1 0
4 *2156:X 0.000203346
5 *158:23 0.000346864
6 *158:10 0.000338029
7 *2083:A1 *2159:A1 0.000148688
8 *158:10 *2161:A2 2.43944e-05
9 *158:10 *470:34 2.18409e-05
10 *158:23 *2160:A2 9.176e-05
11 *158:23 *470:28 1.83667e-05
12 *158:23 *470:34 0.000134165
13 *158:23 *470:44 3.47781e-05
*RES
1 *2156:X *158:10 26.5214 
2 *158:10 *2161:A1 23 
3 *158:10 *158:23 33.5836 
4 *158:23 *2162:A2 23 
5 *158:23 *2083:A1 27.4536 
*END

*D_NET *159 0.00171829
*CONN
*I *2162:A1 I *D sky130_fd_sc_hd__o21bai_4
*I *2161:A2 I *D sky130_fd_sc_hd__o21ba_2
*I *2157:Y O *D sky130_fd_sc_hd__nor2_2
*CAP
1 *2162:A1 8.5532e-05
2 *2161:A2 0.000211397
3 *2157:Y 0.00020816
4 *159:10 0.000505089
5 *2161:A2 *470:34 0.000137651
6 *2162:A1 *2160:A2 0.00015954
7 *159:10 *2157:A 9.84794e-05
8 *159:10 *2160:A2 3.70094e-05
9 *159:10 *470:44 5.67058e-05
10 *159:10 *568:30 0.000194327
11 *158:10 *2161:A2 2.43944e-05
*RES
1 *2157:Y *159:10 42.5364 
2 *159:10 *2161:A2 41.5007 
3 *159:10 *2162:A1 40.2579 
*END

*D_NET *160 0.00188088
*CONN
*I *2160:B1 I *D sky130_fd_sc_hd__a21o_4
*I *2083:A2 I *D sky130_fd_sc_hd__o22a_2
*I *2159:B1 I *D sky130_fd_sc_hd__a21oi_2
*I *2158:Y O *D sky130_fd_sc_hd__o21ai_4
*CAP
1 *2160:B1 0.000271486
2 *2083:A2 0.00014081
3 *2159:B1 3.81194e-05
4 *2158:Y 0.000236664
5 *160:10 0.000178929
6 *160:8 0.00050815
7 *2083:A2 *2083:B2 5.50049e-05
8 *2083:A2 *2159:A1 8.54813e-05
9 *2159:B1 *2159:A1 9.84794e-05
10 *2160:B1 *2083:B2 0
11 *2160:B1 *161:8 6.46393e-05
12 *2160:B1 *162:10 1.01436e-05
13 *2160:B1 *163:10 4.6318e-06
14 *160:8 *163:10 6.33511e-05
15 *160:8 *446:10 0
16 *160:8 *533:10 4.83778e-05
17 *160:8 *533:30 0
18 *160:8 *605:8 0
19 *31:9 *160:8 7.66085e-05
*RES
1 *2158:Y *160:8 43.4271 
2 *160:8 *160:10 15 
3 *160:10 *2159:B1 24.0979 
4 *160:10 *2083:A2 26.0243 
5 *160:8 *2160:B1 42.8886 
*END

*D_NET *161 0.00105952
*CONN
*I *1818:B1 I *D sky130_fd_sc_hd__a2bb2oi_2
*I *2159:Y O *D sky130_fd_sc_hd__a21oi_2
*CAP
1 *1818:B1 0.000100091
2 *2159:Y 0.000189048
3 *161:8 0.000289139
4 *1818:B1 *164:20 0.0002263
5 *161:8 *162:10 9.63815e-05
6 *161:8 *478:16 9.39159e-05
7 *2160:B1 *161:8 6.46393e-05
*RES
1 *2159:Y *161:8 43.075 
2 *161:8 *1818:B1 40.5271 
*END

*D_NET *162 0.00383187
*CONN
*I *2318:A I *D sky130_fd_sc_hd__buf_2
*I *2164:B1 I *D sky130_fd_sc_hd__o2111ai_4
*I *2163:D1 I *D sky130_fd_sc_hd__o2111a_2
*I *2160:X O *D sky130_fd_sc_hd__a21o_4
*CAP
1 *2318:A 2.33465e-05
2 *2164:B1 0
3 *2163:D1 7.43955e-05
4 *2160:X 0.000442101
5 *162:33 8.13529e-05
6 *162:18 0.000572152
7 *162:12 0.00043975
8 *162:10 0.000442101
9 *2163:D1 *2085:A1 3.3577e-05
10 *2163:D1 *2163:C1 5.50049e-05
11 *2318:A *2086:B 5.50106e-05
12 *162:10 *2083:B2 0
13 *162:10 *478:16 0
14 *162:10 *482:10 0.000135557
15 *162:10 *502:8 4.23817e-05
16 *162:18 *2085:A1 5.42474e-05
17 *162:18 *2085:B1 5.50106e-05
18 *162:18 *2086:B 0.000528927
19 *162:18 *2163:C1 0.000358309
20 *162:18 *443:14 3.45951e-05
21 *162:33 *166:8 7.91596e-05
22 *2160:B1 *162:10 1.01436e-05
23 *2163:A1 *162:18 5.50106e-05
24 *2163:B1 *162:33 0.000151907
25 *156:25 *162:33 1.14452e-05
26 *161:8 *162:10 9.63815e-05
*RES
1 *2160:X *162:10 46.8657 
2 *162:10 *162:12 15 
3 *162:12 *162:18 11.2686 
4 *162:18 *2163:D1 24.595 
5 *162:18 *162:33 32.2579 
6 *162:33 *2164:B1 23 
7 *162:12 *2318:A 23.6214 
*END

*D_NET *163 0.000795956
*CONN
*I *2083:B1 I *D sky130_fd_sc_hd__o22a_2
*I *2161:X O *D sky130_fd_sc_hd__o21ba_2
*CAP
1 *2083:B1 0
2 *2161:X 0.000329458
3 *163:10 0.000329458
4 *163:10 *2083:B2 6.07611e-06
5 *163:10 *533:10 8.85299e-06
6 *163:10 *533:24 5.41288e-05
7 *163:10 *533:30 0
8 *2160:B1 *163:10 4.6318e-06
9 *160:8 *163:10 6.33511e-05
*RES
1 *2161:X *163:10 42.9093 
2 *163:10 *2083:B1 38 
*END

*D_NET *164 0.00416522
*CONN
*I *2300:A I *D sky130_fd_sc_hd__buf_2
*I *2163:C1 I *D sky130_fd_sc_hd__o2111a_2
*I *2164:D1 I *D sky130_fd_sc_hd__o2111ai_4
*I *2162:Y O *D sky130_fd_sc_hd__o21bai_4
*CAP
1 *2300:A 0
2 *2163:C1 0.000412241
3 *2164:D1 0
4 *2162:Y 0.000219877
5 *164:20 0.00106324
6 *164:12 0.00080021
7 *164:8 0.000369086
8 *2163:C1 *206:8 0.000138718
9 *2163:C1 *443:22 5.31444e-05
10 *164:8 *2083:B2 0
11 *164:8 *470:26 6.11286e-05
12 *164:8 *470:28 5.26101e-05
13 *164:20 *206:8 0.000199701
14 *164:20 *478:16 0
15 *164:20 *482:10 5.20072e-05
16 *1818:B1 *164:20 0.0002263
17 *1818:B2 *164:20 0.000103647
18 *2163:D1 *2163:C1 5.50049e-05
19 *155:16 *164:20 0
20 *155:29 *164:20 0
21 *162:18 *2163:C1 0.000358309
*RES
1 *2162:Y *164:8 42.7229 
2 *164:8 *164:12 17.5271 
3 *164:12 *164:20 27.8843 
4 *164:20 *2164:D1 38 
5 *164:20 *2163:C1 44.815 
6 *164:12 *2300:A 23 
*END

*D_NET *165 0.00092895
*CONN
*I *1830:B I *D sky130_fd_sc_hd__nand4b_4
*I *2163:X O *D sky130_fd_sc_hd__o2111a_2
*CAP
1 *1830:B 0
2 *2163:X 0.000222656
3 *165:8 0.000222656
4 *165:8 *443:14 0.000483638
*RES
1 *2163:X *165:8 28.8829 
2 *165:8 *1830:B 23 
*END

*D_NET *166 0.00174254
*CONN
*I *2165:A I *D sky130_fd_sc_hd__nor2_4
*I *2085:A1 I *D sky130_fd_sc_hd__o21ai_2
*I *2164:Y O *D sky130_fd_sc_hd__o2111ai_4
*CAP
1 *2165:A 0.000200341
2 *2085:A1 0.000120161
3 *2164:Y 0.000226079
4 *166:8 0.000546581
5 *2085:A1 *443:14 0.000336109
6 *2165:A *607:41 0
7 *166:8 *607:41 0
8 *2163:A1 *2085:A1 2.93845e-05
9 *2163:B1 *166:8 9.21347e-06
10 *2163:D1 *2085:A1 3.3577e-05
11 *151:16 *2165:A 9.84794e-05
12 *156:25 *166:8 9.20311e-06
13 *162:18 *2085:A1 5.42474e-05
14 *162:33 *166:8 7.91596e-05
*RES
1 *2164:Y *166:8 41.6664 
2 *166:8 *2085:A1 41.9771 
3 *166:8 *2165:A 41.7079 
*END

*D_NET *167 0.00322352
*CONN
*I *1869:C I *D sky130_fd_sc_hd__nand3_2
*I *1868:B I *D sky130_fd_sc_hd__nand4_4
*I *1817:C I *D sky130_fd_sc_hd__nand3_4
*I *2165:Y O *D sky130_fd_sc_hd__nor2_4
*CAP
1 *1869:C 0
2 *1868:B 0.000174715
3 *1817:C 0
4 *2165:Y 0.000601876
5 *167:40 7.97098e-05
6 *167:23 0.000739796
7 *167:10 0.00108725
8 *1868:B *1868:A 0.000182826
9 *1868:B *1868:C 4.07902e-05
10 *167:10 *171:42 0
11 *167:10 *218:8 0
12 *167:23 *205:10 6.03634e-05
13 *167:23 *208:6 6.37106e-05
14 *167:23 *208:12 0
15 *167:23 *218:8 0
16 *167:40 *1869:B 4.83778e-05
17 *167:40 *256:8 0.00014411
*RES
1 *2165:Y *167:10 48.0257 
2 *167:10 *1817:C 38 
3 *167:10 *167:23 24.0521 
4 *167:23 *1868:B 26.5007 
5 *167:23 *167:40 32.4029 
6 *167:40 *1869:C 23 
*END

*D_NET *168 0.0011048
*CONN
*I *2169:B I *D sky130_fd_sc_hd__nand3b_4
*I *2166:Y O *D sky130_fd_sc_hd__nand2b_2
*CAP
1 *2169:B 0
2 *2166:Y 0.000363019
3 *168:10 0.000363019
4 *168:10 *171:8 8.51329e-05
5 *168:10 *532:27 0.000238617
6 *26:9 *168:10 5.50106e-05
*RES
1 *2166:Y *168:10 45.6436 
2 *168:10 *2169:B 38 
*END

*D_NET *169 0.00106842
*CONN
*I *2169:C I *D sky130_fd_sc_hd__nand3b_4
*I *2167:Y O *D sky130_fd_sc_hd__nand2b_2
*CAP
1 *2169:C 0.000179791
2 *2167:Y 0.000155082
3 *169:8 0.000334873
4 *169:8 *2166:B 6.16439e-05
5 *169:8 *461:58 0.000103949
6 *169:8 *599:14 0.000174427
7 *26:9 *169:8 5.86535e-05
*RES
1 *2167:Y *169:8 42.7229 
2 *169:8 *2169:C 41.0036 
*END

*D_NET *170 0.00105161
*CONN
*I *1815:A2_N I *D sky130_fd_sc_hd__a2bb2oi_2
*I *1826:A1 I *D sky130_fd_sc_hd__o21ai_2
*I *2168:X O *D sky130_fd_sc_hd__and2_2
*CAP
1 *1815:A2_N 1.19175e-05
2 *1826:A1 8.1912e-05
3 *2168:X 9.61386e-05
4 *170:8 0.000166133
5 *1815:A2_N *1826:A2 0.00010018
6 *1815:A2_N *198:12 0.00010018
7 *1826:A1 *1826:B1 9.84794e-05
8 *1826:A1 *198:12 0.00014196
9 *1826:A1 *198:18 4.21281e-05
10 *1826:A1 *440:8 6.68919e-05
11 *170:8 *171:19 0.000110913
12 *170:8 *171:36 3.47781e-05
13 *170:8 *216:10 0
*RES
1 *2168:X *170:8 39.9057 
2 *170:8 *1826:A1 40.5271 
3 *1826:A1 *1815:A2_N 47.0979 
*END

*D_NET *171 0.00460907
*CONN
*I *2079:A1 I *D sky130_fd_sc_hd__a22oi_4
*I *1817:B I *D sky130_fd_sc_hd__nand3_4
*I *1826:B1 I *D sky130_fd_sc_hd__o21ai_2
*I *1828:A I *D sky130_fd_sc_hd__nand4_2
*I *2169:Y O *D sky130_fd_sc_hd__nand3b_4
*CAP
1 *2079:A1 0
2 *1817:B 0
3 *1826:B1 2.01797e-05
4 *1828:A 6.17727e-05
5 *2169:Y 0.000134133
6 *171:42 0.000328046
7 *171:36 0.00123028
8 *171:19 0.00122337
9 *171:8 0.000496861
10 *1826:B1 *440:8 9.84794e-05
11 *1828:A *532:27 0.00014196
12 *171:8 *532:10 0
13 *171:8 *532:27 0
14 *171:19 *202:10 0
15 *171:19 *216:10 0
16 *171:19 *527:10 0
17 *171:36 *199:21 1.21972e-05
18 *171:36 *199:29 0.000224685
19 *171:36 *203:10 0.000177935
20 *171:36 *216:10 0
21 *171:36 *443:14 7.05498e-05
22 *171:36 *527:10 0
23 *171:42 *2072:B 4.21594e-06
24 *171:42 *204:18 0
25 *171:42 *439:8 5.51058e-05
26 *171:42 *479:10 0
27 *171:42 *519:10 0
28 *1826:A1 *1826:B1 9.84794e-05
29 *26:9 *171:8 0
30 *167:10 *171:42 0
31 *168:10 *171:8 8.51329e-05
32 *170:8 *171:19 0.000110913
33 *170:8 *171:36 3.47781e-05
*RES
1 *2169:Y *171:8 40.9621 
2 *171:8 *1828:A 39.5743 
3 *171:8 *171:19 5.42714 
4 *171:19 *1826:B1 39.0979 
5 *171:19 *171:36 30.95 
6 *171:36 *171:42 35.7793 
7 *171:42 *1817:B 23 
8 *171:36 *2079:A1 23 
*END

*D_NET *172 0.000425893
*CONN
*I *1825:A1 I *D sky130_fd_sc_hd__o22ai_2
*I *2170:X O *D sky130_fd_sc_hd__and2_2
*CAP
1 *1825:A1 0
2 *2170:X 0.00012929
3 *172:10 0.00012929
4 *172:10 *1824:A_N 1.14452e-05
5 *172:10 *173:10 0
6 *172:10 *176:29 6.07611e-06
7 *172:10 *213:8 4.48671e-05
8 *172:10 *478:79 2.93747e-05
9 *172:10 *500:8 7.55491e-05
*RES
1 *2170:X *172:10 40.8793 
2 *172:10 *1825:A1 38 
*END

*D_NET *173 0.000645289
*CONN
*I *1825:B1 I *D sky130_fd_sc_hd__o22ai_2
*I *2171:X O *D sky130_fd_sc_hd__and2b_2
*CAP
1 *1825:B1 0
2 *2171:X 0.000268718
3 *173:10 0.000268718
4 *173:10 *210:10 4.21594e-06
5 *173:10 *211:8 0
6 *173:10 *213:8 0
7 *173:10 *478:79 0.000103637
8 *172:10 *173:10 0
*RES
1 *2171:X *173:10 42.3086 
2 *173:10 *1825:B1 38 
*END

*D_NET *174 0.000704446
*CONN
*I *1824:B I *D sky130_fd_sc_hd__nand3b_2
*I *2172:Y O *D sky130_fd_sc_hd__nand2_2
*CAP
1 *1824:B 0
2 *2172:Y 0.000215702
3 *174:10 0.000215702
4 *174:10 *478:75 0.000185434
5 *174:10 *574:16 0
6 *174:10 *600:12 8.76088e-05
*RES
1 *2172:Y *174:10 42.3086 
2 *174:10 *1824:B 38 
*END

*D_NET *175 0.000437513
*CONN
*I *1824:C I *D sky130_fd_sc_hd__nand3b_2
*I *2173:Y O *D sky130_fd_sc_hd__nand2b_2
*CAP
1 *1824:C 0
2 *2173:Y 4.84268e-05
3 *175:8 4.84268e-05
4 *175:8 *1822:A2 0.000168754
5 *175:8 *600:12 0.000171906
*RES
1 *2173:Y *175:8 40.2579 
2 *175:8 *1824:C 38 
*END

*D_NET *176 0.00274973
*CONN
*I *1825:A2 I *D sky130_fd_sc_hd__o22ai_2
*I *2175:B1 I *D sky130_fd_sc_hd__a21o_2
*I *2174:Y O *D sky130_fd_sc_hd__o21ai_2
*CAP
1 *1825:A2 0
2 *2175:B1 0
3 *2174:Y 0
4 *176:29 0.000408111
5 *176:14 0.000476899
6 *176:4 0.000885009
7 *176:14 *1822:A1 5.29672e-05
8 *176:14 *1828:B 0.000247678
9 *176:14 *177:10 6.17437e-06
10 *176:14 *211:8 0
11 *176:14 *478:92 0
12 *176:14 *532:27 0
13 *176:14 *563:12 0.000139357
14 *176:14 *563:30 7.03869e-05
15 *176:14 *563:45 0.000107548
16 *176:29 *1822:A1 9.24795e-06
17 *176:29 *1824:A_N 3.81658e-05
18 *176:29 *2174:B1 0.000131304
19 *176:29 *210:10 0.000140867
20 *176:29 *528:20 2.9938e-05
21 *172:10 *176:29 6.07611e-06
*RES
1 *2174:Y *176:4 23 
2 *176:4 *176:14 40.005 
3 *176:14 *2175:B1 23 
4 *176:4 *176:29 37.3121 
5 *176:29 *1825:A2 23 
*END

*D_NET *177 0.00228562
*CONN
*I *1816:A1 I *D sky130_fd_sc_hd__o21ai_4
*I *2073:A3 I *D sky130_fd_sc_hd__a31o_4
*I *1828:B I *D sky130_fd_sc_hd__nand4_2
*I *2175:X O *D sky130_fd_sc_hd__a21o_2
*CAP
1 *1816:A1 0.000151121
2 *2073:A3 0
3 *1828:B 0.000148379
4 *2175:X 0.000119816
5 *177:23 0.000247902
6 *177:10 0.000364975
7 *1816:A1 *2073:A2 0.000103019
8 *1816:A1 *2328:A 0.000191166
9 *1816:A1 *518:8 0.000391691
10 *1828:B *1828:C 5.50049e-05
11 *1828:B *202:10 1.80023e-05
12 *1828:B *211:8 0
13 *1828:B *216:10 0.000112169
14 *1828:B *532:27 0
15 *177:23 *2073:A2 3.3123e-05
16 *177:23 *216:10 5.61611e-05
17 *177:23 *518:8 3.92407e-05
18 *176:14 *1828:B 0.000247678
19 *176:14 *177:10 6.17437e-06
*RES
1 *2175:X *177:10 39.595 
2 *177:10 *1828:B 42.64 
3 *177:10 *177:23 2.25786 
4 *177:23 *2073:A3 38 
5 *177:23 *1816:A1 43.4271 
*END

*D_NET *178 0.000393067
*CONN
*I *1800:A1 I *D sky130_fd_sc_hd__o22ai_2
*I *2176:X O *D sky130_fd_sc_hd__and2_2
*CAP
1 *1800:A1 0
2 *2176:X 0.000138042
3 *178:10 0.000138042
4 *178:10 *184:10 8.76088e-05
5 *178:10 *461:35 2.93747e-05
6 *178:10 *602:12 0
*RES
1 *2176:X *178:10 40.8793 
2 *178:10 *1800:A1 38 
*END

*D_NET *179 0.00147729
*CONN
*I *1812:A1_N I *D sky130_fd_sc_hd__o2bb2ai_2
*I *1791:Y O *D sky130_fd_sc_hd__nand2_2
*CAP
1 *1812:A1_N 0
2 *1791:Y 0.000370957
3 *179:10 0.000370957
4 *179:10 *1791:A 5.79559e-05
5 *179:10 *1812:A2_N 0.000407218
6 *179:10 *183:10 0.000214573
7 *179:10 *187:10 5.56356e-05
*RES
1 *1791:Y *179:10 46.8657 
2 *179:10 *1812:A1_N 38 
*END

*D_NET *180 0.000753733
*CONN
*I *2075:B2 I *D sky130_fd_sc_hd__o2bb2a_2
*I *1800:B1 I *D sky130_fd_sc_hd__o22ai_2
*I *1792:Y O *D sky130_fd_sc_hd__nor2_2
*CAP
1 *2075:B2 7.64957e-05
2 *1800:B1 0
3 *1792:Y 0.000131622
4 *180:12 7.64957e-05
5 *180:10 0.000131622
6 *2075:B2 *1800:B2 4.53905e-05
7 *2075:B2 *2075:A2_N 1.14762e-05
8 *2075:B2 *441:8 0.000143655
9 *180:10 *186:10 6.58373e-05
10 *180:10 *453:66 3.22879e-05
11 *180:10 *565:21 3.88504e-05
*RES
1 *1792:Y *180:10 40.5271 
2 *180:10 *180:12 15 
3 *180:12 *1800:B1 23 
4 *180:12 *2075:B2 25.4236 
*END

*D_NET *181 0.00117304
*CONN
*I *1799:B I *D sky130_fd_sc_hd__nand3b_2
*I *1793:Y O *D sky130_fd_sc_hd__nand2_2
*CAP
1 *1799:B 0.000285499
2 *1793:Y 8.63323e-05
3 *181:8 0.000371831
4 *1799:B *1791:A 0.000121561
5 *1799:B *1799:A_N 5.56356e-05
6 *1799:B *565:41 0.000181805
7 *181:8 *493:32 7.03766e-05
*RES
1 *1793:Y *181:8 39.9057 
2 *181:8 *1799:B 43.4064 
*END

*D_NET *182 0.000379678
*CONN
*I *1799:C I *D sky130_fd_sc_hd__nand3b_2
*I *1794:Y O *D sky130_fd_sc_hd__nand2_2
*CAP
1 *1799:C 0
2 *1794:Y 0.00015496
3 *182:8 0.00015496
4 *182:8 *183:10 0
5 *182:8 *529:46 1.00084e-05
6 *182:8 *565:41 7.76364e-06
7 *102:31 *182:8 5.1986e-05
*RES
1 *1794:Y *182:8 40.2579 
2 *182:8 *1799:C 38 
*END

*D_NET *183 0.00294325
*CONN
*I *1812:A2_N I *D sky130_fd_sc_hd__o2bb2ai_2
*I *1797:B1 I *D sky130_fd_sc_hd__o21ai_4
*I *1795:X O *D sky130_fd_sc_hd__o21a_4
*CAP
1 *1812:A2_N 0.00025042
2 *1797:B1 0.000132794
3 *1795:X 0.000525954
4 *183:10 0.000909168
5 *1812:A2_N *193:14 0.00025214
6 *1812:A2_N *195:10 4.96303e-05
7 *1812:A2_N *195:18 0
8 *1812:A2_N *457:76 0
9 *183:10 *2075:A1_N 0
10 *183:10 *453:81 6.10551e-06
11 *183:10 *529:14 0
12 *183:10 *529:24 0.000195248
13 *183:10 *529:38 0
14 *183:10 *565:47 0
15 *28:11 *183:10 0
16 *179:10 *1812:A2_N 0.000407218
17 *179:10 *183:10 0.000214573
18 *182:8 *183:10 0
*RES
1 *1795:X *183:10 47.6943 
2 *183:10 *1797:B1 40.0507 
3 *183:10 *1812:A2_N 44.8771 
*END

*D_NET *184 0.00125425
*CONN
*I *1800:A2 I *D sky130_fd_sc_hd__o22ai_2
*I *1796:Y O *D sky130_fd_sc_hd__o21ai_2
*CAP
1 *1800:A2 0
2 *1796:Y 0.000301545
3 *184:10 0.000301545
4 *184:10 *1796:A1 0.000184527
5 *184:10 *1810:A 0.000169674
6 *184:10 *2074:A 3.92407e-05
7 *184:10 *461:35 0.000123506
8 *184:10 *565:23 4.66047e-05
9 *184:10 *602:12 0
10 *178:10 *184:10 8.76088e-05
*RES
1 *1796:Y *184:10 45.0429 
2 *184:10 *1800:A2 38 
*END

*D_NET *185 0.00175164
*CONN
*I *1811:B I *D sky130_fd_sc_hd__nand4_4
*I *2075:A1_N I *D sky130_fd_sc_hd__o2bb2a_2
*I *1797:Y O *D sky130_fd_sc_hd__o21ai_4
*CAP
1 *1811:B 0.000209605
2 *2075:A1_N 0.000194824
3 *1797:Y 0
4 *185:6 0.000404429
5 *1811:B *1796:B1 3.92407e-05
6 *1811:B *187:10 0.000180285
7 *1811:B *193:18 0.000184152
8 *1811:B *199:8 2.45549e-06
9 *2075:A1_N *1796:B1 0.000131735
10 *2075:A1_N *187:10 0.000164171
11 *2075:A1_N *529:38 8.72173e-05
12 *2075:A1_N *565:33 0.000153528
13 *183:10 *2075:A1_N 0
*RES
1 *1797:Y *185:6 38 
2 *185:6 *2075:A1_N 42.6918 
3 *185:6 *1811:B 43.1579 
*END

*D_NET *186 0.00212152
*CONN
*I *2075:B1 I *D sky130_fd_sc_hd__o2bb2a_2
*I *1800:B2 I *D sky130_fd_sc_hd__o22ai_2
*I *1798:Y O *D sky130_fd_sc_hd__o21bai_2
*CAP
1 *2075:B1 0
2 *1800:B2 9.95035e-05
3 *1798:Y 0.000418285
4 *186:12 9.95035e-05
5 *186:10 0.000418285
6 *1800:B2 *2075:A2_N 0.000182832
7 *1800:B2 *441:8 1.14876e-05
8 *186:10 *453:66 0.000400198
9 *186:10 *529:8 0.000228909
10 *186:10 *529:14 6.97004e-05
11 *186:10 *529:24 8.15864e-05
12 *186:10 *529:38 0
13 *186:10 *565:21 0
14 *2075:B2 *1800:B2 4.53905e-05
15 *180:10 *186:10 6.58373e-05
*RES
1 *1798:Y *186:10 47.5493 
2 *186:10 *186:12 15 
3 *186:12 *1800:B2 26.045 
4 *186:12 *2075:B1 23 
*END

*D_NET *187 0.00136947
*CONN
*I *1811:A I *D sky130_fd_sc_hd__nand4_4
*I *1799:Y O *D sky130_fd_sc_hd__nand3b_2
*CAP
1 *1811:A 0
2 *1799:Y 0.000303501
3 *187:10 0.000303501
4 *187:10 *1791:A 4.65192e-05
5 *187:10 *195:18 3.36312e-06
6 *187:10 *529:46 0.000271906
7 *187:10 *565:33 1.3523e-05
8 *187:10 *565:41 2.70658e-05
9 *1811:B *187:10 0.000180285
10 *2075:A1_N *187:10 0.000164171
11 *179:10 *187:10 5.56356e-05
*RES
1 *1799:Y *187:10 46.0786 
2 *187:10 *1811:A 38 
*END

*D_NET *188 0.00162365
*CONN
*I *1810:A I *D sky130_fd_sc_hd__nor2_2
*I *2074:A I *D sky130_fd_sc_hd__xor2_2
*I *1800:Y O *D sky130_fd_sc_hd__o22ai_2
*CAP
1 *1810:A 0.000243225
2 *2074:A 0.000170042
3 *1800:Y 0
4 *188:6 0.000413267
5 *1810:A *1809:B1 0
6 *1810:A *1810:B 5.90675e-06
7 *1810:A *2076:B 4.98543e-05
8 *1810:A *193:33 5.97861e-05
9 *1810:A *197:6 2.93747e-05
10 *1810:A *565:21 0.000207498
11 *1810:A *602:12 0
12 *2074:A *565:10 1.14452e-05
13 *2074:A *565:21 0.000224336
14 *2074:A *602:12 0
15 *184:10 *1810:A 0.000169674
16 *184:10 *2074:A 3.92407e-05
*RES
1 *1800:Y *188:6 38 
2 *188:6 *2074:A 42.06 
3 *188:6 *1810:A 44.1936 
*END

*D_NET *189 0.000536094
*CONN
*I *1805:B I *D sky130_fd_sc_hd__nand3b_4
*I *1801:Y O *D sky130_fd_sc_hd__nand2b_4
*CAP
1 *1805:B 0
2 *1801:Y 0.000268047
3 *189:8 0.000268047
4 *189:8 *190:8 0
5 *189:8 *457:47 0
6 *189:8 *530:23 0
7 *189:8 *566:42 0
*RES
1 *1801:Y *189:8 42.7229 
2 *189:8 *1805:B 38 
*END

*D_NET *190 0.00117147
*CONN
*I *1805:C I *D sky130_fd_sc_hd__nand3b_4
*I *1802:Y O *D sky130_fd_sc_hd__nand2b_4
*CAP
1 *1805:C 0
2 *1802:Y 0.000404327
3 *190:8 0.000404327
4 *190:8 *457:47 0
5 *190:8 *457:51 0
6 *190:8 *485:8 0
7 *190:8 *566:59 0.000169683
8 *190:8 *571:10 0.000193135
9 *189:8 *190:8 0
*RES
1 *1802:Y *190:8 46.5964 
2 *190:8 *1805:C 38 
*END

*D_NET *191 0.00133643
*CONN
*I *1812:B1 I *D sky130_fd_sc_hd__o2bb2ai_2
*I *1809:A1 I *D sky130_fd_sc_hd__o21ai_2
*I *1803:X O *D sky130_fd_sc_hd__and2_2
*CAP
1 *1812:B1 0
2 *1809:A1 0.000113852
3 *1803:X 0.00044331
4 *191:10 0.000557163
5 *1809:A1 *2076:B 0
6 *1809:A1 *195:18 0.000222104
7 *191:10 *2076:B 0
*RES
1 *1803:X *191:10 43.8621 
2 *191:10 *1809:A1 40.9621 
3 *191:10 *1812:B1 38 
*END

*D_NET *192 0.000649783
*CONN
*I *1808:B I *D sky130_fd_sc_hd__nand2_4
*I *1804:Y O *D sky130_fd_sc_hd__nand2_2
*CAP
1 *1808:B 0
2 *1804:Y 0.000206402
3 *192:10 0.000206402
4 *192:10 *248:18 0.000140154
5 *192:10 *493:32 5.61414e-05
6 *192:10 *508:8 4.06849e-05
*RES
1 *1804:Y *192:10 42.785 
2 *192:10 *1808:B 38 
*END

*D_NET *193 0.00711979
*CONN
*I *1811:C I *D sky130_fd_sc_hd__nand4_4
*I *1815:B2 I *D sky130_fd_sc_hd__a2bb2oi_2
*I *2077:A1_N I *D sky130_fd_sc_hd__o2bb2a_2
*I *1809:B1 I *D sky130_fd_sc_hd__o21ai_2
*I *1805:Y O *D sky130_fd_sc_hd__nand3b_4
*CAP
1 *1811:C 0
2 *1815:B2 0
3 *2077:A1_N 0
4 *1809:B1 2.34823e-05
5 *1805:Y 0.000871281
6 *193:41 0.000229446
7 *193:33 0.000762236
8 *193:18 0.00116098
9 *193:14 0.000812909
10 *193:8 0.00107948
11 *193:8 *1803:B 0.000139347
12 *193:8 *235:8 4.4553e-05
13 *193:8 *566:8 0.000269775
14 *193:14 *457:14 0.000139856
15 *193:14 *457:76 0
16 *193:18 *1811:D 0
17 *193:18 *195:18 5.70419e-05
18 *193:18 *197:6 2.30292e-05
19 *193:18 *199:8 2.18373e-05
20 *193:33 *1810:B 1.5769e-05
21 *193:33 *1826:A2 0
22 *193:33 *197:6 0.000100488
23 *193:33 *198:12 0.000188693
24 *193:33 *199:8 7.65408e-06
25 *193:33 *440:8 0.000185434
26 *193:41 *1815:B1 0.000249909
27 *193:41 *2077:A2_N 0.000114092
28 *193:41 *2077:B1 0
29 *193:41 *199:21 1.27898e-05
30 *193:41 *442:10 0
31 *193:41 *599:14 0
32 *193:41 *603:12 0.000113624
33 *1810:A *1809:B1 0
34 *1810:A *193:33 5.97861e-05
35 *1811:B *193:18 0.000184152
36 *1812:A2_N *193:14 0.00025214
*RES
1 *1805:Y *193:8 35.3043 
2 *193:8 *193:14 35.075 
3 *193:14 *193:18 8.61714 
4 *193:18 *1809:B1 23.4971 
5 *193:18 *193:33 10.8129 
6 *193:33 *193:41 36.0796 
7 *193:41 *2077:A1_N 23 
8 *193:33 *1815:B2 23 
9 *193:14 *1811:C 23 
*END

*D_NET *194 0.000601491
*CONN
*I *1808:A I *D sky130_fd_sc_hd__nand2_4
*I *1806:X O *D sky130_fd_sc_hd__o21a_4
*CAP
1 *1808:A 0
2 *1806:X 0.000113267
3 *194:10 0.000113267
4 *194:10 *248:18 0.000222104
5 *194:10 *457:36 5.3304e-05
6 *194:10 *508:14 7.30875e-05
7 *194:10 *530:10 2.64616e-05
*RES
1 *1806:X *194:10 41.5836 
2 *194:10 *1808:A 38 
*END

*D_NET *195 0.00166869
*CONN
*I *1812:B2 I *D sky130_fd_sc_hd__o2bb2ai_2
*I *1809:A2 I *D sky130_fd_sc_hd__o21ai_2
*I *1807:Y O *D sky130_fd_sc_hd__o21ai_2
*CAP
1 *1812:B2 0
2 *1809:A2 0
3 *1807:Y 0.000412928
4 *195:18 0.000161731
5 *195:10 0.000574659
6 *195:10 *1807:A2 7.51453e-06
7 *195:10 *200:6 0.000142577
8 *195:18 *2076:B 0
9 *195:18 *199:8 3.71369e-05
10 *1809:A1 *195:18 0.000222104
11 *1812:A2_N *195:10 4.96303e-05
12 *1812:A2_N *195:18 0
13 *187:10 *195:18 3.36312e-06
14 *193:18 *195:18 5.70419e-05
*RES
1 *1807:Y *195:10 30.3329 
2 *195:10 *195:18 34.4121 
3 *195:18 *1809:A2 23 
4 *195:10 *1812:B2 23 
*END

*D_NET *196 0.000418995
*CONN
*I *1811:D I *D sky130_fd_sc_hd__nand4_4
*I *1808:Y O *D sky130_fd_sc_hd__nand2_4
*CAP
1 *1811:D 0.000209498
2 *1808:Y 0.000209498
3 *193:18 *1811:D 0
*RES
1 *1808:Y *1811:D 49.3764 
*END

*D_NET *197 0.00103674
*CONN
*I *1810:B I *D sky130_fd_sc_hd__nor2_2
*I *2076:A I *D sky130_fd_sc_hd__xnor2_2
*I *1809:Y O *D sky130_fd_sc_hd__o21ai_2
*CAP
1 *1810:B 3.99193e-05
2 *2076:A 0
3 *1809:Y 0.000100309
4 *197:12 0.000140519
5 *197:6 0.000280748
6 *1810:B *199:8 2.93845e-05
7 *197:6 *199:8 0.000198196
8 *197:12 *2076:B 7.30978e-05
9 *197:12 *199:12 0
10 *197:12 *602:12 0
11 *1810:A *1810:B 5.90675e-06
12 *1810:A *197:6 2.93747e-05
13 *193:18 *197:6 2.30292e-05
14 *193:33 *1810:B 1.5769e-05
15 *193:33 *197:6 0.000100488
*RES
1 *1809:Y *197:6 26.9564 
2 *197:6 *197:12 32.9621 
3 *197:12 *2076:A 23 
4 *197:6 *1810:B 24.1186 
*END

*D_NET *198 0.00538439
*CONN
*I *1830:C I *D sky130_fd_sc_hd__nand4b_4
*I *1810:Y O *D sky130_fd_sc_hd__nor2_2
*CAP
1 *1830:C 0
2 *1810:Y 0.000464948
3 *198:18 0.0011972
4 *198:12 0.00166215
5 *198:12 *1826:A2 0.000134989
6 *198:12 *199:8 0.000271476
7 *198:12 *201:27 5.3304e-05
8 *198:12 *203:10 0.000614067
9 *198:12 *440:8 7.86284e-05
10 *198:18 *2073:A2 3.3577e-05
11 *198:18 *2073:B1 5.47808e-05
12 *198:18 *213:8 0
13 *198:18 *215:10 0.000139647
14 *198:18 *440:8 0.000127496
15 *198:18 *600:12 7.91596e-05
16 *1815:A2_N *198:12 0.00010018
17 *1826:A1 *198:12 0.00014196
18 *1826:A1 *198:18 4.21281e-05
19 *193:33 *198:12 0.000188693
*RES
1 *1810:Y *198:12 38.1007 
2 *198:12 *198:18 36.4186 
3 *198:18 *1830:C 38 
*END

*D_NET *199 0.00517249
*CONN
*I *1816:A2 I *D sky130_fd_sc_hd__o21ai_4
*I *1829:B I *D sky130_fd_sc_hd__nor2_4
*I *2077:B2 I *D sky130_fd_sc_hd__o2bb2a_2
*I *1811:Y O *D sky130_fd_sc_hd__nand4_4
*CAP
1 *1816:A2 0
2 *1829:B 0
3 *2077:B2 0
4 *1811:Y 0.00074237
5 *199:29 0.000123623
6 *199:21 0.000948182
7 *199:12 0.00102552
8 *199:8 0.000943334
9 *199:12 *2077:B1 0.000352547
10 *199:12 *599:14 0
11 *199:12 *602:12 0.000141879
12 *199:21 *2077:B1 2.64616e-05
13 *199:21 *442:10 4.05196e-05
14 *199:29 *203:10 1.02387e-05
15 *199:29 *216:10 0
16 *199:29 *518:8 0
17 *1810:B *199:8 2.93845e-05
18 *1811:B *199:8 2.45549e-06
19 *171:36 *199:21 1.21972e-05
20 *171:36 *199:29 0.000224685
21 *193:18 *199:8 2.18373e-05
22 *193:33 *199:8 7.65408e-06
23 *193:41 *199:21 1.27898e-05
24 *195:18 *199:8 3.71369e-05
25 *197:6 *199:8 0.000198196
26 *197:12 *199:12 0
27 *198:12 *199:8 0.000271476
*RES
1 *1811:Y *199:8 49.1029 
2 *199:8 *199:12 20.4271 
3 *199:12 *2077:B2 23 
4 *199:12 *199:21 13.3814 
5 *199:21 *199:29 33.2314 
6 *199:29 *1829:B 23 
7 *199:21 *1816:A2 23 
*END

*D_NET *200 0.00257032
*CONN
*I *2077:A2_N I *D sky130_fd_sc_hd__o2bb2a_2
*I *1815:B1 I *D sky130_fd_sc_hd__a2bb2oi_2
*I *1812:Y O *D sky130_fd_sc_hd__o2bb2ai_2
*CAP
1 *2077:A2_N 4.9407e-05
2 *1815:B1 9.07022e-05
3 *1812:Y 0.000833643
4 *200:8 0.000140109
5 *200:6 0.000833643
6 *1815:B1 *2077:B1 8.33365e-05
7 *2077:A2_N *2077:B1 3.28979e-05
8 *193:41 *1815:B1 0.000249909
9 *193:41 *2077:A2_N 0.000114092
10 *195:10 *200:6 0.000142577
*RES
1 *1812:Y *200:6 36.485 
2 *200:6 *200:8 15 
3 *200:8 *1815:B1 41.3143 
4 *200:8 *2077:A2_N 39.5536 
*END

*D_NET *201 0.00302884
*CONN
*I *1815:A1_N I *D sky130_fd_sc_hd__a2bb2oi_2
*I *1826:A2 I *D sky130_fd_sc_hd__o21ai_2
*I *1814:B1 I *D sky130_fd_sc_hd__a21o_2
*I *1813:Y O *D sky130_fd_sc_hd__o21ai_2
*CAP
1 *1815:A1_N 0
2 *1826:A2 0.000119466
3 *1814:B1 0.000180737
4 *1813:Y 0.000216015
5 *201:27 0.000212472
6 *201:10 0.000489758
7 *1814:B1 *1814:A1 0.00014196
8 *1814:B1 *2168:B 8.96802e-05
9 *1814:B1 *461:31 0.000137651
10 *1814:B1 *567:52 5.50106e-05
11 *1826:A2 *440:8 0.00035673
12 *201:10 *1813:A1 0.000136738
13 *201:10 *2167:B 0.000111852
14 *201:10 *599:14 0.000188926
15 *201:10 *603:12 4.07715e-05
16 *201:27 *440:8 2.02872e-05
17 *201:27 *599:14 0.000164291
18 *201:27 *603:12 7.80251e-05
19 *1815:A2_N *1826:A2 0.00010018
20 *193:33 *1826:A2 0
21 *198:12 *1826:A2 0.000134989
22 *198:12 *201:27 5.3304e-05
*RES
1 *1813:Y *201:10 42.1843 
2 *201:10 *1814:B1 42.4536 
3 *201:10 *201:27 17.8793 
4 *201:27 *1826:A2 27.9507 
5 *201:27 *1815:A1_N 23 
*END

*D_NET *202 0.00158042
*CONN
*I *1828:C I *D sky130_fd_sc_hd__nand4_2
*I *1814:X O *D sky130_fd_sc_hd__a21o_2
*CAP
1 *1828:C 0.000126923
2 *1814:X 0.000407707
3 *202:10 0.00053463
4 *1828:C *212:12 1.37232e-05
5 *1828:C *216:10 3.22879e-05
6 *202:10 *2168:B 0.000184527
7 *202:10 *216:10 0.00019747
8 *202:10 *532:27 1.01436e-05
9 *1828:B *1828:C 5.50049e-05
10 *1828:B *202:10 1.80023e-05
11 *171:19 *202:10 0
*RES
1 *1814:X *202:10 46.2236 
2 *202:10 *1828:C 40.5479 
*END

*D_NET *203 0.00195545
*CONN
*I *1816:B1 I *D sky130_fd_sc_hd__o21ai_4
*I *1815:Y O *D sky130_fd_sc_hd__a2bb2oi_2
*CAP
1 *1816:B1 0
2 *1815:Y 0.000451028
3 *203:10 0.000451028
4 *203:10 *214:8 0.000114083
5 *203:10 *527:10 0.000137071
6 *171:36 *203:10 0.000177935
7 *198:12 *203:10 0.000614067
8 *199:29 *203:10 1.02387e-05
*RES
1 *1815:Y *203:10 49.89 
2 *203:10 *1816:B1 38 
*END

*D_NET *204 0.00239233
*CONN
*I *2297:A I *D sky130_fd_sc_hd__buf_2
*I *1817:A I *D sky130_fd_sc_hd__nand3_4
*I *1816:Y O *D sky130_fd_sc_hd__o21ai_4
*CAP
1 *2297:A 0.000180456
2 *1817:A 0
3 *1816:Y 0.000137703
4 *204:18 0.000158786
5 *204:12 0.000640366
6 *204:8 0.000438828
7 *204:8 *2328:A 0
8 *204:8 *518:8 0
9 *204:8 *527:10 6.18339e-05
10 *204:12 *246:10 0.00044458
11 *204:12 *251:25 0.000292755
12 *204:18 *217:21 0
13 *204:18 *519:10 3.70187e-05
14 *171:42 *204:18 0
*RES
1 *1816:Y *204:8 40.61 
2 *204:8 *204:12 23.2443 
3 *204:12 *204:18 32.9621 
4 *204:18 *1817:A 23 
5 *204:12 *2297:A 26.0243 
*END

*D_NET *205 0.00143771
*CONN
*I *1874:A I *D sky130_fd_sc_hd__nand3_4
*I *1871:A I *D sky130_fd_sc_hd__nand4_2
*I *1817:Y O *D sky130_fd_sc_hd__nand3_4
*CAP
1 *1874:A 0.000177327
2 *1871:A 4.56652e-05
3 *1817:Y 0.00040647
4 *205:10 0.000629462
5 *1871:A *259:10 9.84794e-05
6 *1874:A *259:10 0
7 *205:10 *208:12 0
8 *205:10 *246:38 1.99429e-05
9 *205:10 *258:10 0
10 *130:12 *1874:A 0
11 *135:10 *1874:A 0
12 *167:23 *205:10 6.03634e-05
*RES
1 *1817:Y *205:10 44.7736 
2 *205:10 *1871:A 39.0979 
3 *205:10 *1874:A 41.3143 
*END

*D_NET *206 0.00281435
*CONN
*I *1820:B1 I *D sky130_fd_sc_hd__o221a_2
*I *1821:A2 I *D sky130_fd_sc_hd__o21ai_2
*I *2085:B1 I *D sky130_fd_sc_hd__o21ai_2
*I *1818:Y O *D sky130_fd_sc_hd__a2bb2oi_2
*CAP
1 *1820:B1 0.000123195
2 *1821:A2 0.000108497
3 *2085:B1 3.27104e-05
4 *1818:Y 0.000193861
5 *206:21 0.000802664
6 *206:8 0.000797543
7 *1820:B1 *1820:B2 5.71784e-05
8 *1820:B1 *208:6 2.93845e-05
9 *1821:A2 *1821:B1 2.93747e-05
10 *1821:A2 *208:6 7.73735e-05
11 *206:8 *443:22 6.7177e-06
12 *206:8 *478:16 0
13 *206:21 *443:22 9.21347e-06
14 *206:21 *478:16 0
15 *1820:A1 *1820:B1 0.000117043
16 *1820:A2 *1820:B1 3.61695e-05
17 *1821:A1 *206:21 0
18 *2163:C1 *206:8 0.000138718
19 *151:16 *206:21 0
20 *151:51 *206:21 0
21 *162:18 *2085:B1 5.50106e-05
22 *164:20 *206:8 0.000199701
*RES
1 *1818:Y *206:8 42.7229 
2 *206:8 *2085:B1 38.6214 
3 *206:8 *206:21 24.3007 
4 *206:21 *1821:A2 25.5271 
5 *206:21 *1820:B1 27.148 
*END

*D_NET *207 0.00175604
*CONN
*I *1821:B1 I *D sky130_fd_sc_hd__o21ai_2
*I *1819:X O *D sky130_fd_sc_hd__o22a_2
*CAP
1 *1821:B1 6.3017e-05
2 *1819:X 0.000529976
3 *207:10 0.000592993
4 *207:10 *2120:A 6.48142e-05
5 *207:10 *2296:A 0.000106288
6 *207:10 *470:8 7.27182e-05
7 *207:10 *478:10 0.000267167
8 *207:10 *538:20 9.24795e-06
9 *207:10 *538:28 6.7177e-06
10 *1820:A1 *1821:B1 1.37232e-05
11 *1821:A2 *1821:B1 2.93747e-05
12 *151:51 *207:10 0
*RES
1 *1819:X *207:10 46.3479 
2 *207:10 *1821:B1 39.1186 
*END

*D_NET *208 0.00380755
*CONN
*I *1871:C I *D sky130_fd_sc_hd__nand4_2
*I *1820:X O *D sky130_fd_sc_hd__o221a_2
*CAP
1 *1871:C 0
2 *1820:X 0.00161529
3 *208:12 0.000203252
4 *208:6 0.00181854
5 *208:12 *217:21 0
6 *208:12 *256:8 0
7 *1820:B1 *208:6 2.93845e-05
8 *1821:A2 *208:6 7.73735e-05
9 *167:23 *208:6 6.37106e-05
10 *167:23 *208:12 0
11 *205:10 *208:12 0
*RES
1 *1820:X *208:6 44.1079 
2 *208:6 *208:12 33.6664 
3 *208:12 *1871:C 23 
*END

*D_NET *209 0.00124964
*CONN
*I *1870:B1_N I *D sky130_fd_sc_hd__o21bai_4
*I *1821:Y O *D sky130_fd_sc_hd__o21ai_2
*CAP
1 *1870:B1_N 0.000419891
2 *1821:Y 0.000107771
3 *209:8 0.000527662
4 *1821:A1 *209:8 0.000101708
5 *151:16 *209:8 9.26098e-05
*RES
1 *1821:Y *209:8 40.61 
2 *209:8 *1870:B1_N 45.2914 
*END

*D_NET *210 0.00100515
*CONN
*I *1823:B1 I *D sky130_fd_sc_hd__a21oi_2
*I *1825:B2 I *D sky130_fd_sc_hd__o22ai_2
*I *1822:Y O *D sky130_fd_sc_hd__o21bai_2
*CAP
1 *1823:B1 6.94181e-05
2 *1825:B2 0
3 *1822:Y 0.000153899
4 *210:12 6.94181e-05
5 *210:10 0.000153899
6 *1823:B1 *1823:A1 0.000128391
7 *1823:B1 *212:12 0.000228001
8 *210:10 *211:8 0
9 *210:10 *528:20 5.70419e-05
10 *173:10 *210:10 4.21594e-06
11 *176:29 *210:10 0.000140867
*RES
1 *1822:Y *210:10 41.3557 
2 *210:10 *210:12 15 
3 *210:12 *1825:B2 23 
4 *210:12 *1823:B1 26.0243 
*END

*D_NET *211 0.00113419
*CONN
*I *2073:B1 I *D sky130_fd_sc_hd__a31o_4
*I *1823:Y O *D sky130_fd_sc_hd__a21oi_2
*CAP
1 *2073:B1 3.44106e-05
2 *1823:Y 0.000369242
3 *211:8 0.000403653
4 *2073:B1 *440:8 0.000141954
5 *211:8 *478:92 0.000130148
6 *1828:B *211:8 0
7 *173:10 *211:8 0
8 *176:14 *211:8 0
9 *198:18 *2073:B1 5.47808e-05
10 *210:10 *211:8 0
*RES
1 *1823:Y *211:8 44.1314 
2 *211:8 *2073:B1 39.5743 
*END

*D_NET *212 0.00164919
*CONN
*I *1828:D I *D sky130_fd_sc_hd__nand4_2
*I *1824:Y O *D sky130_fd_sc_hd__nand3b_2
*CAP
1 *1828:D 0
2 *1824:Y 0.0005793
3 *212:12 0.0005793
4 *212:12 *1823:A1 0.000158404
5 *212:12 *1823:A2 4.07902e-05
6 *212:12 *1824:A_N 4.96717e-05
7 *1823:B1 *212:12 0.000228001
8 *1828:C *212:12 1.37232e-05
*RES
1 *1824:Y *212:12 34.2893 
2 *212:12 *1828:D 23 
*END

*D_NET *213 0.0015825
*CONN
*I *1827:A I *D sky130_fd_sc_hd__nor2_2
*I *2072:A I *D sky130_fd_sc_hd__xnor2_2
*I *1825:Y O *D sky130_fd_sc_hd__o22ai_2
*CAP
1 *1827:A 0.000145791
2 *2072:A 0
3 *1825:Y 0.000484817
4 *213:10 0.000145791
5 *213:8 0.000484817
6 *1827:A *1827:B 0.000168821
7 *1827:A *215:10 5.25848e-05
8 *1827:A *600:8 5.50106e-05
9 *213:8 *2316:A 0
10 *213:8 *500:8 0
11 *213:8 *600:12 0
12 *172:10 *213:8 4.48671e-05
13 *173:10 *213:8 0
14 *198:18 *213:8 0
*RES
1 *1825:Y *213:8 46.5964 
2 *213:8 *213:10 15 
3 *213:10 *2072:A 23 
4 *213:10 *1827:A 26.9564 
*END

*D_NET *214 0.00342727
*CONN
*I *1827:B I *D sky130_fd_sc_hd__nor2_2
*I *2078:A I *D sky130_fd_sc_hd__xor2_2
*I *1826:Y O *D sky130_fd_sc_hd__o21ai_2
*CAP
1 *1827:B 0.00109808
2 *2078:A 0.000209527
3 *1826:Y 4.27883e-05
4 *214:10 0.00130761
5 *214:8 4.27883e-05
6 *1827:B *2072:B 0.000131304
7 *1827:B *2328:A 2.93845e-05
8 *1827:B *217:10 4.89856e-05
9 *1827:B *519:10 2.30292e-05
10 *1827:B *600:8 9.67842e-05
11 *214:8 *527:10 0.000114083
12 *1827:A *1827:B 0.000168821
13 *203:10 *214:8 0.000114083
*RES
1 *1826:Y *214:8 39.5536 
2 *214:8 *214:10 15 
3 *214:10 *2078:A 26.3764 
4 *214:10 *1827:B 42.575 
*END

*D_NET *215 0.000820759
*CONN
*I *1830:D I *D sky130_fd_sc_hd__nand4b_4
*I *1827:Y O *D sky130_fd_sc_hd__nor2_2
*CAP
1 *1830:D 6.7348e-05
2 *1827:Y 0.000200426
3 *215:10 0.000267774
4 *1830:D *443:14 7.88828e-05
5 *215:10 *479:10 0
6 *215:10 *600:8 1.40958e-05
7 *1827:A *215:10 5.25848e-05
8 *198:18 *215:10 0.000139647
*RES
1 *1827:Y *215:10 41.48 
2 *215:10 *1830:D 39.5743 
*END

*D_NET *216 0.00138324
*CONN
*I *1829:A I *D sky130_fd_sc_hd__nor2_4
*I *1828:Y O *D sky130_fd_sc_hd__nand4_2
*CAP
1 *1829:A 0
2 *1828:Y 0.00036808
3 *216:10 0.00036808
4 *216:10 *518:8 0.000248989
5 *1828:B *216:10 0.000112169
6 *1828:C *216:10 3.22879e-05
7 *170:8 *216:10 0
8 *171:19 *216:10 0
9 *171:36 *216:10 0
10 *177:23 *216:10 5.61611e-05
11 *199:29 *216:10 0
12 *202:10 *216:10 0.00019747
*RES
1 *1828:Y *216:10 46.5136 
2 *216:10 *1829:A 38 
*END

*D_NET *217 0.00290456
*CONN
*I *1869:B I *D sky130_fd_sc_hd__nand3_2
*I *1868:A I *D sky130_fd_sc_hd__nand4_4
*I *2079:B2 I *D sky130_fd_sc_hd__a22oi_4
*I *1829:Y O *D sky130_fd_sc_hd__nor2_4
*CAP
1 *1869:B 0.000158263
2 *1868:A 7.82827e-05
3 *2079:B2 0
4 *1829:Y 0.000338802
5 *217:21 0.00058093
6 *217:10 0.000683186
7 *1869:B *247:12 6.07611e-06
8 *1869:B *256:8 0
9 *217:10 *2073:A2 0.000138727
10 *217:10 *2328:A 2.64616e-05
11 *217:10 *519:10 0
12 *217:21 *1868:C 0.000225265
13 *217:21 *2073:A2 0.000122304
14 *217:21 *251:25 0.000166522
15 *217:21 *254:19 0
16 *217:21 *255:12 1.37246e-05
17 *217:21 *256:8 0
18 *217:21 *519:10 8.58219e-05
19 *1827:B *217:10 4.89856e-05
20 *1868:B *1868:A 0.000182826
21 *167:40 *1869:B 4.83778e-05
22 *204:18 *217:21 0
23 *208:12 *217:21 0
*RES
1 *1829:Y *217:10 42.9093 
2 *217:10 *2079:B2 38 
3 *217:10 *217:21 9.57 
4 *217:21 *1868:A 40.0507 
5 *217:21 *1869:B 41.2314 
*END

*D_NET *218 0.000548415
*CONN
*I *1870:A1 I *D sky130_fd_sc_hd__o21bai_4
*I *1830:Y O *D sky130_fd_sc_hd__nand4b_4
*CAP
1 *1870:A1 0
2 *1830:Y 0.000274208
3 *218:8 0.000274208
4 *218:8 *479:10 0
5 *167:10 *218:8 0
6 *167:23 *218:8 0
*RES
1 *1830:Y *218:8 42.7229 
2 *218:8 *1870:A1 38 
*END

*D_NET *219 0.000824763
*CONN
*I *1854:B I *D sky130_fd_sc_hd__nand3b_2
*I *1834:A I *D sky130_fd_sc_hd__nand2_2
*I *1831:Y O *D sky130_fd_sc_hd__nand2b_2
*CAP
1 *1854:B 0
2 *1834:A 0.000137746
3 *1831:Y 9.04082e-05
4 *219:8 0.000228154
5 *1834:A *1834:B 0.000199701
6 *1834:A *220:8 1.14452e-05
7 *219:8 *220:8 0.000157309
*RES
1 *1831:Y *219:8 40.2579 
2 *219:8 *1834:A 41.2314 
3 *219:8 *1854:B 38 
*END

*D_NET *220 0.00125346
*CONN
*I *1854:C I *D sky130_fd_sc_hd__nand3b_2
*I *1834:B I *D sky130_fd_sc_hd__nand2_2
*I *1832:Y O *D sky130_fd_sc_hd__nand2_2
*CAP
1 *1854:C 0
2 *1834:B 4.82429e-05
3 *1832:Y 0.000274707
4 *220:8 0.00032295
5 *1834:B *242:8 0.000171906
6 *1834:B *527:64 1.47563e-05
7 *220:8 *221:10 0
8 *220:8 *242:8 5.24393e-05
9 *220:8 *562:36 0
10 *1834:A *1834:B 0.000199701
11 *1834:A *220:8 1.14452e-05
12 *219:8 *220:8 0.000157309
*RES
1 *1832:Y *220:8 43.4271 
2 *220:8 *1834:B 40.61 
3 *220:8 *1854:C 38 
*END

*D_NET *221 0.00125416
*CONN
*I *1859:A1 I *D sky130_fd_sc_hd__o22ai_2
*I *1864:A1 I *D sky130_fd_sc_hd__o21ai_2
*I *1833:X O *D sky130_fd_sc_hd__and2_2
*CAP
1 *1859:A1 2.95011e-05
2 *1864:A1 0.000154956
3 *1833:X 0.000217967
4 *221:10 0.000402424
5 *1859:A1 *247:6 5.50106e-05
6 *1864:A1 *1864:A2 3.52912e-05
7 *1864:A1 *223:22 0.00014411
8 *1864:A1 *527:64 0
9 *221:10 *1833:A 5.50049e-05
10 *221:10 *242:8 0
11 *221:10 *461:6 8.43466e-05
12 *221:10 *461:19 7.55491e-05
13 *220:8 *221:10 0
*RES
1 *1833:X *221:10 41.8321 
2 *221:10 *1864:A1 41.5214 
3 *221:10 *1859:A1 38.6214 
*END

*D_NET *222 0.00243605
*CONN
*I *1857:A2 I *D sky130_fd_sc_hd__o21ai_2
*I *1856:A2 I *D sky130_fd_sc_hd__o21a_2
*I *1858:A2 I *D sky130_fd_sc_hd__a22oi_4
*I *1834:Y O *D sky130_fd_sc_hd__nand2_2
*CAP
1 *1857:A2 0.000197408
2 *1856:A2 0
3 *1858:A2 0.000148217
4 *1834:Y 0.000101119
5 *222:10 0.000361468
6 *222:8 0.000511778
7 *1857:A2 *527:36 8.52481e-05
8 *1857:A2 *527:38 0.000184527
9 *1857:A2 *527:53 4.95081e-05
10 *1858:A2 *246:10 3.22879e-05
11 *1858:A2 *251:25 5.50106e-05
12 *1858:A2 *254:19 0
13 *1858:A2 *527:10 1.14452e-05
14 *1858:A2 *527:19 0.000166522
15 *1858:A2 *527:36 3.70187e-05
16 *222:8 *527:36 2.46345e-05
17 *222:8 *527:64 4.31366e-05
18 *222:10 *254:19 0
19 *222:10 *527:36 0.00042672
*RES
1 *1834:Y *222:8 40.2579 
2 *222:8 *222:10 5.77929 
3 *222:10 *1858:A2 41.2314 
4 *222:10 *1856:A2 38 
5 *222:8 *1857:A2 42.4329 
*END

*D_NET *223 0.000755742
*CONN
*I *1859:A2 I *D sky130_fd_sc_hd__o22ai_2
*I *1864:A2 I *D sky130_fd_sc_hd__o21ai_2
*I *1835:Y O *D sky130_fd_sc_hd__o21ai_2
*CAP
1 *1859:A2 0
2 *1864:A2 0.00014005
3 *1835:Y 0.000202218
4 *223:22 6.2168e-05
5 *223:22 *461:19 0.000171906
6 *223:22 *527:64 0
7 *1864:A1 *1864:A2 3.52912e-05
8 *1864:A1 *223:22 0.00014411
*RES
1 *1835:Y *1864:A2 48.5479 
2 *1835:Y *223:22 40.2579 
3 *223:22 *1859:A2 38 
*END

*D_NET *224 0.00216042
*CONN
*I *1838:A I *D sky130_fd_sc_hd__nor2_2
*I *1855:A1 I *D sky130_fd_sc_hd__o21bai_2
*I *1865:A1 I *D sky130_fd_sc_hd__o21ai_2
*I *1853:A1 I *D sky130_fd_sc_hd__o211ai_4
*I *1836:X O *D sky130_fd_sc_hd__and2_4
*CAP
1 *1838:A 3.13204e-05
2 *1855:A1 0
3 *1865:A1 2.47039e-05
4 *1853:A1 0
5 *1836:X 6.27308e-05
6 *224:44 0.000228951
7 *224:22 0.000136999
8 *224:16 0.000389607
9 *224:8 0.000488265
10 *1838:A *1838:B 0.00010018
11 *1865:A1 *2068:A 5.50106e-05
12 *224:8 *1839:A1 0.000114092
13 *224:8 *225:10 4.59027e-05
14 *224:8 *227:8 0
15 *224:16 *2068:A 1.41129e-05
16 *224:16 *225:10 1.19692e-05
17 *224:16 *227:8 0
18 *224:16 *227:12 5.50049e-05
19 *224:16 *243:8 0
20 *224:16 *524:39 4.2361e-05
21 *224:22 *227:20 0.000247678
22 *224:22 *438:8 1.14452e-05
23 *224:44 *1838:B 5.15231e-05
24 *224:44 *1839:A1 0
25 *224:44 *226:8 4.85658e-05
*RES
1 *1836:X *224:8 39.9057 
2 *224:8 *224:16 19.205 
3 *224:16 *224:22 33.3143 
4 *224:22 *1853:A1 23 
5 *224:16 *1865:A1 23.6214 
6 *224:8 *224:44 19.495 
7 *224:44 *1855:A1 23 
8 *224:44 *1838:A 24.0979 
*END

*D_NET *225 0.00148105
*CONN
*I *1855:A2 I *D sky130_fd_sc_hd__o21bai_2
*I *1838:B I *D sky130_fd_sc_hd__nor2_2
*I *1837:Y O *D sky130_fd_sc_hd__nor2_2
*CAP
1 *1855:A2 0
2 *1838:B 0.000128182
3 *1837:Y 0.000309437
4 *225:12 0.000128182
5 *225:10 0.000309437
6 *1838:B *1855:B1_N 0
7 *1838:B *226:8 0.000271476
8 *225:10 *1839:A1 0
9 *225:10 *240:8 2.93747e-05
10 *225:10 *243:8 3.92407e-05
11 *225:10 *559:31 5.61414e-05
12 *1838:A *1838:B 0.00010018
13 *224:8 *225:10 4.59027e-05
14 *224:16 *225:10 1.19692e-05
15 *224:44 *1838:B 5.15231e-05
*RES
1 *1837:Y *225:10 44.0486 
2 *225:10 *225:12 15 
3 *225:12 *1838:B 27.4743 
4 *225:12 *1855:A2 23 
*END

*D_NET *226 0.00504165
*CONN
*I *1852:A1 I *D sky130_fd_sc_hd__a22oi_2
*I *2069:A2 I *D sky130_fd_sc_hd__o22a_2
*I *1838:Y O *D sky130_fd_sc_hd__nor2_2
*CAP
1 *1852:A1 0.000407655
2 *2069:A2 0.000356198
3 *1838:Y 0.000479572
4 *226:8 0.00124343
5 *1852:A1 *227:8 3.72639e-05
6 *1852:A1 *231:48 6.50988e-05
7 *1852:A1 *233:10 0.000451363
8 *1852:A1 *240:8 6.52873e-05
9 *1852:A1 *494:12 0
10 *1852:A1 *524:29 0.000272377
11 *1852:A1 *559:18 0.000225275
12 *2069:A2 *2314:A 6.28695e-05
13 *2069:A2 *227:8 7.03663e-05
14 *2069:A2 *233:10 0.000350208
15 *2069:A2 *241:24 7.53384e-06
16 *2069:A2 *524:39 0.000303237
17 *2069:A2 *562:8 0.00010018
18 *226:8 *1855:B1_N 8.60475e-05
19 *226:8 *524:33 0.000137651
20 *1838:B *226:8 0.000271476
21 *224:44 *226:8 4.85658e-05
*RES
1 *1838:Y *226:8 45.2914 
2 *226:8 *2069:A2 48.2329 
3 *226:8 *1852:A1 49.0614 
*END

*D_NET *227 0.00176446
*CONN
*I *1865:A2 I *D sky130_fd_sc_hd__o21ai_2
*I *1853:A2 I *D sky130_fd_sc_hd__o211ai_4
*I *1839:Y O *D sky130_fd_sc_hd__o21ai_2
*CAP
1 *1865:A2 0
2 *1853:A2 0
3 *1839:Y 0.000144683
4 *227:20 0.000186112
5 *227:12 0.000282993
6 *227:8 0.000241564
7 *227:8 *1839:A1 4.21594e-06
8 *227:8 *524:39 0.000164282
9 *227:8 *559:18 3.70187e-05
10 *227:12 *2068:A 0.0002263
11 *227:20 *241:14 1.19692e-05
12 *227:20 *251:10 5.50049e-05
13 *227:20 *524:39 0
14 *1852:A1 *227:8 3.72639e-05
15 *2069:A2 *227:8 7.03663e-05
16 *224:8 *227:8 0
17 *224:16 *227:8 0
18 *224:16 *227:12 5.50049e-05
19 *224:22 *227:20 0.000247678
*RES
1 *1839:Y *227:8 41.3143 
2 *227:8 *227:12 17.5271 
3 *227:12 *227:20 34.4121 
4 *227:20 *1853:A2 23 
5 *227:12 *1865:A2 23 
*END

*D_NET *228 0.00359043
*CONN
*I *1843:B I *D sky130_fd_sc_hd__nand3_4
*I *1840:Y O *D sky130_fd_sc_hd__nand2b_2
*CAP
1 *1843:B 0
2 *1840:Y 0.000877801
3 *228:14 0.000175943
4 *228:6 0.00105374
5 *228:6 *1840:B 0.000527655
6 *228:6 *1860:A1 2.13733e-05
7 *228:6 *547:18 0.000264564
8 *228:6 *547:44 0.000297137
9 *228:14 *1850:B2 5.03449e-05
10 *228:14 *230:8 5.3304e-05
11 *228:14 *230:10 7.37814e-06
12 *228:14 *231:8 0
13 *228:14 *232:19 0
14 *228:14 *248:8 1.02387e-05
15 *228:14 *547:18 1.83667e-05
16 *228:14 *570:28 0.000174644
17 *41:17 *228:14 5.3304e-05
18 *103:12 *228:14 4.6318e-06
*RES
1 *1840:Y *228:6 36.0086 
2 *228:6 *228:14 34.2879 
3 *228:14 *1843:B 23 
*END

*D_NET *229 0.000850914
*CONN
*I *1843:C I *D sky130_fd_sc_hd__nand3_4
*I *1841:Y O *D sky130_fd_sc_hd__nand2b_2
*CAP
1 *1843:C 0
2 *1841:Y 0.000199192
3 *229:10 0.000199192
4 *229:10 *459:65 0.000119467
5 *229:10 *460:18 0.000166532
6 *58:11 *229:10 0.000166532
*RES
1 *1841:Y *229:10 42.785 
2 *229:10 *1843:C 38 
*END

*D_NET *230 0.00337536
*CONN
*I *1860:A2 I *D sky130_fd_sc_hd__o21ai_4
*I *1850:B2 I *D sky130_fd_sc_hd__o22ai_2
*I *1842:X O *D sky130_fd_sc_hd__and2_2
*CAP
1 *1860:A2 0
2 *1850:B2 0.000345673
3 *1842:X 0.000250666
4 *230:10 0.000468547
5 *230:8 0.00037354
6 *1850:B2 *248:8 0
7 *1850:B2 *496:32 1.86869e-05
8 *1850:B2 *547:18 0
9 *230:8 *1842:B 0.000210642
10 *230:8 *541:6 0.00095283
11 *230:10 *570:28 0.000205064
12 *41:17 *230:8 0.00043868
13 *58:11 *1850:B2 0
14 *58:11 *230:10 0
15 *228:14 *1850:B2 5.03449e-05
16 *228:14 *230:8 5.3304e-05
17 *228:14 *230:10 7.37814e-06
*RES
1 *1842:X *230:8 48.6264 
2 *230:8 *230:10 2.96214 
3 *230:10 *1850:B2 43.7793 
4 *230:10 *1860:A2 38 
*END

*D_NET *231 0.00427477
*CONN
*I *1851:A I *D sky130_fd_sc_hd__nand2_2
*I *1852:B2 I *D sky130_fd_sc_hd__a22oi_2
*I *1860:B1 I *D sky130_fd_sc_hd__o21ai_4
*I *1843:Y O *D sky130_fd_sc_hd__nand3_4
*CAP
1 *1851:A 0
2 *1852:B2 0
3 *1860:B1 7.06311e-05
4 *1843:Y 0.000112284
5 *231:48 0.000563621
6 *231:29 0.000974877
7 *231:10 0.000481887
8 *231:8 0.000112284
9 *1860:B1 *1860:A1 9.84794e-05
10 *1860:B1 *232:6 4.2573e-05
11 *1860:B1 *547:18 8.71791e-05
12 *231:8 *232:19 1.17256e-05
13 *231:8 *476:10 9.28078e-06
14 *231:8 *476:33 0.000156666
15 *231:29 *1852:B1 0.000322225
16 *231:29 *233:6 0.000168441
17 *231:29 *267:8 2.32004e-05
18 *231:29 *458:22 0.000100605
19 *231:29 *459:39 4.17736e-05
20 *231:29 *459:55 0.000139357
21 *231:29 *547:18 9.58714e-05
22 *231:29 *547:44 0.000265477
23 *231:48 *1846:B 0
24 *231:48 *1852:B1 8.68678e-05
25 *231:48 *233:6 0.000151324
26 *231:48 *239:10 6.28499e-05
27 *231:48 *240:8 3.01959e-05
28 *231:48 *524:29 0
29 *1852:A1 *231:48 6.50988e-05
30 *228:14 *231:8 0
*RES
1 *1843:Y *231:8 40.2579 
2 *231:8 *231:10 15 
3 *231:10 *1860:B1 25.0507 
4 *231:10 *231:29 40.8957 
5 *231:29 *1852:B2 23 
6 *231:29 *231:48 40.3986 
7 *231:48 *1851:A 23 
*END

*D_NET *232 0.00278974
*CONN
*I *1845:B1 I *D sky130_fd_sc_hd__a21o_4
*I *1850:B1 I *D sky130_fd_sc_hd__o22ai_2
*I *1860:A1 I *D sky130_fd_sc_hd__o21ai_4
*I *1844:Y O *D sky130_fd_sc_hd__o21ai_4
*CAP
1 *1845:B1 0
2 *1850:B1 0.00023346
3 *1860:A1 0.000329206
4 *1844:Y 2.99956e-05
5 *232:19 0.000387991
6 *232:6 0.000513732
7 *1850:B1 *1850:A1 5.50106e-05
8 *1850:B1 *2065:A1 3.7122e-06
9 *1850:B1 *234:16 0.000147474
10 *1850:B1 *238:14 0.000219646
11 *1850:B1 *248:8 0.000156025
12 *1850:B1 *454:14 4.94192e-05
13 *1850:B1 *496:32 0.0002263
14 *232:19 *238:14 1.14452e-05
15 *232:19 *248:8 0.000206577
16 *232:19 *459:55 0
17 *232:19 *476:10 4.55963e-05
18 *1860:B1 *1860:A1 9.84794e-05
19 *1860:B1 *232:6 4.2573e-05
20 *228:6 *1860:A1 2.13733e-05
21 *228:14 *232:19 0
22 *231:8 *232:19 1.17256e-05
*RES
1 *1844:Y *232:6 23.6214 
2 *232:6 *1860:A1 28.4064 
3 *232:6 *232:19 18.6664 
4 *232:19 *1850:B1 44.7114 
5 *232:19 *1845:B1 38 
*END

*D_NET *233 0.00509608
*CONN
*I *1853:B1 I *D sky130_fd_sc_hd__o211ai_4
*I *2314:A I *D sky130_fd_sc_hd__buf_2
*I *1845:X O *D sky130_fd_sc_hd__a21o_4
*CAP
1 *1853:B1 0
2 *2314:A 0.000193195
3 *1845:X 0.00049712
4 *233:10 0.000598972
5 *233:6 0.000902898
6 *2314:A *2329:A 0
7 *2314:A *497:8 0
8 *2314:A *562:8 8.1796e-05
9 *233:6 *1852:B1 4.15389e-05
10 *233:6 *240:8 0.000448815
11 *233:6 *476:10 0.000484536
12 *233:10 *494:10 0
13 *233:10 *494:12 0
14 *233:10 *524:29 0.000435004
15 *1852:A1 *233:10 0.000451363
16 *2069:A2 *2314:A 6.28695e-05
17 *2069:A2 *233:10 0.000350208
18 *12:15 *233:6 0.000228001
19 *231:29 *233:6 0.000168441
20 *231:48 *233:6 0.000151324
*RES
1 *1845:X *233:6 36.9614 
2 *233:6 *233:10 27.1179 
3 *233:10 *2314:A 42.1843 
4 *233:10 *1853:B1 38 
*END

*D_NET *234 0.00411859
*CONN
*I *1861:A1 I *D sky130_fd_sc_hd__o21bai_2
*I *1850:A2 I *D sky130_fd_sc_hd__o22ai_2
*I *1846:X O *D sky130_fd_sc_hd__and2_2
*CAP
1 *1861:A1 0
2 *1850:A2 0
3 *1846:X 0.000748417
4 *234:27 0.000366189
5 *234:16 0.0002187
6 *234:6 0.00133331
7 *234:6 *1846:B 7.12002e-05
8 *234:6 *454:8 0.000753737
9 *234:6 *454:14 4.04303e-05
10 *234:16 *1850:A1 2.18409e-05
11 *234:16 *238:14 5.50106e-05
12 *234:16 *248:8 5.94125e-05
13 *234:16 *454:14 1.36046e-05
14 *234:16 *496:32 5.94125e-05
15 *234:27 *1848:A2 0
16 *234:27 *1861:A2 6.07611e-06
17 *234:27 *1862:A2 0
18 *234:27 *238:14 0.000102705
19 *234:27 *248:8 0.000116854
20 *234:27 *458:22 0
21 *234:27 *493:20 4.21594e-06
22 *234:27 *535:36 0
23 *1850:B1 *234:16 0.000147474
*RES
1 *1846:X *234:6 34.5793 
2 *234:6 *234:16 33.5214 
3 *234:16 *1850:A2 23 
4 *234:6 *234:27 36.4836 
5 *234:27 *1861:A1 23 
*END

*D_NET *235 0.00217594
*CONN
*I *1861:A2 I *D sky130_fd_sc_hd__o21bai_2
*I *1847:Y O *D sky130_fd_sc_hd__nor2_2
*CAP
1 *1861:A2 0.000367307
2 *1847:Y 0.00026696
3 *235:8 0.000634267
4 *1861:A2 *248:8 0.000299196
5 *1861:A2 *248:18 0.00031749
6 *1861:A2 *493:20 0
7 *235:8 *1803:A 0.000224329
8 *235:8 *566:8 1.57571e-05
9 *193:8 *235:8 4.4553e-05
10 *234:27 *1861:A2 6.07611e-06
*RES
1 *1847:Y *235:8 42.9093 
2 *235:8 *1861:A2 46.2443 
*END

*D_NET *236 0.00196343
*CONN
*I *1849:B1 I *D sky130_fd_sc_hd__a21oi_2
*I *1862:A2 I *D sky130_fd_sc_hd__o211ai_2
*I *1850:A1 I *D sky130_fd_sc_hd__o22ai_2
*I *1848:Y O *D sky130_fd_sc_hd__o21ai_4
*CAP
1 *1849:B1 0.000145089
2 *1862:A2 0.000109435
3 *1850:A1 3.23417e-05
4 *1848:Y 0.000217377
5 *236:22 0.00043956
6 *1849:B1 *458:30 0.000233367
7 *1849:B1 *559:10 5.79559e-05
8 *1850:A1 *238:14 5.3304e-05
9 *1850:A1 *454:14 2.4754e-05
10 *1862:A2 *458:30 1.83564e-05
11 *1862:A2 *493:20 4.21594e-06
12 *1862:A2 *535:36 0.000194327
13 *1862:A2 *535:42 3.70094e-05
14 *1862:A2 *535:60 0
15 *236:22 *1848:A2 0.000139657
16 *236:22 *454:8 5.78923e-05
17 *236:22 *454:14 7.53384e-06
18 *236:22 *458:22 6.17437e-06
19 *236:22 *458:30 8.26672e-05
20 *236:22 *535:36 2.55642e-05
21 *1850:B1 *1850:A1 5.50106e-05
22 *234:16 *1850:A1 2.18409e-05
23 *234:27 *1862:A2 0
*RES
1 *1848:Y *1850:A1 47.0979 
2 *1848:Y *236:22 42.3086 
3 *236:22 *1862:A2 40.9621 
4 *236:22 *1849:B1 41.48 
*END

*D_NET *237 0.000345541
*CONN
*I *1851:B I *D sky130_fd_sc_hd__nand2_2
*I *1849:Y O *D sky130_fd_sc_hd__a21oi_2
*CAP
1 *1851:B 0.000132028
2 *1849:Y 0.000132028
3 *1851:B *1849:A2 4.93812e-05
4 *1851:B *458:30 1.3523e-05
5 *1851:B *559:10 1.85803e-05
*RES
1 *1849:Y *1851:B 48.5686 
*END

*D_NET *238 0.00316756
*CONN
*I *1852:B1 I *D sky130_fd_sc_hd__a22oi_2
*I *1850:Y O *D sky130_fd_sc_hd__o22ai_2
*CAP
1 *1852:B1 0.000213845
2 *1850:Y 0.000269454
3 *238:14 0.000483299
4 *1852:B1 *459:55 0.000183733
5 *1852:B1 *524:6 0.000596288
6 *238:14 *248:8 4.03263e-05
7 *238:14 *454:14 0.000225399
8 *238:14 *458:22 0
9 *1850:A1 *238:14 5.3304e-05
10 *1850:B1 *238:14 0.000219646
11 *12:15 *1852:B1 0.000262476
12 *231:29 *1852:B1 0.000322225
13 *231:48 *1852:B1 8.68678e-05
14 *232:19 *238:14 1.14452e-05
15 *233:6 *1852:B1 4.15389e-05
16 *234:16 *238:14 5.50106e-05
17 *234:27 *238:14 0.000102705
*RES
1 *1850:Y *238:14 44.6079 
2 *238:14 *1852:B1 47.86 
*END

*D_NET *239 0.00210377
*CONN
*I *1853:C1 I *D sky130_fd_sc_hd__o211ai_4
*I *2329:A I *D sky130_fd_sc_hd__buf_2
*I *1851:Y O *D sky130_fd_sc_hd__nand2_2
*CAP
1 *1853:C1 5.72879e-05
2 *2329:A 0.000208537
3 *1851:Y 0.000451829
4 *239:10 0.000717655
5 *1853:C1 *2067:B1 5.3304e-05
6 *1853:C1 *251:10 0.000139352
7 *2329:A *2326:A 4.344e-05
8 *2329:A *497:8 0.000138718
9 *2329:A *514:14 0.000158057
10 *2329:A *562:8 6.65213e-05
11 *239:10 *497:8 6.22448e-06
12 *239:10 *535:60 0
13 *2314:A *2329:A 0
14 *231:48 *239:10 6.28499e-05
*RES
1 *1851:Y *239:10 45.5814 
2 *239:10 *2329:A 43.2821 
3 *239:10 *1853:C1 39.5743 
*END

*D_NET *240 0.00238753
*CONN
*I *1859:B2 I *D sky130_fd_sc_hd__o22ai_2
*I *1852:Y O *D sky130_fd_sc_hd__a22oi_2
*CAP
1 *1859:B2 0
2 *1852:Y 0.00074234
3 *240:8 0.00074234
4 *240:8 *1859:B1 5.84916e-05
5 *240:8 *524:29 0.000270682
6 *1852:A1 *240:8 6.52873e-05
7 *225:10 *240:8 2.93747e-05
8 *231:48 *240:8 3.01959e-05
9 *233:6 *240:8 0.000448815
*RES
1 *1852:Y *240:8 39.8407 
2 *240:8 *1859:B2 23 
*END

*D_NET *241 0.00258975
*CONN
*I *1858:B2 I *D sky130_fd_sc_hd__a22oi_4
*I *2069:B1 I *D sky130_fd_sc_hd__o22a_2
*I *1853:Y O *D sky130_fd_sc_hd__o211ai_4
*CAP
1 *1858:B2 0.000128737
2 *2069:B1 4.6658e-06
3 *1853:Y 0.0002197
4 *241:24 0.000232784
5 *241:14 0.000319082
6 *1858:B2 *251:25 0.000684483
7 *1858:B2 *562:8 0.000331266
8 *2069:B1 *251:25 7.84431e-05
9 *241:14 *251:10 0.000130417
10 *241:14 *438:8 0
11 *241:14 *524:39 0.000194318
12 *241:24 *251:25 6.86738e-05
13 *241:24 *562:8 0.000177674
14 *2069:A2 *241:24 7.53384e-06
15 *227:20 *241:14 1.19692e-05
*RES
1 *1853:Y *241:14 42.8264 
2 *241:14 *241:24 18.7804 
3 *241:24 *2069:B1 23.8596 
4 *241:24 *1858:B2 30.5296 
*END

*D_NET *242 0.000544638
*CONN
*I *1864:B1 I *D sky130_fd_sc_hd__o21ai_2
*I *1854:Y O *D sky130_fd_sc_hd__nand3b_2
*CAP
1 *1864:B1 0
2 *1854:Y 7.41937e-05
3 *242:8 7.41937e-05
4 *242:8 *527:64 0.000171906
5 *1834:B *242:8 0.000171906
6 *220:8 *242:8 5.24393e-05
7 *221:10 *242:8 0
*RES
1 *1854:Y *242:8 40.9621 
2 *242:8 *1864:B1 38 
*END

*D_NET *243 0.00296765
*CONN
*I *1857:B1 I *D sky130_fd_sc_hd__o21ai_2
*I *1856:B1 I *D sky130_fd_sc_hd__o21a_2
*I *1865:B1 I *D sky130_fd_sc_hd__o21ai_2
*I *1855:Y O *D sky130_fd_sc_hd__o21bai_2
*CAP
1 *1857:B1 5.14375e-05
2 *1856:B1 0.000347547
3 *1865:B1 0
4 *1855:Y 0.000160692
5 *243:21 0.000668939
6 *243:12 0.000301349
7 *243:8 0.000192087
8 *1856:B1 *2070:A 0.000313249
9 *1856:B1 *461:25 0.000111582
10 *1856:B1 *562:10 0.000249909
11 *1857:B1 *461:25 7.03869e-05
12 *1857:B1 *562:10 0.000131744
13 *243:12 *1866:B 3.22879e-05
14 *243:12 *2068:A 7.53384e-06
15 *243:21 *1866:B 0.000289669
16 *224:16 *243:8 0
17 *225:10 *243:8 3.92407e-05
*RES
1 *1855:Y *243:8 40.61 
2 *243:8 *243:12 15.6214 
3 *243:12 *1865:B1 23 
4 *243:12 *243:21 20.8621 
5 *243:21 *1856:B1 46.7 
6 *243:21 *1857:B1 39.9057 
*END

*D_NET *244 0.000240294
*CONN
*I *1858:B1 I *D sky130_fd_sc_hd__a22oi_4
*I *1856:X O *D sky130_fd_sc_hd__o21a_2
*CAP
1 *1858:B1 0
2 *1856:X 9.77134e-05
3 *244:8 9.77134e-05
4 *244:8 *461:25 0
5 *244:8 *527:10 4.21594e-06
6 *244:8 *527:19 4.06512e-05
*RES
1 *1856:X *244:8 39.9057 
2 *244:8 *1858:B1 38 
*END

*D_NET *245 0.0010298
*CONN
*I *1859:B1 I *D sky130_fd_sc_hd__o22ai_2
*I *1857:Y O *D sky130_fd_sc_hd__o21ai_2
*CAP
1 *1859:B1 0.000118941
2 *1857:Y 0.000117746
3 *245:8 0.000236687
4 *245:8 *461:19 0.000186025
5 *245:8 *461:25 0.00014411
6 *245:8 *562:10 8.51329e-05
7 *245:8 *562:23 8.26672e-05
8 *240:8 *1859:B1 5.84916e-05
*RES
1 *1857:Y *245:8 42.3707 
2 *245:8 *1859:B1 40.0714 
*END

*D_NET *246 0.005145
*CONN
*I *1870:A2 I *D sky130_fd_sc_hd__o21bai_4
*I *2327:A I *D sky130_fd_sc_hd__buf_2
*I *2328:A I *D sky130_fd_sc_hd__buf_6
*I *1858:Y O *D sky130_fd_sc_hd__a22oi_4
*CAP
1 *1870:A2 0
2 *2327:A 0
3 *2328:A 0.00016586
4 *1858:Y 0.000427287
5 *246:38 0.00118465
6 *246:23 0.00121937
7 *246:10 0.000627876
8 *2328:A *2073:A2 0.000377191
9 *2328:A *518:8 8.15327e-05
10 *246:10 *251:25 0.000110871
11 *246:23 *2073:A2 6.16531e-05
12 *246:38 *2073:A2 1.14452e-05
13 *246:38 *255:12 0.000133447
14 *1816:A1 *2328:A 0.000191166
15 *1827:B *2328:A 2.93845e-05
16 *1858:A2 *246:10 3.22879e-05
17 *204:8 *2328:A 0
18 *204:12 *246:10 0.00044458
19 *205:10 *246:38 1.99429e-05
20 *217:10 *2328:A 2.64616e-05
*RES
1 *1858:Y *246:10 47.2179 
2 *246:10 *2328:A 43.6964 
3 *246:10 *246:23 0.849286 
4 *246:23 *2327:A 38 
5 *246:23 *246:38 30.7636 
6 *246:38 *1870:A2 23 
*END

*D_NET *247 0.00213599
*CONN
*I *1869:A I *D sky130_fd_sc_hd__nand3_2
*I *1859:Y O *D sky130_fd_sc_hd__o22ai_2
*CAP
1 *1869:A 0
2 *1859:Y 0.000723421
3 *247:12 0.000314031
4 *247:6 0.00103745
5 *247:12 *1874:C 0
6 *1859:A1 *247:6 5.50106e-05
7 *1869:B *247:12 6.07611e-06
*RES
1 *1859:Y *247:6 35.0557 
2 *247:6 *247:12 36.1314 
3 *247:12 *1869:A 23 
*END

*D_NET *248 0.00717141
*CONN
*I *1863:B I *D sky130_fd_sc_hd__nor2_4
*I *2323:A I *D sky130_fd_sc_hd__buf_2
*I *1860:Y O *D sky130_fd_sc_hd__o21ai_4
*CAP
1 *1863:B 0.000774116
2 *2323:A 0
3 *1860:Y 0
4 *248:18 0.000598133
5 *248:8 0.00188449
6 *248:6 0.000512241
7 *1863:B *2067:A1 0.000210959
8 *1863:B *2067:B1 2.94787e-05
9 *1863:B *437:10 0.000483515
10 *248:8 *1845:A2 6.16439e-05
11 *248:8 *456:10 0.000445041
12 *248:8 *496:32 0.000118409
13 *248:8 *547:18 0.000136486
14 *248:18 *456:10 0.000135557
15 *248:18 *493:20 0
16 *248:18 *493:32 0
17 *248:18 *508:14 6.78594e-05
18 *1850:B1 *248:8 0.000156025
19 *1850:B2 *248:8 0
20 *1861:A2 *248:8 0.000299196
21 *1861:A2 *248:18 0.00031749
22 *2247:A *248:18 2.43903e-05
23 *29:11 *248:18 0.000120712
24 *192:10 *248:18 0.000140154
25 *194:10 *248:18 0.000222104
26 *228:14 *248:8 1.02387e-05
27 *232:19 *248:8 0.000206577
28 *234:16 *248:8 5.94125e-05
29 *234:27 *248:8 0.000116854
30 *238:14 *248:8 4.03263e-05
*RES
1 *1860:Y *248:6 38 
2 *248:6 *248:8 14.935 
3 *248:8 *248:18 29.5621 
4 *248:18 *2323:A 23 
5 *248:8 *1863:B 49.4757 
*END

*D_NET *249 0.000298921
*CONN
*I *1862:C1 I *D sky130_fd_sc_hd__o211ai_2
*I *1861:Y O *D sky130_fd_sc_hd__o21bai_2
*CAP
1 *1862:C1 0.000115966
2 *1861:Y 0.000115966
3 *1862:C1 *493:16 6.69899e-05
*RES
1 *1861:Y *1862:C1 48.0507 
*END

*D_NET *250 0.00195706
*CONN
*I *1863:A I *D sky130_fd_sc_hd__nor2_4
*I *2326:A I *D sky130_fd_sc_hd__buf_2
*I *1862:Y O *D sky130_fd_sc_hd__o211ai_2
*CAP
1 *1863:A 0
2 *2326:A 0.000259426
3 *1862:Y 0.000489085
4 *250:14 0.000748511
5 *2326:A *437:10 3.64337e-05
6 *2326:A *457:14 4.6318e-06
7 *2326:A *514:14 4.04089e-05
8 *2326:A *520:10 2.80281e-05
9 *2326:A *535:42 0
10 *2326:A *562:8 0.000146822
11 *250:14 *437:10 4.83941e-05
12 *250:14 *520:10 1.12863e-05
13 *250:14 *535:36 2.45549e-06
14 *250:14 *535:49 1.46522e-05
15 *250:14 *535:60 2.87441e-05
16 *250:14 *595:18 5.47392e-05
17 *2329:A *2326:A 4.344e-05
*RES
1 *1862:Y *250:14 45.3329 
2 *250:14 *2326:A 43.0336 
3 *250:14 *1863:A 38 
*END

*D_NET *251 0.005938
*CONN
*I *1868:C I *D sky130_fd_sc_hd__nand4_4
*I *1867:A I *D sky130_fd_sc_hd__nand2_4
*I *2069:B2 I *D sky130_fd_sc_hd__o22a_2
*I *1863:Y O *D sky130_fd_sc_hd__nor2_4
*CAP
1 *1868:C 0.000180033
2 *1867:A 0
3 *2069:B2 0
4 *1863:Y 0.000540482
5 *251:25 0.00128692
6 *251:12 0.00110688
7 *251:10 0.000540482
8 *1868:C *254:19 0
9 *251:10 *2067:B1 2.32004e-05
10 *251:10 *438:8 3.56537e-05
11 *251:10 *524:39 1.02387e-05
12 *251:25 *255:12 0.000166522
13 *1853:C1 *251:10 0.000139352
14 *1858:A2 *251:25 5.50106e-05
15 *1858:B2 *251:25 0.000684483
16 *1868:B *1868:C 4.07902e-05
17 *2069:B1 *251:25 7.84431e-05
18 *204:12 *251:25 0.000292755
19 *217:21 *1868:C 0.000225265
20 *217:21 *251:25 0.000166522
21 *227:20 *251:10 5.50049e-05
22 *241:14 *251:10 0.000130417
23 *241:24 *251:25 6.86738e-05
24 *246:10 *251:25 0.000110871
*RES
1 *1863:Y *251:10 47.0729 
2 *251:10 *251:12 15 
3 *251:12 *2069:B2 23 
4 *251:12 *251:25 38.8629 
5 *251:25 *1867:A 38 
6 *251:25 *1868:C 42.5571 
*END

*D_NET *252 0.00177196
*CONN
*I *1866:A I *D sky130_fd_sc_hd__nor2_2
*I *2070:A I *D sky130_fd_sc_hd__xnor2_2
*I *1864:Y O *D sky130_fd_sc_hd__o21ai_2
*CAP
1 *1866:A 0
2 *2070:A 0.00039692
3 *1864:Y 0.0002466
4 *252:8 0.00064352
5 *2070:A *461:25 1.83961e-05
6 *2070:A *527:36 0
7 *2070:A *599:8 5.12254e-05
8 *252:8 *461:25 0
9 *252:8 *527:36 0
10 *252:8 *527:53 4.59027e-05
11 *252:8 *527:64 5.61414e-05
12 *1856:B1 *2070:A 0.000313249
*RES
1 *1864:Y *252:8 43.075 
2 *252:8 *2070:A 46.2236 
3 *252:8 *1866:A 38 
*END

*D_NET *253 0.00271406
*CONN
*I *1866:B I *D sky130_fd_sc_hd__nor2_2
*I *2068:A I *D sky130_fd_sc_hd__xor2_2
*I *1865:Y O *D sky130_fd_sc_hd__o21ai_2
*CAP
1 *1866:B 0.000513234
2 *2068:A 0.000531339
3 *1865:Y 0
4 *253:4 0.00104457
5 *1865:A1 *2068:A 5.50106e-05
6 *224:16 *2068:A 1.41129e-05
7 *227:12 *2068:A 0.0002263
8 *243:12 *1866:B 3.22879e-05
9 *243:12 *2068:A 7.53384e-06
10 *243:21 *1866:B 0.000289669
*RES
1 *1865:Y *253:4 23 
2 *253:4 *2068:A 32.6736 
3 *253:4 *1866:B 33.6471 
*END

*D_NET *254 0.000961285
*CONN
*I *1867:B I *D sky130_fd_sc_hd__nand2_4
*I *1868:D I *D sky130_fd_sc_hd__nand4_4
*I *1866:Y O *D sky130_fd_sc_hd__nor2_2
*CAP
1 *1867:B 0
2 *1868:D 0
3 *1866:Y 0.000240546
4 *254:19 0.000240097
5 *254:6 0.000480642
6 *254:19 *255:12 0
7 *1858:A2 *254:19 0
8 *1868:C *254:19 0
9 *217:21 *254:19 0
10 *222:10 *254:19 0
*RES
1 *1866:Y *254:6 26.9564 
2 *254:6 *1868:D 23 
3 *254:6 *254:19 34.4121 
4 *254:19 *1867:B 23 
*END

*D_NET *255 0.00229728
*CONN
*I *2071:A I *D sky130_fd_sc_hd__nand2_4
*I *2073:A2 I *D sky130_fd_sc_hd__a31o_4
*I *1867:Y O *D sky130_fd_sc_hd__nand2_4
*CAP
1 *2071:A 0
2 *2073:A2 0.000356233
3 *1867:Y 0.000145796
4 *255:12 0.000502029
5 *2073:A2 *2072:B 0
6 *2073:A2 *440:8 9.84851e-05
7 *2073:A2 *519:10 0
8 *1816:A1 *2073:A2 0.000103019
9 *2328:A *2073:A2 0.000377191
10 *177:23 *2073:A2 3.3123e-05
11 *198:18 *2073:A2 3.3577e-05
12 *217:10 *2073:A2 0.000138727
13 *217:21 *2073:A2 0.000122304
14 *217:21 *255:12 1.37246e-05
15 *246:23 *2073:A2 6.16531e-05
16 *246:38 *2073:A2 1.14452e-05
17 *246:38 *255:12 0.000133447
18 *251:25 *255:12 0.000166522
19 *254:19 *255:12 0
*RES
1 *1867:Y *255:12 41.8529 
2 *255:12 *2073:A2 48.3986 
3 *255:12 *2071:A 38 
*END

*D_NET *256 0.00121499
*CONN
*I *1874:C I *D sky130_fd_sc_hd__nand3_4
*I *1871:D I *D sky130_fd_sc_hd__nand4_2
*I *1868:Y O *D sky130_fd_sc_hd__nand4_4
*CAP
1 *1874:C 0.00029373
2 *1871:D 4.56369e-05
3 *1868:Y 0.000146829
4 *256:8 0.000486196
5 *1871:D *257:8 9.84851e-05
6 *1869:B *256:8 0
7 *167:40 *256:8 0.00014411
8 *208:12 *256:8 0
9 *217:21 *256:8 0
10 *247:12 *1874:C 0
*RES
1 *1868:Y *256:8 40.9621 
2 *256:8 *1871:D 39.0979 
3 *256:8 *1874:C 43.365 
*END

*D_NET *257 0.000633848
*CONN
*I *1871:B I *D sky130_fd_sc_hd__nand4_2
*I *1869:Y O *D sky130_fd_sc_hd__nand3_2
*CAP
1 *1871:B 0
2 *1869:Y 0.000267682
3 *257:8 0.000267682
4 *1871:D *257:8 9.84851e-05
*RES
1 *1869:Y *257:8 27.93 
2 *257:8 *1871:B 23 
*END

*D_NET *258 0.00822279
*CONN
*I *1966:A2 I *D sky130_fd_sc_hd__o211ai_4
*I *2024:A1 I *D sky130_fd_sc_hd__o211ai_4
*I *1875:A2 I *D sky130_fd_sc_hd__o21bai_4
*I *1870:Y O *D sky130_fd_sc_hd__o21bai_4
*CAP
1 *1966:A2 0.000670925
2 *2024:A1 4.56369e-05
3 *1875:A2 3.78039e-05
4 *1870:Y 0
5 *258:23 0.0011031
6 *258:12 0.000678248
7 *258:10 0.00172277
8 *258:6 0.00146886
9 *1966:A2 *1966:A1 0.00042668
10 *1966:A2 *1966:C1 0
11 *1966:A2 *262:21 2.76611e-06
12 *1966:A2 *346:8 0
13 *1966:A2 *397:8 0
14 *2024:A1 *1966:A1 9.84851e-05
15 *258:10 *2089:A 0
16 *258:10 *259:10 0.000114656
17 *258:10 *259:22 0
18 *258:10 *262:8 0
19 *258:10 *262:21 0
20 *258:10 *449:8 0.000133494
21 *258:10 *574:16 0
22 *258:10 *607:35 0
23 *258:10 *607:41 0
24 *258:12 *1875:A1 1.94812e-05
25 *258:23 *261:12 0.000537055
26 *258:23 *262:21 0.000363407
27 *2095:B1 *258:10 1.37246e-05
28 *2135:D *258:10 0.000151517
29 *112:33 *258:10 0
30 *125:10 *258:10 0.000164282
31 *128:23 *258:10 0.000218962
32 *133:10 *258:10 0
33 *134:14 *258:10 4.98399e-06
34 *135:10 *258:10 8.09007e-05
35 *135:30 *258:10 0.000165049
36 *136:10 *258:10 0
37 *205:10 *258:10 0
*RES
1 *1870:Y *258:6 38 
2 *258:6 *258:10 46.1336 
3 *258:10 *258:12 4.43286 
4 *258:12 *1875:A2 23.6214 
5 *258:12 *258:23 28.8786 
6 *258:23 *2024:A1 39.0979 
7 *258:23 *1966:A2 49.4136 
*END

*D_NET *259 0.00240919
*CONN
*I *2089:A I *D sky130_fd_sc_hd__nand2_2
*I *2091:B1 I *D sky130_fd_sc_hd__a32o_2
*I *2090:B I *D sky130_fd_sc_hd__xor2_2
*I *1871:Y O *D sky130_fd_sc_hd__nand4_2
*CAP
1 *2089:A 0.000212649
2 *2091:B1 1.54349e-05
3 *2090:B 0.000292545
4 *1871:Y 0.000400743
5 *259:22 0.000520629
6 *259:10 0.000400743
7 *2089:A *453:121 5.41288e-05
8 *2089:A *542:39 6.10809e-05
9 *2089:A *607:35 0
10 *2091:B1 *450:6 9.9231e-06
11 *259:22 *542:39 0.00021673
12 *259:22 *607:41 0
13 *1871:A *259:10 9.84794e-05
14 *1874:A *259:10 0
15 *135:10 *259:10 1.14452e-05
16 *258:10 *2089:A 0
17 *258:10 *259:10 0.000114656
18 *258:10 *259:22 0
*RES
1 *1871:Y *259:10 46.3479 
2 *259:10 *2090:B 15 
3 *2090:B *259:22 20.4271 
4 *259:22 *2091:B1 38.233 
5 *259:22 *2089:A 42.06 
*END

*D_NET *260 0.000589001
*CONN
*I *1875:B1_N I *D sky130_fd_sc_hd__o21bai_4
*I *1872:X O *D sky130_fd_sc_hd__o2bb2a_2
*CAP
1 *1875:B1_N 0
2 *1872:X 0.000186584
3 *260:10 0.000186584
4 *260:10 *261:12 0
5 *260:10 *473:14 0.000171906
6 *260:10 *607:31 4.39278e-05
*RES
1 *1872:X *260:10 41.8321 
2 *260:10 *1875:B1_N 38 
*END

*D_NET *261 0.00366343
*CONN
*I *2024:B1 I *D sky130_fd_sc_hd__o211ai_4
*I *1966:C1 I *D sky130_fd_sc_hd__o211ai_4
*I *1873:X O *D sky130_fd_sc_hd__a2bb2o_2
*CAP
1 *2024:B1 2.47039e-05
2 *1966:C1 0.000265123
3 *1873:X 8.06872e-05
4 *261:12 0.00110944
5 *261:8 0.000900302
6 *1966:C1 *1966:A1 0.000213862
7 *2024:B1 *1966:A1 5.50106e-05
8 *261:12 *262:8 0
9 *261:12 *262:21 0
10 *261:12 *399:10 0.000138727
11 *261:12 *473:14 0
12 *1872:A2_N *261:12 8.4047e-05
13 *1872:B2 *261:12 0.000187986
14 *1873:B1 *261:8 1.14762e-05
15 *1966:A2 *1966:C1 0
16 *113:34 *261:12 0
17 *129:10 *261:8 5.50106e-05
18 *258:23 *261:12 0.000537055
19 *260:10 *261:12 0
*RES
1 *1873:X *261:8 39.0979 
2 *261:8 *261:12 33.8086 
3 *261:12 *1966:C1 28.4271 
4 *261:12 *2024:B1 23.6214 
*END

*D_NET *262 0.0065881
*CONN
*I *1966:A1 I *D sky130_fd_sc_hd__o211ai_4
*I *2024:A2 I *D sky130_fd_sc_hd__o211ai_4
*I *1875:A1 I *D sky130_fd_sc_hd__o21bai_4
*I *1874:Y O *D sky130_fd_sc_hd__nand3_4
*CAP
1 *1966:A1 0.000300113
2 *2024:A2 0
3 *1875:A1 4.72659e-05
4 *1874:Y 0
5 *262:21 0.000879653
6 *262:8 0.00161833
7 *262:6 0.00099152
8 *1966:A1 *400:6 0.00010018
9 *262:21 *397:8 0.000197479
10 *1872:B1 *262:8 0.00021356
11 *1872:B2 *262:8 0
12 *1966:A2 *1966:A1 0.00042668
13 *1966:A2 *262:21 2.76611e-06
14 *1966:C1 *1966:A1 0.000213862
15 *2024:A1 *1966:A1 9.84851e-05
16 *2024:B1 *1966:A1 5.50106e-05
17 *112:14 *262:8 0
18 *112:33 *262:8 0.000137788
19 *125:24 *262:8 0.000648933
20 *130:12 *262:8 0
21 *133:29 *262:8 0.00015795
22 *134:14 *262:8 5.11935e-06
23 *135:10 *262:8 0.000110521
24 *258:10 *262:8 0
25 *258:10 *262:21 0
26 *258:12 *1875:A1 1.94812e-05
27 *258:23 *262:21 0.000363407
28 *261:12 *262:8 0
29 *261:12 *262:21 0
*RES
1 *1874:Y *262:6 38 
2 *262:6 *262:8 21.2736 
3 *262:8 *1875:A1 38.6214 
4 *262:8 *262:21 29.935 
5 *262:21 *2024:A2 23 
6 *262:21 *1966:A1 33.1707 
*END

*D_NET *263 0.00716438
*CONN
*I *1920:B1 I *D sky130_fd_sc_hd__o22ai_4
*I *2325:A I *D sky130_fd_sc_hd__buf_2
*I *2324:A I *D sky130_fd_sc_hd__buf_2
*I *2322:A I *D sky130_fd_sc_hd__buf_4
*I *1883:A2 I *D sky130_fd_sc_hd__a21bo_2
*I *1875:Y O *D sky130_fd_sc_hd__o21bai_4
*CAP
1 *1920:B1 0
2 *2325:A 0.000302629
3 *2324:A 0
4 *2322:A 4.01156e-05
5 *1883:A2 0
6 *1875:Y 0.00132877
7 *263:45 0.000786934
8 *263:32 0.000578465
9 *263:21 0.000676555
10 *263:12 0.000632472
11 *263:6 0.00141896
12 *2322:A *269:22 0
13 *2325:A *1920:B2 0.000234606
14 *2325:A *2294:A 2.02517e-05
15 *2325:A *2305:A 5.50106e-05
16 *263:6 *499:10 0.000107001
17 *263:21 *269:22 0.00015918
18 *263:21 *278:6 2.94414e-05
19 *263:32 *1885:B 0.000167452
20 *263:32 *301:12 0
21 *263:32 *492:23 1.37349e-05
22 *263:32 *510:8 5.80963e-05
23 *263:45 *2305:A 0
24 *263:45 *299:8 0
25 *263:45 *301:12 0
26 *263:45 *302:10 0
27 *263:45 *492:23 0.000133656
28 *1892:A *263:21 9.84794e-05
29 *1892:C_N *263:21 2.4754e-05
30 *106:37 *263:12 0.000171906
31 *106:50 *263:12 1.14452e-05
32 *108:27 *2322:A 0
33 *108:27 *263:21 8.53622e-05
34 *108:40 *263:21 2.91057e-05
*RES
1 *1875:Y *263:6 46.0136 
2 *263:6 *263:12 32.2579 
3 *263:12 *1883:A2 23 
4 *263:12 *263:21 10.0464 
5 *263:21 *2322:A 23.8493 
6 *263:21 *263:32 17.61 
7 *263:32 *2324:A 38 
8 *263:32 *263:45 23.8657 
9 *263:45 *2325:A 29.38 
10 *263:45 *1920:B1 23 
*END

*D_NET *264 0.000103102
*CONN
*I *1879:A I *D sky130_fd_sc_hd__nand3_2
*I *1877:X O *D sky130_fd_sc_hd__or2_4
*CAP
1 *1879:A 1.29606e-05
2 *1877:X 1.29606e-05
3 *1879:A *459:14 1.92253e-05
4 *1879:A *597:6 5.79559e-05
*RES
1 *1877:X *1879:A 46.6214 
*END

*D_NET *265 0.000481014
*CONN
*I *1879:B I *D sky130_fd_sc_hd__nand3_2
*I *1878:Y O *D sky130_fd_sc_hd__nand2_2
*CAP
1 *1879:B 0.000150873
2 *1878:Y 0.000150873
3 *1879:B *1878:A 7.71928e-05
4 *1879:B *1879:C 3.98484e-05
5 *1879:B *459:99 5.11621e-05
6 *1879:B *575:6 1.10658e-05
*RES
1 *1878:Y *1879:B 49.5214 
*END

*D_NET *266 0.00361949
*CONN
*I *1917:A I *D sky130_fd_sc_hd__nand3_2
*I *1894:A2 I *D sky130_fd_sc_hd__a21bo_2
*I *1882:A I *D sky130_fd_sc_hd__nand2_2
*I *1879:Y O *D sky130_fd_sc_hd__nand3_2
*CAP
1 *1917:A 0.000294403
2 *1894:A2 4.70923e-05
3 *1882:A 0
4 *1879:Y 0.000100655
5 *266:29 0.000627464
6 *266:14 0.00041601
7 *266:8 0.000230697
8 *1894:A2 *462:14 2.02872e-05
9 *1894:A2 *545:21 3.3577e-05
10 *1917:A *273:16 0.000353638
11 *1917:A *274:36 3.64447e-05
12 *1917:A *279:8 6.43873e-05
13 *1917:A *301:12 5.94125e-05
14 *1917:A *510:8 3.58196e-05
15 *266:8 *2098:A 5.24877e-05
16 *266:8 *460:52 0.00013866
17 *266:8 *597:14 6.48049e-05
18 *266:14 *1882:B 5.47983e-06
19 *266:14 *1887:B 7.86509e-06
20 *266:14 *268:6 4.96303e-05
21 *266:14 *268:19 4.18667e-05
22 *266:29 *1887:B 4.35228e-05
23 *266:29 *1894:B1_N 0.000229038
24 *266:29 *268:19 9.60524e-05
25 *266:29 *510:8 3.82956e-05
26 *266:29 *586:6 0.000116278
27 *266:29 *586:16 5.48411e-05
28 *105:24 *1894:A2 5.3304e-05
29 *105:24 *266:29 0.000166522
30 *106:8 *1917:A 0.000140949
*RES
1 *1879:Y *266:8 40.61 
2 *266:8 *266:14 17.5479 
3 *266:14 *1882:A 23 
4 *266:14 *266:29 23.12 
5 *266:29 *1894:A2 39.0979 
6 *266:29 *1917:A 45.4157 
*END

*D_NET *267 0.00204881
*CONN
*I *1881:B1 I *D sky130_fd_sc_hd__o21ai_2
*I *1880:Y O *D sky130_fd_sc_hd__a21oi_2
*CAP
1 *1881:B1 0.000282415
2 *1880:Y 0.000228263
3 *267:8 0.000510677
4 *1881:B1 *458:16 6.40241e-05
5 *1881:B1 *458:22 6.68311e-05
6 *1881:B1 *476:33 7.45536e-05
7 *1881:B1 *544:12 8.51329e-05
8 *1881:B1 *547:8 0.000187996
9 *1881:B1 *547:12 0.00014034
10 *267:8 *459:39 0.000188063
11 *267:8 *459:55 0.000139357
12 *267:8 *597:14 5.79559e-05
13 *231:29 *267:8 2.32004e-05
*RES
1 *1880:Y *267:8 42.9093 
2 *267:8 *1881:B1 45.54 
*END

*D_NET *268 0.00313241
*CONN
*I *1894:B1_N I *D sky130_fd_sc_hd__a21bo_2
*I *1893:A I *D sky130_fd_sc_hd__nand3_2
*I *1882:B I *D sky130_fd_sc_hd__nand2_2
*I *1881:Y O *D sky130_fd_sc_hd__o21ai_2
*CAP
1 *1894:B1_N 0.000253221
2 *1893:A 2.38488e-05
3 *1882:B 2.13128e-05
4 *1881:Y 0.000163688
5 *268:19 0.000443759
6 *268:6 0.00035169
7 *1893:A *278:27 2.24366e-06
8 *1894:B1_N *279:8 0.00016401
9 *1894:B1_N *462:14 3.40549e-05
10 *1894:B1_N *545:21 2.05015e-05
11 *268:6 *453:20 0.000191826
12 *268:6 *459:8 0.00023274
13 *268:6 *586:6 0.000662954
14 *268:19 *586:6 0.000144494
15 *266:14 *1882:B 5.47983e-06
16 *266:14 *268:6 4.96303e-05
17 *266:14 *268:19 4.18667e-05
18 *266:29 *1894:B1_N 0.000229038
19 *266:29 *268:19 9.60524e-05
*RES
1 *1881:Y *268:6 30.2914 
2 *268:6 *1882:B 23.4971 
3 *268:6 *268:19 19.0082 
4 *268:19 *1893:A 38.6732 
5 *268:19 *1894:B1_N 43.0336 
*END

*D_NET *269 0.00530644
*CONN
*I *1892:B I *D sky130_fd_sc_hd__or3b_4
*I *1915:A_N I *D sky130_fd_sc_hd__nand4b_4
*I *1884:A I *D sky130_fd_sc_hd__xor2_2
*I *1882:Y O *D sky130_fd_sc_hd__nand2_2
*CAP
1 *1892:B 0
2 *1915:A_N 0.000230439
3 *1884:A 0.000303515
4 *1882:Y 0.000635563
5 *269:22 0.000721876
6 *269:12 0.000654717
7 *269:8 0.00110236
8 *1884:A *580:12 5.41385e-05
9 *1915:A_N *270:8 0
10 *1915:A_N *298:8 0.000181131
11 *1915:A_N *492:23 0.000105072
12 *269:8 *1887:A 3.85753e-05
13 *269:8 *273:10 2.93747e-05
14 *269:8 *586:6 0.000313185
15 *269:12 *2104:A 0
16 *269:12 *462:14 0.000149423
17 *269:12 *492:23 0
18 *269:12 *586:27 0
19 *269:22 *270:8 0
20 *269:22 *492:23 9.88678e-05
21 *1892:A *269:22 5.50049e-05
22 *1892:C_N *269:22 9.84794e-05
23 *2322:A *269:22 0
24 *106:37 *269:12 0
25 *107:8 *269:12 0.000138718
26 *108:10 *269:12 0.000111253
27 *108:27 *269:22 0.000125571
28 *263:21 *269:22 0.00015918
*RES
1 *1882:Y *269:8 46.7207 
2 *269:8 *269:12 25.3571 
3 *269:12 *269:22 20.7793 
4 *269:22 *1884:A 43.3857 
5 *269:22 *1915:A_N 43.0129 
6 *269:12 *1892:B 23 
*END

*D_NET *270 0.000294572
*CONN
*I *1884:B I *D sky130_fd_sc_hd__xor2_2
*I *1883:X O *D sky130_fd_sc_hd__a21bo_2
*CAP
1 *1884:B 0
2 *1883:X 0.00010523
3 *270:8 0.00010523
4 *1915:A_N *270:8 0
5 *108:40 *270:8 8.41115e-05
6 *269:22 *270:8 0
*RES
1 *1883:X *270:8 40.2579 
2 *270:8 *1884:B 15 
*END

*D_NET *271 0.00418182
*CONN
*I *1889:A1 I *D sky130_fd_sc_hd__o21ba_2
*I *1890:A1 I *D sky130_fd_sc_hd__o21bai_2
*I *1888:A_N I *D sky130_fd_sc_hd__nand3b_4
*I *1885:Y O *D sky130_fd_sc_hd__nor2_4
*CAP
1 *1889:A1 0
2 *1890:A1 0
3 *1888:A_N 0.000406899
4 *1885:Y 0.00069244
5 *271:18 0.000498268
6 *271:14 0.00078381
7 *1888:A_N *1886:A 0.000267167
8 *1888:A_N *1889:A2 6.07611e-06
9 *1888:A_N *272:10 7.03766e-05
10 *1888:A_N *273:16 3.98818e-05
11 *1888:A_N *570:18 4.58924e-05
12 *271:14 *1885:A 0.000330074
13 *271:14 *1906:A 0.000230604
14 *271:14 *275:10 5.12328e-05
15 *271:14 *277:10 0.000439364
16 *271:14 *580:12 0.000116064
17 *271:14 *582:10 2.30292e-05
18 *271:18 *1889:A2 0.000107548
19 *271:18 *570:18 7.30978e-05
*RES
1 *1885:Y *271:14 38.7221 
2 *271:14 *271:18 17.9621 
3 *271:18 *1888:A_N 45.1879 
4 *271:18 *1890:A1 38 
5 *271:14 *1889:A1 23 
*END

*D_NET *272 0.00123856
*CONN
*I *1889:A2 I *D sky130_fd_sc_hd__o21ba_2
*I *1890:A2 I *D sky130_fd_sc_hd__o21bai_2
*I *1886:X O *D sky130_fd_sc_hd__and2_2
*CAP
1 *1889:A2 9.40495e-05
2 *1890:A2 0
3 *1886:X 0.000227082
4 *272:10 0.000321132
5 *1889:A2 *1889:B1_N 0.000107548
6 *1889:A2 *570:16 4.21594e-06
7 *1889:A2 *570:18 0
8 *272:10 *1886:A 0.000228001
9 *272:10 *1889:B1_N 4.6318e-06
10 *272:10 *455:19 6.79006e-05
11 *1888:A_N *1889:A2 6.07611e-06
12 *1888:A_N *272:10 7.03766e-05
13 *73:10 *1889:A2 0
14 *271:18 *1889:A2 0.000107548
*RES
1 *1886:X *272:10 42.4329 
2 *272:10 *1890:A2 38 
3 *272:10 *1889:A2 41.3143 
*END

*D_NET *273 0.00439472
*CONN
*I *1888:B I *D sky130_fd_sc_hd__nand3b_4
*I *1887:Y O *D sky130_fd_sc_hd__nand2_2
*CAP
1 *1888:B 0
2 *1887:Y 0.000243564
3 *273:16 0.000906875
4 *273:10 0.00115044
5 *273:10 *1885:B 0.000101708
6 *273:10 *1887:A 5.67058e-05
7 *273:10 *1887:B 0.000482051
8 *273:10 *510:8 7.0907e-05
9 *273:10 *586:16 0.000145227
10 *273:16 *1886:A 5.47927e-05
11 *273:16 *1896:A 0.000183502
12 *273:16 *274:36 5.23583e-05
13 *273:16 *301:8 0.000271906
14 *273:16 *581:10 1.94693e-05
15 *1888:A_N *273:16 3.98818e-05
16 *1917:A *273:16 0.000353638
17 *105:30 *273:10 0.000219882
18 *106:26 *273:16 1.24376e-05
19 *269:8 *273:10 2.93747e-05
*RES
1 *1887:Y *273:10 46.5136 
2 *273:10 *273:16 32.1929 
3 *273:16 *1888:B 23 
*END

*D_NET *274 0.0060162
*CONN
*I *1904:B1 I *D sky130_fd_sc_hd__o21a_2
*I *1916:C1 I *D sky130_fd_sc_hd__o211a_2
*I *1917:B I *D sky130_fd_sc_hd__nand3_2
*I *1914:D I *D sky130_fd_sc_hd__and4_2
*I *1891:A I *D sky130_fd_sc_hd__nand2_2
*I *1888:Y O *D sky130_fd_sc_hd__nand3b_4
*CAP
1 *1904:B1 0.000296892
2 *1916:C1 0.000221823
3 *1917:B 0
4 *1914:D 0
5 *1891:A 0
6 *1888:Y 0.000223004
7 *274:36 0.000700766
8 *274:28 0.000922588
9 *274:26 0.000611675
10 *274:19 0.000368836
11 *274:8 0.000277057
12 *1904:B1 *298:8 9.72185e-05
13 *1904:B1 *580:20 0.00018304
14 *1916:C1 *1885:A 6.16531e-05
15 *1916:C1 *285:37 5.3304e-05
16 *1916:C1 *288:8 0
17 *1916:C1 *463:20 0.000228971
18 *274:8 *277:10 0
19 *274:8 *288:8 0
20 *274:8 *463:83 0.000404047
21 *274:8 *521:8 0
22 *274:8 *570:18 0
23 *274:8 *581:10 5.50955e-05
24 *274:19 *288:8 0
25 *274:19 *463:83 0.000132665
26 *274:19 *582:10 8.62783e-05
27 *274:26 *580:20 0.00043937
28 *274:36 *1885:A 0.000167443
29 *274:36 *1896:A 0.000187403
30 *274:36 *277:10 9.3813e-05
31 *274:36 *280:21 0
32 *274:36 *288:8 0
33 *274:36 *290:10 0
34 *274:36 *459:116 0.000111852
35 *1917:A *274:36 3.64447e-05
36 *74:10 *274:8 2.60807e-06
37 *273:16 *274:36 5.23583e-05
*RES
1 *1888:Y *274:8 44.1314 
2 *274:8 *1891:A 38 
3 *274:8 *274:19 16.9057 
4 *274:19 *1914:D 23 
5 *274:19 *274:26 4.90929 
6 *274:26 *274:28 15 
7 *274:28 *274:36 27.5943 
8 *274:36 *1917:B 23 
9 *274:28 *1916:C1 42.64 
10 *274:26 *1904:B1 27.9507 
*END

*D_NET *275 0.00413237
*CONN
*I *1918:A I *D sky130_fd_sc_hd__nor2_2
*I *1916:A1 I *D sky130_fd_sc_hd__o211a_2
*I *1904:A1 I *D sky130_fd_sc_hd__o21a_2
*I *1889:X O *D sky130_fd_sc_hd__o21ba_2
*CAP
1 *1918:A 0.000106599
2 *1916:A1 4.03238e-05
3 *1904:A1 4.95399e-05
4 *1889:X 0.000384885
5 *275:35 0.000382721
6 *275:22 0.000535625
7 *275:10 0.000635173
8 *1904:A1 *280:21 1.27928e-05
9 *1916:A1 *1916:A2 8.36399e-05
10 *1918:A *286:12 1.14452e-05
11 *1918:A *300:10 8.15327e-05
12 *1918:A *302:10 0
13 *275:10 *1889:B1_N 1.94693e-05
14 *275:10 *1914:B 4.08641e-05
15 *275:10 *285:8 6.07611e-06
16 *275:10 *463:83 1.27508e-05
17 *275:10 *570:16 4.23817e-05
18 *275:22 *1899:A 0.000490274
19 *275:22 *1914:C 5.3304e-05
20 *275:22 *298:8 0.000571759
21 *275:22 *492:23 0.000256809
22 *275:22 *580:20 0.000102051
23 *275:35 *1916:A2 0.000150977
24 *275:35 *280:21 1.01436e-05
25 *271:14 *275:10 5.12328e-05
*RES
1 *1889:X *275:10 43.8621 
2 *275:10 *275:22 40.3364 
3 *275:22 *1904:A1 38.8493 
4 *275:22 *275:35 3.70786 
5 *275:35 *1916:A1 38.9218 
6 *275:35 *1918:A 40.61 
*END

*D_NET *276 0.00131346
*CONN
*I *1914:B I *D sky130_fd_sc_hd__and4_2
*I *1891:B I *D sky130_fd_sc_hd__nand2_2
*I *1890:Y O *D sky130_fd_sc_hd__o21bai_2
*CAP
1 *1914:B 5.91862e-05
2 *1891:B 0
3 *1890:Y 0.000361271
4 *276:10 0.000420457
5 *1914:B *463:83 0.00014411
6 *1914:B *570:16 0
7 *276:10 *463:83 0.000191166
8 *276:10 *570:18 9.64022e-05
9 *275:10 *1914:B 4.08641e-05
*RES
1 *1890:Y *276:10 44.5664 
2 *276:10 *1891:B 38 
3 *276:10 *1914:B 39.9057 
*END

*D_NET *277 0.00210674
*CONN
*I *1896:A I *D sky130_fd_sc_hd__xor2_2
*I *1905:A1 I *D sky130_fd_sc_hd__o31ai_4
*I *1891:Y O *D sky130_fd_sc_hd__nand2_2
*CAP
1 *1896:A 0.000225572
2 *1905:A1 0
3 *1891:Y 0.000345528
4 *277:10 0.000571101
5 *1896:A *281:10 3.70187e-05
6 *1896:A *459:116 2.34364e-05
7 *1896:A *521:8 0
8 *1896:A *581:10 0
9 *271:14 *277:10 0.000439364
10 *273:16 *1896:A 0.000183502
11 *274:8 *277:10 0
12 *274:36 *1896:A 0.000187403
13 *274:36 *277:10 9.3813e-05
*RES
1 *1891:Y *277:10 45.5193 
2 *277:10 *1905:A1 38 
3 *277:10 *1896:A 43.6343 
*END

*D_NET *278 0.00331142
*CONN
*I *1895:A1 I *D sky130_fd_sc_hd__o21a_2
*I *1905:A3 I *D sky130_fd_sc_hd__o31ai_4
*I *1892:X O *D sky130_fd_sc_hd__or3b_4
*CAP
1 *1895:A1 0
2 *1905:A3 0.000154605
3 *1892:X 0.000575084
4 *278:27 0.000437601
5 *278:6 0.00116729
6 *1905:A3 *290:10 4.9662e-05
7 *1905:A3 *506:8 2.7754e-05
8 *278:6 *290:10 5.22521e-05
9 *278:6 *506:8 9.22068e-05
10 *278:27 *1895:B1 0.000240985
11 *278:27 *280:21 0.000315259
12 *278:27 *460:52 7.60871e-06
13 *1892:C_N *278:6 5.70419e-05
14 *1893:A *278:27 2.24366e-06
15 *105:9 *278:27 0.000102389
16 *263:21 *278:6 2.94414e-05
*RES
1 *1892:X *278:6 30.7679 
2 *278:6 *1905:A3 25.4236 
3 *278:6 *278:27 39.4043 
4 *278:27 *1895:A1 23 
*END

*D_NET *279 0.00084689
*CONN
*I *1917:C I *D sky130_fd_sc_hd__nand3_2
*I *1893:Y O *D sky130_fd_sc_hd__nand3_2
*CAP
1 *1917:C 0
2 *1893:Y 0.000266724
3 *279:8 0.000266724
4 *279:8 *301:12 8.50457e-05
5 *1894:B1_N *279:8 0.00016401
6 *1917:A *279:8 6.43873e-05
*RES
1 *1893:Y *279:8 43.4271 
2 *279:8 *1917:C 38 
*END

*D_NET *280 0.00417628
*CONN
*I *1916:A2 I *D sky130_fd_sc_hd__o211a_2
*I *1904:A2 I *D sky130_fd_sc_hd__o21a_2
*I *1895:B1 I *D sky130_fd_sc_hd__o21a_2
*I *1894:X O *D sky130_fd_sc_hd__a21bo_2
*CAP
1 *1916:A2 0.000203608
2 *1904:A2 2.71092e-05
3 *1895:B1 0.000163391
4 *1894:X 5.78958e-05
5 *280:21 0.000957365
6 *280:8 0.000947934
7 *1895:B1 *460:52 9.91253e-05
8 *1904:A2 *298:8 9.91024e-05
9 *1904:A2 *492:23 9.64943e-05
10 *1916:A2 *1916:B1 3.85196e-05
11 *1916:A2 *1919:B1_N 0.000196595
12 *1916:A2 *300:10 6.17437e-06
13 *1916:A2 *301:12 0
14 *280:8 *462:14 2.95441e-05
15 *280:8 *545:21 0.000140935
16 *280:21 *289:10 0
17 *280:21 *290:10 0.000241355
18 *280:21 *301:12 0
19 *1904:A1 *280:21 1.27928e-05
20 *1916:A1 *1916:A2 8.36399e-05
21 *105:9 *1895:B1 5.73309e-05
22 *274:36 *280:21 0
23 *275:35 *1916:A2 0.000150977
24 *275:35 *280:21 1.01436e-05
25 *278:27 *1895:B1 0.000240985
26 *278:27 *280:21 0.000315259
*RES
1 *1894:X *280:8 39.5743 
2 *280:8 *1895:B1 41.9357 
3 *280:8 *280:21 11.4136 
4 *280:21 *1904:A2 39.0979 
5 *280:21 *1916:A2 42.8057 
*END

*D_NET *281 0.00145869
*CONN
*I *1896:B I *D sky130_fd_sc_hd__xor2_2
*I *1895:X O *D sky130_fd_sc_hd__o21a_2
*CAP
1 *1896:B 0
2 *1895:X 0.000478207
3 *281:10 0.000478207
4 *281:10 *459:116 0.000369939
5 *281:10 *521:8 0
6 *1896:A *281:10 3.70187e-05
7 *105:9 *281:10 9.53225e-05
*RES
1 *1895:X *281:10 46.555 
2 *281:10 *1896:B 15 
*END

*D_NET *282 0.00109444
*CONN
*I *1901:A1 I *D sky130_fd_sc_hd__o21ba_2
*I *1902:A1 I *D sky130_fd_sc_hd__o21bai_2
*I *1900:A_N I *D sky130_fd_sc_hd__nand3b_2
*I *1897:Y O *D sky130_fd_sc_hd__nor2_2
*CAP
1 *1901:A1 0
2 *1902:A1 0
3 *1900:A_N 0.000209234
4 *1897:Y 4.24511e-05
5 *282:10 0.000310111
6 *282:6 0.000143328
7 *1900:A_N *1899:B 5.10297e-05
8 *1900:A_N *2270:A 0.00010018
9 *1900:A_N *283:14 6.07611e-06
10 *1900:A_N *570:16 2.12347e-06
11 *282:10 *1897:B 5.61414e-05
12 *282:10 *1899:B 1.7992e-05
13 *282:10 *283:14 0.000107641
14 *11:15 *1900:A_N 4.81278e-05
*RES
1 *1897:Y *282:6 23.6214 
2 *282:6 *282:10 17.9621 
3 *282:10 *1900:A_N 42.4743 
4 *282:10 *1902:A1 38 
5 *282:6 *1901:A1 23 
*END

*D_NET *283 0.000990471
*CONN
*I *1902:A2 I *D sky130_fd_sc_hd__o21bai_2
*I *1901:A2 I *D sky130_fd_sc_hd__o21ba_2
*I *1898:X O *D sky130_fd_sc_hd__and2_2
*CAP
1 *1902:A2 0
2 *1901:A2 0
3 *1898:X 7.47711e-05
4 *283:14 0.000112429
5 *283:8 0.0001872
6 *283:8 *1898:B 0
7 *283:8 *463:83 7.05498e-05
8 *283:8 *546:6 0.000182826
9 *283:14 *1897:B 0
10 *1900:A_N *283:14 6.07611e-06
11 *11:15 *283:14 0.000248979
12 *282:10 *283:14 0.000107641
*RES
1 *1898:X *283:8 25.5479 
2 *283:8 *283:14 33.3143 
3 *283:14 *1901:A2 23 
4 *283:8 *1902:A2 23 
*END

*D_NET *284 0.000572555
*CONN
*I *1900:B I *D sky130_fd_sc_hd__nand3b_2
*I *1899:Y O *D sky130_fd_sc_hd__nand2_2
*CAP
1 *1900:B 0
2 *1899:Y 0.000126601
3 *284:8 0.000126601
4 *284:8 *1900:C 1.14452e-05
5 *284:8 *1914:A 0.000191157
6 *284:8 *285:8 9.20311e-06
7 *284:8 *570:16 0.000107548
*RES
1 *1899:Y *284:8 40.9621 
2 *284:8 *1900:B 38 
*END

*D_NET *285 0.00222781
*CONN
*I *1916:B1 I *D sky130_fd_sc_hd__o211a_2
*I *1919:B1_N I *D sky130_fd_sc_hd__a21boi_2
*I *1903:A I *D sky130_fd_sc_hd__nand2_2
*I *1914:C I *D sky130_fd_sc_hd__and4_2
*I *1900:Y O *D sky130_fd_sc_hd__nand3b_2
*CAP
1 *1916:B1 3.77161e-06
2 *1919:B1_N 0.000191088
3 *1903:A 0
4 *1914:C 1.9139e-05
5 *1900:Y 0.000217872
6 *285:37 0.000494901
7 *285:26 0.000434508
8 *285:8 0.000102544
9 *1914:C *580:20 5.50049e-05
10 *1919:B1_N *300:10 1.46286e-05
11 *285:8 *1914:A 6.93449e-05
12 *285:8 *463:83 0.000191157
13 *285:8 *570:16 0
14 *285:26 *1903:B 5.50106e-05
15 *285:26 *2270:A 2.18409e-05
16 *1916:A2 *1916:B1 3.85196e-05
17 *1916:A2 *1919:B1_N 0.000196595
18 *1916:C1 *285:37 5.3304e-05
19 *275:10 *285:8 6.07611e-06
20 *275:22 *1914:C 5.3304e-05
21 *284:8 *285:8 9.20311e-06
*RES
1 *1900:Y *285:8 40.61 
2 *285:8 *1914:C 38.6214 
3 *1900:Y *285:26 25.5479 
4 *285:26 *1903:A 23 
5 *285:26 *285:37 5.55143 
6 *285:37 *1919:B1_N 26.9979 
7 *285:37 *1916:B1 23.4971 
*END

*D_NET *286 0.0033807
*CONN
*I *1920:A1 I *D sky130_fd_sc_hd__o22ai_4
*I *1918:B I *D sky130_fd_sc_hd__nor2_2
*I *1901:X O *D sky130_fd_sc_hd__o21ba_2
*CAP
1 *1920:A1 0.000131317
2 *1918:B 0
3 *1901:X 0.000748013
4 *286:12 0.000363002
5 *286:8 0.000979697
6 *1920:A1 *1920:A2 0.000188934
7 *286:8 *587:8 0.000919564
8 *286:12 *300:10 1.14452e-05
9 *286:12 *304:8 0
10 *286:12 *327:8 2.72789e-05
11 *1918:A *286:12 1.14452e-05
*RES
1 *1901:X *286:8 49.5793 
2 *286:8 *286:12 19.0186 
3 *286:12 *1918:B 23 
4 *286:12 *1920:A1 26.0243 
*END

*D_NET *287 0.00139392
*CONN
*I *1903:B I *D sky130_fd_sc_hd__nand2_2
*I *1914:A I *D sky130_fd_sc_hd__and4_2
*I *1902:Y O *D sky130_fd_sc_hd__o21bai_2
*CAP
1 *1903:B 7.63663e-05
2 *1914:A 8.70846e-05
3 *1902:Y 0.000132658
4 *287:10 0.000296109
5 *1903:B *2270:A 0.000182832
6 *1914:A *463:83 1.4471e-05
7 *287:10 *1900:C 6.96821e-05
8 *287:10 *1902:B1_N 5.50049e-05
9 *287:10 *463:83 0.000132114
10 *287:10 *546:6 1.41077e-05
11 *2227:A *287:10 1.79749e-05
12 *284:8 *1914:A 0.000191157
13 *285:8 *1914:A 6.93449e-05
14 *285:26 *1903:B 5.50106e-05
*RES
1 *1902:Y *287:10 41.3557 
2 *287:10 *1914:A 40.61 
3 *287:10 *1903:B 40.0507 
*END

*D_NET *288 0.00111282
*CONN
*I *1906:A I *D sky130_fd_sc_hd__xnor2_2
*I *1903:Y O *D sky130_fd_sc_hd__nand2_2
*CAP
1 *1906:A 8.9927e-05
2 *1903:Y 0.000300842
3 *288:8 0.000390768
4 *288:8 *582:10 0.00010068
5 *1916:C1 *288:8 0
6 *271:14 *1906:A 0.000230604
7 *274:8 *288:8 0
8 *274:19 *288:8 0
9 *274:36 *288:8 0
*RES
1 *1903:Y *288:8 43.4271 
2 *288:8 *1906:A 40.5271 
*END

*D_NET *289 0.00124718
*CONN
*I *1905:B1 I *D sky130_fd_sc_hd__o31ai_4
*I *1904:X O *D sky130_fd_sc_hd__o21a_2
*CAP
1 *1905:B1 0
2 *1904:X 0.000407331
3 *289:10 0.000407331
4 *289:10 *298:8 6.21002e-05
5 *289:10 *301:12 0.000370416
6 *280:21 *289:10 0
*RES
1 *1904:X *289:10 45.1257 
2 *289:10 *1905:B1 38 
*END

*D_NET *290 0.00132944
*CONN
*I *1906:B I *D sky130_fd_sc_hd__xnor2_2
*I *1905:Y O *D sky130_fd_sc_hd__o31ai_4
*CAP
1 *1906:B 5.05453e-05
2 *1905:Y 0.000216036
3 *290:10 0.000266581
4 *1906:B *1885:A 0.000188927
5 *1906:B *580:12 7.87147e-05
6 *290:10 *506:8 0.000185368
7 *1905:A3 *290:10 4.9662e-05
8 *274:36 *290:10 0
9 *278:6 *290:10 5.22521e-05
10 *280:21 *290:10 0.000241355
*RES
1 *1905:Y *290:10 43.365 
2 *290:10 *1906:B 40.0507 
*END

*D_NET *291 0.000474242
*CONN
*I *1910:A_N I *D sky130_fd_sc_hd__nand3b_4
*I *1911:A1 I *D sky130_fd_sc_hd__o21bai_4
*I *1907:Y O *D sky130_fd_sc_hd__nor2_2
*CAP
1 *1910:A_N 0
2 *1911:A1 0.000131139
3 *1907:Y 2.268e-05
4 *291:20 0.000108459
5 *1911:A1 *463:63 3.22879e-05
6 *291:20 *292:10 0.000138718
7 *291:20 *295:8 2.95125e-05
8 *291:20 *548:14 1.14452e-05
9 *291:20 *548:27 0
*RES
1 *1907:Y *1911:A1 46.6214 
2 *1911:A1 *291:20 40.61 
3 *291:20 *1910:A_N 38 
*END

*D_NET *292 0.000757905
*CONN
*I *1911:A2 I *D sky130_fd_sc_hd__o21bai_4
*I *1908:X O *D sky130_fd_sc_hd__and2_2
*CAP
1 *1911:A2 0
2 *1908:X 0.000201611
3 *292:10 0.000201611
4 *292:10 *295:8 0.000140958
5 *292:10 *304:42 1.79651e-05
6 *292:10 *548:14 5.70419e-05
7 *291:20 *292:10 0.000138718
*RES
1 *1908:X *292:10 41.9564 
2 *292:10 *1911:A2 38 
*END

*D_NET *293 0.00070021
*CONN
*I *1910:B I *D sky130_fd_sc_hd__nand3b_4
*I *1909:Y O *D sky130_fd_sc_hd__nand2_2
*CAP
1 *1910:B 0
2 *1909:Y 0.000194939
3 *293:10 0.000194939
4 *293:10 *1911:B1_N 1.14452e-05
5 *293:10 *487:10 0.000165294
6 *293:10 *570:16 0
7 *45:11 *293:10 5.91772e-05
8 *77:10 *293:10 7.4416e-05
*RES
1 *1909:Y *293:10 41.8321 
2 *293:10 *1910:B 38 
*END

*D_NET *294 0.00678203
*CONN
*I *1937:B1 I *D sky130_fd_sc_hd__o21ai_2
*I *2306:A I *D sky130_fd_sc_hd__buf_2
*I *1936:B1 I *D sky130_fd_sc_hd__o21a_2
*I *1934:B1 I *D sky130_fd_sc_hd__o2111a_4
*I *1910:Y O *D sky130_fd_sc_hd__nand3b_4
*CAP
1 *1937:B1 0.000153933
2 *2306:A 0.000309278
3 *1936:B1 0
4 *1934:B1 0
5 *1910:Y 0.000419046
6 *294:34 0.000599467
7 *294:23 0.000377906
8 *294:12 0.000241649
9 *294:10 0.000419046
10 *1937:B1 *1937:A1 0.000139865
11 *1937:B1 *307:25 4.8612e-05
12 *1937:B1 *311:12 0.000185104
13 *1937:B1 *311:18 3.47781e-05
14 *1937:B1 *466:18 2.31591e-05
15 *1937:B1 *490:10 4.06255e-05
16 *1937:B1 *490:16 9.77405e-05
17 *2306:A *1912:A 0
18 *2306:A *1930:A2 9.64943e-05
19 *2306:A *1930:B1 0.000100069
20 *2306:A *307:14 7.88828e-05
21 *2306:A *307:23 0.000274051
22 *2306:A *549:20 0.00022332
23 *2306:A *549:32 0.000268756
24 *294:10 *297:27 4.95442e-05
25 *294:10 *304:42 0.000443679
26 *294:10 *311:30 6.48049e-05
27 *294:10 *548:14 0
28 *294:23 *1934:A2 0.000491882
29 *294:23 *310:20 0.000117294
30 *294:23 *311:20 0.000532749
31 *294:23 *311:30 0.000121897
32 *294:34 *1934:A2 0.000146822
33 *294:34 *307:25 3.64246e-05
34 *294:34 *307:29 0.000188173
35 *294:34 *311:18 0.000346297
36 *294:34 *311:20 8.88657e-05
37 *294:34 *316:10 2.1819e-05
*RES
1 *1910:Y *294:10 45.1671 
2 *294:10 *294:12 15 
3 *294:12 *1934:B1 23 
4 *294:12 *294:23 8.88643 
5 *294:23 *1936:B1 23 
6 *294:23 *294:34 20.365 
7 *294:34 *2306:A 47.6943 
8 *294:34 *1937:B1 42.5364 
*END

*D_NET *295 0.00324469
*CONN
*I *1922:A2 I *D sky130_fd_sc_hd__a21o_2
*I *1912:B I *D sky130_fd_sc_hd__nand2_2
*I *1934:C1 I *D sky130_fd_sc_hd__o2111a_4
*I *1911:Y O *D sky130_fd_sc_hd__o21bai_4
*CAP
1 *1922:A2 0.000300898
2 *1912:B 0.000126019
3 *1934:C1 0.000177131
4 *1911:Y 0.000159931
5 *295:19 0.000515491
6 *295:8 0.000425636
7 *1922:A2 *1922:A1 0.000113293
8 *1922:A2 *1922:B1 4.00259e-06
9 *1922:A2 *305:10 5.50106e-05
10 *1922:A2 *311:30 0
11 *1922:A2 *489:12 0
12 *1922:A2 *549:32 0
13 *1922:A2 *570:16 0.000188256
14 *1934:C1 *1909:B 0.000140259
15 *1934:C1 *310:20 0.00010018
16 *295:8 *548:14 7.55892e-05
17 *295:8 *570:16 0.00046504
18 *295:19 *311:30 0
19 *295:19 *548:8 3.28979e-05
20 *295:19 *548:14 9.48381e-06
21 *295:19 *570:16 0.000185104
22 *291:20 *295:8 2.95125e-05
23 *292:10 *295:8 0.000140958
*RES
1 *1911:Y *295:8 44.1314 
2 *295:8 *1934:C1 41.9564 
3 *295:8 *295:19 2.61 
4 *295:19 *1912:B 40.0507 
5 *295:19 *1922:A2 44.6079 
*END

*D_NET *296 0.000860159
*CONN
*I *1913:A I *D sky130_fd_sc_hd__inv_2
*I *1912:Y O *D sky130_fd_sc_hd__nand2_2
*CAP
1 *1913:A 0
2 *1912:Y 0.000157745
3 *296:10 0.000157745
4 *296:10 *1931:A2 3.92407e-05
5 *296:10 *297:27 0.000218952
6 *296:10 *311:30 0.000187996
7 *296:10 *489:6 9.84794e-05
*RES
1 *1912:Y *296:10 42.5364 
2 *296:10 *1913:A 38 
*END

*D_NET *297 0.00372222
*CONN
*I *1948:A I *D sky130_fd_sc_hd__and3_2
*I *1921:A I *D sky130_fd_sc_hd__nand2_4
*I *1913:Y O *D sky130_fd_sc_hd__inv_2
*CAP
1 *1948:A 0
2 *1921:A 0.000189803
3 *1913:Y 0
4 *297:27 0.000868019
5 *297:4 0.00105782
6 *1921:A *1922:A1 9.84794e-05
7 *1921:A *1929:A1 0.000112249
8 *1921:A *549:32 0.000363836
9 *297:27 *304:42 7.86583e-05
10 *297:27 *307:14 3.97399e-05
11 *297:27 *311:30 0.000247886
12 *297:27 *311:52 1.97329e-05
13 *297:27 *317:10 0.000178227
14 *297:27 *463:14 0
15 *297:27 *463:52 2.46933e-05
16 *297:27 *484:8 8.06804e-06
17 *297:27 *548:14 0
18 *297:27 *549:32 0.000166513
19 *294:10 *297:27 4.95442e-05
20 *296:10 *297:27 0.000218952
*RES
1 *1913:Y *297:4 23 
2 *297:4 *1921:A 29.2764 
3 *297:4 *297:27 46.0121 
4 *297:27 *1948:A 23 
*END

*D_NET *298 0.00273433
*CONN
*I *1915:B I *D sky130_fd_sc_hd__nand4b_4
*I *1914:X O *D sky130_fd_sc_hd__and4_2
*CAP
1 *1915:B 0
2 *1914:X 0.000543197
3 *298:8 0.000543197
4 *298:8 *492:23 0.000348459
5 *298:8 *580:20 0.000288162
6 *1904:A2 *298:8 9.91024e-05
7 *1904:B1 *298:8 9.72185e-05
8 *1915:A_N *298:8 0.000181131
9 *1915:C *298:8 0
10 *275:22 *298:8 0.000571759
11 *289:10 *298:8 6.21002e-05
*RES
1 *1914:X *298:8 39.8407 
2 *298:8 *1915:B 23 
*END

*D_NET *299 0.00531138
*CONN
*I *2305:A I *D sky130_fd_sc_hd__buf_2
*I *2023:C I *D sky130_fd_sc_hd__nor3_4
*I *1965:B I *D sky130_fd_sc_hd__nor2_4
*I *1915:Y O *D sky130_fd_sc_hd__nand4b_4
*CAP
1 *2305:A 0.000156978
2 *2023:C 0.000162693
3 *1965:B 0
4 *1915:Y 0.000203065
5 *299:14 0.00162851
6 *299:8 0.00182586
7 *2023:C *2023:B 0.000277509
8 *299:8 *492:23 0
9 *299:14 *1965:A 5.90675e-06
10 *299:14 *2023:B 2.65879e-05
11 *299:14 *303:8 0.000575004
12 *299:14 *341:16 0.000394253
13 *2325:A *2305:A 5.50106e-05
14 *263:45 *2305:A 0
15 *263:45 *299:8 0
*RES
1 *1915:Y *299:8 41.6664 
2 *299:8 *299:14 38.3864 
3 *299:14 *1965:B 23 
4 *299:14 *2023:C 26.9564 
5 *299:8 *2305:A 40.5271 
*END

*D_NET *300 0.000959795
*CONN
*I *1920:A2 I *D sky130_fd_sc_hd__o22ai_4
*I *1916:X O *D sky130_fd_sc_hd__o211a_2
*CAP
1 *1920:A2 7.69581e-05
2 *1916:X 0.000134052
3 *300:10 0.00021101
4 *1920:A2 *302:10 0.00023506
5 *1916:A2 *300:10 6.17437e-06
6 *1918:A *300:10 8.15327e-05
7 *1919:B1_N *300:10 1.46286e-05
8 *1920:A1 *1920:A2 0.000188934
9 *286:12 *300:10 1.14452e-05
*RES
1 *1916:X *300:10 40.8793 
2 *300:10 *1920:A2 41.0036 
*END

*D_NET *301 0.00251705
*CONN
*I *1919:A1 I *D sky130_fd_sc_hd__a21boi_2
*I *1917:Y O *D sky130_fd_sc_hd__nand3_2
*CAP
1 *1919:A1 0
2 *1917:Y 0.000198092
3 *301:12 0.000586811
4 *301:8 0.000784903
5 *301:12 *302:10 3.92407e-05
6 *301:12 *510:8 0.000121222
7 *1916:A2 *301:12 0
8 *1917:A *301:12 5.94125e-05
9 *263:32 *301:12 0
10 *263:45 *301:12 0
11 *273:16 *301:8 0.000271906
12 *279:8 *301:12 8.50457e-05
13 *280:21 *301:12 0
14 *289:10 *301:12 0.000370416
*RES
1 *1917:Y *301:8 41.0036 
2 *301:8 *301:12 27.47 
3 *301:12 *1919:A1 23 
*END

*D_NET *302 0.000915367
*CONN
*I *1919:A2 I *D sky130_fd_sc_hd__a21boi_2
*I *1918:Y O *D sky130_fd_sc_hd__nor2_2
*CAP
1 *1919:A2 0
2 *1918:Y 0.000320533
3 *302:10 0.000320533
4 *1918:A *302:10 0
5 *1920:A2 *302:10 0.00023506
6 *263:45 *302:10 0
7 *301:12 *302:10 3.92407e-05
*RES
1 *1918:Y *302:10 43.6136 
2 *302:10 *1919:A2 38 
*END

*D_NET *303 0.00384626
*CONN
*I *1964:B2 I *D sky130_fd_sc_hd__o22ai_2
*I *1963:B2 I *D sky130_fd_sc_hd__o221a_4
*I *1919:Y O *D sky130_fd_sc_hd__a21boi_2
*CAP
1 *1964:B2 0
2 *1963:B2 0
3 *1919:Y 0.000668302
4 *303:24 0.000321105
5 *303:14 0.000690898
6 *303:8 0.0010381
7 *303:14 *341:16 0.000296721
8 *303:14 *342:10 4.21594e-06
9 *303:24 *336:21 0
10 *303:24 *341:10 0.000107641
11 *303:24 *341:16 1.83667e-05
12 *303:24 *342:10 0
13 *303:24 *344:8 7.09042e-05
14 *303:24 *344:18 5.50049e-05
15 *303:24 *509:24 0
16 *299:14 *303:8 0.000575004
*RES
1 *1919:Y *303:8 36.9821 
2 *303:8 *303:14 37.8921 
3 *303:14 *303:24 36.2143 
4 *303:24 *1963:B2 23 
5 *303:14 *1964:B2 23 
*END

*D_NET *304 0.00770693
*CONN
*I *1949:B I *D sky130_fd_sc_hd__nand2_4
*I *1922:B1 I *D sky130_fd_sc_hd__a21o_2
*I *1921:B I *D sky130_fd_sc_hd__nand2_4
*I *1935:A I *D sky130_fd_sc_hd__nand2_2
*I *1938:A1_N I *D sky130_fd_sc_hd__o2bb2ai_2
*I *1920:Y O *D sky130_fd_sc_hd__o22ai_4
*CAP
1 *1949:B 0
2 *1922:B1 0.000301458
3 *1921:B 0
4 *1935:A 0
5 *1938:A1_N 7.15458e-05
6 *1920:Y 0.000405584
7 *304:70 0.000336781
8 *304:42 0.00104089
9 *304:29 0.000866757
10 *304:12 0.000591814
11 *304:10 0.000729719
12 *304:8 0.000405584
13 *1922:B1 *1922:A1 0.0002263
14 *1922:B1 *570:16 6.16439e-05
15 *1922:B1 *584:8 1.4471e-05
16 *1938:A1_N *320:10 3.18142e-05
17 *1938:A1_N *484:16 1.3523e-05
18 *304:8 *1945:B1 0.000194327
19 *304:8 *1948:C 3.70094e-05
20 *304:8 *1961:A 3.70094e-05
21 *304:12 *1938:B2 0.000140935
22 *304:12 *309:18 3.74952e-05
23 *304:12 *325:20 2.64616e-05
24 *304:12 *484:16 8.29713e-05
25 *304:29 *309:18 0.000135768
26 *304:29 *463:14 0
27 *304:42 *317:10 1.83327e-05
28 *304:42 *484:8 3.20961e-05
29 *304:42 *548:14 0.000103647
30 *304:42 *548:27 2.93747e-05
31 *304:42 *570:16 0.000620126
32 *304:42 *584:8 8.1606e-05
33 *304:70 *1961:A 0.000195616
34 *304:70 *316:10 8.68575e-05
35 *304:70 *325:20 1.56762e-05
36 *304:70 *330:12 0
37 *1922:A2 *1922:B1 4.00259e-06
38 *45:11 *304:42 0.000189433
39 *286:12 *304:8 0
40 *292:10 *304:42 1.79651e-05
41 *294:10 *304:42 0.000443679
42 *297:27 *304:42 7.86583e-05
*RES
1 *1920:Y *304:8 46.5964 
2 *304:8 *304:10 15 
3 *304:10 *304:12 6.33857 
4 *304:12 *1938:A1_N 24.595 
5 *304:12 *304:29 32.4029 
6 *304:29 *1935:A 23 
7 *304:29 *304:42 34.72 
8 *304:42 *1921:B 38 
9 *304:42 *1922:B1 43.1786 
10 *304:10 *304:70 37.4779 
11 *304:70 *1949:B 23 
*END

*D_NET *305 0.00177297
*CONN
*I *1932:A2_N I *D sky130_fd_sc_hd__o2bb2ai_4
*I *1923:A I *D sky130_fd_sc_hd__and2_4
*I *1931:D1 I *D sky130_fd_sc_hd__o2111ai_2
*I *1921:Y O *D sky130_fd_sc_hd__nand2_4
*CAP
1 *1932:A2_N 0
2 *1923:A 0.000258569
3 *1931:D1 2.95011e-05
4 *1921:Y 0.000152383
5 *305:25 0.000512726
6 *305:10 0.000436041
7 *1931:D1 *570:52 5.50106e-05
8 *305:10 *1922:A1 5.3304e-05
9 *305:10 *489:23 0
10 *305:10 *570:16 0.000164291
11 *305:10 *584:8 0
12 *305:25 *1932:A1_N 0
13 *305:25 *306:10 0
14 *305:25 *314:10 5.61311e-05
15 *305:25 *584:8 0
16 *1922:A2 *305:10 5.50106e-05
*RES
1 *1921:Y *305:10 41.2314 
2 *305:10 *1931:D1 38.6214 
3 *305:10 *305:25 19.8886 
4 *305:25 *1923:A 27.5986 
5 *305:25 *1932:A2_N 23 
*END

*D_NET *306 0.000688952
*CONN
*I *1923:B I *D sky130_fd_sc_hd__and2_4
*I *1922:X O *D sky130_fd_sc_hd__a21o_2
*CAP
1 *1923:B 0
2 *1922:X 0.000344476
3 *306:10 0.000344476
4 *306:10 *584:8 0
5 *305:25 *306:10 0
*RES
1 *1922:X *306:10 44.0486 
2 *306:10 *1923:B 38 
*END

*D_NET *307 0.00579971
*CONN
*I *1927:A2 I *D sky130_fd_sc_hd__o21bai_4
*I *1926:A1 I *D sky130_fd_sc_hd__o21ba_2
*I *1937:A1 I *D sky130_fd_sc_hd__o21ai_2
*I *1930:A1 I *D sky130_fd_sc_hd__o21a_2
*I *1936:A1 I *D sky130_fd_sc_hd__o21a_2
*I *1934:A2 I *D sky130_fd_sc_hd__o2111a_4
*I *1931:A1 I *D sky130_fd_sc_hd__o2111ai_2
*I *1924:X O *D sky130_fd_sc_hd__and2_4
*CAP
1 *1927:A2 0.000171279
2 *1926:A1 0
3 *1937:A1 0.000209873
4 *1930:A1 0
5 *1936:A1 0
6 *1934:A2 0.000130653
7 *1931:A1 0
8 *1924:X 0
9 *307:68 0.00030866
10 *307:29 0.000254671
11 *307:25 0.000178706
12 *307:23 0.000568997
13 *307:14 0.000308881
14 *307:4 0.000750696
15 *1927:A2 *1927:A1 7.20415e-05
16 *1927:A2 *549:8 0
17 *1927:A2 *549:12 4.21594e-06
18 *1934:A2 *310:20 0.000120591
19 *1934:A2 *316:10 0.000403009
20 *1937:A1 *490:10 3.64337e-05
21 *307:14 *1931:A2 0
22 *307:14 *1931:B1 9.84794e-05
23 *307:14 *463:10 5.19151e-05
24 *307:14 *464:16 9.84794e-05
25 *307:14 *464:27 0.000191157
26 *307:14 *549:32 8.62783e-05
27 *307:23 *1930:A2 5.56279e-05
28 *307:29 *310:20 0
29 *307:68 *1927:A1 6.07611e-06
30 *307:68 *308:10 6.33614e-05
31 *307:68 *311:10 1.69668e-05
32 *307:68 *311:12 4.21594e-06
33 *307:68 *319:8 5.67058e-05
34 *307:68 *490:16 5.50049e-05
35 *307:68 *549:12 4.95196e-05
36 *307:68 *549:20 2.76611e-06
37 *1937:B1 *1937:A1 0.000139865
38 *1937:B1 *307:25 4.8612e-05
39 *2306:A *307:14 7.88828e-05
40 *2306:A *307:23 0.000274051
41 *294:23 *1934:A2 0.000491882
42 *294:34 *1934:A2 0.000146822
43 *294:34 *307:25 3.64246e-05
44 *294:34 *307:29 0.000188173
45 *297:27 *307:14 3.97399e-05
*RES
1 *1924:X *307:4 23 
2 *307:4 *307:14 37.395 
3 *307:14 *1931:A1 23 
4 *307:4 *307:23 21.3386 
5 *307:23 *307:25 1.20143 
6 *307:25 *307:29 17.61 
7 *307:29 *1934:A2 29.815 
8 *307:29 *1936:A1 23 
9 *307:25 *1930:A1 38 
10 *307:23 *1937:A1 39.9057 
11 *1937:A1 *307:68 41.2314 
12 *307:68 *1926:A1 38 
13 *307:68 *1927:A2 41.3143 
*END

*D_NET *308 0.00166499
*CONN
*I *1927:A1 I *D sky130_fd_sc_hd__o21bai_4
*I *1926:A2 I *D sky130_fd_sc_hd__o21ba_2
*I *1925:Y O *D sky130_fd_sc_hd__nor2_2
*CAP
1 *1927:A1 0.000401603
2 *1926:A2 0
3 *1925:Y 0.000212433
4 *308:10 0.000614036
5 *1927:A1 *310:10 0
6 *308:10 *311:10 0.000110913
7 *308:10 *490:16 0.000184527
8 *1927:A2 *1927:A1 7.20415e-05
9 *307:68 *1927:A1 6.07611e-06
10 *307:68 *308:10 6.33614e-05
*RES
1 *1925:Y *308:10 41.9564 
2 *308:10 *1926:A2 38 
3 *308:10 *1927:A1 43.7379 
*END

*D_NET *309 0.00512501
*CONN
*I *1945:A1 I *D sky130_fd_sc_hd__o211ai_2
*I *1932:B1 I *D sky130_fd_sc_hd__o2bb2ai_4
*I *1938:B1 I *D sky130_fd_sc_hd__o2bb2ai_2
*I *1926:X O *D sky130_fd_sc_hd__o21ba_2
*CAP
1 *1945:A1 0
2 *1932:B1 0.000339678
3 *1938:B1 0.000160232
4 *1926:X 0.000251334
5 *309:43 0.000160232
6 *309:18 0.000783327
7 *309:8 0.00137434
8 *1932:B1 *310:10 0.000218952
9 *1932:B1 *498:6 0.000233359
10 *1932:B1 *498:21 0
11 *309:8 *1928:B1 2.02978e-05
12 *309:8 *1931:B1 9.41704e-05
13 *309:8 *570:69 7.21403e-05
14 *309:18 *1938:B2 9.8203e-05
15 *309:18 *310:10 0.000127272
16 *309:18 *310:20 0.000376261
17 *309:18 *313:8 5.26431e-05
18 *309:18 *317:10 1.03972e-05
19 *309:18 *318:10 0.000135949
20 *309:18 *320:10 0.000142634
21 *309:18 *463:14 0
22 *309:18 *463:20 0
23 *309:18 *484:16 0.000240857
24 *309:43 *1945:B1 2.1784e-05
25 *309:43 *326:8 3.76854e-05
26 *304:12 *309:18 3.74952e-05
27 *304:29 *309:18 0.000135768
*RES
1 *1926:X *309:8 41.48 
2 *309:8 *309:18 32.2964 
3 *309:18 *1938:B1 23 
4 *309:8 *1932:B1 45.0221 
5 *1938:B1 *309:43 40.9621 
6 *309:43 *1945:A1 38 
*END

*D_NET *310 0.0039677
*CONN
*I *2307:A I *D sky130_fd_sc_hd__buf_2
*I *1934:D1 I *D sky130_fd_sc_hd__o2111a_4
*I *1927:Y O *D sky130_fd_sc_hd__o21bai_4
*CAP
1 *2307:A 0
2 *1934:D1 0
3 *1927:Y 0.000310864
4 *310:20 0.000770377
5 *310:10 0.00108124
6 *310:10 *1930:B1 6.38845e-05
7 *310:10 *1931:B1 9.94675e-05
8 *310:10 *498:6 5.40337e-05
9 *310:10 *498:21 4.93812e-05
10 *310:20 *1930:B1 0.000248979
11 *310:20 *313:8 8.62876e-05
12 *310:20 *316:10 0.000142634
13 *1927:A1 *310:10 0
14 *1932:B1 *310:10 0.000218952
15 *1934:A2 *310:20 0.000120591
16 *1934:C1 *310:20 0.00010018
17 *294:23 *310:20 0.000117294
18 *307:29 *310:20 0
19 *309:18 *310:10 0.000127272
20 *309:18 *310:20 0.000376261
*RES
1 *1927:Y *310:10 44.7736 
2 *310:10 *310:20 30.1421 
3 *310:20 *1934:D1 23 
4 *310:10 *2307:A 38 
*END

*D_NET *311 0.00598984
*CONN
*I *1937:A2 I *D sky130_fd_sc_hd__o21ai_2
*I *1930:A2 I *D sky130_fd_sc_hd__o21a_2
*I *1936:A2 I *D sky130_fd_sc_hd__o21a_2
*I *1934:A1 I *D sky130_fd_sc_hd__o2111a_4
*I *1931:A2 I *D sky130_fd_sc_hd__o2111ai_2
*I *1929:B1 I *D sky130_fd_sc_hd__a21oi_2
*I *1928:Y O *D sky130_fd_sc_hd__o21ai_2
*CAP
1 *1937:A2 0
2 *1930:A2 8.36008e-05
3 *1936:A2 0
4 *1934:A1 0
5 *1931:A2 0.00013687
6 *1929:B1 0
7 *1928:Y 0.000168294
8 *311:52 3.88473e-05
9 *311:30 0.000541202
10 *311:20 0.000776369
11 *311:18 0.000563409
12 *311:12 0.000446345
13 *311:10 0.000300819
14 *1930:A2 *549:20 1.21972e-05
15 *1931:A2 *312:8 0.000140958
16 *1931:A2 *489:12 0
17 *1931:A2 *489:23 0
18 *311:10 *1928:B1 9.47227e-05
19 *311:10 *466:18 8.4047e-05
20 *311:10 *466:22 0.000223698
21 *311:10 *490:10 5.44889e-06
22 *311:10 *570:69 1.32939e-05
23 *311:12 *549:20 0
24 *311:18 *316:10 2.63761e-05
25 *311:18 *329:10 6.48142e-05
26 *311:18 *549:20 0
27 *311:20 *318:10 5.3304e-05
28 *311:30 *489:12 0
29 *311:30 *548:8 0
30 *311:52 *463:14 6.16531e-05
31 *1922:A2 *311:30 0
32 *1937:B1 *311:12 0.000185104
33 *1937:B1 *311:18 3.47781e-05
34 *2306:A *1930:A2 9.64943e-05
35 *294:10 *311:30 6.48049e-05
36 *294:23 *311:20 0.000532749
37 *294:23 *311:30 0.000121897
38 *294:34 *311:18 0.000346297
39 *294:34 *311:20 8.88657e-05
40 *295:19 *311:30 0
41 *296:10 *1931:A2 3.92407e-05
42 *296:10 *311:30 0.000187996
43 *297:27 *311:30 0.000247886
44 *297:27 *311:52 1.97329e-05
45 *307:14 *1931:A2 0
46 *307:23 *1930:A2 5.56279e-05
47 *307:68 *311:10 1.69668e-05
48 *307:68 *311:12 4.21594e-06
49 *308:10 *311:10 0.000110913
*RES
1 *1928:Y *311:10 42.785 
2 *311:10 *311:12 2.61 
3 *311:12 *311:18 20.5929 
4 *311:18 *311:20 6.815 
5 *311:20 *311:30 23.9486 
6 *311:30 *1929:B1 38 
7 *311:30 *1931:A2 40.9621 
8 *311:20 *311:52 30.8493 
9 *311:52 *1934:A1 23 
10 *311:18 *1936:A2 23 
11 *311:12 *1930:A2 39.5743 
12 *311:10 *1937:A2 38 
*END

*D_NET *312 0.000811096
*CONN
*I *1932:B2 I *D sky130_fd_sc_hd__o2bb2ai_4
*I *1929:Y O *D sky130_fd_sc_hd__a21oi_2
*CAP
1 *1932:B2 3.2539e-05
2 *1929:Y 0.000239642
3 *312:8 0.000272181
4 *1932:B2 *315:10 2.93845e-05
5 *312:8 *1932:A1_N 0
6 *312:8 *463:10 0
7 *312:8 *464:16 9.63918e-05
8 *312:8 *464:27 0
9 *312:8 *489:23 0
10 *1931:A2 *312:8 0.000140958
*RES
1 *1929:Y *312:8 43.075 
2 *312:8 *1932:B2 38.6214 
*END

*D_NET *313 0.000794914
*CONN
*I *1948:B I *D sky130_fd_sc_hd__and3_2
*I *1930:X O *D sky130_fd_sc_hd__o21a_2
*CAP
1 *1948:B 3.95766e-05
2 *1930:X 0.000216298
3 *313:8 0.000255874
4 *1948:B *484:8 5.79559e-05
5 *313:8 *318:10 8.62783e-05
6 *309:18 *313:8 5.26431e-05
7 *310:20 *313:8 8.62876e-05
*RES
1 *1930:X *313:8 42.0186 
2 *313:8 *1948:B 38.6214 
*END

*D_NET *314 0.000953178
*CONN
*I *1933:A I *D sky130_fd_sc_hd__nand2_4
*I *1931:Y O *D sky130_fd_sc_hd__o2111ai_2
*CAP
1 *1933:A 1.50079e-05
2 *1931:Y 0.000226538
3 *314:10 0.000241546
4 *1933:A *1933:B 5.50049e-05
5 *1933:A *585:10 5.50049e-05
6 *314:10 *1932:A1_N 4.95442e-05
7 *314:10 *315:10 0.000222113
8 *314:10 *570:52 3.22879e-05
9 *305:25 *314:10 5.61311e-05
*RES
1 *1931:Y *314:10 43.3443 
2 *314:10 *1933:A 38.6214 
*END

*D_NET *315 0.00157673
*CONN
*I *1933:B I *D sky130_fd_sc_hd__nand2_4
*I *1932:Y O *D sky130_fd_sc_hd__o2bb2ai_4
*CAP
1 *1933:B 0.000178878
2 *1932:Y 0.000364437
3 *315:10 0.000543314
4 *1933:B *585:10 9.45494e-05
5 *315:10 *1932:A1_N 8.90445e-05
6 *315:10 *464:16 0
7 *1932:B2 *315:10 2.93845e-05
8 *1933:A *1933:B 5.50049e-05
9 *314:10 *315:10 0.000222113
*RES
1 *1932:Y *315:10 44.9186 
2 *315:10 *1933:B 41.5007 
*END

*D_NET *316 0.00284871
*CONN
*I *2302:A I *D sky130_fd_sc_hd__buf_2
*I *1961:A I *D sky130_fd_sc_hd__nand4_4
*I *1934:X O *D sky130_fd_sc_hd__o2111a_4
*CAP
1 *2302:A 4.02066e-05
2 *1961:A 0.000209754
3 *1934:X 0.000425443
4 *316:10 0.000675403
5 *1961:A *1948:C 4.85126e-05
6 *1961:A *318:10 0
7 *1961:A *325:20 0.000361027
8 *2302:A *329:10 5.37348e-06
9 *316:10 *318:10 0
10 *316:10 *329:10 0.000169674
11 *1934:A2 *316:10 0.000403009
12 *294:34 *316:10 2.1819e-05
13 *304:8 *1961:A 3.70094e-05
14 *304:70 *1961:A 0.000195616
15 *304:70 *316:10 8.68575e-05
16 *310:20 *316:10 0.000142634
17 *311:18 *316:10 2.63761e-05
*RES
1 *1934:X *316:10 48.005 
2 *316:10 *1961:A 44.5664 
3 *316:10 *2302:A 38.6214 
*END

*D_NET *317 0.0014144
*CONN
*I *1945:C1 I *D sky130_fd_sc_hd__o211ai_2
*I *1935:Y O *D sky130_fd_sc_hd__nand2_2
*CAP
1 *1945:C1 4.21728e-05
2 *1935:Y 0.00029707
3 *317:10 0.000339243
4 *1945:C1 *1945:B1 7.53384e-06
5 *1945:C1 *1946:B 0.000100061
6 *317:10 *1945:A2 8.33005e-05
7 *317:10 *318:10 0.000163352
8 *317:10 *463:20 0
9 *317:10 *484:8 1.59094e-05
10 *317:10 *484:16 0.000158796
11 *297:27 *317:10 0.000178227
12 *304:42 *317:10 1.83327e-05
13 *309:18 *317:10 1.03972e-05
*RES
1 *1935:Y *317:10 44.7736 
2 *317:10 *1945:C1 39.0979 
*END

*D_NET *318 0.00200688
*CONN
*I *1945:A2 I *D sky130_fd_sc_hd__o211ai_2
*I *1938:B2 I *D sky130_fd_sc_hd__o2bb2ai_2
*I *1936:X O *D sky130_fd_sc_hd__o21a_2
*CAP
1 *1945:A2 0.000263429
2 *1938:B2 4.42616e-05
3 *1936:X 0.000270838
4 *318:10 0.000578528
5 *1945:A2 *1945:B1 7.58874e-05
6 *318:10 *1948:C 0
7 *318:10 *484:16 1.26098e-05
8 *1961:A *318:10 0
9 *304:12 *1938:B2 0.000140935
10 *309:18 *1938:B2 9.8203e-05
11 *309:18 *318:10 0.000135949
12 *311:20 *318:10 5.3304e-05
13 *313:8 *318:10 8.62783e-05
14 *316:10 *318:10 0
15 *317:10 *1945:A2 8.33005e-05
16 *317:10 *318:10 0.000163352
*RES
1 *1936:X *318:10 43.3443 
2 *318:10 *1938:B2 39.5743 
3 *318:10 *1945:A2 42.7021 
*END

*D_NET *319 0.00180118
*CONN
*I *1962:A2 I *D sky130_fd_sc_hd__a311oi_2
*I *1950:A2 I *D sky130_fd_sc_hd__a31oi_2
*I *1937:Y O *D sky130_fd_sc_hd__o21ai_2
*CAP
1 *1962:A2 5.77287e-05
2 *1950:A2 0
3 *1937:Y 0.00037057
4 *319:14 5.42331e-05
5 *319:8 0.000482532
6 *1962:A2 *1962:B1 0
7 *1962:A2 *490:16 3.23684e-05
8 *319:8 *490:16 0.000352103
9 *319:14 *1950:A3 0.00019747
10 *319:14 *325:10 0.00019747
11 *307:68 *319:8 5.67058e-05
*RES
1 *1937:Y *319:8 31.265 
2 *319:8 *319:14 32.61 
3 *319:14 *1950:A2 23 
4 *319:8 *1962:A2 24.1186 
*END

*D_NET *320 0.00110854
*CONN
*I *1946:A I *D sky130_fd_sc_hd__nand2_2
*I *1938:Y O *D sky130_fd_sc_hd__o2bb2ai_2
*CAP
1 *1946:A 5.94117e-05
2 *1938:Y 0.000291497
3 *320:10 0.000350908
4 *1946:A *1946:B 1.8788e-05
5 *320:10 *328:8 1.6891e-05
6 *320:10 *463:20 0.000171906
7 *320:10 *484:16 2.46906e-05
8 *1938:A1_N *320:10 3.18142e-05
9 *309:18 *320:10 0.000142634
*RES
1 *1938:Y *320:10 43.7379 
2 *320:10 *1946:A 39.1186 
*END

*D_NET *321 0.00111928
*CONN
*I *1941:A I *D sky130_fd_sc_hd__nor3b_2
*I *1942:A1 I *D sky130_fd_sc_hd__o21bai_2
*I *1939:X O *D sky130_fd_sc_hd__and2_4
*CAP
1 *1941:A 5.65849e-05
2 *1942:A1 0.000158464
3 *1939:X 0.000162224
4 *321:10 0.000377273
5 *1942:A1 *1941:B 9.17497e-05
6 *1942:A1 *333:10 0
7 *1942:A1 *466:68 6.48049e-05
8 *1942:A1 *551:14 0
9 *321:10 *1939:B 0
10 *321:10 *323:8 1.02387e-05
11 *321:10 *507:10 5.67058e-05
12 *47:11 *1941:A 2.93845e-05
13 *47:11 *321:10 0.000111852
*RES
1 *1939:X *321:10 41.3557 
2 *321:10 *1942:A1 41.3143 
3 *321:10 *1941:A 39.0979 
*END

*D_NET *322 0.00157996
*CONN
*I *1941:B I *D sky130_fd_sc_hd__nor3b_2
*I *1942:A2 I *D sky130_fd_sc_hd__o21bai_2
*I *1940:Y O *D sky130_fd_sc_hd__nor2_2
*CAP
1 *1941:B 9.06828e-05
2 *1942:A2 0
3 *1940:Y 0.000110463
4 *322:8 0.000201146
5 *1941:B *323:8 0.000218943
6 *1941:B *323:10 2.55642e-05
7 *1941:B *466:68 6.48049e-05
8 *322:8 *1950:B1 0.000194318
9 *322:8 *323:10 0.000197479
10 *322:8 *466:68 0.000216051
11 *322:8 *466:74 0.000168754
12 *1942:A1 *1941:B 9.17497e-05
*RES
1 *1940:Y *322:8 43.075 
2 *322:8 *1942:A2 38 
3 *322:8 *1941:B 41.3143 
*END

*D_NET *323 0.00272587
*CONN
*I *1943:A_N I *D sky130_fd_sc_hd__and2b_4
*I *1962:C1 I *D sky130_fd_sc_hd__a311oi_2
*I *1950:B1 I *D sky130_fd_sc_hd__a31oi_2
*I *1941:Y O *D sky130_fd_sc_hd__nor3b_2
*CAP
1 *1943:A_N 9.41224e-05
2 *1962:C1 4.18658e-05
3 *1950:B1 0.000204994
4 *1941:Y 0.00010176
5 *323:10 0.000323195
6 *323:8 0.000272218
7 *1943:A_N *1942:B1_N 9.84794e-05
8 *1943:A_N *324:10 7.1349e-05
9 *1943:A_N *466:51 0.00010018
10 *1943:A_N *466:64 0.000210461
11 *1950:B1 *1940:B 0.000124368
12 *1950:B1 *335:21 0.000167452
13 *1950:B1 *466:74 1.22906e-05
14 *1962:C1 *1962:B1 6.17437e-06
15 *1962:C1 *335:6 2.64616e-05
16 *323:8 *1939:B 6.26356e-05
17 *323:8 *1940:B 5.62433e-05
18 *323:10 *1940:B 0.000105072
19 *1941:B *323:8 0.000218943
20 *1941:B *323:10 2.55642e-05
21 *321:10 *323:8 1.02387e-05
22 *322:8 *1950:B1 0.000194318
23 *322:8 *323:10 0.000197479
*RES
1 *1941:Y *323:8 41.3143 
2 *323:8 *323:10 2.96214 
3 *323:10 *1950:B1 43.0129 
4 *323:10 *1962:C1 38.6214 
5 *323:8 *1943:A_N 41.48 
*END

*D_NET *324 0.00176054
*CONN
*I *1943:B I *D sky130_fd_sc_hd__and2b_4
*I *1962:A3 I *D sky130_fd_sc_hd__a311oi_2
*I *1950:A3 I *D sky130_fd_sc_hd__a31oi_2
*I *1942:Y O *D sky130_fd_sc_hd__o21bai_2
*CAP
1 *1943:B 0
2 *1962:A3 0
3 *1950:A3 6.19951e-05
4 *1942:Y 0.000231231
5 *324:16 0.000164119
6 *324:10 0.000333355
7 *1950:A3 *325:10 1.37349e-05
8 *1950:A3 *588:12 0.000224345
9 *324:10 *1942:B1_N 0.00010018
10 *324:10 *466:51 9.29117e-05
11 *324:16 *1940:B 0
12 *324:16 *325:10 6.93553e-05
13 *324:16 *466:51 1.5393e-05
14 *324:16 *588:12 0.000185104
15 *1943:A_N *324:10 7.1349e-05
16 *319:14 *1950:A3 0.00019747
*RES
1 *1942:Y *324:10 28.3443 
2 *324:10 *324:16 17.9621 
3 *324:16 *1950:A3 40.9621 
4 *324:16 *1962:A3 38 
5 *324:10 *1943:B 23 
*END

*D_NET *325 0.00538796
*CONN
*I *1961:B I *D sky130_fd_sc_hd__nand4_4
*I *1944:A I *D sky130_fd_sc_hd__inv_2
*I *1948:C I *D sky130_fd_sc_hd__and3_2
*I *1945:B1 I *D sky130_fd_sc_hd__o211ai_2
*I *1943:X O *D sky130_fd_sc_hd__and2b_4
*CAP
1 *1961:B 0
2 *1944:A 0
3 *1948:C 0.000322699
4 *1945:B1 0.000335751
5 *1943:X 0.000285818
6 *325:22 0.00065845
7 *325:20 0.000394645
8 *325:14 0.000654048
9 *325:10 0.000545221
10 *1945:B1 *1946:B 0.00032846
11 *1945:B1 *326:8 8.62876e-05
12 *1948:C *329:10 3.70071e-06
13 *1948:C *484:8 5.55951e-05
14 *325:10 *1940:B 0
15 *325:10 *331:10 5.07182e-05
16 *325:10 *331:14 0
17 *325:10 *342:10 0
18 *325:10 *490:22 0.000113624
19 *325:10 *588:12 4.57902e-05
20 *325:14 *1958:B2 0
21 *325:14 *1963:A1 0.00014411
22 *325:14 *330:12 5.61207e-05
23 *325:14 *331:10 1.78702e-05
24 *325:14 *331:14 2.65002e-05
25 *325:14 *340:8 0.000168754
26 *325:14 *588:12 2.50227e-05
27 *325:20 *1961:C 0
28 *1945:A2 *1945:B1 7.58874e-05
29 *1945:C1 *1945:B1 7.53384e-06
30 *1950:A3 *325:10 1.37349e-05
31 *1961:A *1948:C 4.85126e-05
32 *1961:A *325:20 0.000361027
33 *304:8 *1945:B1 0.000194327
34 *304:8 *1948:C 3.70094e-05
35 *304:12 *325:20 2.64616e-05
36 *304:70 *325:20 1.56762e-05
37 *309:43 *1945:B1 2.1784e-05
38 *318:10 *1948:C 0
39 *319:14 *325:10 0.00019747
40 *324:16 *325:10 6.93553e-05
*RES
1 *1943:X *325:10 45.2811 
2 *325:10 *325:14 21.6596 
3 *325:14 *325:20 8.76214 
4 *325:20 *325:22 15 
5 *325:22 *1945:B1 46.0371 
6 *325:22 *1948:C 42.9093 
7 *325:20 *1944:A 23 
8 *325:14 *1961:B 23 
*END

*D_NET *326 0.0014857
*CONN
*I *1946:B I *D sky130_fd_sc_hd__nand2_2
*I *1944:Y O *D sky130_fd_sc_hd__inv_2
*CAP
1 *1946:B 0.000409687
2 *1944:Y 4.75236e-05
3 *326:8 0.00045721
4 *1945:B1 *1946:B 0.00032846
5 *1945:B1 *326:8 8.62876e-05
6 *1945:C1 *1946:B 0.000100061
7 *1946:A *1946:B 1.8788e-05
8 *309:43 *326:8 3.76854e-05
*RES
1 *1944:Y *326:8 39.2014 
2 *326:8 *1946:B 44.5871 
*END

*D_NET *327 0.00029781
*CONN
*I *1947:A I *D sky130_fd_sc_hd__nand2_2
*I *1945:Y O *D sky130_fd_sc_hd__o211ai_2
*CAP
1 *1947:A 0
2 *1945:Y 0.000114539
3 *327:8 0.000114539
4 *327:8 *328:8 4.14538e-05
5 *286:12 *327:8 2.72789e-05
*RES
1 *1945:Y *327:8 40.2579 
2 *327:8 *1947:A 38 
*END

*D_NET *328 0.000468263
*CONN
*I *1947:B I *D sky130_fd_sc_hd__nand2_2
*I *1946:Y O *D sky130_fd_sc_hd__nand2_2
*CAP
1 *1947:B 0
2 *1946:Y 0.000158865
3 *328:8 0.000158865
4 *328:8 *463:20 9.21879e-05
5 *320:10 *328:8 1.6891e-05
6 *327:8 *328:8 4.14538e-05
*RES
1 *1946:Y *328:8 41.3143 
2 *328:8 *1947:B 38 
*END

*D_NET *329 0.000901473
*CONN
*I *1949:A I *D sky130_fd_sc_hd__nand2_4
*I *1948:X O *D sky130_fd_sc_hd__and3_2
*CAP
1 *1949:A 0
2 *1948:X 0.000255858
3 *329:10 0.000255858
4 *329:10 *484:8 0.000146195
5 *1948:C *329:10 3.70071e-06
6 *2302:A *329:10 5.37348e-06
7 *311:18 *329:10 6.48142e-05
8 *316:10 *329:10 0.000169674
*RES
1 *1948:X *329:10 42.785 
2 *329:10 *1949:A 38 
*END

*D_NET *330 0.00116979
*CONN
*I *1958:A1_N I *D sky130_fd_sc_hd__o2bb2ai_2
*I *1959:A I *D sky130_fd_sc_hd__nand4_2
*I *1949:Y O *D sky130_fd_sc_hd__nand2_4
*CAP
1 *1958:A1_N 0.000168454
2 *1959:A 0
3 *1949:Y 0.000228617
4 *330:12 0.000107183
5 *330:6 0.000504254
6 *1958:A1_N *339:8 7.28721e-05
7 *1958:A1_N *588:8 3.22879e-05
8 *304:70 *330:12 0
9 *325:14 *330:12 5.61207e-05
*RES
1 *1949:Y *330:6 26.0036 
2 *330:6 *330:12 32.2579 
3 *330:12 *1959:A 23 
4 *330:6 *1958:A1_N 26.3764 
*END

*D_NET *331 0.00289664
*CONN
*I *1958:A2_N I *D sky130_fd_sc_hd__o2bb2ai_2
*I *1959:B I *D sky130_fd_sc_hd__nand4_2
*I *1963:A1 I *D sky130_fd_sc_hd__o221a_4
*I *1950:Y O *D sky130_fd_sc_hd__a31oi_2
*CAP
1 *1958:A2_N 2.79004e-05
2 *1959:B 0
3 *1963:A1 0.000704549
4 *1950:Y 0.000179135
5 *331:14 0.000845016
6 *331:10 0.000347502
7 *1958:A2_N *339:8 5.50106e-05
8 *1963:A1 *1958:B2 0
9 *1963:A1 *1961:C 0.000221992
10 *1963:A1 *1963:A2 1.14154e-05
11 *1963:A1 *337:10 5.94488e-05
12 *1963:A1 *341:6 3.17516e-05
13 *331:10 *1958:B2 2.76611e-06
14 *331:10 *342:10 0
15 *331:14 *1958:B2 8.68472e-05
16 *331:14 *340:8 8.41115e-05
17 *325:10 *331:10 5.07182e-05
18 *325:10 *331:14 0
19 *325:14 *1963:A1 0.00014411
20 *325:14 *331:10 1.78702e-05
21 *325:14 *331:14 2.65002e-05
*RES
1 *1950:Y *331:10 41.3557 
2 *331:10 *331:14 4.41214 
3 *331:14 *1963:A1 48.9993 
4 *331:14 *1959:B 38 
5 *331:10 *1958:A2_N 38.6214 
*END

*D_NET *332 0.000945852
*CONN
*I *1954:A_N I *D sky130_fd_sc_hd__and3b_2
*I *1953:A I *D sky130_fd_sc_hd__nor2b_2
*I *1951:Y O *D sky130_fd_sc_hd__nor2_2
*CAP
1 *1954:A_N 0
2 *1953:A 0
3 *1951:Y 0.000179114
4 *332:19 0.000184677
5 *332:6 0.000363791
6 *332:6 *1953:B_N 5.70419e-05
7 *332:6 *334:10 7.53384e-06
8 *332:19 *334:10 2.4754e-05
9 *332:19 *579:10 0.000118797
10 *332:19 *590:8 0
11 *16:9 *332:19 1.01436e-05
*RES
1 *1951:Y *332:6 26.48 
2 *332:6 *1953:A 23 
3 *332:6 *332:19 33.9357 
4 *332:19 *1954:A_N 23 
*END

*D_NET *333 0.00136954
*CONN
*I *1954:B I *D sky130_fd_sc_hd__and3b_2
*I *1953:B_N I *D sky130_fd_sc_hd__nor2b_2
*I *1952:Y O *D sky130_fd_sc_hd__nand2_2
*CAP
1 *1954:B 0
2 *1953:B_N 0.000122631
3 *1952:Y 0.000243257
4 *333:10 0.000365888
5 *1953:B_N *551:14 0
6 *1953:B_N *579:10 5.56306e-05
7 *333:10 *551:6 0.000103637
8 *333:10 *551:14 2.93845e-05
9 *333:10 *570:69 0.000228903
10 *333:10 *579:10 0.000163168
11 *1942:A1 *333:10 0
12 *332:6 *1953:B_N 5.70419e-05
*RES
1 *1952:Y *333:10 44.8979 
2 *333:10 *1953:B_N 40.6514 
3 *333:10 *1954:B 38 
*END

*D_NET *334 0.00180297
*CONN
*I *1955:B I *D sky130_fd_sc_hd__nand2_2
*I *1957:B I *D sky130_fd_sc_hd__or2_2
*I *1956:B I *D sky130_fd_sc_hd__nor2_2
*I *1953:Y O *D sky130_fd_sc_hd__nor2b_2
*CAP
1 *1955:B 0.000126698
2 *1957:B 0
3 *1956:B 0.000106334
4 *1953:Y 0.000310314
5 *334:23 0.000231576
6 *334:10 0.000521527
7 *1955:B *338:8 0.00010018
8 *1955:B *509:16 0.000185428
9 *1956:B *579:10 5.3656e-05
10 *334:10 *579:10 0.000134971
11 *332:6 *334:10 7.53384e-06
12 *332:19 *334:10 2.4754e-05
*RES
1 *1953:Y *334:10 44.525 
2 *334:10 *1956:B 40.2579 
3 *334:10 *334:23 16.5743 
4 *334:23 *1957:B 23 
5 *334:23 *1955:B 26.5007 
*END

*D_NET *335 0.00226143
*CONN
*I *1958:B1 I *D sky130_fd_sc_hd__o2bb2ai_2
*I *1962:B1 I *D sky130_fd_sc_hd__a311oi_2
*I *1954:X O *D sky130_fd_sc_hd__and3b_2
*CAP
1 *1958:B1 0
2 *1962:B1 0.000165812
3 *1954:X 0.000316934
4 *335:21 0.000197707
5 *335:6 0.000680453
6 *1962:B1 *490:16 0
7 *335:6 *1968:A 0.000397596
8 *335:21 *1940:B 0.000192087
9 *335:21 *342:10 0.00010404
10 *335:21 *466:74 6.7177e-06
11 *335:21 *509:12 0
12 *1950:B1 *335:21 0.000167452
13 *1962:A2 *1962:B1 0
14 *1962:C1 *1962:B1 6.17437e-06
15 *1962:C1 *335:6 2.64616e-05
*RES
1 *1954:X *335:6 28.8621 
2 *335:6 *1962:B1 25.4236 
3 *335:6 *335:21 35.4271 
4 *335:21 *1958:B1 23 
*END

*D_NET *336 0.00182968
*CONN
*I *1961:C I *D sky130_fd_sc_hd__nand4_4
*I *1963:C1 I *D sky130_fd_sc_hd__o221a_4
*I *1959:C I *D sky130_fd_sc_hd__nand4_2
*I *1955:Y O *D sky130_fd_sc_hd__nand2_2
*CAP
1 *1961:C 0.00010836
2 *1963:C1 0
3 *1959:C 0.000232189
4 *1955:Y 0.00010912
5 *336:21 0.000248631
6 *336:6 0.00048158
7 *1959:C *338:8 9.5999e-05
8 *1959:C *338:21 5.3304e-05
9 *1961:C *337:10 4.39725e-05
10 *1961:C *341:6 5.70419e-05
11 *336:6 *338:8 0.000128401
12 *336:21 *342:10 4.90891e-05
13 *1963:A1 *1961:C 0.000221992
14 *303:24 *336:21 0
15 *325:20 *1961:C 0
*RES
1 *1955:Y *336:6 25.5271 
2 *336:6 *1959:C 26.9771 
3 *336:6 *336:21 32.2579 
4 *336:21 *1963:C1 23 
5 *336:21 *1961:C 26.5214 
*END

*D_NET *337 0.00353327
*CONN
*I *1963:A2 I *D sky130_fd_sc_hd__o221a_4
*I *1958:B2 I *D sky130_fd_sc_hd__o2bb2ai_2
*I *1964:A1 I *D sky130_fd_sc_hd__o22ai_2
*I *1956:Y O *D sky130_fd_sc_hd__nor2_2
*CAP
1 *1963:A2 3.76283e-05
2 *1958:B2 0.000434163
3 *1964:A1 0.00010715
4 *1956:Y 0.000265854
5 *337:10 0.000876585
6 *337:6 0.000638754
7 *1958:B2 *338:21 0.000187986
8 *1958:B2 *339:8 9.67842e-05
9 *1958:B2 *342:10 0.000145844
10 *1964:A1 *342:10 9.98891e-05
11 *337:6 *343:6 0.000228001
12 *337:6 *509:24 2.4754e-05
13 *337:10 *341:6 0.000185428
14 *1961:C *337:10 4.39725e-05
15 *1963:A1 *1958:B2 0
16 *1963:A1 *1963:A2 1.14154e-05
17 *1963:A1 *337:10 5.94488e-05
18 *325:14 *1958:B2 0
19 *331:10 *1958:B2 2.76611e-06
20 *331:14 *1958:B2 8.68472e-05
*RES
1 *1956:Y *337:6 28.3857 
2 *337:6 *337:10 21.3386 
3 *337:10 *1964:A1 40.61 
4 *337:10 *1958:B2 47.0107 
5 *337:6 *1963:A2 23.8493 
*END

*D_NET *338 0.00172069
*CONN
*I *1961:D I *D sky130_fd_sc_hd__nand4_4
*I *1959:D I *D sky130_fd_sc_hd__nand4_2
*I *1957:X O *D sky130_fd_sc_hd__or2_2
*CAP
1 *1961:D 0
2 *1959:D 0
3 *1957:X 0.000358164
4 *338:21 0.000100496
5 *338:8 0.00045866
6 *338:8 *509:16 4.95081e-05
7 *338:21 *342:10 0.000187986
8 *1955:B *338:8 0.00010018
9 *1958:B2 *338:21 0.000187986
10 *1959:C *338:8 9.5999e-05
11 *1959:C *338:21 5.3304e-05
12 *336:6 *338:8 0.000128401
*RES
1 *1957:X *338:8 31.265 
2 *338:8 *1959:D 23 
3 *338:8 *338:21 33.2314 
4 *338:21 *1961:D 23 
*END

*D_NET *339 0.00077438
*CONN
*I *1960:A I *D sky130_fd_sc_hd__nand2_2
*I *1958:Y O *D sky130_fd_sc_hd__o2bb2ai_2
*CAP
1 *1960:A 0
2 *1958:Y 0.000274857
3 *339:8 0.000274857
4 *1958:A1_N *339:8 7.28721e-05
5 *1958:A2_N *339:8 5.50106e-05
6 *1958:B2 *339:8 9.67842e-05
*RES
1 *1958:Y *339:8 27.93 
2 *339:8 *1960:A 23 
*END

*D_NET *340 0.000376853
*CONN
*I *1960:B I *D sky130_fd_sc_hd__nand2_2
*I *1959:Y O *D sky130_fd_sc_hd__nand4_2
*CAP
1 *1960:B 0
2 *1959:Y 6.1994e-05
3 *340:8 6.1994e-05
4 *325:14 *340:8 0.000168754
5 *331:14 *340:8 8.41115e-05
*RES
1 *1959:Y *340:8 40.2579 
2 *340:8 *1960:B 38 
*END

*D_NET *341 0.00433591
*CONN
*I *1963:B1 I *D sky130_fd_sc_hd__o221a_4
*I *1964:B1 I *D sky130_fd_sc_hd__o22ai_2
*I *2023:B I *D sky130_fd_sc_hd__nor3_4
*I *1965:A I *D sky130_fd_sc_hd__nor2_4
*I *1961:Y O *D sky130_fd_sc_hd__nand4_4
*CAP
1 *1963:B1 0
2 *1964:B1 0
3 *2023:B 0.000190409
4 *1965:A 3.80527e-05
5 *1961:Y 3.96816e-05
6 *341:16 0.00125898
7 *341:10 0.00115845
8 *341:6 0.000167608
9 *341:10 *342:10 0
10 *341:16 *475:10 4.83941e-05
11 *1961:C *341:6 5.70419e-05
12 *1963:A1 *341:6 3.17516e-05
13 *2023:C *2023:B 0.000277509
14 *109:10 *341:16 3.3123e-05
15 *299:14 *1965:A 5.90675e-06
16 *299:14 *2023:B 2.65879e-05
17 *299:14 *341:16 0.000394253
18 *303:14 *341:16 0.000296721
19 *303:24 *341:10 0.000107641
20 *303:24 *341:16 1.83667e-05
21 *337:10 *341:6 0.000185428
*RES
1 *1961:Y *341:6 25.0507 
2 *341:6 *341:10 17.9621 
3 *341:10 *341:16 38.3864 
4 *341:16 *1965:A 23.8493 
5 *341:16 *2023:B 28.075 
6 *341:10 *1964:B1 38 
7 *341:6 *1963:B1 23 
*END

*D_NET *342 0.002003
*CONN
*I *1964:A2 I *D sky130_fd_sc_hd__o22ai_2
*I *1962:Y O *D sky130_fd_sc_hd__a311oi_2
*CAP
1 *1964:A2 0
2 *1962:Y 0
3 *342:10 0.00059537
4 *342:6 0.00059537
5 *342:10 *1940:B 0.000221193
6 *342:10 *490:22 0
7 *342:10 *509:12 0
8 *1958:B2 *342:10 0.000145844
9 *1964:A1 *342:10 9.98891e-05
10 *303:14 *342:10 4.21594e-06
11 *303:24 *342:10 0
12 *325:10 *342:10 0
13 *331:10 *342:10 0
14 *335:21 *342:10 0.00010404
15 *336:21 *342:10 4.90891e-05
16 *338:21 *342:10 0.000187986
17 *341:10 *342:10 0
*RES
1 *1962:Y *342:6 38 
2 *342:6 *342:10 29.2307 
3 *342:10 *1964:A2 23 
*END

*D_NET *343 0.00170873
*CONN
*I *1967:A I *D sky130_fd_sc_hd__nand2_4
*I *1975:A2 I *D sky130_fd_sc_hd__a21oi_2
*I *1963:X O *D sky130_fd_sc_hd__o221a_4
*CAP
1 *1967:A 0.000184429
2 *1975:A2 0
3 *1963:X 0.000376367
4 *343:6 0.000560796
5 *1967:A *1975:A1 0.000261563
6 *343:6 *509:24 9.75779e-05
7 *337:6 *343:6 0.000228001
*RES
1 *1963:X *343:6 31.2443 
2 *343:6 *1975:A2 23 
3 *343:6 *1967:A 27.5986 
*END

*D_NET *344 0.00456894
*CONN
*I *2025:A1 I *D sky130_fd_sc_hd__a21oi_4
*I *1964:Y O *D sky130_fd_sc_hd__o22ai_2
*CAP
1 *2025:A1 0
2 *1964:Y 0.000126797
3 *344:18 0.00175773
4 *344:8 0.00188452
5 *344:18 *2012:A 1.83667e-05
6 *344:18 *2020:A 3.78598e-05
7 *344:18 *2020:B 5.50106e-05
8 *344:18 *379:10 7.90464e-05
9 *344:18 *387:48 0.000228903
10 *344:18 *389:8 0
11 *344:18 *396:10 0.000254803
12 *344:18 *504:8 0
13 *303:24 *344:8 7.09042e-05
14 *303:24 *344:18 5.50049e-05
*RES
1 *1964:Y *344:8 25.5479 
2 *344:8 *344:18 49.4686 
3 *344:18 *2025:A1 38 
*END

*D_NET *345 0.000339638
*CONN
*I *1966:B1 I *D sky130_fd_sc_hd__o211ai_4
*I *1965:Y O *D sky130_fd_sc_hd__nor2_4
*CAP
1 *1966:B1 0
2 *1965:Y 0.000132027
3 *345:8 0.000132027
4 *345:8 *473:14 7.55832e-05
*RES
1 *1965:Y *345:8 40.9621 
2 *345:8 *1966:B1 38 
*END

*D_NET *346 0.00199175
*CONN
*I *2301:A I *D sky130_fd_sc_hd__buf_6
*I *1967:B I *D sky130_fd_sc_hd__nand2_4
*I *1966:Y O *D sky130_fd_sc_hd__o211ai_4
*CAP
1 *2301:A 0.000217215
2 *1967:B 5.72657e-05
3 *1966:Y 0.000357967
4 *346:8 0.000632447
5 *1967:B *1975:A1 0.00014196
6 *2301:A *1976:A1 3.70094e-05
7 *2301:A *1976:B1 0.000223698
8 *2301:A *353:24 5.50049e-05
9 *2301:A *473:14 6.0093e-05
10 *2301:A *483:8 0
11 *346:8 *473:14 0.000209094
12 *1966:A2 *346:8 0
*RES
1 *1966:Y *346:8 46.2443 
2 *346:8 *1967:B 39.5743 
3 *346:8 *2301:A 43.1371 
*END

*D_NET *347 0.00387929
*CONN
*I *2002:A I *D sky130_fd_sc_hd__nand3_4
*I *2321:A I *D sky130_fd_sc_hd__buf_2
*I *1986:A1 I *D sky130_fd_sc_hd__a211oi_2
*I *1999:A1 I *D sky130_fd_sc_hd__a211o_2
*I *1976:B1 I *D sky130_fd_sc_hd__a21o_2
*I *1967:Y O *D sky130_fd_sc_hd__nand2_4
*CAP
1 *2002:A 0
2 *2321:A 0
3 *1986:A1 0.000243614
4 *1999:A1 0.00016849
5 *1976:B1 0.000359966
6 *1967:Y 0.000202664
7 *347:48 0.000611339
8 *347:27 0.000679719
9 *347:14 0.000628801
10 *347:10 0.000327996
11 *1976:B1 *589:8 7.53384e-06
12 *1986:A1 *1988:A 0
13 *347:10 *1975:A1 0.000122582
14 *347:14 *1994:A 0
15 *347:14 *373:26 6.63801e-05
16 *347:14 *483:8 4.59027e-05
17 *347:27 *1994:A 0
18 *347:27 *353:24 0
19 *347:48 *1994:A 0
20 *347:48 *2000:B 1.24376e-05
21 *347:48 *352:10 0
22 *347:48 *371:22 4.24315e-05
23 *347:48 *377:8 3.62219e-05
24 *347:48 *503:14 0
25 *347:48 *505:12 9.95119e-05
26 *2301:A *1976:B1 0.000223698
*RES
1 *1967:Y *347:10 27.4743 
2 *347:10 *347:14 17.9621 
3 *347:14 *1976:B1 44.8357 
4 *347:14 *347:27 2.61 
5 *347:27 *1999:A1 41.0243 
6 *347:27 *347:48 22.2086 
7 *347:48 *1986:A1 26.9979 
8 *347:48 *2321:A 23 
9 *347:10 *2002:A 23 
*END

*D_NET *348 0.00357838
*CONN
*I *1973:A1 I *D sky130_fd_sc_hd__o21bai_4
*I *1972:A_N I *D sky130_fd_sc_hd__nand3b_4
*I *1971:A_N I *D sky130_fd_sc_hd__and3b_2
*I *1968:Y O *D sky130_fd_sc_hd__nor2_4
*CAP
1 *1973:A1 0.000474587
2 *1972:A_N 0.000428619
3 *1971:A_N 0
4 *1968:Y 0.000128447
5 *348:19 0.000928775
6 *348:10 0.000154015
7 *1972:A_N *1971:B 6.68822e-05
8 *1972:A_N *1972:C 0.000161929
9 *1972:A_N *360:8 0
10 *1972:A_N *364:10 0.000128
11 *1972:A_N *512:16 6.87289e-05
12 *1972:A_N *570:69 0.0005715
13 *1973:A1 *1973:B1_N 6.17437e-06
14 *1973:A1 *353:6 0.000268873
15 *1973:A1 *512:16 5.08899e-05
16 *1973:A1 *590:8 5.0135e-05
17 *348:10 *1968:A 7.53384e-06
18 *348:10 *512:16 1.19796e-05
19 *348:10 *590:8 3.21327e-05
20 *348:19 *512:16 1.69668e-05
21 *348:19 *590:8 2.22079e-05
22 *16:9 *348:10 0
*RES
1 *1968:Y *348:10 40.175 
2 *348:10 *1971:A_N 38 
3 *348:10 *348:19 0.849286 
4 *348:19 *1972:A_N 49.1236 
5 *348:19 *1973:A1 47.0729 
*END

*D_NET *349 0.000764025
*CONN
*I *1973:A2 I *D sky130_fd_sc_hd__o21bai_4
*I *1969:X O *D sky130_fd_sc_hd__and2_2
*CAP
1 *1973:A2 2.95294e-05
2 *1969:X 0.000261009
3 *349:8 0.000290538
4 *1973:A2 *353:6 5.50049e-05
5 *349:8 *351:8 4.48568e-05
6 *349:8 *364:10 2.79004e-05
7 *349:8 *473:12 0
8 *349:8 *570:75 5.05552e-05
9 *349:8 *590:8 0
10 *49:17 *349:8 4.6318e-06
*RES
1 *1969:X *349:8 43.075 
2 *349:8 *1973:A2 38.6214 
*END

*D_NET *350 0.00211826
*CONN
*I *1971:B I *D sky130_fd_sc_hd__and3b_2
*I *1972:B I *D sky130_fd_sc_hd__nand3b_4
*I *1970:Y O *D sky130_fd_sc_hd__nand2_2
*CAP
1 *1971:B 0.000406275
2 *1972:B 0
3 *1970:Y 8.91614e-05
4 *350:10 0.000495437
5 *1971:B *473:12 7.80035e-05
6 *1971:B *570:69 0.000400198
7 *1971:B *589:12 8.94487e-05
8 *350:10 *1970:A 5.50049e-05
9 *350:10 *473:12 0.000193388
10 *350:10 *552:23 5.3304e-05
11 *350:10 *589:12 0.000191157
12 *1972:A_N *1971:B 6.68822e-05
*RES
1 *1970:Y *350:10 41.2314 
2 *350:10 *1972:B 38 
3 *350:10 *1971:B 45.0636 
*END

*D_NET *351 0.00168197
*CONN
*I *1986:C1 I *D sky130_fd_sc_hd__a211oi_2
*I *1987:A1 I *D sky130_fd_sc_hd__o21a_2
*I *1971:X O *D sky130_fd_sc_hd__and3b_2
*CAP
1 *1986:C1 7.66303e-05
2 *1987:A1 0.000283192
3 *1971:X 0.000274024
4 *351:8 0.000633847
5 *1986:C1 *1988:A 3.22879e-05
6 *1986:C1 *1988:B 5.3304e-05
7 *1987:A1 *1987:B1 0.000141954
8 *1987:A1 *366:8 0.000141879
9 *1987:A1 *590:8 0
10 *351:8 *364:10 0
11 *351:8 *590:8 0
12 *349:8 *351:8 4.48568e-05
*RES
1 *1971:X *351:8 43.4271 
2 *351:8 *1987:A1 43.9657 
3 *351:8 *1986:C1 39.5743 
*END

*D_NET *352 0.00440688
*CONN
*I *1996:A I *D sky130_fd_sc_hd__and2_2
*I *1995:C I *D sky130_fd_sc_hd__and4_4
*I *1997:A1 I *D sky130_fd_sc_hd__o21ai_2
*I *1974:A I *D sky130_fd_sc_hd__nand2_2
*I *1976:A1 I *D sky130_fd_sc_hd__a21o_2
*I *1972:Y O *D sky130_fd_sc_hd__nand3b_4
*CAP
1 *1996:A 2.268e-05
2 *1995:C 0.000294848
3 *1997:A1 0.000474086
4 *1974:A 3.84742e-05
5 *1976:A1 0.000174988
6 *1972:Y 0
7 *352:10 0.000441766
8 *352:8 0.000796393
9 *352:6 0.00041153
10 *1974:A *1974:B 4.2573e-05
11 *1974:A *353:16 5.3304e-05
12 *1974:A *354:10 5.50049e-05
13 *1976:A1 *353:24 0.000130056
14 *1976:A1 *473:14 0
15 *1976:A1 *589:12 8.16356e-05
16 *1995:C *1995:B 0.000359332
17 *1995:C *353:10 6.07929e-05
18 *1995:C *360:16 2.18409e-05
19 *1995:C *552:10 8.85189e-05
20 *1995:C *589:12 1.94522e-05
21 *1996:A *1997:B1 3.22879e-05
22 *1997:A1 *1997:B1 5.70419e-05
23 *1997:A1 *375:10 2.93747e-05
24 *1997:A1 *552:23 2.93845e-05
25 *352:8 *353:10 0.000143791
26 *352:8 *378:10 0
27 *352:8 *552:10 0.000273623
28 *352:10 *353:10 0.000114645
29 *352:10 *353:16 8.16459e-05
30 *352:10 *353:24 3.47781e-05
31 *352:10 *371:22 0
32 *352:10 *378:10 0
33 *352:10 *589:12 6.02277e-06
34 *2301:A *1976:A1 3.70094e-05
35 *347:48 *352:10 0
*RES
1 *1972:Y *352:6 38 
2 *352:6 *352:8 4.01857 
3 *352:8 *352:10 5.42714 
4 *352:10 *1976:A1 42.2879 
5 *352:10 *1974:A 39.0979 
6 *352:8 *1997:A1 46.2443 
7 *352:6 *1995:C 45.0429 
8 *1997:A1 *1996:A 46.6214 
*END

*D_NET *353 0.00496171
*CONN
*I *1995:B I *D sky130_fd_sc_hd__and4_4
*I *1986:A2 I *D sky130_fd_sc_hd__a211oi_2
*I *1974:B I *D sky130_fd_sc_hd__nand2_2
*I *1976:A2 I *D sky130_fd_sc_hd__a21o_2
*I *1973:Y O *D sky130_fd_sc_hd__o21bai_4
*CAP
1 *1995:B 0.00012676
2 *1986:A2 0
3 *1974:B 0.000108854
4 *1976:A2 0
5 *1973:Y 0.000161639
6 *353:24 0.00022071
7 *353:16 0.000491591
8 *353:10 0.000440474
9 *353:6 0.000566846
10 *1995:B *360:16 0.00010018
11 *1995:B *473:47 0.000184497
12 *353:6 *473:47 0.000137651
13 *353:10 *589:12 0.000626975
14 *353:16 *354:10 4.5051e-05
15 *353:16 *589:12 0.000168754
16 *1973:A1 *353:6 0.000268873
17 *1973:A2 *353:6 5.50049e-05
18 *1974:A *1974:B 4.2573e-05
19 *1974:A *353:16 5.3304e-05
20 *1976:A1 *353:24 0.000130056
21 *1995:C *1995:B 0.000359332
22 *1995:C *353:10 6.07929e-05
23 *2301:A *353:24 5.50049e-05
24 *49:17 *353:6 0.000181925
25 *347:27 *353:24 0
26 *352:8 *353:10 0.000143791
27 *352:10 *353:10 0.000114645
28 *352:10 *353:16 8.16459e-05
29 *352:10 *353:24 3.47781e-05
*RES
1 *1973:Y *353:6 27.9093 
2 *353:6 *353:10 23.5964 
3 *353:10 *353:16 18.8321 
4 *353:16 *353:24 34.64 
5 *353:24 *1976:A2 23 
6 *353:16 *1974:B 25.0714 
7 *353:10 *1986:A2 38 
8 *353:6 *1995:B 28.4064 
*END

*D_NET *354 0.00155838
*CONN
*I *1975:B1 I *D sky130_fd_sc_hd__a21oi_2
*I *1974:Y O *D sky130_fd_sc_hd__nand2_2
*CAP
1 *1975:B1 0
2 *1974:Y 0.000418968
3 *354:10 0.000418968
4 *354:10 *1987:A2 7.20415e-05
5 *354:10 *1987:B1 3.70094e-05
6 *354:10 *355:10 8.26569e-05
7 *354:10 *473:14 0.000428682
8 *1974:A *354:10 5.50049e-05
9 *353:16 *354:10 4.5051e-05
*RES
1 *1974:Y *354:10 47.2593 
2 *354:10 *1975:B1 38 
*END

*D_NET *355 0.00106201
*CONN
*I *1987:A2 I *D sky130_fd_sc_hd__o21a_2
*I *1977:A_N I *D sky130_fd_sc_hd__and2b_2
*I *1975:Y O *D sky130_fd_sc_hd__a21oi_2
*CAP
1 *1987:A2 0.000118616
2 *1977:A_N 0.000130516
3 *1975:Y 0.000142945
4 *355:10 0.000392077
5 *1977:A_N *1977:B 5.50049e-05
6 *1987:A2 *1987:B1 1.14452e-05
7 *355:10 *1975:A1 5.67058e-05
8 *354:10 *1987:A2 7.20415e-05
9 *354:10 *355:10 8.26569e-05
*RES
1 *1975:Y *355:10 40.8793 
2 *355:10 *1977:A_N 40.5271 
3 *355:10 *1987:A2 40.2579 
*END

*D_NET *356 0.000389046
*CONN
*I *1977:B I *D sky130_fd_sc_hd__and2b_2
*I *1976:X O *D sky130_fd_sc_hd__a21o_2
*CAP
1 *1977:B 9.81951e-05
2 *1976:X 9.81951e-05
3 *1977:B *589:8 0.000137651
4 *1977:A_N *1977:B 5.50049e-05
*RES
1 *1976:X *1977:B 48.0507 
*END

*D_NET *357 0.00105384
*CONN
*I *1980:A1 I *D sky130_fd_sc_hd__o21ba_2
*I *1981:A1 I *D sky130_fd_sc_hd__o21bai_2
*I *1978:Y O *D sky130_fd_sc_hd__nor2_2
*CAP
1 *1980:A1 0
2 *1981:A1 0
3 *1978:Y 0.000148748
4 *357:18 0.000154248
5 *357:10 0.000302997
6 *357:10 *1979:B 0.00013775
7 *357:10 *358:6 0.00010018
8 *357:10 *472:81 5.50106e-05
9 *357:18 *358:6 5.50106e-05
10 *357:18 *358:14 9.98995e-05
11 *357:18 *359:8 0
12 *357:18 *472:14 0
*RES
1 *1978:Y *357:10 27.1221 
2 *357:10 *357:18 33.5836 
3 *357:18 *1981:A1 23 
4 *357:10 *1980:A1 23 
*END

*D_NET *358 0.000866291
*CONN
*I *1980:A2 I *D sky130_fd_sc_hd__o21ba_2
*I *1981:A2 I *D sky130_fd_sc_hd__o21bai_2
*I *1979:X O *D sky130_fd_sc_hd__and2_2
*CAP
1 *1980:A2 0
2 *1981:A2 0
3 *1979:X 8.93087e-05
4 *358:14 0.000103861
5 *358:6 0.00019317
6 *358:14 *1980:B1_N 0.000195248
7 *358:14 *374:10 1.94693e-05
8 *358:14 *513:10 1.01436e-05
9 *357:10 *358:6 0.00010018
10 *357:18 *358:6 5.50106e-05
11 *357:18 *358:14 9.98995e-05
*RES
1 *1979:X *358:6 25.0507 
2 *358:6 *358:14 33.2314 
3 *358:14 *1981:A2 23 
4 *358:6 *1980:A2 23 
*END

*D_NET *359 0.00200573
*CONN
*I *1997:A2 I *D sky130_fd_sc_hd__o21ai_2
*I *2003:A1 I *D sky130_fd_sc_hd__o21ai_2
*I *1998:B1 I *D sky130_fd_sc_hd__o2bb2ai_2
*I *1980:X O *D sky130_fd_sc_hd__o21ba_2
*CAP
1 *1997:A2 0
2 *2003:A1 4.32371e-05
3 *1998:B1 0.00024417
4 *1980:X 0.000113267
5 *359:33 9.55753e-05
6 *359:10 0.000191831
7 *359:8 0.000113267
8 *1998:B1 *1998:B2 0.000193575
9 *1998:B1 *2319:A 0.00010018
10 *1998:B1 *503:8 0.000187129
11 *2003:A1 *1998:B2 4.95081e-05
12 *359:8 *1980:B1_N 6.48142e-05
13 *359:8 *374:10 4.3407e-05
14 *359:8 *592:14 0.000274553
15 *359:33 *373:10 0.000224345
16 *359:33 *375:10 6.6869e-05
17 *359:33 *377:8 0
18 *357:18 *359:8 0
*RES
1 *1980:X *359:8 41.6664 
2 *359:8 *359:10 15 
3 *359:10 *1998:B1 27.9093 
4 *359:10 *2003:A1 24.0979 
5 *1998:B1 *359:33 40.9621 
6 *359:33 *1997:A2 38 
*END

*D_NET *360 0.00247941
*CONN
*I *1984:A I *D sky130_fd_sc_hd__nand2_2
*I *1995:A I *D sky130_fd_sc_hd__and4_4
*I *1981:Y O *D sky130_fd_sc_hd__o21bai_2
*CAP
1 *1984:A 0
2 *1995:A 0
3 *1981:Y 0.000549661
4 *360:16 0.000166198
5 *360:8 0.00071586
6 *360:8 *1981:B1_N 0.000141954
7 *360:8 *1984:B 0.000530622
8 *360:16 *473:47 0.000141954
9 *360:16 *552:10 0
10 *360:16 *591:8 0.000111138
11 *1972:A_N *360:8 0
12 *1995:B *360:16 0.00010018
13 *1995:C *360:16 2.18409e-05
*RES
1 *1981:Y *360:8 34.1236 
2 *360:8 *360:16 34.5364 
3 *360:16 *1995:A 23 
4 *360:8 *1984:A 23 
*END

*D_NET *361 0.000353347
*CONN
*I *1983:B1 I *D sky130_fd_sc_hd__o21ai_2
*I *1982:Y O *D sky130_fd_sc_hd__a21boi_2
*CAP
1 *1983:B1 0.000112048
2 *1982:Y 0.000112048
3 *1983:B1 *473:65 0.000129251
*RES
1 *1982:Y *1983:B1 48.0714 
*END

*D_NET *362 0.00324408
*CONN
*I *1995:D I *D sky130_fd_sc_hd__and4_4
*I *1984:B I *D sky130_fd_sc_hd__nand2_2
*I *1997:B1 I *D sky130_fd_sc_hd__o21ai_2
*I *1996:B I *D sky130_fd_sc_hd__and2_2
*I *1983:Y O *D sky130_fd_sc_hd__o21ai_2
*CAP
1 *1995:D 0
2 *1984:B 0.00020287
3 *1997:B1 0.000281186
4 *1996:B 0
5 *1983:Y 0.000432824
6 *362:42 0.000311882
7 *362:12 0.000473796
8 *362:8 0.000516423
9 *362:8 *373:10 0
10 *362:8 *592:14 0
11 *362:12 *373:10 0
12 *362:12 *592:14 0
13 *362:42 *1983:A2 3.53115e-05
14 *362:42 *373:8 0.000272377
15 *362:42 *473:47 6.51763e-05
16 *362:42 *473:65 3.22879e-05
17 *1996:A *1997:B1 3.22879e-05
18 *1997:A1 *1997:B1 5.70419e-05
19 *360:8 *1984:B 0.000530622
*RES
1 *1983:Y *362:8 40.2579 
2 *362:8 *362:12 17.61 
3 *362:12 *1996:B 23 
4 *362:12 *1997:B1 27.93 
5 *362:8 *1984:B 43.8621 
6 *1983:Y *362:42 29.815 
7 *362:42 *1995:D 23 
*END

*D_NET *363 0.000118198
*CONN
*I *1985:A I *D sky130_fd_sc_hd__inv_2
*I *1984:Y O *D sky130_fd_sc_hd__nand2_2
*CAP
1 *1985:A 5.90989e-05
2 *1984:Y 5.90989e-05
*RES
1 *1984:Y *1985:A 47.0979 
*END

*D_NET *364 0.00255906
*CONN
*I *1986:B1 I *D sky130_fd_sc_hd__a211oi_2
*I *1987:B1 I *D sky130_fd_sc_hd__o21a_2
*I *1985:Y O *D sky130_fd_sc_hd__inv_2
*CAP
1 *1986:B1 0
2 *1987:B1 0.000259843
3 *1985:Y 0.000696941
4 *364:10 0.000956783
5 *1987:B1 *366:8 0
6 *1987:B1 *473:14 0.000106516
7 *364:10 *473:12 7.55491e-05
8 *364:10 *473:14 0.000117121
9 *1972:A_N *364:10 0.000128
10 *1987:A1 *1987:B1 0.000141954
11 *1987:A2 *1987:B1 1.14452e-05
12 *349:8 *364:10 2.79004e-05
13 *351:8 *364:10 0
14 *354:10 *1987:B1 3.70094e-05
*RES
1 *1985:Y *364:10 48.9371 
2 *364:10 *1987:B1 43.3857 
3 *364:10 *1986:B1 38 
*END

*D_NET *365 0.000186941
*CONN
*I *1988:A I *D sky130_fd_sc_hd__nor2_4
*I *1986:Y O *D sky130_fd_sc_hd__a211oi_2
*CAP
1 *1988:A 7.73266e-05
2 *1986:Y 7.73266e-05
3 *1986:A1 *1988:A 0
4 *1986:C1 *1988:A 3.22879e-05
*RES
1 *1986:Y *1988:A 47.595 
*END

*D_NET *366 0.000628019
*CONN
*I *1988:B I *D sky130_fd_sc_hd__nor2_4
*I *1987:X O *D sky130_fd_sc_hd__o21a_2
*CAP
1 *1988:B 0.000119752
2 *1987:X 9.66663e-05
3 *366:8 0.000216418
4 *1986:C1 *1988:B 5.3304e-05
5 *1987:A1 *366:8 0.000141879
6 *1987:B1 *366:8 0
*RES
1 *1987:X *366:8 39.9057 
2 *366:8 *1988:B 40.0507 
*END

*D_NET *367 0.00197611
*CONN
*I *1992:A1 I *D sky130_fd_sc_hd__o21ai_2
*I *1991:B I *D sky130_fd_sc_hd__or3_4
*I *1989:Y O *D sky130_fd_sc_hd__nor2_2
*CAP
1 *1992:A1 0.00047724
2 *1991:B 0
3 *1989:Y 0.000230615
4 *367:12 0.00047724
5 *367:10 0.000230615
6 *1992:A1 *1991:C 5.70419e-05
7 *1992:A1 *1992:A2 0.000259129
8 *1992:A1 *368:12 5.90675e-06
9 *367:10 *1989:A 8.52481e-05
10 *367:10 *368:8 5.45887e-05
11 *367:10 *472:106 9.84851e-05
12 *367:10 *515:8 0
13 *367:10 *554:14 0
*RES
1 *1989:Y *367:10 41.9564 
2 *367:10 *367:12 15 
3 *367:12 *1991:B 23 
4 *367:12 *1992:A1 30.685 
*END

*D_NET *368 0.00128542
*CONN
*I *1991:C I *D sky130_fd_sc_hd__or3_4
*I *1992:A2 I *D sky130_fd_sc_hd__o21ai_2
*I *1990:X O *D sky130_fd_sc_hd__and2_2
*CAP
1 *1991:C 5.2211e-05
2 *1992:A2 0.000175639
3 *1990:X 8.81617e-05
4 *368:12 0.000247514
5 *368:8 0.000107826
6 *368:8 *554:14 0
7 *1991:A *1991:C 4.00259e-06
8 *1992:A1 *1991:C 5.70419e-05
9 *1992:A1 *1992:A2 0.000259129
10 *1992:A1 *368:12 5.90675e-06
11 *1992:B1 *1992:A2 0.000151601
12 *104:6 *1991:C 7.42621e-05
13 *104:6 *1992:A2 7.53384e-06
14 *367:10 *368:8 5.45887e-05
*RES
1 *1990:X *368:8 39.5536 
2 *368:8 *368:12 15.4971 
3 *368:12 *1992:A2 28.4064 
4 *368:12 *1991:C 25.0714 
*END

*D_NET *369 0.00124028
*CONN
*I *1993:A I *D sky130_fd_sc_hd__nand2_2
*I *2003:B1 I *D sky130_fd_sc_hd__o21ai_2
*I *1991:X O *D sky130_fd_sc_hd__or3_4
*CAP
1 *1993:A 0
2 *2003:B1 7.6584e-05
3 *1991:X 0.000229249
4 *369:14 0.00024578
5 *369:8 0.000398444
6 *2003:B1 *371:8 3.22879e-05
7 *369:8 *370:8 0.000192691
8 *369:8 *554:14 1.02387e-05
9 *369:14 *1993:B 5.50049e-05
*RES
1 *1991:X *369:8 43.4271 
2 *369:8 *369:14 18.0243 
3 *369:14 *2003:B1 24.5743 
4 *369:14 *1993:A 23 
*END

*D_NET *370 0.00251995
*CONN
*I *1993:B I *D sky130_fd_sc_hd__nand2_2
*I *2004:A I *D sky130_fd_sc_hd__nand2_2
*I *2022:A1 I *D sky130_fd_sc_hd__a31o_2
*I *1992:Y O *D sky130_fd_sc_hd__o21ai_2
*CAP
1 *1993:B 2.95294e-05
2 *2004:A 0
3 *2022:A1 0
4 *1992:Y 0.000174708
5 *370:24 0.000168009
6 *370:14 0.000612571
7 *370:8 0.000648799
8 *370:8 *472:14 6.7177e-06
9 *370:8 *472:18 6.78463e-05
10 *370:8 *554:14 0.000168754
11 *370:14 *472:18 0.000149011
12 *370:24 *2022:A2 0.000114083
13 *370:24 *381:10 1.59094e-05
14 *370:24 *388:8 0.000116314
15 *369:8 *370:8 0.000192691
16 *369:14 *1993:B 5.50049e-05
*RES
1 *1992:Y *370:8 43.4271 
2 *370:8 *370:14 24.2593 
3 *370:14 *370:24 33.625 
4 *370:24 *2022:A1 23 
5 *370:14 *2004:A 23 
6 *370:8 *1993:B 38.6214 
*END

*D_NET *371 0.00444573
*CONN
*I *1999:C1 I *D sky130_fd_sc_hd__a211o_2
*I *1994:A I *D sky130_fd_sc_hd__inv_2
*I *2000:A I *D sky130_fd_sc_hd__nand2_2
*I *1993:Y O *D sky130_fd_sc_hd__nand2_2
*CAP
1 *1999:C1 0
2 *1994:A 0.000221715
3 *2000:A 0
4 *1993:Y 0.000707522
5 *371:31 0.000275194
6 *371:22 0.000398637
7 *371:8 0.00115964
8 *1994:A *372:10 5.67058e-05
9 *1994:A *373:18 0.000154038
10 *1994:A *375:10 1.14452e-05
11 *371:8 *1998:B2 0.000661051
12 *371:8 *2003:A2 2.4754e-05
13 *371:8 *380:10 9.84851e-05
14 *371:8 *503:8 2.13733e-05
15 *371:22 *2000:B 0.000265472
16 *371:22 *377:8 5.11142e-05
17 *371:22 *503:8 8.06804e-06
18 *371:22 *505:12 5.50049e-05
19 *371:31 *373:18 7.03663e-05
20 *371:31 *375:10 0.000130424
21 *2003:B1 *371:8 3.22879e-05
22 *347:14 *1994:A 0
23 *347:27 *1994:A 0
24 *347:48 *1994:A 0
25 *347:48 *371:22 4.24315e-05
26 *352:10 *371:22 0
*RES
1 *1993:Y *371:8 34.6 
2 *371:8 *371:22 36.1936 
3 *371:22 *2000:A 23 
4 *371:8 *371:31 16.9057 
5 *371:31 *1994:A 42.4121 
6 *371:31 *1999:C1 38 
*END

*D_NET *372 0.00248328
*CONN
*I *2002:B I *D sky130_fd_sc_hd__nand3_4
*I *2020:A I *D sky130_fd_sc_hd__and4_2
*I *2021:A I *D sky130_fd_sc_hd__nand4_2
*I *1994:Y O *D sky130_fd_sc_hd__inv_2
*CAP
1 *2002:B 0
2 *2020:A 7.1836e-05
3 *2021:A 0.000281587
4 *1994:Y 0.000167889
5 *372:12 0.000404866
6 *372:10 0.000219331
7 *2020:A *2020:B 6.17437e-06
8 *2021:A *2020:B 6.25829e-05
9 *2021:A *373:26 0.00021673
10 *2021:A *384:18 0
11 *2021:A *384:26 0.000114092
12 *372:10 *2020:B 1.14452e-05
13 *372:10 *373:18 1.22822e-05
14 *372:10 *373:26 0.00030242
15 *372:10 *504:8 0.000132665
16 *372:12 *2020:B 0.000197479
17 *372:12 *373:26 0.000187335
18 *1994:A *372:10 5.67058e-05
19 *344:18 *2020:A 3.78598e-05
*RES
1 *1994:Y *372:10 42.785 
2 *372:10 *372:12 2.61 
3 *372:12 *2021:A 43.9864 
4 *372:12 *2020:A 39.0979 
5 *372:10 *2002:B 38 
*END

*D_NET *373 0.00465129
*CONN
*I *2319:A I *D sky130_fd_sc_hd__buf_2
*I *2320:A I *D sky130_fd_sc_hd__buf_2
*I *2021:B I *D sky130_fd_sc_hd__nand4_2
*I *1995:X O *D sky130_fd_sc_hd__and4_4
*CAP
1 *2319:A 8.47018e-05
2 *2320:A 0
3 *2021:B 0
4 *1995:X 5.7536e-05
5 *373:26 0.000424806
6 *373:18 0.000772722
7 *373:10 0.000871723
8 *373:8 0.000496642
9 *2319:A *1998:B2 0.000143655
10 *2319:A *503:8 2.18506e-05
11 *373:8 *473:47 0.000131304
12 *373:10 *375:10 1.11421e-05
13 *373:10 *591:8 0
14 *373:18 *375:10 1.08118e-05
15 *373:26 *384:26 1.37246e-05
16 *373:26 *397:8 4.21594e-06
17 *1994:A *373:18 0.000154038
18 *1998:B1 *2319:A 0.00010018
19 *2021:A *373:26 0.00021673
20 *347:14 *373:26 6.63801e-05
21 *359:33 *373:10 0.000224345
22 *362:8 *373:10 0
23 *362:12 *373:10 0
24 *362:42 *373:8 0.000272377
25 *371:31 *373:18 7.03663e-05
26 *372:10 *373:18 1.22822e-05
27 *372:10 *373:26 0.00030242
28 *372:12 *373:26 0.000187335
*RES
1 *1995:X *373:8 41.0036 
2 *373:8 *373:10 9.12464 
3 *373:10 *373:18 22.3225 
4 *373:18 *373:26 40.295 
5 *373:26 *2021:B 23 
6 *373:18 *2320:A 23 
7 *373:10 *2319:A 40.5168 
*END

*D_NET *374 0.00252958
*CONN
*I *2003:A2 I *D sky130_fd_sc_hd__o21ai_2
*I *1998:B2 I *D sky130_fd_sc_hd__o2bb2ai_2
*I *1996:X O *D sky130_fd_sc_hd__and2_2
*CAP
1 *2003:A2 2.42483e-05
2 *1998:B2 0.00018011
3 *1996:X 0.000469831
4 *374:12 0.000204358
5 *374:10 0.000469831
6 *1998:B2 *503:8 1.41077e-05
7 *1998:B2 *505:12 0
8 *374:10 *1980:B1_N 3.16784e-05
9 *374:10 *472:18 0
10 *374:10 *592:14 0
11 *1998:B1 *1998:B2 0.000193575
12 *2003:A1 *1998:B2 4.95081e-05
13 *2319:A *1998:B2 0.000143655
14 *358:14 *374:10 1.94693e-05
15 *359:8 *374:10 4.3407e-05
16 *371:8 *1998:B2 0.000661051
17 *371:8 *2003:A2 2.4754e-05
*RES
1 *1996:X *374:10 44.6907 
2 *374:10 *374:12 15 
3 *374:12 *1998:B2 31.2857 
4 *374:12 *2003:A2 23.6214 
*END

*D_NET *375 0.000785138
*CONN
*I *1999:B1 I *D sky130_fd_sc_hd__a211o_2
*I *1997:Y O *D sky130_fd_sc_hd__o21ai_2
*CAP
1 *1999:B1 0
2 *1997:Y 0.00022651
3 *375:10 0.00022651
4 *375:10 *377:8 0
5 *375:10 *503:14 7.20519e-05
6 *1994:A *375:10 1.14452e-05
7 *1997:A1 *375:10 2.93747e-05
8 *359:33 *375:10 6.6869e-05
9 *371:31 *375:10 0.000130424
10 *373:10 *375:10 1.11421e-05
11 *373:18 *375:10 1.08118e-05
*RES
1 *1997:Y *375:10 43.3443 
2 *375:10 *1999:B1 38 
*END

*D_NET *376 0.000701298
*CONN
*I *2000:B I *D sky130_fd_sc_hd__nand2_2
*I *1998:Y O *D sky130_fd_sc_hd__o2bb2ai_2
*CAP
1 *2000:B 0.000147976
2 *1998:Y 0.000147976
3 *2000:B *503:8 5.12328e-05
4 *2000:B *505:12 7.62051e-05
5 *347:48 *2000:B 1.24376e-05
6 *371:22 *2000:B 0.000265472
*RES
1 *1998:Y *2000:B 49.9771 
*END

*D_NET *377 0.000729513
*CONN
*I *2001:A I *D sky130_fd_sc_hd__nand2_2
*I *1999:X O *D sky130_fd_sc_hd__a211o_2
*CAP
1 *2001:A 0
2 *1999:X 0.000225315
3 *377:8 0.000225315
4 *377:8 *378:10 4.95442e-05
5 *377:8 *503:14 7.81176e-05
6 *377:8 *591:8 6.38845e-05
7 *347:48 *377:8 3.62219e-05
8 *359:33 *377:8 0
9 *371:22 *377:8 5.11142e-05
10 *375:10 *377:8 0
*RES
1 *1999:X *377:8 43.075 
2 *377:8 *2001:A 38 
*END

*D_NET *378 0.000438453
*CONN
*I *2001:B I *D sky130_fd_sc_hd__nand2_2
*I *2000:Y O *D sky130_fd_sc_hd__nand2_2
*CAP
1 *2001:B 0
2 *2000:Y 0.000146368
3 *378:10 0.000146368
4 *378:10 *505:12 3.22879e-05
5 *378:10 *552:10 0
6 *378:10 *591:8 6.38845e-05
7 *352:8 *378:10 0
8 *352:10 *378:10 0
9 *377:8 *378:10 4.95442e-05
*RES
1 *2000:Y *378:10 40.8793 
2 *378:10 *2001:B 38 
*END

*D_NET *379 0.00173944
*CONN
*I *2011:A2_N I *D sky130_fd_sc_hd__o2bb2ai_2
*I *2012:A I *D sky130_fd_sc_hd__nand4_2
*I *2002:Y O *D sky130_fd_sc_hd__nand3_4
*CAP
1 *2011:A2_N 0.000184423
2 *2012:A 0.000149808
3 *2002:Y 0.000399016
4 *379:10 0.000733247
5 *2012:A *384:26 0
6 *2012:A *387:48 0
7 *2012:A *389:8 9.28739e-05
8 *379:10 *389:8 8.26569e-05
9 *344:18 *2012:A 1.83667e-05
10 *344:18 *379:10 7.90464e-05
*RES
1 *2002:Y *379:10 44.2143 
2 *379:10 *2012:A 40.61 
3 *379:10 *2011:A2_N 41.0036 
*END

*D_NET *380 0.00133107
*CONN
*I *2004:B I *D sky130_fd_sc_hd__nand2_2
*I *2022:A2 I *D sky130_fd_sc_hd__a31o_2
*I *2003:Y O *D sky130_fd_sc_hd__o21ai_2
*CAP
1 *2004:B 0
2 *2022:A2 0.000178172
3 *2003:Y 0.000346193
4 *380:10 0.000524365
5 *2022:A2 *2022:B1 1.24376e-05
6 *2022:A2 *388:8 1.22803e-05
7 *2022:A2 *401:8 4.5051e-05
8 *2022:A2 *472:18 0
9 *380:10 *381:10 0
10 *380:10 *472:18 0
11 *380:10 *592:14 0
12 *370:24 *2022:A2 0.000114083
13 *371:8 *380:10 9.84851e-05
*RES
1 *2003:Y *380:10 44.525 
2 *380:10 *2022:A2 41.9979 
3 *380:10 *2004:B 38 
*END

*D_NET *381 0.00196781
*CONN
*I *2011:A1_N I *D sky130_fd_sc_hd__o2bb2ai_2
*I *2012:B I *D sky130_fd_sc_hd__nand4_2
*I *2004:Y O *D sky130_fd_sc_hd__nand2_2
*CAP
1 *2011:A1_N 0
2 *2012:B 0.000162758
3 *2004:Y 0.000399674
4 *381:10 0.000562432
5 *2012:B *2012:C 5.90675e-06
6 *2012:B *2022:A3 0.000159531
7 *2012:B *384:14 2.93747e-05
8 *2012:B *384:18 5.70419e-05
9 *2012:B *387:23 3.47781e-05
10 *2012:B *387:31 0.000141954
11 *2012:B *389:8 0
12 *381:10 *2013:A 7.59794e-05
13 *381:10 *2022:A3 0.000222104
14 *381:10 *388:8 6.11286e-05
15 *381:10 *389:8 0
16 *381:10 *592:14 3.92407e-05
17 *370:24 *381:10 1.59094e-05
18 *380:10 *381:10 0
*RES
1 *2004:Y *381:10 46.6586 
2 *381:10 *2012:B 42.6814 
3 *381:10 *2011:A1_N 38 
*END

*D_NET *382 0.00202677
*CONN
*I *2010:A1 I *D sky130_fd_sc_hd__o21bai_2
*I *2009:A1 I *D sky130_fd_sc_hd__o21ba_2
*I *2007:A I *D sky130_fd_sc_hd__or3b_4
*I *2005:Y O *D sky130_fd_sc_hd__nor2_2
*CAP
1 *2010:A1 0
2 *2009:A1 9.37637e-05
3 *2007:A 0.000223457
4 *2005:Y 0.000135957
5 *382:10 0.000317221
6 *382:8 0.000135957
7 *2007:A *2007:B 9.84851e-05
8 *2007:A *2007:C_N 0.000180218
9 *2007:A *384:8 0.00021263
10 *2007:A *387:14 6.16531e-05
11 *2009:A1 *384:8 0.00019654
12 *2009:A1 *387:14 0.000181934
13 *382:8 *2005:B 0.000188954
*RES
1 *2005:Y *382:8 25.4236 
2 *382:8 *382:10 15 
3 *382:10 *2007:A 43.0129 
4 *382:10 *2009:A1 40.61 
5 *382:8 *2010:A1 23 
*END

*D_NET *383 0.00186571
*CONN
*I *2010:A2 I *D sky130_fd_sc_hd__o21bai_2
*I *2009:A2 I *D sky130_fd_sc_hd__o21ba_2
*I *2007:B I *D sky130_fd_sc_hd__or3b_4
*I *2006:X O *D sky130_fd_sc_hd__and2_2
*CAP
1 *2010:A2 0
2 *2009:A2 8.93447e-05
3 *2007:B 0.00023712
4 *2006:X 9.24401e-05
5 *383:10 0.000326464
6 *383:8 9.24401e-05
7 *2007:B *2007:C_N 2.4754e-05
8 *2007:B *384:8 0.000239496
9 *2009:A2 *2007:C_N 0
10 *2009:A2 *2009:B1_N 0
11 *2009:A2 *384:8 0.000185104
12 *2009:A2 *386:8 2.46933e-05
13 *383:8 *2005:A 0.000167277
14 *383:8 *2005:B 0.000133698
15 *383:8 *387:14 1.24376e-05
16 *383:8 *517:10 8.6949e-05
17 *383:8 *517:14 5.50106e-05
18 *2007:A *2007:B 9.84851e-05
*RES
1 *2006:X *383:8 26.9771 
2 *383:8 *383:10 15 
3 *383:10 *2007:B 42.8886 
4 *383:10 *2009:A2 40.61 
5 *383:8 *2010:A2 23 
*END

*D_NET *384 0.00338464
*CONN
*I *2008:A I *D sky130_fd_sc_hd__inv_2
*I *2012:C I *D sky130_fd_sc_hd__nand4_2
*I *2021:C I *D sky130_fd_sc_hd__nand4_2
*I *2020:C I *D sky130_fd_sc_hd__and4_2
*I *2007:X O *D sky130_fd_sc_hd__or3b_4
*CAP
1 *2008:A 3.79282e-05
2 *2012:C 1.54013e-05
3 *2021:C 0
4 *2020:C 0
5 *2007:X 0.000377327
6 *384:26 0.00011764
7 *384:18 0.000422061
8 *384:14 0.000422623
9 *384:10 0.000140729
10 *384:8 0.000377327
11 *384:8 *386:8 0
12 *384:8 *387:14 0.00014408
13 *384:8 *387:23 1.14452e-05
14 *384:14 *387:31 1.21972e-05
15 *384:18 *2021:D 8.77027e-05
16 *384:18 *387:31 0.000164266
17 *384:26 *387:48 0
18 *2007:A *384:8 0.00021263
19 *2007:B *384:8 0.000239496
20 *2009:A1 *384:8 0.00019654
21 *2009:A2 *384:8 0.000185104
22 *2012:A *384:26 0
23 *2012:B *2012:C 5.90675e-06
24 *2012:B *384:14 2.93747e-05
25 *2012:B *384:18 5.70419e-05
26 *2021:A *384:18 0
27 *2021:A *384:26 0.000114092
28 *373:26 *384:26 1.37246e-05
*RES
1 *2007:X *384:8 47.6529 
2 *384:8 *384:10 15 
3 *384:10 *384:14 2.07143 
4 *384:14 *384:18 7.78857 
5 *384:18 *384:26 32.5271 
6 *384:26 *2020:C 23 
7 *384:18 *2021:C 23 
8 *384:14 *2012:C 23.4971 
9 *384:10 *2008:A 23.6214 
*END

*D_NET *385 0.000910884
*CONN
*I *2022:B1 I *D sky130_fd_sc_hd__a31o_2
*I *2011:B1 I *D sky130_fd_sc_hd__o2bb2ai_2
*I *2008:Y O *D sky130_fd_sc_hd__inv_2
*CAP
1 *2022:B1 0.000152276
2 *2011:B1 0
3 *2008:Y 0.000149069
4 *385:10 0.000301345
5 *2022:B1 *2022:A3 0
6 *2022:B1 *388:8 9.88678e-05
7 *2022:B1 *401:8 5.50106e-05
8 *2022:B1 *472:18 0
9 *385:10 *2022:A3 0
10 *385:10 *386:8 0.000141879
11 *385:10 *472:18 0
12 *2022:A2 *2022:B1 1.24376e-05
*RES
1 *2008:Y *385:10 40.8793 
2 *385:10 *2011:B1 38 
3 *385:10 *2022:B1 41.5836 
*END

*D_NET *386 0.000816326
*CONN
*I *2011:B2 I *D sky130_fd_sc_hd__o2bb2ai_2
*I *2009:X O *D sky130_fd_sc_hd__o21ba_2
*CAP
1 *2011:B2 0
2 *2009:X 0.000291359
3 *386:8 0.000291359
4 *386:8 *2009:B1_N 6.70363e-05
5 *386:8 *387:23 0
6 *386:8 *472:18 0
7 *2009:A2 *386:8 2.46933e-05
8 *384:8 *386:8 0
9 *385:10 *386:8 0.000141879
*RES
1 *2009:X *386:8 44.4836 
2 *386:8 *2011:B2 38 
*END

*D_NET *387 0.00459889
*CONN
*I *2022:A3 I *D sky130_fd_sc_hd__a31o_2
*I *2020:D I *D sky130_fd_sc_hd__and4_2
*I *2021:D I *D sky130_fd_sc_hd__nand4_2
*I *2012:D I *D sky130_fd_sc_hd__nand4_2
*I *2010:Y O *D sky130_fd_sc_hd__o21bai_2
*CAP
1 *2022:A3 0.000195792
2 *2020:D 0
3 *2021:D 9.1766e-05
4 *2012:D 0
5 *2010:Y 0.000433618
6 *387:48 0.000245525
7 *387:31 0.000709363
8 *387:23 0.000601652
9 *387:14 0.000467405
10 *2022:A3 *388:8 9.63815e-05
11 *2022:A3 *401:8 5.50106e-05
12 *387:14 *2005:A 0.000136738
13 *387:14 *2005:B 0.000102655
14 *387:14 *389:8 0
15 *387:23 *389:8 0
16 *2007:A *387:14 6.16531e-05
17 *2009:A1 *387:14 0.000181934
18 *2012:A *387:48 0
19 *2012:B *2022:A3 0.000159531
20 *2012:B *387:23 3.47781e-05
21 *2012:B *387:31 0.000141954
22 *2022:B1 *2022:A3 0
23 *344:18 *387:48 0.000228903
24 *381:10 *2022:A3 0.000222104
25 *383:8 *387:14 1.24376e-05
26 *384:8 *387:14 0.00014408
27 *384:8 *387:23 1.14452e-05
28 *384:14 *387:31 1.21972e-05
29 *384:18 *2021:D 8.77027e-05
30 *384:18 *387:31 0.000164266
31 *384:26 *387:48 0
32 *385:10 *2022:A3 0
33 *386:8 *387:23 0
*RES
1 *2010:Y *387:14 46.8243 
2 *387:14 *2012:D 38 
3 *387:14 *387:23 0.849286 
4 *387:23 *387:31 21.5043 
5 *387:31 *2021:D 25.0714 
6 *387:31 *387:48 34.0807 
7 *387:48 *2020:D 23 
8 *387:23 *2022:A3 43.6964 
*END

*D_NET *388 0.00111944
*CONN
*I *2013:A I *D sky130_fd_sc_hd__nand2_2
*I *2011:Y O *D sky130_fd_sc_hd__o2bb2ai_2
*CAP
1 *2013:A 0.0001333
2 *2011:Y 0.000195946
3 *388:8 0.000329245
4 *388:8 *472:18 0
5 *2022:A2 *388:8 1.22803e-05
6 *2022:A3 *388:8 9.63815e-05
7 *2022:B1 *388:8 9.88678e-05
8 *370:24 *388:8 0.000116314
9 *381:10 *2013:A 7.59794e-05
10 *381:10 *388:8 6.11286e-05
*RES
1 *2011:Y *388:8 43.075 
2 *388:8 *2013:A 40.5271 
*END

*D_NET *389 0.000986757
*CONN
*I *2013:B I *D sky130_fd_sc_hd__nand2_2
*I *2012:Y O *D sky130_fd_sc_hd__nand4_2
*CAP
1 *2013:B 0
2 *2012:Y 0.000405613
3 *389:8 0.000405613
4 *2012:A *389:8 9.28739e-05
5 *2012:B *389:8 0
6 *344:18 *389:8 0
7 *379:10 *389:8 8.26569e-05
8 *381:10 *389:8 0
9 *387:14 *389:8 0
10 *387:23 *389:8 0
*RES
1 *2012:Y *389:8 46.2443 
2 *389:8 *2013:B 38 
*END

*D_NET *390 0.00048444
*CONN
*I *2016:A1 I *D sky130_fd_sc_hd__o21bai_2
*I *2017:A I *D sky130_fd_sc_hd__or3b_4
*I *2014:Y O *D sky130_fd_sc_hd__nor2_2
*CAP
1 *2016:A1 1.49804e-05
2 *2017:A 0
3 *2014:Y 0
4 *390:10 0.000172229
5 *390:4 0.00018721
6 *2016:A1 *2014:B 5.50106e-05
7 *2016:A1 *2015:A 5.50106e-05
8 *390:10 *2017:B 0
9 *390:10 *473:89 0
*RES
1 *2014:Y *390:4 23 
2 *390:4 *390:10 32.9621 
3 *390:10 *2017:A 23 
4 *390:4 *2016:A1 23.6214 
*END

*D_NET *391 0.00168678
*CONN
*I *2016:A2 I *D sky130_fd_sc_hd__o21bai_2
*I *2017:B I *D sky130_fd_sc_hd__or3b_4
*I *2015:X O *D sky130_fd_sc_hd__and2_2
*CAP
1 *2016:A2 0
2 *2017:B 0.00024602
3 *2015:X 0.000336217
4 *391:10 0.000582237
5 *2017:B *2017:C_N 0.000187129
6 *2017:B *522:19 0
7 *391:10 *2014:B 0.000140259
8 *391:10 *2015:B 0.000185434
9 *391:10 *522:19 0
10 *391:10 *557:8 9.48381e-06
11 *390:10 *2017:B 0
*RES
1 *2015:X *391:10 43.2821 
2 *391:10 *2017:B 43.0129 
3 *391:10 *2016:A2 38 
*END

*D_NET *392 0.00161469
*CONN
*I *2018:A I *D sky130_fd_sc_hd__nand2_2
*I *2028:A1 I *D sky130_fd_sc_hd__a21o_2
*I *2016:Y O *D sky130_fd_sc_hd__o21bai_2
*CAP
1 *2018:A 0
2 *2028:A1 7.88106e-05
3 *2016:Y 0.000385827
4 *392:12 7.88106e-05
5 *392:10 0.000385827
6 *2028:A1 *2028:A2 0.000143655
7 *392:10 *2015:A 0.00031345
8 *392:10 *2028:B1 0
9 *392:10 *394:8 6.48142e-05
10 *392:10 *472:88 9.91895e-05
11 *392:10 *473:89 6.43005e-05
*RES
1 *2016:Y *392:10 46.4721 
2 *392:10 *392:12 15 
3 *392:12 *2028:A1 25.0507 
4 *392:12 *2018:A 23 
*END

*D_NET *393 0.00376599
*CONN
*I *2018:B I *D sky130_fd_sc_hd__nand2_2
*I *2028:A2 I *D sky130_fd_sc_hd__a21o_2
*I *2037:A1_N I *D sky130_fd_sc_hd__o2bb2ai_2
*I *2036:A I *D sky130_fd_sc_hd__nand4_2
*I *2059:A2 I *D sky130_fd_sc_hd__o211a_2
*I *2048:A2 I *D sky130_fd_sc_hd__o21a_2
*I *2017:X O *D sky130_fd_sc_hd__or3b_4
*CAP
1 *2018:B 2.14194e-05
2 *2028:A2 0.000140046
3 *2037:A1_N 0.000116512
4 *2036:A 0
5 *2059:A2 2.97861e-05
6 *2048:A2 4.74553e-05
7 *2017:X 4.31274e-05
8 *393:54 0.000234364
9 *393:18 0.00043014
10 *393:12 0.000449614
11 *393:10 0.000377617
12 *393:6 0.000280415
13 *2048:A2 *2048:B1 0.000131304
14 *2048:A2 *2059:A1 0.000171063
15 *2048:A2 *409:16 6.52494e-06
16 *2048:A2 *422:10 3.7122e-06
17 *2059:A2 *2048:B1 3.22879e-05
18 *2059:A2 *409:16 1.76557e-05
19 *393:6 *2017:C_N 2.32101e-05
20 *393:10 *408:8 4.6318e-06
21 *393:10 *411:12 4.99753e-06
22 *393:10 *412:8 0.000199701
23 *393:10 *473:89 0.000173303
24 *393:12 *2037:B2 0
25 *393:12 *408:8 8.51329e-05
26 *393:12 *411:12 7.76364e-06
27 *393:12 *473:89 0.000107548
28 *393:18 *2037:B2 0
29 *393:18 *2048:B1 0
30 *393:18 *2059:B1 1.19692e-05
31 *393:18 *407:8 9.40162e-05
32 *393:18 *407:36 8.93489e-05
33 *393:18 *473:89 0.000230966
34 *393:54 *2017:C_N 5.67058e-05
35 *2028:A1 *2028:A2 0.000143655
*RES
1 *2017:X *393:6 23.6214 
2 *393:6 *393:10 19.7229 
3 *393:10 *393:12 2.96214 
4 *393:12 *393:18 23.7414 
5 *393:18 *2048:A2 25.5271 
6 *393:18 *2059:A2 24.1186 
7 *393:12 *2036:A 38 
8 *393:10 *2037:A1_N 39.5743 
9 *393:6 *393:54 1.595 
10 *393:54 *2028:A2 25.5271 
11 *393:54 *2018:B 23.4971 
*END

*D_NET *394 0.00311685
*CONN
*I *2019:A I *D sky130_fd_sc_hd__inv_2
*I *2027:B1 I *D sky130_fd_sc_hd__a21o_2
*I *2018:Y O *D sky130_fd_sc_hd__nand2_2
*CAP
1 *2019:A 0
2 *2027:B1 0.00013682
3 *2018:Y 0.000348592
4 *394:16 0.000373786
5 *394:8 0.000585558
6 *2027:B1 *403:6 0.000183733
7 *394:8 *2028:B1 0
8 *394:8 *2029:A 4.06408e-05
9 *394:8 *2036:C 5.33704e-05
10 *394:8 *2045:B 0.000219882
11 *394:8 *473:89 0.00074963
12 *394:16 *403:6 6.42586e-05
13 *394:16 *410:16 0.000295765
14 *392:10 *394:8 6.48142e-05
*RES
1 *2018:Y *394:8 48.005 
2 *394:8 *394:16 19.8264 
3 *394:16 *2027:B1 26.0036 
4 *394:16 *2019:A 23 
*END

*D_NET *395 0.000260169
*CONN
*I *2045:A I *D sky130_fd_sc_hd__and3_2
*I *2019:Y O *D sky130_fd_sc_hd__inv_2
*CAP
1 *2045:A 0
2 *2019:Y 6.08055e-05
3 *395:8 6.08055e-05
4 *395:8 *2028:B1 0.000113153
5 *395:8 *419:10 2.54046e-05
*RES
1 *2019:Y *395:8 39.5536 
2 *395:8 *2045:A 38 
*END

*D_NET *396 0.000608273
*CONN
*I *2025:A2 I *D sky130_fd_sc_hd__a21oi_4
*I *2020:X O *D sky130_fd_sc_hd__and4_2
*CAP
1 *2025:A2 0
2 *2020:X 0.000176735
3 *396:10 0.000176735
4 *396:10 *2020:B 0
5 *344:18 *396:10 0.000254803
*RES
1 *2020:X *396:10 42.5364 
2 *396:10 *2025:A2 38 
*END

*D_NET *397 0.000932572
*CONN
*I *2023:A I *D sky130_fd_sc_hd__nor3_4
*I *2021:Y O *D sky130_fd_sc_hd__nand4_2
*CAP
1 *2023:A 7.72334e-05
2 *2021:Y 0.000288205
3 *397:8 0.000365439
4 *1966:A2 *397:8 0
5 *262:21 *397:8 0.000197479
6 *373:26 *397:8 4.21594e-06
*RES
1 *2021:Y *397:8 43.7793 
2 *397:8 *2023:A 39.0979 
*END

*D_NET *398 0.000114064
*CONN
*I *2025:B1 I *D sky130_fd_sc_hd__a21oi_4
*I *2022:X O *D sky130_fd_sc_hd__a31o_2
*CAP
1 *2025:B1 2.95294e-05
2 *2022:X 2.95294e-05
3 *2025:B1 *401:8 5.50049e-05
*RES
1 *2022:X *2025:B1 46.6214 
*END

*D_NET *399 0.000504162
*CONN
*I *2024:C1 I *D sky130_fd_sc_hd__o211ai_4
*I *2023:Y O *D sky130_fd_sc_hd__nor3_4
*CAP
1 *2024:C1 0
2 *2023:Y 0.000182717
3 *399:10 0.000182717
4 *399:10 *473:14 0
5 *261:12 *399:10 0.000138727
*RES
1 *2023:Y *399:10 41.0036 
2 *399:10 *2024:C1 38 
*END

*D_NET *400 0.00432156
*CONN
*I *2027:A1 I *D sky130_fd_sc_hd__a21o_2
*I *2046:A2 I *D sky130_fd_sc_hd__a21boi_2
*I *2026:A I *D sky130_fd_sc_hd__nand2_2
*I *2024:Y O *D sky130_fd_sc_hd__o211ai_4
*CAP
1 *2027:A1 0.000118296
2 *2046:A2 0.000107513
3 *2026:A 5.145e-05
4 *2024:Y 0.00135111
5 *400:21 0.000302231
6 *400:10 0.0002296
7 *400:6 0.00145284
8 *2027:A1 *401:12 9.27917e-05
9 *2027:A1 *419:10 0
10 *2027:A1 *421:10 1.83667e-05
11 *2027:A1 *472:18 0
12 *400:10 *2026:B 4.6318e-06
13 *400:10 *420:8 0.000195248
14 *400:10 *472:18 0
15 *400:21 *2026:B 9.52677e-05
16 *400:21 *401:12 1.83564e-05
17 *400:21 *420:8 0.000141888
18 *400:21 *421:10 4.17929e-05
19 *1966:A1 *400:6 0.00010018
*RES
1 *2024:Y *400:6 45.0607 
2 *400:6 *400:10 17.61 
3 *400:10 *2026:A 38.6214 
4 *400:10 *400:21 2.96214 
5 *400:21 *2046:A2 39.5743 
6 *400:21 *2027:A1 40.9621 
*END

*D_NET *401 0.0022518
*CONN
*I *2027:A2 I *D sky130_fd_sc_hd__a21o_2
*I *2046:A1 I *D sky130_fd_sc_hd__a21boi_2
*I *2026:B I *D sky130_fd_sc_hd__nand2_2
*I *2025:Y O *D sky130_fd_sc_hd__a21oi_4
*CAP
1 *2027:A2 5.97487e-05
2 *2046:A1 0
3 *2026:B 0.000141353
4 *2025:Y 0.000593826
5 *401:12 0.000261764
6 *401:8 0.000773985
7 *2026:B *472:18 0
8 *401:12 *472:18 0
9 *2022:A2 *401:8 4.5051e-05
10 *2022:A3 *401:8 5.50106e-05
11 *2022:B1 *401:8 5.50106e-05
12 *2025:B1 *401:8 5.50049e-05
13 *2027:A1 *401:12 9.27917e-05
14 *400:10 *2026:B 4.6318e-06
15 *400:21 *2026:B 9.52677e-05
16 *400:21 *401:12 1.83564e-05
*RES
1 *2025:Y *401:8 33.6471 
2 *401:8 *401:12 17.9621 
3 *401:12 *2026:B 41.2314 
4 *401:12 *2046:A1 38 
5 *401:8 *2027:A2 24.1186 
*END

*D_NET *402 0.0019386
*CONN
*I *2028:B1 I *D sky130_fd_sc_hd__a21o_2
*I *2047:A I *D sky130_fd_sc_hd__nand2_2
*I *2026:Y O *D sky130_fd_sc_hd__nand2_2
*CAP
1 *2028:B1 0.000564358
2 *2047:A 0
3 *2026:Y 0.000273596
4 *402:10 0.000837955
5 *2028:B1 *2029:A 0
6 *2028:B1 *403:10 0
7 *2028:B1 *404:8 8.51432e-05
8 *2028:B1 *410:24 6.4393e-05
9 *2028:B1 *419:10 0
10 *2028:B1 *421:10 0
11 *2028:B1 *473:89 0
12 *402:10 *421:10 0
13 *402:10 *473:89 0
14 *392:10 *2028:B1 0
15 *394:8 *2028:B1 0
16 *395:8 *2028:B1 0.000113153
*RES
1 *2026:Y *402:10 42.785 
2 *402:10 *2047:A 38 
3 *402:10 *2028:B1 49.4136 
*END

*D_NET *403 0.00200106
*CONN
*I *2036:B I *D sky130_fd_sc_hd__nand4_2
*I *2037:A2_N I *D sky130_fd_sc_hd__o2bb2ai_2
*I *2029:A I *D sky130_fd_sc_hd__and2_4
*I *2027:X O *D sky130_fd_sc_hd__a21o_2
*CAP
1 *2036:B 7.51396e-05
2 *2037:A2_N 7.50668e-05
3 *2029:A 0.000212065
4 *2027:X 0.000194061
5 *403:10 0.00036461
6 *403:6 0.000346679
7 *2029:A *2029:B 5.67058e-05
8 *2029:A *2045:B 4.17929e-05
9 *2036:B *2036:C 4.17736e-05
10 *2036:B *407:48 4.86676e-05
11 *2036:B *410:16 1.76557e-05
12 *2037:A2_N *2036:C 0
13 *2037:A2_N *2045:B 3.90211e-05
14 *403:6 *2036:C 5.67058e-05
15 *403:6 *410:16 1.76557e-05
16 *403:10 *2036:C 1.83667e-05
17 *403:10 *2045:B 5.33222e-05
18 *403:10 *410:24 5.31444e-05
19 *2027:B1 *403:6 0.000183733
20 *2028:B1 *2029:A 0
21 *2028:B1 *403:10 0
22 *394:8 *2029:A 4.06408e-05
23 *394:16 *403:6 6.42586e-05
*RES
1 *2027:X *403:6 26.9564 
2 *403:6 *403:10 17.0818 
3 *403:10 *2029:A 42.7125 
4 *403:10 *2037:A2_N 39.5639 
5 *403:6 *2036:B 24.595 
*END

*D_NET *404 0.000567451
*CONN
*I *2029:B I *D sky130_fd_sc_hd__and2_4
*I *2028:X O *D sky130_fd_sc_hd__a21o_2
*CAP
1 *2029:B 0.000116092
2 *2028:X 9.67085e-05
3 *404:8 0.000212801
4 *2028:B1 *404:8 8.51432e-05
5 *2029:A *2029:B 5.67058e-05
*RES
1 *2028:X *404:8 40.2579 
2 *404:8 *2029:B 40.0507 
*END

*D_NET *405 0.0014412
*CONN
*I *2035:A1 I *D sky130_fd_sc_hd__o21bai_2
*I *2032:A I *D sky130_fd_sc_hd__or3b_2
*I *2034:A1 I *D sky130_fd_sc_hd__o21ba_2
*I *2030:Y O *D sky130_fd_sc_hd__nor2_2
*CAP
1 *2035:A1 0
2 *2032:A 5.93625e-05
3 *2034:A1 4.98143e-05
4 *2030:Y 6.93947e-05
5 *405:25 0.000287108
6 *405:8 0.000346954
7 *2032:A *2032:C_N 9.0102e-05
8 *2032:A *2035:A2 0.000181131
9 *2034:A1 *558:10 1.86869e-05
10 *405:8 *2031:B 9.84851e-05
11 *405:25 *2032:C_N 1.24376e-05
12 *405:25 *2035:A2 8.37975e-05
13 *405:25 *410:10 1.22822e-05
14 *405:25 *523:42 9.84794e-05
15 *405:25 *558:10 3.31683e-05
*RES
1 *2030:Y *405:8 39.0979 
2 *405:8 *2034:A1 38.8493 
3 *405:8 *405:25 19.5779 
4 *405:25 *2032:A 25.0507 
5 *405:25 *2035:A1 23 
*END

*D_NET *406 0.0019999
*CONN
*I *2032:B I *D sky130_fd_sc_hd__or3b_2
*I *2035:A2 I *D sky130_fd_sc_hd__o21bai_2
*I *2034:A2 I *D sky130_fd_sc_hd__o21ba_2
*I *2031:X O *D sky130_fd_sc_hd__and2_2
*CAP
1 *2032:B 0
2 *2035:A2 0.000138649
3 *2034:A2 7.05384e-05
4 *2031:X 0.00024743
5 *406:22 0.000138649
6 *406:20 0.000176891
7 *2034:A2 *2030:A 0.000144067
8 *2034:A2 *2031:B 0.000312348
9 *2034:A2 *2034:B1_N 5.50049e-05
10 *2035:A2 *410:10 0.000206679
11 *406:20 *2037:B2 7.97004e-05
12 *406:20 *407:8 4.334e-05
13 *406:20 *407:36 7.63602e-05
14 *406:20 *409:16 6.07611e-06
15 *406:20 *410:10 3.92407e-05
16 *2032:A *2035:A2 0.000181131
17 *405:25 *2035:A2 8.37975e-05
*RES
1 *2031:X *2034:A2 49.48 
2 *2031:X *406:20 40.9621 
3 *406:20 *406:22 15 
4 *406:22 *2035:A2 27.495 
5 *406:22 *2032:B 23 
*END

*D_NET *407 0.00468503
*CONN
*I *2033:A I *D sky130_fd_sc_hd__inv_2
*I *2045:B I *D sky130_fd_sc_hd__and3_2
*I *2036:C I *D sky130_fd_sc_hd__nand4_2
*I *2048:B1 I *D sky130_fd_sc_hd__o21a_2
*I *2059:B1 I *D sky130_fd_sc_hd__o211a_2
*I *2032:X O *D sky130_fd_sc_hd__or3b_2
*CAP
1 *2033:A 1.31028e-05
2 *2045:B 0.000445942
3 *2036:C 0.000110931
4 *2048:B1 0.000355963
5 *2059:B1 7.94793e-05
6 *2032:X 0
7 *407:48 0.000733095
8 *407:36 0.000334058
9 *407:8 0.000643441
10 *407:6 0.000352732
11 *2033:A *411:12 5.90675e-06
12 *2036:C *410:16 5.70419e-05
13 *2036:C *410:24 8.61037e-06
14 *2045:B *410:24 2.14253e-05
15 *2048:B1 *409:16 3.58084e-06
16 *2048:B1 *422:10 9.52332e-06
17 *2059:B1 *409:16 3.22879e-05
18 *2059:B1 *415:42 1.01436e-05
19 *407:8 *409:16 0
20 *407:36 *410:10 3.14377e-05
21 *407:36 *410:16 8.52481e-05
22 *407:36 *411:12 5.41288e-05
23 *407:48 *410:16 0.000167075
24 *407:48 *411:12 7.83452e-05
25 *2029:A *2045:B 4.17929e-05
26 *2036:B *2036:C 4.17736e-05
27 *2036:B *407:48 4.86676e-05
28 *2037:A2_N *2036:C 0
29 *2037:A2_N *2045:B 3.90211e-05
30 *2048:A2 *2048:B1 0.000131304
31 *2059:A2 *2048:B1 3.22879e-05
32 *393:18 *2048:B1 0
33 *393:18 *2059:B1 1.19692e-05
34 *393:18 *407:8 9.40162e-05
35 *393:18 *407:36 8.93489e-05
36 *394:8 *2036:C 5.33704e-05
37 *394:8 *2045:B 0.000219882
38 *403:6 *2036:C 5.67058e-05
39 *403:10 *2036:C 1.83667e-05
40 *403:10 *2045:B 5.33222e-05
41 *406:20 *407:8 4.334e-05
42 *406:20 *407:36 7.63602e-05
*RES
1 *2032:X *407:6 38 
2 *407:6 *407:8 4.01857 
3 *407:8 *2059:B1 39.8229 
4 *407:8 *2048:B1 43.7586 
5 *407:6 *407:36 19.7643 
6 *407:36 *407:48 19.1636 
7 *407:48 *2036:C 40.7136 
8 *407:48 *2045:B 45.395 
9 *407:36 *2033:A 23.4971 
*END

*D_NET *408 0.000379761
*CONN
*I *2037:B1 I *D sky130_fd_sc_hd__o2bb2ai_2
*I *2033:Y O *D sky130_fd_sc_hd__inv_2
*CAP
1 *2037:B1 0
2 *2033:Y 5.90455e-05
3 *408:8 5.90455e-05
4 *408:8 *411:12 0.000171906
5 *393:10 *408:8 4.6318e-06
6 *393:12 *408:8 8.51329e-05
*RES
1 *2033:Y *408:8 40.2579 
2 *408:8 *2037:B1 38 
*END

*D_NET *409 0.00339831
*CONN
*I *2037:B2 I *D sky130_fd_sc_hd__o2bb2ai_2
*I *2059:A1 I *D sky130_fd_sc_hd__o211a_2
*I *2048:A1 I *D sky130_fd_sc_hd__o21a_2
*I *2034:X O *D sky130_fd_sc_hd__o21ba_2
*CAP
1 *2037:B2 0.000454695
2 *2059:A1 1.98103e-05
3 *2048:A1 0
4 *2034:X 7.68064e-05
5 *409:16 0.000686957
6 *409:8 0.00119865
7 *2037:B2 *2034:B1_N 3.83778e-05
8 *2037:B2 *410:10 0.000139657
9 *2037:B2 *523:10 8.6769e-05
10 *2037:B2 *558:10 0
11 *2037:B2 *594:8 8.51329e-05
12 *2059:A1 *432:10 5.50049e-05
13 *409:8 *2031:B 9.67842e-05
14 *409:16 *2034:B1_N 4.08537e-05
15 *409:16 *415:42 2.22183e-05
16 *409:16 *432:10 5.50049e-05
17 S[29] *2037:B2 2.47015e-05
18 *2048:A2 *2059:A1 0.000171063
19 *2048:A2 *409:16 6.52494e-06
20 *2048:B1 *409:16 3.58084e-06
21 *2059:A2 *409:16 1.76557e-05
22 *2059:B1 *409:16 3.22879e-05
23 *85:8 *2037:B2 0
24 *393:12 *2037:B2 0
25 *393:18 *2037:B2 0
26 *406:20 *2037:B2 7.97004e-05
27 *406:20 *409:16 6.07611e-06
28 *407:8 *409:16 0
*RES
1 *2034:X *409:8 39.0979 
2 *409:8 *409:16 25.9579 
3 *409:16 *2048:A1 23 
4 *409:16 *2059:A1 24.8746 
5 *409:8 *2037:B2 47.5907 
*END

*D_NET *410 0.00289031
*CONN
*I *2036:D I *D sky130_fd_sc_hd__nand4_2
*I *2045:C I *D sky130_fd_sc_hd__and3_2
*I *2035:Y O *D sky130_fd_sc_hd__o21bai_2
*CAP
1 *2036:D 0
2 *2045:C 0
3 *2035:Y 0.000217634
4 *410:24 0.00029575
5 *410:16 0.000615781
6 *410:10 0.000537665
7 *410:10 *523:42 6.17437e-06
8 *2028:B1 *410:24 6.4393e-05
9 *2035:A2 *410:10 0.000206679
10 *2036:B *410:16 1.76557e-05
11 *2036:C *410:16 5.70419e-05
12 *2036:C *410:24 8.61037e-06
13 *2037:B2 *410:10 0.000139657
14 *2045:B *410:24 2.14253e-05
15 *394:16 *410:16 0.000295765
16 *403:6 *410:16 1.76557e-05
17 *403:10 *410:24 5.31444e-05
18 *405:25 *410:10 1.22822e-05
19 *406:20 *410:10 3.92407e-05
20 *407:36 *410:10 3.14377e-05
21 *407:36 *410:16 8.52481e-05
22 *407:48 *410:16 0.000167075
*RES
1 *2035:Y *410:10 42.9093 
2 *410:10 *410:16 22.6643 
3 *410:16 *410:24 34.4329 
4 *410:24 *2045:C 23 
5 *410:16 *2036:D 23 
*END

*D_NET *411 0.00116272
*CONN
*I *2038:A I *D sky130_fd_sc_hd__nand2_2
*I *2036:Y O *D sky130_fd_sc_hd__nand4_2
*CAP
1 *2038:A 0
2 *2036:Y 0.000272307
3 *411:12 0.000272307
4 *411:12 *412:8 0.000102365
5 *411:12 *594:8 0.000192691
6 *2033:A *411:12 5.90675e-06
7 *393:10 *411:12 4.99753e-06
8 *393:12 *411:12 7.76364e-06
9 *407:36 *411:12 5.41288e-05
10 *407:48 *411:12 7.83452e-05
11 *408:8 *411:12 0.000171906
*RES
1 *2036:Y *411:12 45.975 
2 *411:12 *2038:A 38 
*END

*D_NET *412 0.000413632
*CONN
*I *2038:B I *D sky130_fd_sc_hd__nand2_2
*I *2037:Y O *D sky130_fd_sc_hd__o2bb2ai_2
*CAP
1 *2038:B 0
2 *2037:Y 5.5783e-05
3 *412:8 5.5783e-05
4 *393:10 *412:8 0.000199701
5 *411:12 *412:8 0.000102365
*RES
1 *2037:Y *412:8 40.61 
2 *412:8 *2038:B 38 
*END

*D_NET *413 0.000813858
*CONN
*I *2043:A1 I *D sky130_fd_sc_hd__o21ba_2
*I *2041:A I *D sky130_fd_sc_hd__or3b_2
*I *2039:Y O *D sky130_fd_sc_hd__nor2_2
*CAP
1 *2043:A1 6.31669e-05
2 *2041:A 0
3 *2039:Y 3.77186e-05
4 *413:6 0.000100885
5 *2043:A1 *2041:C_N 5.67058e-05
6 *2043:A1 *2043:A2 0.000228909
7 *2043:A1 *417:14 8.99384e-05
8 *2043:A1 *417:22 0
9 *2043:A1 *472:47 0
10 *413:6 *415:8 2.80394e-05
11 *413:6 *417:14 9.67842e-05
12 *413:6 *417:22 5.50049e-05
13 *413:6 *560:18 5.67058e-05
*RES
1 *2039:Y *413:6 24.5743 
2 *413:6 *2041:A 23 
3 *413:6 *2043:A1 26.0243 
*END

*D_NET *414 0.00121749
*CONN
*I *2043:A2 I *D sky130_fd_sc_hd__o21ba_2
*I *2041:B I *D sky130_fd_sc_hd__or3b_2
*I *2040:X O *D sky130_fd_sc_hd__and2_2
*CAP
1 *2043:A2 0.000137138
2 *2041:B 0.000110959
3 *2040:X 6.1156e-05
4 *414:8 0.000309254
5 *2041:B *417:46 1.83564e-05
6 *2041:B *525:8 0
7 *2041:B *560:18 1.83667e-05
8 *2043:A2 *2041:C_N 4.5051e-05
9 *2043:A2 *415:6 4.34745e-05
10 *2043:A2 *415:8 5.50106e-05
11 *2043:A2 *417:10 5.50106e-05
12 *414:8 *415:42 8.62876e-05
13 *414:8 *560:18 4.85126e-05
14 *2043:A1 *2043:A2 0.000228909
*RES
1 *2040:X *414:8 39.5536 
2 *414:8 *2041:B 39.5536 
3 *414:8 *2043:A2 41.9771 
*END

*D_NET *415 0.00387904
*CONN
*I *2059:C1 I *D sky130_fd_sc_hd__o211a_2
*I *2042:A I *D sky130_fd_sc_hd__inv_2
*I *2060:C1 I *D sky130_fd_sc_hd__o221a_2
*I *2041:X O *D sky130_fd_sc_hd__or3b_2
*CAP
1 *2059:C1 0
2 *2042:A 0
3 *2060:C1 0
4 *2041:X 3.75814e-05
5 *415:42 0.000447818
6 *415:31 6.26716e-05
7 *415:20 0.000430373
8 *415:8 0.00071684
9 *415:6 0.000709196
10 *415:8 *472:47 8.264e-05
11 *415:8 *560:18 2.18409e-05
12 *415:20 *2050:A1 0
13 *415:20 *2060:B1 4.26304e-05
14 *415:20 *2060:B2 0.000485221
15 *415:20 *417:22 1.21972e-05
16 *415:20 *417:56 1.01436e-05
17 *415:20 *418:19 0
18 *415:20 *424:8 0
19 *415:20 *426:10 1.78655e-05
20 *415:20 *431:8 0.000222123
21 *415:20 *472:47 5.50106e-05
22 *415:20 *540:6 2.78218e-05
23 *415:31 *2060:B2 9.44759e-05
24 *415:31 *422:10 4.21594e-06
25 *415:31 *434:10 0.000138727
26 *415:42 *2283:A 0
27 *415:42 *422:10 0
28 *415:42 *432:10 0
29 *415:42 *434:10 0
30 *415:42 *560:18 1.4471e-05
31 *2043:A2 *415:6 4.34745e-05
32 *2043:A2 *415:8 5.50106e-05
33 *2059:B1 *415:42 1.01436e-05
34 *2202:A *415:42 0
35 *409:16 *415:42 2.22183e-05
36 *413:6 *415:8 2.80394e-05
37 *414:8 *415:42 8.62876e-05
*RES
1 *2041:X *415:6 23.6214 
2 *415:6 *415:8 3.00357 
3 *415:8 *415:20 40.2329 
4 *415:20 *2060:C1 23 
5 *415:8 *415:31 31.9057 
6 *415:31 *2042:A 23 
7 *415:6 *415:42 37.54 
8 *415:42 *2059:C1 23 
*END

*D_NET *416 0.00140029
*CONN
*I *2044:A I *D sky130_fd_sc_hd__nor2_2
*I *2050:A1 I *D sky130_fd_sc_hd__o22ai_2
*I *2042:Y O *D sky130_fd_sc_hd__inv_2
*CAP
1 *2044:A 0.000102431
2 *2050:A1 0.000167376
3 *2042:Y 0.00018837
4 *416:8 0.000458178
5 *2044:A *417:28 7.80354e-05
6 *2044:A *422:10 0
7 *2050:A1 *2060:B2 0
8 *2050:A1 *417:28 0.000136121
9 *2050:A1 *422:10 0
10 *416:8 *596:8 0.000269781
11 *415:20 *2050:A1 0
*RES
1 *2042:Y *416:8 41.0036 
2 *416:8 *2050:A1 41.6664 
3 *416:8 *2044:A 40.2579 
*END

*D_NET *417 0.00590464
*CONN
*I *2060:B1 I *D sky130_fd_sc_hd__o221a_2
*I *2062:A I *D sky130_fd_sc_hd__nor2_2
*I *2050:A2 I *D sky130_fd_sc_hd__o22ai_2
*I *2044:B I *D sky130_fd_sc_hd__nor2_2
*I *2043:X O *D sky130_fd_sc_hd__o21ba_2
*CAP
1 *2060:B1 5.79717e-05
2 *2062:A 0
3 *2050:A2 0
4 *2044:B 0
5 *2043:X 0.000267286
6 *417:56 0.00028313
7 *417:46 0.000730898
8 *417:28 0.000191123
9 *417:22 0.00057073
10 *417:14 0.000942707
11 *417:10 0.000440589
12 *2060:B1 *540:6 3.60919e-05
13 *417:10 *2041:C_N 3.17516e-05
14 *417:10 *2043:B1_N 1.94812e-05
15 *417:10 *525:8 9.48381e-06
16 *417:14 *2041:C_N 9.84794e-05
17 *417:22 *472:47 4.5051e-05
18 *417:22 *560:18 2.81138e-05
19 *417:28 *418:19 0.000101564
20 *417:28 *420:8 0
21 *417:28 *421:10 0
22 *417:28 *424:8 0.000194309
23 *417:46 *2058:A 0.000187986
24 *417:46 *2058:B 0
25 *417:46 *2060:A2 0.000135037
26 *417:46 *429:21 6.16531e-05
27 *417:46 *433:8 1.01436e-05
28 *417:46 *434:10 9.27917e-05
29 *417:46 *540:6 8.48502e-06
30 *417:56 *2062:B 8.29052e-05
31 *417:56 *2063:B1 2.93747e-05
32 *417:56 *2063:B2 8.28419e-05
33 *417:56 *2097:A1 1.22906e-05
34 *417:56 *426:10 0.000191157
35 *417:56 *431:8 5.97612e-05
36 *417:56 *435:23 0.000228903
37 *417:56 *564:10 7.44161e-06
38 *417:56 *598:12 7.08854e-05
39 *2041:B *417:46 1.83564e-05
40 *2043:A1 *417:14 8.99384e-05
41 *2043:A1 *417:22 0
42 *2043:A2 *417:10 5.50106e-05
43 *2044:A *417:28 7.80354e-05
44 *2050:A1 *417:28 0.000136121
45 *2241:A *417:10 0
46 *413:6 *417:14 9.67842e-05
47 *413:6 *417:22 5.50049e-05
48 *415:20 *2060:B1 4.26304e-05
49 *415:20 *417:22 1.21972e-05
50 *415:20 *417:56 1.01436e-05
*RES
1 *2043:X *417:10 41.6043 
2 *417:10 *417:14 18.9564 
3 *417:14 *417:22 7.00143 
4 *417:22 *417:28 35.7793 
5 *417:28 *2044:B 23 
6 *417:22 *2050:A2 23 
7 *417:14 *417:46 37.83 
8 *417:46 *417:56 37.8921 
9 *417:56 *2062:A 23 
10 *417:46 *2060:B1 24.7659 
*END

*D_NET *418 0.00142718
*CONN
*I *2053:A I *D sky130_fd_sc_hd__nand2_2
*I *2051:B I *D sky130_fd_sc_hd__nand2_2
*I *2044:Y O *D sky130_fd_sc_hd__nor2_2
*CAP
1 *2053:A 0
2 *2051:B 3.94699e-05
3 *2044:Y 0
4 *418:19 0.00032209
5 *418:4 0.00036156
6 *2051:B *2061:A 3.52815e-05
7 *2051:B *517:10 5.50049e-05
8 *418:19 *2053:B 0
9 *418:19 *420:8 0
10 *418:19 *423:19 0.000222113
11 *418:19 *424:8 0.000224345
12 *418:19 *425:8 6.57551e-05
13 *415:20 *418:19 0
14 *417:28 *418:19 0.000101564
*RES
1 *2044:Y *418:4 23 
2 *418:4 *2051:B 24.1186 
3 *418:4 *418:19 38.5964 
4 *418:19 *2053:A 23 
*END

*D_NET *419 0.000832739
*CONN
*I *2047:B I *D sky130_fd_sc_hd__nand2_2
*I *2046:B1_N I *D sky130_fd_sc_hd__a21boi_2
*I *2045:X O *D sky130_fd_sc_hd__and3_2
*CAP
1 *2047:B 4.67509e-05
2 *2046:B1_N 0
3 *2045:X 0.000320233
4 *419:12 4.67509e-05
5 *419:10 0.000320233
6 *2047:B *421:10 5.50106e-05
7 *419:10 *421:10 1.83564e-05
8 *2027:A1 *419:10 0
9 *2028:B1 *419:10 0
10 *395:8 *419:10 2.54046e-05
*RES
1 *2045:X *419:10 43.3443 
2 *419:10 *419:12 15 
3 *419:12 *2046:B1_N 23 
4 *419:12 *2047:B 24.1186 
*END

*D_NET *420 0.00244276
*CONN
*I *2050:B1 I *D sky130_fd_sc_hd__o22ai_2
*I *2053:B I *D sky130_fd_sc_hd__nand2_2
*I *2046:Y O *D sky130_fd_sc_hd__a21boi_2
*CAP
1 *2050:B1 0
2 *2053:B 0.000208735
3 *2046:Y 0
4 *420:8 0.000693135
5 *420:6 0.0004844
6 *2053:B *423:19 4.21594e-06
7 *420:8 *2006:A 0
8 *420:8 *421:10 0.0005699
9 *420:8 *423:19 6.11286e-05
10 *420:8 *425:8 8.41115e-05
11 *420:8 *472:37 0
12 *400:10 *420:8 0.000195248
13 *400:21 *420:8 0.000141888
14 *417:28 *420:8 0
15 *418:19 *2053:B 0
16 *418:19 *420:8 0
*RES
1 *2046:Y *420:6 38 
2 *420:6 *420:8 13.1743 
3 *420:8 *2053:B 41.9357 
4 *420:8 *2050:B1 38 
*END

*D_NET *421 0.00278894
*CONN
*I *2061:A I *D sky130_fd_sc_hd__nand2_2
*I *2051:A I *D sky130_fd_sc_hd__nand2_2
*I *2047:Y O *D sky130_fd_sc_hd__nand2_2
*CAP
1 *2061:A 0.00018104
2 *2051:A 0
3 *2047:Y 0.000490771
4 *421:12 0.00018104
5 *421:10 0.000490771
6 *2061:A *517:10 0.000175986
7 *2061:A *556:14 0.000530627
8 *2027:A1 *421:10 1.83667e-05
9 *2028:B1 *421:10 0
10 *2047:B *421:10 5.50106e-05
11 *2051:B *2061:A 3.52815e-05
12 *400:21 *421:10 4.17929e-05
13 *402:10 *421:10 0
14 *417:28 *421:10 0
15 *419:10 *421:10 1.83564e-05
16 *420:8 *421:10 0.0005699
*RES
1 *2047:Y *421:10 48.9993 
2 *421:10 *421:12 15 
3 *421:12 *2051:A 23 
4 *421:12 *2061:A 29.8564 
*END

*D_NET *422 0.00275604
*CONN
*I *2049:A I *D sky130_fd_sc_hd__inv_2
*I *2060:B2 I *D sky130_fd_sc_hd__o221a_2
*I *2048:X O *D sky130_fd_sc_hd__o21a_2
*CAP
1 *2049:A 0
2 *2060:B2 0.000403168
3 *2048:X 0.000484668
4 *422:10 0.000887836
5 *2060:B2 *426:10 0.000218952
6 *2060:B2 *434:10 0.000125424
7 *422:10 *432:10 3.884e-05
8 *422:10 *434:10 0
9 *2044:A *422:10 0
10 *2048:A2 *422:10 3.7122e-06
11 *2048:B1 *422:10 9.52332e-06
12 *2050:A1 *2060:B2 0
13 *2050:A1 *422:10 0
14 *415:20 *2060:B2 0.000485221
15 *415:31 *2060:B2 9.44759e-05
16 *415:31 *422:10 4.21594e-06
17 *415:42 *422:10 0
*RES
1 *2048:X *422:10 45.1257 
2 *422:10 *2060:B2 47.4871 
3 *422:10 *2049:A 38 
*END

*D_NET *423 0.00149911
*CONN
*I *2050:B2 I *D sky130_fd_sc_hd__o22ai_2
*I *2052:A1 I *D sky130_fd_sc_hd__o21ai_4
*I *2049:Y O *D sky130_fd_sc_hd__inv_2
*CAP
1 *2050:B2 0
2 *2052:A1 0.000106543
3 *2049:Y 0.00015247
4 *423:19 8.37164e-05
5 *423:6 0.000342729
6 *2052:A1 *472:37 9.91798e-05
7 *423:6 *2052:B1 5.3304e-05
8 *423:6 *472:37 0.000152169
9 *423:6 *596:8 0.000184527
10 *423:19 *425:8 3.70094e-05
11 *2053:B *423:19 4.21594e-06
12 *418:19 *423:19 0.000222113
13 *420:8 *423:19 6.11286e-05
*RES
1 *2049:Y *423:6 26.9564 
2 *423:6 *2052:A1 25.0507 
3 *423:6 *423:19 32.9621 
4 *423:19 *2050:B2 23 
*END

*D_NET *424 0.000737355
*CONN
*I *2052:B1 I *D sky130_fd_sc_hd__o21ai_4
*I *2050:Y O *D sky130_fd_sc_hd__o22ai_2
*CAP
1 *2052:B1 2.32701e-05
2 *2050:Y 8.27767e-05
3 *424:8 0.000106047
4 *2052:B1 *472:37 5.3304e-05
5 *415:20 *424:8 0
6 *417:28 *424:8 0.000194309
7 *418:19 *424:8 0.000224345
8 *423:6 *2052:B1 5.3304e-05
*RES
1 *2050:Y *424:8 40.9621 
2 *424:8 *2052:B1 38.6214 
*END

*D_NET *425 0.000324441
*CONN
*I *2052:A2 I *D sky130_fd_sc_hd__o21ai_4
*I *2051:Y O *D sky130_fd_sc_hd__nand2_2
*CAP
1 *2052:A2 0
2 *2051:Y 6.87825e-05
3 *425:8 6.87825e-05
4 *418:19 *425:8 6.57551e-05
5 *420:8 *425:8 8.41115e-05
6 *423:19 *425:8 3.70094e-05
*RES
1 *2051:Y *425:8 40.2579 
2 *425:8 *2052:A2 38 
*END

*D_NET *426 0.00188079
*CONN
*I *2063:A1 I *D sky130_fd_sc_hd__a22oi_4
*I *2053:Y O *D sky130_fd_sc_hd__nand2_2
*CAP
1 *2063:A1 0
2 *2053:Y 0.000474669
3 *426:10 0.000474669
4 *426:10 *2058:A 5.3304e-05
5 *426:10 *2097:A1 3.70094e-05
6 *426:10 *434:10 0.000413164
7 *2060:B2 *426:10 0.000218952
8 *415:20 *426:10 1.78655e-05
9 *417:56 *426:10 0.000191157
*RES
1 *2053:Y *426:10 49.0407 
2 *426:10 *2063:A1 38 
*END

*D_NET *427 0.00203325
*CONN
*I *2056:A I *D sky130_fd_sc_hd__nor3b_2
*I *2057:A1 I *D sky130_fd_sc_hd__o21ba_2
*I *2054:Y O *D sky130_fd_sc_hd__nor2_2
*CAP
1 *2056:A 2.842e-05
2 *2057:A1 0
3 *2054:Y 0.000175555
4 *427:22 0.000150818
5 *427:16 0.000354793
6 *2056:A *429:8 2.02872e-05
7 *2056:A *578:18 2.64616e-05
8 *427:16 *2054:B 0.000185428
9 *427:16 *2097:A1 1.76557e-05
10 *427:16 *2097:B1 0.000187129
11 *427:16 *2284:A 5.54148e-05
12 *427:16 *429:8 0.000185208
13 *427:16 *578:10 1.56762e-05
14 *427:16 *578:18 0.000412737
15 *427:22 *430:12 0.000212082
16 S[14] *427:22 5.58152e-06
*RES
1 *2054:Y *427:16 32.3836 
2 *427:16 *427:22 32.9621 
3 *427:22 *2057:A1 23 
4 *427:16 *2056:A 23.6214 
*END

*D_NET *428 0.00161756
*CONN
*I *2056:B I *D sky130_fd_sc_hd__nor3b_2
*I *2057:A2 I *D sky130_fd_sc_hd__o21ba_2
*I *2055:X O *D sky130_fd_sc_hd__and2_2
*CAP
1 *2056:B 0
2 *2057:A2 5.63126e-05
3 *2055:X 0.000390717
4 *428:25 0.000153338
5 *428:6 0.000600368
6 *2057:A2 *430:12 5.50106e-05
7 *428:25 *430:12 0.000187453
8 *428:25 *578:18 6.00315e-05
9 *428:25 *606:10 0.000110379
10 *99:8 *428:25 3.95159e-06
*RES
1 *2055:X *428:6 29.3386 
2 *428:6 *2057:A2 24.4707 
3 *428:6 *428:25 33.8529 
4 *428:25 *2056:B 23 
*END

*D_NET *429 0.0031971
*CONN
*I *2058:A I *D sky130_fd_sc_hd__or2_2
*I *2060:A1 I *D sky130_fd_sc_hd__o221a_2
*I *2097:B1 I *D sky130_fd_sc_hd__a21o_2
*I *2056:Y O *D sky130_fd_sc_hd__nor3b_2
*CAP
1 *2058:A 0.000179602
2 *2060:A1 0
3 *2097:B1 0.000104388
4 *2056:Y 0.000319545
5 *429:21 0.000352611
6 *429:8 0.000596942
7 *2058:A *2058:B 5.3304e-05
8 *2058:A *434:10 0.000179712
9 *2097:B1 *2097:A1 1.01436e-05
10 *2097:B1 *2284:A 0.000185428
11 *429:8 *2284:A 5.50106e-05
12 *429:21 *2097:A1 0.000157299
13 *429:21 *430:12 0
14 *429:21 *433:8 9.17497e-05
15 *429:21 *434:10 0.000215801
16 S[31] *429:21 0
17 *2056:A *429:8 2.02872e-05
18 *417:46 *2058:A 0.000187986
19 *417:46 *429:21 6.16531e-05
20 *426:10 *2058:A 5.3304e-05
21 *427:16 *2097:B1 0.000187129
22 *427:16 *429:8 0.000185208
*RES
1 *2056:Y *429:8 42.9093 
2 *429:8 *2097:B1 40.9 
3 *429:8 *429:21 5.075 
4 *429:21 *2060:A1 38 
5 *429:21 *2058:A 42.1843 
*END

*D_NET *430 0.0040499
*CONN
*I *2058:B I *D sky130_fd_sc_hd__or2_2
*I *2060:A2 I *D sky130_fd_sc_hd__o221a_2
*I *2057:X O *D sky130_fd_sc_hd__o21ba_2
*CAP
1 *2058:B 0.00032508
2 *2060:A2 0.000294866
3 *2057:X 0.000586269
4 *430:12 0.00120622
5 *2058:B *526:8 0.000441972
6 *2058:B *526:10 0
7 *2060:A2 *540:6 0.000139754
8 *430:12 *433:8 0
9 *430:12 *577:10 0
10 *430:12 *578:18 9.63367e-05
11 *430:12 *606:10 3.31962e-05
12 S[31] *430:12 2.62862e-05
13 *2057:A2 *430:12 5.50106e-05
14 *2058:A *2058:B 5.3304e-05
15 *2221:A *2058:B 3.70187e-05
16 *2221:A *430:12 7.80612e-05
17 *25:13 *2058:B 0.000141954
18 *417:46 *2058:B 0
19 *417:46 *2060:A2 0.000135037
20 *427:22 *430:12 0.000212082
21 *428:25 *430:12 0.000187453
22 *429:21 *430:12 0
*RES
1 *2057:X *430:12 49.4964 
2 *430:12 *2060:A2 43.8621 
3 *430:12 *2058:B 45.9957 
*END

*D_NET *431 0.00168279
*CONN
*I *2062:B I *D sky130_fd_sc_hd__nor2_2
*I *2058:X O *D sky130_fd_sc_hd__or2_2
*CAP
1 *2062:B 9.53618e-05
2 *2058:X 0.00024446
3 *431:8 0.000339821
4 *2062:B *2063:B2 0.000139319
5 *2062:B *564:10 0.000469663
6 *2062:B *598:12 2.93747e-05
7 *415:20 *431:8 0.000222123
8 *417:56 *2062:B 8.29052e-05
9 *417:56 *431:8 5.97612e-05
*RES
1 *2058:X *431:8 42.7229 
2 *431:8 *2062:B 43.2821 
*END

*D_NET *432 0.00045397
*CONN
*I *2061:B I *D sky130_fd_sc_hd__nand2_2
*I *2059:X O *D sky130_fd_sc_hd__o211a_2
*CAP
1 *2061:B 0
2 *2059:X 0.00015256
3 *432:10 0.00015256
4 *2059:A1 *432:10 5.50049e-05
5 *409:16 *432:10 5.50049e-05
6 *415:42 *432:10 0
7 *422:10 *432:10 3.884e-05
*RES
1 *2059:X *432:10 40.8793 
2 *432:10 *2061:B 38 
*END

*D_NET *433 0.000329583
*CONN
*I *2063:A2 I *D sky130_fd_sc_hd__a22oi_4
*I *2060:X O *D sky130_fd_sc_hd__o221a_2
*CAP
1 *2063:A2 0
2 *2060:X 0.000113845
3 *433:8 0.000113845
4 *417:46 *433:8 1.01436e-05
5 *429:21 *433:8 9.17497e-05
6 *430:12 *433:8 0
*RES
1 *2060:X *433:8 40.61 
2 *433:8 *2063:A2 38 
*END

*D_NET *434 0.00368556
*CONN
*I *2063:B1 I *D sky130_fd_sc_hd__a22oi_4
*I *2097:A1 I *D sky130_fd_sc_hd__a21o_2
*I *2061:Y O *D sky130_fd_sc_hd__nand2_2
*CAP
1 *2063:B1 9.10099e-05
2 *2097:A1 0.000244915
3 *2061:Y 4.25104e-05
4 *434:10 0.000839518
5 *434:8 0.000546103
6 *2063:B1 *564:10 6.99492e-05
7 *2063:B1 *598:12 2.02517e-05
8 *2097:A1 *2284:A 0.000185434
9 *2097:A1 *598:12 0
10 *434:8 *517:10 5.50049e-05
11 *434:10 *472:47 0.000136486
12 *434:10 *560:18 2.49836e-05
13 *2058:A *434:10 0.000179712
14 *2060:B2 *434:10 0.000125424
15 *2097:B1 *2097:A1 1.01436e-05
16 *415:31 *434:10 0.000138727
17 *415:42 *434:10 0
18 *417:46 *434:10 9.27917e-05
19 *417:56 *2063:B1 2.93747e-05
20 *417:56 *2097:A1 1.22906e-05
21 *422:10 *434:10 0
22 *426:10 *2097:A1 3.70094e-05
23 *426:10 *434:10 0.000413164
24 *427:16 *2097:A1 1.76557e-05
25 *429:21 *2097:A1 0.000157299
26 *429:21 *434:10 0.000215801
*RES
1 *2061:Y *434:8 38.6214 
2 *434:8 *434:10 13.1743 
3 *434:10 *2097:A1 42.785 
4 *434:10 *2063:B1 40.0714 
*END

*D_NET *435 0.00113362
*CONN
*I *2097:A2 I *D sky130_fd_sc_hd__a21o_2
*I *2063:B2 I *D sky130_fd_sc_hd__a22oi_4
*I *2062:Y O *D sky130_fd_sc_hd__nor2_2
*CAP
1 *2097:A2 0
2 *2063:B2 5.8327e-05
3 *2062:Y 0
4 *435:23 0.000255148
5 *435:4 0.000313475
6 *2063:B2 *598:12 0
7 *435:23 *598:12 5.561e-05
8 *2062:B *2063:B2 0.000139319
9 *417:56 *2063:B2 8.28419e-05
10 *417:56 *435:23 0.000228903
*RES
1 *2062:Y *435:4 23 
2 *435:4 *2063:B2 25.7964 
3 *435:4 *435:23 34.5571 
4 *435:23 *2097:A2 23 
*END

*D_NET *436 0.00129684
*CONN
*I *2066:B I *D sky130_fd_sc_hd__xnor2_2
*I *2065:X O *D sky130_fd_sc_hd__mux2_1
*CAP
1 *2066:B 3.36605e-05
2 *2065:X 0.000346469
3 *436:8 0.000380129
4 *436:8 *460:18 0
5 *436:8 *571:10 0.000219882
6 *55:17 *436:8 0
7 *58:11 *436:8 0
8 *65:8 *436:8 0.000263399
9 *76:10 *2066:B 5.3304e-05
*RES
1 *2065:X *436:8 46.2443 
2 *436:8 *2066:B 38.6214 
*END

*D_NET *437 0.0015392
*CONN
*I *2068:B I *D sky130_fd_sc_hd__xor2_2
*I *2067:X O *D sky130_fd_sc_hd__o211a_2
*CAP
1 *2068:B 0
2 *2067:X 0.00035083
3 *437:10 0.00035083
4 *437:10 *2067:A1 0.000125205
5 *437:10 *2067:B1 0.00014399
6 *437:10 *535:42 0
7 *1863:B *437:10 0.000483515
8 *2326:A *437:10 3.64337e-05
9 *250:14 *437:10 4.83941e-05
*RES
1 *2067:X *437:10 47.0521 
2 *437:10 *2068:B 15 
*END

*D_NET *438 0.00062825
*CONN
*I *2070:B I *D sky130_fd_sc_hd__xnor2_2
*I *2069:X O *D sky130_fd_sc_hd__o22a_2
*CAP
1 *2070:B 0.000196301
2 *2069:X 9.42744e-05
3 *438:8 0.000290576
4 *224:22 *438:8 1.14452e-05
5 *241:14 *438:8 0
6 *251:10 *438:8 3.56537e-05
*RES
1 *2069:X *438:8 39.9057 
2 *438:8 *2070:B 41.48 
*END

*D_NET *439 0.000972364
*CONN
*I *2079:B1 I *D sky130_fd_sc_hd__a22oi_4
*I *2072:B I *D sky130_fd_sc_hd__xnor2_2
*I *2071:Y O *D sky130_fd_sc_hd__nand2_4
*CAP
1 *2079:B1 0
2 *2072:B 0.000222528
3 *2071:Y 8.67518e-05
4 *439:8 0.00030928
5 *2072:B *519:10 8.16459e-05
6 *439:8 *519:10 8.15327e-05
7 *1827:B *2072:B 0.000131304
8 *2073:A2 *2072:B 0
9 *171:42 *2072:B 4.21594e-06
10 *171:42 *439:8 5.51058e-05
*RES
1 *2071:Y *439:8 40.2579 
2 *439:8 *2072:B 43.1371 
3 *439:8 *2079:B1 38 
*END

*D_NET *440 0.00755024
*CONN
*I *2077:B1 I *D sky130_fd_sc_hd__o2bb2a_2
*I *2075:A2_N I *D sky130_fd_sc_hd__o2bb2a_2
*I *2074:B I *D sky130_fd_sc_hd__xor2_2
*I *2073:X O *D sky130_fd_sc_hd__a31o_4
*CAP
1 *2077:B1 0.000289208
2 *2075:A2_N 0.000725559
3 *2074:B 8.63649e-05
4 *2073:X 0.00129436
5 *440:12 0.00105482
6 *440:10 0.000532105
7 *440:8 0.00129436
8 *2074:B *602:12 7.03663e-05
9 *2074:B *603:12 0
10 *2075:A2_N *441:8 3.58084e-06
11 *2075:A2_N *565:33 5.83407e-05
12 *2077:B1 *602:12 5.96687e-05
13 *2077:B1 *603:12 0
14 *440:12 *602:12 0.000217572
15 *440:12 *603:12 0
16 *1800:B2 *2075:A2_N 0.000182832
17 *1815:B1 *2077:B1 8.33365e-05
18 *1826:A1 *440:8 6.68919e-05
19 *1826:A2 *440:8 0.00035673
20 *1826:B1 *440:8 9.84794e-05
21 *2073:A2 *440:8 9.84851e-05
22 *2073:B1 *440:8 0.000141954
23 *2075:B2 *2075:A2_N 1.14762e-05
24 *2077:A2_N *2077:B1 3.28979e-05
25 *193:33 *440:8 0.000185434
26 *193:41 *2077:B1 0
27 *198:12 *440:8 7.86284e-05
28 *198:18 *440:8 0.000127496
29 *199:12 *2077:B1 0.000352547
30 *199:21 *2077:B1 2.64616e-05
31 *201:27 *440:8 2.02872e-05
*RES
1 *2073:X *440:8 42.6993 
2 *440:8 *440:10 15 
3 *440:10 *440:12 5.77929 
4 *440:12 *2074:B 16.9057 
5 *440:12 *2075:A2_N 47.6736 
6 *440:10 *2077:B1 45.5814 
*END

*D_NET *441 0.00189794
*CONN
*I *2076:B I *D sky130_fd_sc_hd__xnor2_2
*I *2075:X O *D sky130_fd_sc_hd__o2bb2a_2
*CAP
1 *2076:B 0.000397734
2 *2075:X 0.000308384
3 *441:8 0.000706118
4 *2076:B *565:21 7.56417e-05
5 *2076:B *565:33 0
6 *2076:B *602:12 0
7 *441:8 *565:33 0.000128391
8 *1800:B2 *441:8 1.14876e-05
9 *1809:A1 *2076:B 0
10 *1810:A *2076:B 4.98543e-05
11 *2075:A2_N *441:8 3.58084e-06
12 *2075:B2 *441:8 0.000143655
13 *191:10 *2076:B 0
14 *195:18 *2076:B 0
15 *197:12 *2076:B 7.30978e-05
*RES
1 *2075:X *441:8 42.9093 
2 *441:8 *2076:B 45.8921 
*END

*D_NET *442 0.000548712
*CONN
*I *2078:B I *D sky130_fd_sc_hd__xor2_2
*I *2077:X O *D sky130_fd_sc_hd__o2bb2a_2
*CAP
1 *2078:B 0
2 *2077:X 0.000183162
3 *442:10 0.000183162
4 *442:10 *599:14 0.000141869
5 *193:41 *442:10 0
6 *199:21 *442:10 4.05196e-05
*RES
1 *2077:X *442:10 41.48 
2 *442:10 *2078:B 15 
*END

*D_NET *443 0.0070811
*CONN
*I *2085:A2 I *D sky130_fd_sc_hd__o21ai_2
*I *2080:B1 I *D sky130_fd_sc_hd__a21oi_2
*I *2083:B2 I *D sky130_fd_sc_hd__o22a_2
*I *2081:A I *D sky130_fd_sc_hd__and3_2
*I *2079:Y O *D sky130_fd_sc_hd__a22oi_4
*CAP
1 *2085:A2 0
2 *2080:B1 0
3 *2083:B2 0.000577718
4 *2081:A 0
5 *2079:Y 0.00132813
6 *443:35 0.00107187
7 *443:22 0.000877416
8 *443:14 0.0017114
9 *2083:B2 *2159:A1 5.67058e-05
10 *2083:B2 *470:24 0
11 *2083:B2 *470:26 0
12 *2083:B2 *470:28 0
13 *2083:B2 *502:8 4.6318e-06
14 *2083:B2 *533:30 2.76611e-06
15 *443:35 *2081:C 0.000177805
16 *443:35 *2082:A 5.50049e-05
17 *443:35 *445:8 3.58084e-06
18 *443:35 *470:24 0
19 *443:35 *502:8 2.60152e-05
20 *443:35 *502:12 5.41288e-05
21 *1830:D *443:14 7.88828e-05
22 *2083:A2 *2083:B2 5.50049e-05
23 *2085:A1 *443:14 0.000336109
24 *2160:B1 *2083:B2 0
25 *2163:A1 *443:22 0
26 *2163:C1 *443:22 5.31444e-05
27 *162:10 *2083:B2 0
28 *162:18 *443:14 3.45951e-05
29 *163:10 *2083:B2 6.07611e-06
30 *164:8 *2083:B2 0
31 *165:8 *443:14 0.000483638
32 *171:36 *443:14 7.05498e-05
33 *206:8 *443:22 6.7177e-06
34 *206:21 *443:22 9.21347e-06
*RES
1 *2079:Y *443:14 47.4014 
2 *443:14 *443:22 35.7379 
3 *443:22 *2081:A 23 
4 *443:22 *443:35 22.685 
5 *443:35 *2083:B2 47.57 
6 *443:35 *2080:B1 38 
7 *443:14 *2085:A2 23 
*END

*D_NET *444 0.000287495
*CONN
*I *2082:A I *D sky130_fd_sc_hd__or2_2
*I *2080:Y O *D sky130_fd_sc_hd__a21oi_2
*CAP
1 *2082:A 0.000103535
2 *2080:Y 0.000103535
3 *2082:A *445:8 2.54193e-05
4 *443:35 *2082:A 5.50049e-05
*RES
1 *2080:Y *2082:A 48.0507 
*END

*D_NET *445 0.00103758
*CONN
*I *2082:B I *D sky130_fd_sc_hd__or2_2
*I *2081:X O *D sky130_fd_sc_hd__and3_2
*CAP
1 *2082:B 0
2 *2081:X 0.000402521
3 *445:8 0.000402521
4 *445:8 *2081:B 0.000140259
5 *445:8 *2081:C 2.79662e-05
6 *445:8 *502:12 3.53115e-05
7 *2082:A *445:8 2.54193e-05
8 *443:35 *445:8 3.58084e-06
*RES
1 *2081:X *445:8 29.1107 
2 *445:8 *2082:B 23 
*END

*D_NET *446 0.00112743
*CONN
*I *2084:B I *D sky130_fd_sc_hd__xor2_2
*I *2083:X O *D sky130_fd_sc_hd__o22a_2
*CAP
1 *2084:B 0
2 *2083:X 0.000356786
3 *446:10 0.000356786
4 *446:10 *2159:A1 0.000272377
5 *446:10 *2159:A2 2.93845e-05
6 *446:10 *568:57 7.28526e-05
7 *446:10 *605:8 3.92407e-05
8 *160:8 *446:10 0
*RES
1 *2083:X *446:10 44.3386 
2 *446:10 *2084:B 15 
*END

*D_NET *447 0.00338062
*CONN
*I *2087:B2 I *D sky130_fd_sc_hd__a2bb2oi_2
*I *2086:B I *D sky130_fd_sc_hd__xor2_2
*I *2085:Y O *D sky130_fd_sc_hd__o21ai_2
*CAP
1 *2087:B2 0
2 *2086:B 0.000870134
3 *2085:Y 0.000486866
4 *447:26 0.000383267
5 *2086:B *470:16 0.000359326
6 *447:26 *2139:A2 0
7 *447:26 *536:14 6.51843e-05
8 *447:26 *572:8 0.000228001
9 S[10] *447:26 5.10221e-05
10 *2087:B1 *447:26 2.93845e-05
11 *2298:A *447:26 5.50106e-05
12 *2318:A *2086:B 5.50106e-05
13 *34:11 *447:26 0
14 *138:8 *2086:B 0.000221406
15 *138:8 *447:26 4.70852e-05
16 *162:18 *2086:B 0.000528927
*RES
1 *2085:Y *2086:B 36.4332 
2 *2086:B *447:26 38.2961 
3 *447:26 *2087:B2 23 
*END

*D_NET *448 0.000761144
*CONN
*I *2088:B I *D sky130_fd_sc_hd__xor2_2
*I *2087:Y O *D sky130_fd_sc_hd__a2bb2oi_2
*CAP
1 *2088:B 0
2 *2087:Y 0.000324154
3 *448:10 0.000324154
4 *448:10 *480:8 0
5 *448:10 *481:8 0
6 *2298:A *448:10 5.67058e-05
7 *147:10 *448:10 0
8 *150:10 *448:10 5.61311e-05
*RES
1 *2087:Y *448:10 43.6964 
2 *448:10 *2088:B 15 
*END

*D_NET *449 0.00341608
*CONN
*I *2093:B2 I *D sky130_fd_sc_hd__o2bb2ai_2
*I *2095:A2 I *D sky130_fd_sc_hd__o211a_2
*I *2089:Y O *D sky130_fd_sc_hd__nand2_2
*CAP
1 *2093:B2 0.000938909
2 *2095:A2 2.22431e-05
3 *2089:Y 0.000159587
4 *449:10 0.000961152
5 *449:8 0.000159587
6 *2093:B2 *451:10 9.84794e-05
7 *449:8 *607:35 0
8 *2093:A1_N *2093:B2 5.67058e-05
9 *2095:A1 *2093:B2 5.45324e-05
10 *2095:C1 *2095:A2 8.57697e-07
11 *2126:B1 *2093:B2 8.36576e-05
12 *127:12 *2093:B2 9.84794e-05
13 *128:8 *2093:B2 0.000471127
14 *128:8 *2095:A2 1.06045e-05
15 *133:10 *449:8 0.000166666
16 *258:10 *449:8 0.000133494
*RES
1 *2089:Y *449:8 43.075 
2 *449:8 *449:10 15 
3 *449:10 *2095:A2 23.5334 
4 *449:10 *2093:B2 41.415 
*END

*D_NET *450 0.0041628
*CONN
*I *2092:B I *D sky130_fd_sc_hd__xnor2_2
*I *2091:X O *D sky130_fd_sc_hd__a32o_2
*CAP
1 *2092:B 0
2 *2091:X 0.0014761
3 *450:12 0.000178638
4 *450:6 0.00165473
5 *450:6 *2258:A 0.000199089
6 *450:6 *467:6 0.000193739
7 *450:6 *542:39 4.5602e-06
8 *2091:B1 *450:6 9.9231e-06
9 *2091:B2 *450:6 4.04598e-06
10 *2121:B *450:6 1.59094e-05
11 *2131:A1 *450:12 1.52259e-05
12 *2131:A2 *450:12 0
13 *101:12 *450:6 6.33627e-05
14 *119:22 *450:12 1.86973e-05
15 *121:31 *450:6 3.40181e-05
16 *123:6 *450:6 2.93845e-05
17 *126:16 *450:6 0.000183733
18 *132:10 *450:12 8.16459e-05
*RES
1 *2091:X *450:6 43.6314 
2 *450:6 *450:12 33.6664 
3 *450:12 *2092:B 23 
*END

*D_NET *451 0.000469306
*CONN
*I *2094:B I *D sky130_fd_sc_hd__xnor2_2
*I *2093:Y O *D sky130_fd_sc_hd__o2bb2ai_2
*CAP
1 *2094:B 0
2 *2093:Y 0.000185413
3 *451:10 0.000185413
4 *2093:B1 *451:10 0
5 *2093:B2 *451:10 9.84794e-05
6 *127:8 *451:10 0
*RES
1 *2093:Y *451:10 41.3557 
2 *451:10 *2094:B 38 
*END

*D_NET *452 0.000349301
*CONN
*I *2096:B I *D sky130_fd_sc_hd__xor2_2
*I *2095:X O *D sky130_fd_sc_hd__o211a_2
*CAP
1 *2096:B 0
2 *2095:X 0.000120798
3 *452:8 0.000120798
4 *452:8 *607:35 9.88575e-05
5 *2127:B *452:8 0
6 *128:23 *452:8 0
7 *133:29 *452:8 4.6318e-06
8 *136:10 *452:8 4.21594e-06
*RES
1 *2095:X *452:8 40.61 
2 *452:8 *2096:B 15 
*END

*D_NET *453 0.0230888
*CONN
*I *2189:A I *D sky130_fd_sc_hd__buf_8
*I *2123:A1 I *D sky130_fd_sc_hd__o21ai_2
*I *1832:A I *D sky130_fd_sc_hd__nand2_2
*I *1880:A1 I *D sky130_fd_sc_hd__a21oi_2
*I *1797:A1 I *D sky130_fd_sc_hd__o21ai_4
*I *1792:B I *D sky130_fd_sc_hd__nor2_2
*I *1794:A I *D sky130_fd_sc_hd__nand2_2
*I *1881:A1 I *D sky130_fd_sc_hd__o21ai_2
*I *2098:Y O *D sky130_fd_sc_hd__inv_6
*CAP
1 *2189:A 0
2 *2123:A1 0
3 *1832:A 0
4 *1880:A1 0
5 *1797:A1 0
6 *1792:B 0
7 *1794:A 0.000349917
8 *1881:A1 0
9 *2098:Y 0.000724403
10 *453:134 0.00045382
11 *453:121 0.00176692
12 *453:109 0.0024076
13 *453:102 0.000623269
14 *453:81 0.000161195
15 *453:66 0.000637272
16 *453:43 0.00148639
17 *453:39 0.00358436
18 *453:29 0.00301087
19 *453:20 0.000728941
20 *453:6 0.00110385
21 *1794:A *565:41 1.27321e-05
22 *1794:A *565:47 6.07611e-06
23 *453:6 *1842:B 1.24376e-05
24 *453:6 *2098:A 3.39646e-05
25 *453:6 *541:6 6.30636e-05
26 *453:20 *1842:B 0.000357205
27 *453:20 *458:16 5.97967e-05
28 *453:20 *458:22 0.000144894
29 *453:20 *459:14 0.000243135
30 *453:20 *586:6 2.4754e-05
31 *453:29 *1880:A2 0
32 *453:29 *459:18 0.000127598
33 *453:39 *1848:A1 2.05503e-05
34 *453:39 *459:18 3.39192e-05
35 *453:39 *570:28 8.84148e-05
36 *453:66 *529:14 7.55552e-05
37 *453:102 *462:29 0.00083585
38 *453:102 *494:10 1.94812e-05
39 *453:102 *541:6 0.00170613
40 *453:102 *570:28 0.000122266
41 *453:109 *541:6 0.000244627
42 *453:121 *541:6 1.76557e-05
43 *453:121 *607:35 3.98496e-05
44 *453:121 *607:41 6.95618e-05
45 *453:134 *2110:B1_N 1.97329e-05
46 *453:134 *499:10 4.21594e-06
47 *453:134 *541:12 0.000383503
48 *453:134 *541:20 0
49 *453:134 *575:10 0.000101004
50 *453:134 *575:20 0
51 *453:134 *607:12 0
52 *2089:A *453:121 5.41288e-05
53 *28:11 *453:66 1.05441e-05
54 *101:8 *453:121 0
55 *101:27 *453:121 0.000217473
56 *110:10 *453:134 0.000169674
57 *111:8 *453:134 6.58373e-05
58 *133:8 *453:121 3.39386e-05
59 *180:10 *453:66 3.22879e-05
60 *183:10 *453:81 6.10551e-06
61 *186:10 *453:66 0.000400198
62 *268:6 *453:20 0.000191826
*RES
1 *2098:Y *453:6 26.9564 
2 *453:6 *453:20 44.21 
3 *453:20 *1881:A1 23 
4 *453:6 *453:29 16.9057 
5 *453:29 *453:39 21.9913 
6 *453:39 *453:43 8.94453 
7 *453:43 *1794:A 46.8493 
8 *453:43 *453:66 29.8832 
9 *453:66 *1792:B 23 
10 *453:39 *453:81 31.5917 
11 *453:81 *1797:A1 23 
12 *453:29 *1880:A1 38 
13 *2098:Y *453:102 42.2229 
14 *453:102 *1832:A 23 
15 *453:102 *453:109 4.90929 
16 *453:109 *453:121 42.9229 
17 *453:121 *2123:A1 38 
18 *453:109 *453:134 41.4136 
19 *453:134 *2189:A 23 
*END

*D_NET *454 0.00418284
*CONN
*I *1848:B1 I *D sky130_fd_sc_hd__o21ai_4
*I *1861:B1_N I *D sky130_fd_sc_hd__o21bai_2
*I *2064:A I *D sky130_fd_sc_hd__xor2_2
*I *2065:A1 I *D sky130_fd_sc_hd__mux2_1
*I *2190:X O *D sky130_fd_sc_hd__clkdlybuf4s25_1
*CAP
1 *1848:B1 0
2 *1861:B1_N 6.34361e-05
3 *2064:A 0
4 *2065:A1 0.000184254
5 *2190:X 0.000188613
6 *454:29 0.000294924
7 *454:14 0.000740485
8 *454:8 0.000513356
9 *2065:A1 *2065:S 9.58714e-05
10 *2065:A1 *496:32 2.69859e-05
11 *454:8 *1846:A 0.000189785
12 *454:8 *1846:B 0.000229801
13 *454:8 *458:22 9.67842e-05
14 *454:29 *2064:B 0.000246748
15 *454:29 *2065:S 0.000135313
16 *454:29 *493:10 0
17 *454:29 *496:32 0
18 *1850:A1 *454:14 2.4754e-05
19 *1850:B1 *2065:A1 3.7122e-06
20 *1850:B1 *454:14 4.94192e-05
21 *33:11 *454:29 0
22 *234:6 *454:8 0.000753737
23 *234:6 *454:14 4.04303e-05
24 *234:16 *454:14 1.36046e-05
25 *236:22 *454:8 5.78923e-05
26 *236:22 *454:14 7.53384e-06
27 *238:14 *454:14 0.000225399
*RES
1 *2190:X *454:8 31.7414 
2 *454:8 *454:14 6.85643 
3 *454:14 *2065:A1 26.0243 
4 *454:14 *454:29 35.075 
5 *454:29 *2064:A 23 
6 *454:29 *1861:B1_N 24.0979 
7 *454:8 *1848:B1 23 
*END

*D_NET *455 0.0018608
*CONN
*I *1889:B1_N I *D sky130_fd_sc_hd__o21ba_2
*I *1890:B1_N I *D sky130_fd_sc_hd__o21bai_2
*I *1888:C I *D sky130_fd_sc_hd__nand3b_4
*I *2191:X O *D sky130_fd_sc_hd__clkdlybuf4s25_1
*CAP
1 *1889:B1_N 0.000185086
2 *1890:B1_N 0.000119391
3 *1888:C 2.79004e-05
4 *2191:X 0.000281047
5 *455:19 0.000452115
6 *455:8 0.000456585
7 *1888:C *1886:A 5.50106e-05
8 *455:8 *460:10 8.41115e-05
9 *455:8 *545:12 0
10 *455:8 *570:18 0
11 *455:19 *570:18 0
12 *1889:A2 *1889:B1_N 0.000107548
13 *73:10 *1889:B1_N 0
14 *272:10 *1889:B1_N 4.6318e-06
15 *272:10 *455:19 6.79006e-05
16 *275:10 *1889:B1_N 1.94693e-05
*RES
1 *2191:X *455:8 43.075 
2 *455:8 *1888:C 38.6214 
3 *455:8 *455:19 2.61 
4 *455:19 *1890:B1_N 40.0507 
5 *455:19 *1889:B1_N 42.06 
*END

*D_NET *456 0.00270156
*CONN
*I *2255:A I *D sky130_fd_sc_hd__buf_8
*I *2313:A I *D sky130_fd_sc_hd__buf_2
*I *2177:X O *D sky130_fd_sc_hd__buf_6
*CAP
1 *2255:A 9.0352e-05
2 *2313:A 0
3 *2177:X 0.000310263
4 *456:12 9.0352e-05
5 *456:10 0.000310263
6 *2255:A *2282:A 0.00030894
7 *2255:A *562:8 0.000168975
8 *456:10 *493:10 9.84794e-05
9 *456:10 *496:32 0.000534499
10 *456:10 *508:14 2.60152e-05
11 *55:17 *456:10 0.00018282
12 *248:8 *456:10 0.000445041
13 *248:18 *456:10 0.000135557
*RES
1 *2177:X *456:10 47.9429 
2 *456:10 *456:12 15 
3 *456:12 *2313:A 23 
4 *456:12 *2255:A 26.48 
*END

*D_NET *457 0.00679578
*CONN
*I *2304:A I *D sky130_fd_sc_hd__buf_2
*I *1795:A2 I *D sky130_fd_sc_hd__o21a_4
*I *1802:A_N I *D sky130_fd_sc_hd__nand2b_4
*I *2312:A I *D sky130_fd_sc_hd__buf_2
*I *2303:A I *D sky130_fd_sc_hd__buf_2
*I *1806:A1 I *D sky130_fd_sc_hd__o21a_4
*I *1807:A1 I *D sky130_fd_sc_hd__o21ai_2
*I *2255:X O *D sky130_fd_sc_hd__buf_8
*CAP
1 *2304:A 0
2 *1795:A2 0.000467054
3 *1802:A_N 0
4 *2312:A 8.52535e-05
5 *2303:A 3.80995e-05
6 *1806:A1 8.56097e-05
7 *1807:A1 4.97151e-05
8 *2255:X 0.000368099
9 *457:76 0.000846667
10 *457:51 0.000246416
11 *457:47 0.000330406
12 *457:36 0.0007717
13 *457:28 0.000908076
14 *457:14 0.000368099
15 *1795:A2 *1793:B 0.000199158
16 *1795:A2 *2100:A 1.83444e-05
17 *1795:A2 *486:8 7.03869e-05
18 *1795:A2 *493:32 1.22906e-05
19 *1795:A2 *565:41 0.000129513
20 *1795:A2 *565:47 0.000245333
21 *1806:A1 *1806:A2 1.94693e-05
22 *457:14 *514:14 5.40241e-05
23 *457:14 *535:42 0
24 *457:14 *562:8 0.000100061
25 *457:28 *1807:A2 5.79559e-05
26 *457:28 *1807:B1 6.17437e-06
27 *457:28 *566:27 9.78729e-06
28 *457:36 *1806:A2 2.98648e-05
29 *457:36 *1806:B1 5.50106e-05
30 *457:36 *1807:B1 1.03836e-05
31 *457:36 *530:10 0.00020516
32 *457:47 *495:8 0.000196549
33 *457:47 *566:42 0.000108569
34 *457:51 *485:8 4.58924e-05
35 *457:51 *495:8 0.000168754
36 *457:76 *493:32 0
37 *1812:A2_N *457:76 0
38 *2326:A *457:14 4.6318e-06
39 *102:8 *1795:A2 0
40 *102:31 *1795:A2 0.000278669
41 *102:31 *457:76 1.14452e-05
42 *189:8 *457:47 0
43 *190:8 *457:47 0
44 *190:8 *457:51 0
45 *193:14 *457:14 0.000139856
46 *193:14 *457:76 0
47 *194:10 *457:36 5.3304e-05
*RES
1 *2255:X *457:14 45.2914 
2 *457:14 *1807:A1 38 
3 *1807:A1 *457:28 24.0979 
4 *457:28 *457:36 9.38357 
5 *457:36 *1806:A1 24.5743 
6 *457:36 *457:47 20.4271 
7 *457:47 *457:51 18.3143 
8 *457:51 *2303:A 23.6214 
9 *457:51 *2312:A 24.5743 
10 *457:47 *1802:A_N 38 
11 *457:28 *457:76 20.4271 
12 *457:76 *1795:A2 49.6621 
13 *457:76 *2304:A 38 
*END

*D_NET *458 0.00618911
*CONN
*I *2256:A I *D sky130_fd_sc_hd__buf_8
*I *1877:A I *D sky130_fd_sc_hd__or2_4
*I *1846:A I *D sky130_fd_sc_hd__and2_2
*I *1849:A1 I *D sky130_fd_sc_hd__a21oi_2
*I *2178:X O *D sky130_fd_sc_hd__clkbuf_2
*CAP
1 *2256:A 0
2 *1877:A 2.79004e-05
3 *1846:A 0.000189947
4 *1849:A1 0
5 *2178:X 0.000620248
6 *458:30 0.000352242
7 *458:22 0.00117936
8 *458:16 0.000843847
9 *458:10 0.000799021
10 *1846:A *1846:B 0.000274234
11 *1846:A *1848:A1 0.000265718
12 *1877:A *597:6 5.50106e-05
13 *458:10 *459:14 0
14 *458:10 *459:116 4.67762e-05
15 *458:10 *476:33 0
16 *458:16 *459:14 0
17 *458:16 *476:33 0
18 *458:22 *1848:A1 0
19 *458:22 *1848:A2 1.14452e-05
20 *458:22 *459:18 0
21 *458:22 *459:55 0.000103724
22 *458:22 *544:12 0.000167443
23 *458:22 *597:14 0
24 *458:30 *1848:A2 1.52362e-05
25 *458:30 *1849:A2 0.000144501
26 *458:30 *559:10 1.56446e-05
27 *1849:B1 *458:30 0.000233367
28 *1851:B *458:30 1.3523e-05
29 *1862:A2 *458:30 1.83564e-05
30 *1881:B1 *458:16 6.40241e-05
31 *1881:B1 *458:22 6.68311e-05
32 *1:11 *458:22 0
33 *231:29 *458:22 0.000100605
34 *234:27 *458:22 0
35 *236:22 *458:22 6.17437e-06
36 *236:22 *458:30 8.26672e-05
37 *238:14 *458:22 0
38 *453:20 *458:16 5.97967e-05
39 *453:20 *458:22 0.000144894
40 *454:8 *1846:A 0.000189785
41 *454:8 *458:22 9.67842e-05
*RES
1 *2178:X *458:10 47.9014 
2 *458:10 *458:16 3.37643 
3 *458:16 *458:22 27.5114 
4 *458:22 *458:30 37.7471 
5 *458:30 *1849:A1 23 
6 *458:22 *1846:A 29.5043 
7 *458:16 *1877:A 38.6214 
8 *458:10 *2256:A 38 
*END

*D_NET *459 0.0119541
*CONN
*I *2330:A I *D sky130_fd_sc_hd__buf_2
*I *1842:A I *D sky130_fd_sc_hd__and2_2
*I *1840:A_N I *D sky130_fd_sc_hd__nand2b_2
*I *1844:A2 I *D sky130_fd_sc_hd__o21ai_4
*I *1845:A1 I *D sky130_fd_sc_hd__a21o_4
*I *1841:B I *D sky130_fd_sc_hd__nand2b_2
*I *1848:A1 I *D sky130_fd_sc_hd__o21ai_4
*I *2256:X O *D sky130_fd_sc_hd__buf_8
*CAP
1 *2330:A 0
2 *1842:A 0
3 *1840:A_N 0.00011864
4 *1844:A2 0
5 *1845:A1 0
6 *1841:B 0
7 *1848:A1 0.000607052
8 *2256:X 9.59858e-05
9 *459:116 0.000828132
10 *459:99 0.000225094
11 *459:65 0.000355198
12 *459:55 0.000793056
13 *459:39 0.000534228
14 *459:33 0.00021501
15 *459:18 0.000804693
16 *459:14 0.000838948
17 *459:8 0.00134033
18 *1840:A_N *1840:B 0.000104807
19 *1840:A_N *1880:A2 0.000102389
20 *1848:A1 *1846:B 5.94125e-05
21 *1848:A1 *524:16 2.15048e-05
22 *459:14 *1879:C 8.06804e-06
23 *459:14 *597:6 3.74284e-05
24 *459:18 *1880:A2 0
25 *459:18 *2098:A 0.000129028
26 *459:18 *597:14 0.000336157
27 *459:39 *1840:B 0.00025805
28 *459:39 *1844:A1 1.12349e-05
29 *459:39 *547:44 2.31687e-05
30 *459:39 *597:14 0.000102389
31 *459:55 *476:10 2.68708e-05
32 *459:55 *524:6 0.000396683
33 *459:55 *547:12 2.73792e-05
34 *459:65 *460:18 0.000218952
35 *459:65 *524:6 6.9805e-05
36 *459:99 *1878:B 3.11916e-05
37 *459:99 *1879:C 8.06804e-06
38 *459:99 *1880:A2 3.76761e-05
39 *459:99 *2098:A 6.89487e-05
40 *459:116 *476:33 0
41 *459:116 *521:8 0
42 *1846:A *1848:A1 0.000265718
43 *1852:B1 *459:55 0.000183733
44 *1879:A *459:14 1.92253e-05
45 *1879:B *459:99 5.11621e-05
46 *1896:A *459:116 2.34364e-05
47 *1:11 *1848:A1 2.38603e-05
48 *12:15 *459:55 0.000105749
49 *12:15 *459:65 0.000310647
50 *58:11 *459:65 0.000216721
51 *229:10 *459:65 0.000119467
52 *231:29 *459:39 4.17736e-05
53 *231:29 *459:55 0.000139357
54 *232:19 *459:55 0
55 *267:8 *459:39 0.000188063
56 *267:8 *459:55 0.000139357
57 *268:6 *459:8 0.00023274
58 *274:36 *459:116 0.000111852
59 *281:10 *459:116 0.000369939
60 *453:20 *459:14 0.000243135
61 *453:29 *459:18 0.000127598
62 *453:39 *1848:A1 2.05503e-05
63 *453:39 *459:18 3.39192e-05
64 *458:10 *459:14 0
65 *458:10 *459:116 4.67762e-05
66 *458:16 *459:14 0
67 *458:22 *1848:A1 0
68 *458:22 *459:18 0
69 *458:22 *459:55 0.000103724
*RES
1 *2256:X *459:8 40.5271 
2 *459:8 *459:14 21.67 
3 *459:14 *459:18 20.075 
4 *459:18 *1848:A1 47.6321 
5 *459:18 *459:33 15 
6 *459:33 *459:39 4.59857 
7 *459:39 *459:55 40.9371 
8 *459:55 *459:65 39.4457 
9 *459:65 *1841:B 23 
10 *459:55 *1845:A1 23 
11 *459:39 *1844:A2 23 
12 *459:33 *1840:A_N 26.1693 
13 *459:14 *459:99 33.8321 
14 *459:99 *1842:A 23 
15 *459:8 *459:116 29.8521 
16 *459:116 *2330:A 23 
*END

*D_NET *460 0.00820557
*CONN
*I *1878:A I *D sky130_fd_sc_hd__nand2_2
*I *2098:A I *D sky130_fd_sc_hd__inv_6
*I *2178:A I *D sky130_fd_sc_hd__clkbuf_2
*I *2177:A I *D sky130_fd_sc_hd__buf_6
*I *2310:A I *D sky130_fd_sc_hd__buf_2
*I *2179:X O *D sky130_fd_sc_hd__buf_8
*CAP
1 *1878:A 0.000185372
2 *2098:A 0.00024306
3 *2178:A 0
4 *2177:A 0
5 *2310:A 1.89342e-05
6 *2179:X 0.000821301
7 *460:52 0.00100056
8 *460:18 0.00112484
9 *460:10 0.00122487
10 *460:8 0.000368135
11 *1878:A *1879:C 0
12 *1878:A *575:6 0.000188307
13 *2098:A *1842:B 3.23857e-06
14 *2098:A *541:6 9.65021e-05
15 *2098:A *597:14 2.24151e-05
16 *2310:A *493:10 5.70419e-05
17 *460:8 *462:6 0.000354747
18 *460:8 *476:33 0.000242076
19 *460:8 *545:21 0.000306836
20 *460:10 *570:18 0
21 *460:10 *570:28 0
22 *460:18 *547:35 9.64022e-05
23 *460:18 *570:28 0
24 *460:52 *462:6 5.56279e-05
25 *460:52 *545:21 2.93335e-05
26 *1879:B *1878:A 7.71928e-05
27 *1895:B1 *460:52 9.91253e-05
28 *12:15 *460:18 0
29 *41:17 *460:18 0
30 *55:17 *2310:A 9.84794e-05
31 *58:11 *460:18 0.000235848
32 *103:8 *460:8 0.000355029
33 *229:10 *460:18 0.000166532
34 *266:8 *2098:A 5.24877e-05
35 *266:8 *460:52 0.00013866
36 *278:27 *460:52 7.60871e-06
37 *436:8 *460:18 0
38 *453:6 *2098:A 3.39646e-05
39 *455:8 *460:10 8.41115e-05
40 *459:18 *2098:A 0.000129028
41 *459:65 *460:18 0.000218952
42 *459:99 *2098:A 6.89487e-05
*RES
1 *2179:X *460:8 48.15 
2 *460:8 *460:10 2.61 
3 *460:10 *460:18 36.8121 
4 *460:18 *2310:A 24.0979 
5 *460:18 *2177:A 23 
6 *460:10 *2178:A 38 
7 *2179:X *460:52 48.7611 
8 *460:52 *2098:A 43.4996 
9 *460:52 *1878:A 41.9668 
*END

*D_NET *461 0.00989263
*CONN
*I *1831:B I *D sky130_fd_sc_hd__nand2b_2
*I *1835:A1 I *D sky130_fd_sc_hd__o21ai_2
*I *1814:A1 I *D sky130_fd_sc_hd__a21o_2
*I *2168:A I *D sky130_fd_sc_hd__and2_2
*I *1813:A1 I *D sky130_fd_sc_hd__o21ai_2
*I *2166:B I *D sky130_fd_sc_hd__nand2b_2
*I *2167:A_N I *D sky130_fd_sc_hd__nand2b_2
*I *2176:A I *D sky130_fd_sc_hd__and2_2
*I *1796:A1 I *D sky130_fd_sc_hd__o21ai_2
*I *1833:A I *D sky130_fd_sc_hd__and2_2
*I *2180:X O *D sky130_fd_sc_hd__clkbuf_2
*CAP
1 *1831:B 0.000217949
2 *1835:A1 0
3 *1814:A1 9.63036e-05
4 *2168:A 0.000207182
5 *1813:A1 0.000202865
6 *2166:B 3.79501e-05
7 *2167:A_N 0
8 *2176:A 0
9 *1796:A1 3.49021e-05
10 *1833:A 0.000151353
11 *2180:X 0
12 *461:58 0.000326266
13 *461:56 0.000375464
14 *461:35 0.000533693
15 *461:31 0.000585974
16 *461:27 0.000213727
17 *461:25 0.00113613
18 *461:19 0.00115618
19 *461:6 0.000379168
20 *461:4 0.000285697
21 *1796:A1 *565:23 0.000184527
22 *1813:A1 *1813:A2 3.34129e-05
23 *1813:A1 *532:27 0.00026877
24 *1831:B *1831:A_N 0.000172197
25 *1831:B *562:30 0.00010018
26 *1833:A *562:30 7.59794e-05
27 *2168:A *2168:B 0.000260937
28 *2168:A *567:52 2.18506e-05
29 *461:6 *562:30 9.61128e-05
30 *461:19 *527:53 2.08324e-05
31 *461:19 *527:64 0
32 *461:19 *562:23 6.78567e-05
33 *461:25 *527:10 0
34 *461:25 *527:19 0
35 *461:25 *527:36 0
36 *461:25 *527:53 8.76088e-05
37 *461:25 *562:10 3.67389e-05
38 *461:25 *599:14 0.000454426
39 *461:27 *599:14 2.96154e-05
40 *461:31 *2167:B 6.37845e-05
41 *461:35 *2167:B 1.64402e-05
42 *461:35 *2168:B 0
43 *461:35 *2176:B 4.08664e-05
44 *461:35 *565:23 5.50049e-05
45 *461:56 *527:10 0
46 *461:56 *599:14 1.42006e-05
47 *461:58 *527:10 0
48 *461:58 *599:14 7.75329e-06
49 *1814:B1 *1814:A1 0.00014196
50 *1814:B1 *461:31 0.000137651
51 *1856:B1 *461:25 0.000111582
52 *1857:B1 *461:25 7.03869e-05
53 *2070:A *461:25 1.83961e-05
54 *26:9 *2166:B 6.07611e-06
55 *169:8 *2166:B 6.16439e-05
56 *169:8 *461:58 0.000103949
57 *178:10 *461:35 2.93747e-05
58 *184:10 *1796:A1 0.000184527
59 *184:10 *461:35 0.000123506
60 *201:10 *1813:A1 0.000136738
61 *221:10 *1833:A 5.50049e-05
62 *221:10 *461:6 8.43466e-05
63 *221:10 *461:19 7.55491e-05
64 *223:22 *461:19 0.000171906
65 *244:8 *461:25 0
66 *245:8 *461:19 0.000186025
67 *245:8 *461:25 0.00014411
68 *252:8 *461:25 0
*RES
1 *2180:X *461:4 23 
2 *461:4 *461:6 2.05071 
3 *461:6 *1833:A 26.0243 
4 *461:6 *461:19 20.4271 
5 *461:19 *461:25 22.8686 
6 *461:25 *461:27 0.849286 
7 *461:27 *461:31 17.0507 
8 *461:31 *461:35 9.21786 
9 *461:35 *1796:A1 25.0507 
10 *461:35 *2176:A 23 
11 *461:31 *2167:A_N 23 
12 *461:27 *461:56 1.47071 
13 *461:56 *461:58 1.90571 
14 *461:58 *2166:B 38.8493 
15 *461:58 *1813:A1 42.4536 
16 *461:56 *2168:A 42.4536 
17 *461:25 *1814:A1 39.5743 
18 *461:19 *1835:A1 38 
19 *461:4 *1831:B 27.93 
*END

*D_NET *462 0.00629665
*CONN
*I *2179:A I *D sky130_fd_sc_hd__buf_8
*I *2180:A I *D sky130_fd_sc_hd__clkbuf_2
*I *2311:A I *D sky130_fd_sc_hd__buf_2
*I *2181:X O *D sky130_fd_sc_hd__buf_8
*CAP
1 *2179:A 0
2 *2180:A 0
3 *2311:A 0
4 *2181:X 0.000270065
5 *462:29 0.000454313
6 *462:16 0.000454313
7 *462:14 0.00153524
8 *462:6 0.0018053
9 *462:6 *545:21 5.8649e-05
10 *462:14 *492:23 0
11 *462:14 *545:21 1.3138e-05
12 *462:29 *562:36 0
13 *1894:A2 *462:14 2.02872e-05
14 *1894:B1_N *462:14 3.40549e-05
15 *2106:B *462:14 0.000123506
16 *105:24 *462:14 9.5877e-05
17 *108:10 *462:14 6.71408e-06
18 *269:12 *462:14 0.000149423
19 *280:8 *462:14 2.95441e-05
20 *453:102 *462:29 0.00083585
21 *460:8 *462:6 0.000354747
22 *460:52 *462:6 5.56279e-05
*RES
1 *2181:X *462:6 29.3386 
2 *462:6 *462:14 38.1379 
3 *462:14 *462:16 15 
4 *462:16 *2311:A 23 
5 *462:16 *462:29 41.455 
6 *462:29 *2180:A 23 
7 *462:6 *2179:A 23 
*END

*D_NET *463 0.0149464
*CONN
*I *1924:A I *D sky130_fd_sc_hd__and2_4
*I *1907:A I *D sky130_fd_sc_hd__nor2_2
*I *2308:A I *D sky130_fd_sc_hd__buf_2
*I *1897:A I *D sky130_fd_sc_hd__nor2_2
*I *1898:A I *D sky130_fd_sc_hd__and2_2
*I *1886:A I *D sky130_fd_sc_hd__and2_2
*I *1908:A I *D sky130_fd_sc_hd__and2_2
*I *2309:A I *D sky130_fd_sc_hd__buf_2
*I *1885:A I *D sky130_fd_sc_hd__nor2_4
*I *2182:X O *D sky130_fd_sc_hd__buf_6
*CAP
1 *1924:A 0.000124486
2 *1907:A 0
3 *2308:A 0
4 *1897:A 0
5 *1898:A 0
6 *1886:A 0.00033045
7 *1908:A 0
8 *2309:A 0
9 *1885:A 0.000232054
10 *2182:X 0.000225594
11 *463:83 0.00136107
12 *463:75 0.00115973
13 *463:71 0.000508158
14 *463:63 0.00105013
15 *463:52 0.000104235
16 *463:46 0.000833953
17 *463:44 0.000199995
18 *463:20 0.000964563
19 *463:14 0.00134484
20 *463:10 0.00118414
21 *463:8 0.000814274
22 *1885:A *1885:B 0
23 *1885:A *580:12 1.46594e-05
24 *1885:A *580:20 2.59343e-05
25 *463:8 *585:10 0.000306442
26 *463:10 *464:16 0
27 *463:10 *464:27 0.000107651
28 *463:10 *549:32 0
29 *463:14 *549:32 2.76611e-06
30 *463:52 *548:27 0.000194318
31 *463:63 *1911:B1_N 5.50049e-05
32 *463:71 *1897:B 6.07611e-06
33 *463:71 *1911:B1_N 0
34 *463:71 *570:16 0
35 *463:75 *1897:B 9.6289e-05
36 *463:75 *1899:B 3.55887e-05
37 *463:83 *1898:B 2.53471e-05
38 *463:83 *1902:B1_N 2.32101e-05
39 *463:83 *546:6 4.89617e-05
40 *463:83 *570:18 2.54646e-05
41 *463:83 *582:10 0.000124062
42 *1888:A_N *1886:A 0.000267167
43 *1888:C *1886:A 5.50106e-05
44 *1906:B *1885:A 0.000188927
45 *1911:A1 *463:63 3.22879e-05
46 *1914:A *463:83 1.4471e-05
47 *1914:B *463:83 0.00014411
48 *1916:C1 *1885:A 6.16531e-05
49 *1916:C1 *463:20 0.000228971
50 *2227:A *463:83 2.05503e-05
51 *11:15 *463:71 0
52 *74:10 *463:83 6.48105e-05
53 *78:8 *463:8 2.18409e-05
54 *79:10 *463:71 0
55 *271:14 *1885:A 0.000330074
56 *272:10 *1886:A 0.000228001
57 *273:16 *1886:A 5.47927e-05
58 *274:8 *463:83 0.000404047
59 *274:19 *463:83 0.000132665
60 *274:36 *1885:A 0.000167443
61 *275:10 *463:83 1.27508e-05
62 *276:10 *463:83 0.000191166
63 *283:8 *463:83 7.05498e-05
64 *285:8 *463:83 0.000191157
65 *287:10 *463:83 0.000132114
66 *297:27 *463:14 0
67 *297:27 *463:52 2.46933e-05
68 *304:29 *463:14 0
69 *307:14 *463:10 5.19151e-05
70 *309:18 *463:14 0
71 *309:18 *463:20 0
72 *311:52 *463:14 6.16531e-05
73 *312:8 *463:10 0
74 *317:10 *463:20 0
75 *320:10 *463:20 0.000171906
76 *328:8 *463:20 9.21879e-05
*RES
1 *2182:X *463:8 42.9093 
2 *463:8 *463:10 11.0614 
3 *463:10 *463:14 8.86571 
4 *463:14 *463:20 15.3493 
5 *463:20 *1885:A 44.9393 
6 *463:20 *2309:A 38 
7 *463:14 *463:44 17.5271 
8 *463:44 *463:46 1.09786 
9 *463:46 *463:52 32.61 
10 *463:52 *1908:A 23 
11 *463:46 *463:63 11.1443 
12 *463:63 *463:71 22.0221 
13 *463:71 *463:75 18.3143 
14 *463:75 *463:83 35.9629 
15 *463:83 *1886:A 46.265 
16 *463:75 *1898:A 23 
17 *463:71 *1897:A 38 
18 *463:63 *2308:A 23 
19 *463:44 *1907:A 23 
20 *463:10 *1924:A 39.5743 
*END

*D_NET *464 0.00272107
*CONN
*I *1929:A1 I *D sky130_fd_sc_hd__a21oi_2
*I *2257:A I *D sky130_fd_sc_hd__buf_6
*I *2182:A I *D sky130_fd_sc_hd__buf_6
*I *2183:X O *D sky130_fd_sc_hd__dlymetal6s2s_1
*CAP
1 *1929:A1 0.000312962
2 *2257:A 0
3 *2182:A 0
4 *2183:X 5.28768e-05
5 *464:27 0.000438302
6 *464:16 0.00033975
7 *464:6 0.000517967
8 *1929:A1 *549:32 8.06804e-06
9 *464:6 *1931:B1 1.56762e-05
10 *464:6 *2183:A 0.000142636
11 *464:6 *570:52 9.90847e-05
12 *464:16 *1931:B1 4.50413e-05
13 *464:16 *570:52 0.000142775
14 *1921:A *1929:A1 0.000112249
15 *307:14 *464:16 9.84794e-05
16 *307:14 *464:27 0.000191157
17 *312:8 *464:16 9.63918e-05
18 *312:8 *464:27 0
19 *315:10 *464:16 0
20 *463:10 *464:16 0
21 *463:10 *464:27 0.000107651
*RES
1 *2183:X *464:6 25.0507 
2 *464:6 *464:16 37.6229 
3 *464:16 *2182:A 23 
4 *464:6 *464:27 32.9621 
5 *464:27 *2257:A 23 
6 *464:27 *1929:A1 28.4271 
*END

*D_NET *465 0.00227139
*CONN
*I *1901:B1_N I *D sky130_fd_sc_hd__o21ba_2
*I *1902:B1_N I *D sky130_fd_sc_hd__o21bai_2
*I *1900:C I *D sky130_fd_sc_hd__nand3b_2
*I *2192:X O *D sky130_fd_sc_hd__clkdlybuf4s25_1
*CAP
1 *1901:B1_N 0
2 *1902:B1_N 2.86445e-05
3 *1900:C 0.000134681
4 *2192:X 0.000416169
5 *465:12 0.000295743
6 *465:10 0.000548587
7 *1900:C *570:16 0.000185845
8 *1902:B1_N *546:6 5.41385e-05
9 *465:10 *2274:A 0.000110913
10 *465:10 *570:16 6.67764e-05
11 *465:12 *570:16 0.000122304
12 *2227:A *1900:C 6.12496e-06
13 *2227:A *465:12 2.76611e-06
14 *11:15 *465:10 0.000139352
15 *284:8 *1900:C 1.14452e-05
16 *287:10 *1900:C 6.96821e-05
17 *287:10 *1902:B1_N 5.50049e-05
18 *463:83 *1902:B1_N 2.32101e-05
*RES
1 *2192:X *465:10 44.815 
2 *465:10 *465:12 3.31429 
3 *465:12 *1900:C 41.3764 
4 *465:12 *1902:B1_N 39.0979 
5 *465:10 *1901:B1_N 38 
*END

*D_NET *466 0.00823771
*CONN
*I *1952:A I *D sky130_fd_sc_hd__nand2_2
*I *1968:A I *D sky130_fd_sc_hd__nor2_4
*I *1951:A I *D sky130_fd_sc_hd__nor2_2
*I *1940:A I *D sky130_fd_sc_hd__nor2_2
*I *1939:A I *D sky130_fd_sc_hd__and2_4
*I *1925:A I *D sky130_fd_sc_hd__nor2_2
*I *1928:A1 I *D sky130_fd_sc_hd__o21ai_2
*I *2257:X O *D sky130_fd_sc_hd__buf_6
*CAP
1 *1952:A 0.000120368
2 *1968:A 0.000417838
3 *1951:A 2.93283e-05
4 *1940:A 0
5 *1939:A 0
6 *1925:A 0
7 *1928:A1 0.000211406
8 *2257:X 0.000455135
9 *466:74 0.000223552
10 *466:68 0.00073328
11 *466:64 0.000361475
12 *466:57 0.000220497
13 *466:51 0.000509504
14 *466:37 0.000141385
15 *466:22 0.000442018
16 *466:18 0.00071348
17 *1928:A1 *1928:B1 5.90675e-06
18 *1952:A *570:69 0.000131188
19 *1968:A *1954:C 3.59635e-05
20 *1968:A *509:6 0.000125488
21 *466:18 *490:10 3.97382e-05
22 *466:18 *490:16 9.94414e-05
23 *466:18 *490:41 3.56063e-05
24 *466:22 *1928:B1 1.21972e-05
25 *466:22 *570:69 3.70071e-06
26 *466:37 *549:12 0.000138718
27 *466:37 *549:20 1.14452e-05
28 *466:37 *570:69 3.82058e-06
29 *466:37 *588:12 0
30 *466:51 *1928:B1 0
31 *466:51 *570:69 0.000530622
32 *466:57 *1939:B 2.04774e-05
33 *466:57 *1942:B1_N 9.28739e-05
34 *466:57 *507:10 6.67764e-05
35 *466:57 *588:12 0
36 *466:64 *570:69 0.00030373
37 *466:68 *509:12 0
38 *466:68 *551:14 0
39 *466:74 *509:12 0
40 *1937:B1 *466:18 2.31591e-05
41 *1941:B *466:68 6.48049e-05
42 *1942:A1 *466:68 6.48049e-05
43 *1943:A_N *466:51 0.00010018
44 *1943:A_N *466:64 0.000210461
45 *1950:B1 *466:74 1.22906e-05
46 *16:9 *1968:A 0.000312348
47 *311:10 *466:18 8.4047e-05
48 *311:10 *466:22 0.000223698
49 *322:8 *466:68 0.000216051
50 *322:8 *466:74 0.000168754
51 *324:10 *466:51 9.29117e-05
52 *324:16 *466:51 1.5393e-05
53 *335:6 *1968:A 0.000397596
54 *335:21 *466:74 6.7177e-06
55 *348:10 *1968:A 7.53384e-06
*RES
1 *2257:X *466:18 45.7471 
2 *466:18 *466:22 18.48 
3 *466:22 *1928:A1 23.8493 
4 *466:22 *466:37 32.5271 
5 *466:37 *1925:A 23 
6 *1928:A1 *466:51 29.3593 
7 *466:51 *466:57 35.075 
8 *466:57 *1939:A 23 
9 *466:51 *466:64 3.48 
10 *466:64 *466:68 18.6664 
11 *466:68 *466:74 19.06 
12 *466:74 *1940:A 23 
13 *466:74 *1951:A 23.6214 
14 *466:68 *1968:A 48.7921 
15 *466:64 *1952:A 26.045 
*END

*D_NET *467 0.00330586
*CONN
*I *2258:A I *D sky130_fd_sc_hd__buf_8
*I *2122:A1 I *D sky130_fd_sc_hd__o21a_2
*I *2120:A I *D sky130_fd_sc_hd__nand2_2
*I *2184:X O *D sky130_fd_sc_hd__buf_6
*CAP
1 *2258:A 0.000174547
2 *2122:A1 2.79296e-05
3 *2120:A 0.000186618
4 *2184:X 0.000114548
5 *467:10 0.000452125
6 *467:6 0.000526672
7 *2120:A *2296:A 7.90568e-05
8 *2120:A *538:20 3.06608e-05
9 *2120:A *538:28 0.00013417
10 *2122:A1 *469:14 5.50049e-05
11 *467:6 *469:14 0.000139352
12 *467:10 *2296:A 4.6318e-06
13 *467:10 *469:14 0.000179682
14 *467:10 *471:8 0.000189806
15 *101:12 *467:6 0.00010018
16 *121:31 *2258:A 0.000401899
17 *122:10 *2120:A 4.63415e-05
18 *122:10 *467:10 4.99753e-06
19 *207:10 *2120:A 6.48142e-05
20 *450:6 *2258:A 0.000199089
21 *450:6 *467:6 0.000193739
*RES
1 *2184:X *467:6 26.9564 
2 *467:6 *467:10 20.4271 
3 *467:10 *2120:A 43.0336 
4 *467:10 *2122:A1 38.6214 
5 *467:6 *2258:A 29.3593 
*END

*D_NET *468 0.00488908
*CONN
*I *2317:A I *D sky130_fd_sc_hd__buf_2
*I *2124:A1 I *D sky130_fd_sc_hd__o21ai_4
*I *2117:A I *D sky130_fd_sc_hd__and2_4
*I *2146:A2 I *D sky130_fd_sc_hd__o21ai_4
*I *2143:A I *D sky130_fd_sc_hd__and2_4
*I *2118:A I *D sky130_fd_sc_hd__nor2_2
*I *2142:A I *D sky130_fd_sc_hd__nor2_2
*I *2258:X O *D sky130_fd_sc_hd__buf_8
*CAP
1 *2317:A 0.000287421
2 *2124:A1 3.30586e-05
3 *2117:A 0
4 *2146:A2 6.97363e-05
5 *2143:A 0
6 *2118:A 5.73479e-05
7 *2142:A 0.000185028
8 *2258:X 5.83344e-05
9 *468:58 0.000106436
10 *468:40 6.97363e-05
11 *468:16 0.000379254
12 *468:14 0.000235732
13 *468:12 0.000337152
14 *468:10 0.000510676
15 *2118:A *538:20 0.000141954
16 *2124:A1 *2124:A2 4.34745e-05
17 *2124:A1 *539:16 5.67058e-05
18 *2142:A *2142:B 0.000228903
19 *2142:A *2147:A1 8.82055e-05
20 *2142:A *470:16 0
21 *2142:A *537:42 6.08751e-05
22 *2146:A2 *2143:B 9.67842e-05
23 *2146:A2 *542:12 0.000128401
24 *2317:A *539:10 0.000113728
25 *2317:A *561:10 0
26 *468:12 *539:10 2.36741e-05
27 *468:12 *539:24 2.55642e-05
28 *468:14 *539:24 0.000157299
29 *468:16 *470:16 0
30 *468:16 *537:42 0.000112906
31 *468:16 *539:24 0.000242657
32 *468:58 *2124:A2 0
33 *468:58 *539:16 2.86356e-05
34 *468:58 *539:24 5.50106e-05
35 *1819:A1 *2118:A 5.10686e-05
36 *2093:B1 *2317:A 0.000225691
37 *2119:A1 *468:12 0
38 *2119:A1 *468:14 0
39 *2125:B1 *468:12 0
40 *2130:A1 *468:10 5.3304e-05
41 *2130:A2 *468:10 0
42 *2130:B1 *468:10 0
43 *2131:A1 *2317:A 0.000150977
44 *2131:A1 *468:12 3.47781e-05
45 *2148:A2 *2142:A 2.76611e-06
46 *2299:A *2146:A2 5.50106e-05
47 *119:22 *468:12 0.000138718
48 *120:8 *2118:A 6.17437e-06
49 *126:10 *468:12 7.03766e-05
50 *126:16 *468:10 2.32004e-05
51 *132:10 *2317:A 1.37349e-05
52 *132:10 *468:10 9.58714e-05
53 *145:8 *2146:A2 8.48502e-06
54 *148:10 *2146:A2 2.02872e-05
55 *148:12 *2142:A 3.95159e-06
*RES
1 *2258:X *468:10 39.595 
2 *468:10 *468:12 3.66643 
3 *468:12 *468:14 2.25786 
4 *468:14 *468:16 3.66643 
5 *468:16 *2142:A 42.785 
6 *468:16 *2118:A 40.0714 
7 *468:14 *468:40 15 
8 *468:40 *2143:A 23 
9 *468:40 *2146:A2 25.5271 
10 *468:12 *468:58 16.595 
11 *468:58 *2117:A 23 
12 *468:58 *2124:A1 24.0979 
13 *468:10 *2317:A 46.2443 
*END

*D_NET *469 0.00226238
*CONN
*I *2259:A I *D sky130_fd_sc_hd__buf_4
*I *2184:A I *D sky130_fd_sc_hd__buf_6
*I *2185:X O *D sky130_fd_sc_hd__buf_6
*CAP
1 *2259:A 0
2 *2184:A 0
3 *2185:X 0
4 *469:25 0.000141601
5 *469:14 0.000402708
6 *469:4 0.000544309
7 *469:14 *2185:A 5.50049e-05
8 *469:14 *538:40 0.000142949
9 *469:14 *542:12 0.000308952
10 *469:14 *570:28 9.28078e-06
11 *469:25 *2296:A 8.08511e-05
12 *469:25 *471:8 9.48381e-06
13 *2122:A1 *469:14 5.50049e-05
14 *122:10 *469:14 0.000110913
15 *151:51 *469:25 8.22906e-05
16 *467:6 *469:14 0.000139352
17 *467:10 *469:14 0.000179682
*RES
1 *2185:X *469:4 23 
2 *469:4 *469:14 40.4814 
3 *469:14 *2184:A 23 
4 *469:4 *469:25 33.6664 
5 *469:25 *2259:A 23 
*END

*D_NET *470 0.0101031
*CONN
*I *2139:A1 I *D sky130_fd_sc_hd__a21o_4
*I *2136:A I *D sky130_fd_sc_hd__and2_4
*I *2138:A1 I *D sky130_fd_sc_hd__o21ai_2
*I *2137:A I *D sky130_fd_sc_hd__nor2_2
*I *2160:A1 I *D sky130_fd_sc_hd__a21o_4
*I *2159:A1 I *D sky130_fd_sc_hd__a21oi_2
*I *2156:A I *D sky130_fd_sc_hd__and2_4
*I *2157:A I *D sky130_fd_sc_hd__nor2_2
*I *2158:A1 I *D sky130_fd_sc_hd__o21ai_4
*I *2259:X O *D sky130_fd_sc_hd__buf_4
*CAP
1 *2139:A1 0.000208727
2 *2136:A 0
3 *2138:A1 0.000170655
4 *2137:A 0.000261315
5 *2160:A1 0.000116562
6 *2159:A1 0.000388387
7 *2156:A 0
8 *2157:A 7.01343e-05
9 *2158:A1 0
10 *2259:X 0.000182463
11 *470:76 0.000377877
12 *470:44 0.000328014
13 *470:34 0.000443593
14 *470:28 0.000756154
15 *470:26 0.000315802
16 *470:24 0.000648905
17 *470:18 0.000393146
18 *470:16 0.000910724
19 *470:8 0.000835816
20 *2137:A *2160:A2 0.000171296
21 *2157:A *568:17 8.01689e-05
22 *2157:A *568:30 5.67058e-05
23 *2160:A1 *2160:A2 0.000182826
24 *470:8 *478:10 5.3304e-05
25 *470:8 *538:20 9.93103e-05
26 *470:16 *474:8 6.7177e-06
27 *470:16 *477:10 0
28 *470:16 *478:16 0
29 *470:16 *539:24 0
30 *470:24 *502:8 0
31 *470:24 *536:14 4.15745e-05
32 *470:28 *2160:A2 0
33 *470:28 *533:30 0
34 *470:34 *533:30 0
35 *470:44 *568:30 0.000164291
36 *1819:A2 *470:8 6.17437e-06
37 *1819:B1 *470:8 0.000140259
38 *1819:B2 *470:16 6.6869e-05
39 *2083:A1 *2159:A1 0.000148688
40 *2083:A2 *2159:A1 8.54813e-05
41 *2083:B2 *2159:A1 5.67058e-05
42 *2083:B2 *470:24 0
43 *2083:B2 *470:26 0
44 *2083:B2 *470:28 0
45 *2086:B *470:16 0.000359326
46 *2087:B1 *2139:A1 1.32314e-05
47 *2139:B1 *2139:A1 0.000112457
48 *2142:A *470:16 0
49 *2148:A2 *470:16 0
50 *2155:B1 *2159:A1 0
51 *2159:B1 *2159:A1 9.84794e-05
52 *2161:A2 *470:34 0.000137651
53 *2295:A *470:16 1.12487e-05
54 *140:8 *470:24 0
55 *140:19 *2139:A1 0
56 *140:19 *470:24 0
57 *141:10 *470:16 0
58 *142:14 *2139:A1 0
59 *142:14 *470:24 0
60 *142:24 *2139:A1 0.000168821
61 *142:24 *470:16 0.000271373
62 *143:10 *470:18 0
63 *143:10 *470:24 3.62164e-05
64 *146:10 *470:16 0.000175449
65 *147:30 *2139:A1 3.53115e-05
66 *149:8 *470:16 9.176e-05
67 *158:10 *470:34 2.18409e-05
68 *158:23 *470:28 1.83667e-05
69 *158:23 *470:34 0.000134165
70 *158:23 *470:44 3.47781e-05
71 *159:10 *2157:A 9.84794e-05
72 *159:10 *470:44 5.67058e-05
73 *164:8 *470:26 6.11286e-05
74 *164:8 *470:28 5.26101e-05
75 *207:10 *470:8 7.27182e-05
76 *443:35 *470:24 0
77 *446:10 *2159:A1 0.000272377
78 *468:16 *470:16 0
*RES
1 *2259:X *470:8 42.4329 
2 *470:8 *470:16 45.0179 
3 *470:16 *470:18 0.849286 
4 *470:18 *470:24 6.19357 
5 *470:24 *470:26 2.96214 
6 *470:26 *470:28 3.66643 
7 *470:28 *470:34 18.8321 
8 *470:34 *470:44 35.1579 
9 *470:44 *2158:A1 23 
10 *470:44 *2157:A 26.0243 
11 *470:34 *2156:A 23 
12 *470:28 *2159:A1 47.2179 
13 *470:26 *470:76 15 
14 *470:76 *2160:A1 25.5271 
15 *470:76 *2137:A 28.3857 
16 *470:24 *2138:A1 41.0036 
17 *470:18 *2136:A 38 
18 *470:16 *2139:A1 44.235 
*END

*D_NET *471 0.00141259
*CONN
*I *2185:A I *D sky130_fd_sc_hd__buf_6
*I *2296:A I *D sky130_fd_sc_hd__buf_2
*I *2186:X O *D sky130_fd_sc_hd__buf_6
*CAP
1 *2185:A 2.79296e-05
2 *2296:A 0.000134879
3 *2186:X 0.000253422
4 *471:8 0.00041623
5 *2296:A *538:20 5.50106e-05
6 *2120:A *2296:A 7.90568e-05
7 *127:8 *471:8 0
8 *207:10 *2296:A 0.000106288
9 *467:10 *2296:A 4.6318e-06
10 *467:10 *471:8 0.000189806
11 *469:14 *2185:A 5.50049e-05
12 *469:25 *2296:A 8.08511e-05
13 *469:25 *471:8 9.48381e-06
*RES
1 *2186:X *471:8 43.4271 
2 *471:8 *2296:A 41.9357 
3 *471:8 *2185:A 38.6214 
*END

*D_NET *472 0.0138271
*CONN
*I *1989:A I *D sky130_fd_sc_hd__nor2_2
*I *1990:A I *D sky130_fd_sc_hd__and2_2
*I *2015:A I *D sky130_fd_sc_hd__and2_2
*I *2014:A I *D sky130_fd_sc_hd__nor2_2
*I *1978:A I *D sky130_fd_sc_hd__nor2_2
*I *1979:A I *D sky130_fd_sc_hd__and2_2
*I *2006:A I *D sky130_fd_sc_hd__and2_2
*I *2040:A I *D sky130_fd_sc_hd__and2_2
*I *2039:A I *D sky130_fd_sc_hd__nor2_2
*I *2005:A I *D sky130_fd_sc_hd__nor2_2
*I *2187:X O *D sky130_fd_sc_hd__buf_4
*CAP
1 *1989:A 8.28937e-05
2 *1990:A 0
3 *2015:A 0.000250947
4 *2014:A 0
5 *1978:A 0
6 *1979:A 0
7 *2006:A 3.35311e-05
8 *2040:A 0.000178752
9 *2039:A 0
10 *2005:A 0.000443881
11 *2187:X 2.76443e-05
12 *472:106 0.000321474
13 *472:88 0.000871947
14 *472:81 0.000751476
15 *472:72 0.000130476
16 *472:47 0.000133238
17 *472:37 0.00117325
18 *472:31 0.000987835
19 *472:18 0.00184317
20 *472:14 0.00171018
21 *472:6 0.000670158
22 *1989:A *1989:B 9.84794e-05
23 *1989:A *473:83 4.79641e-05
24 *2005:A *2005:B 5.83393e-05
25 *2005:A *517:10 2.28212e-05
26 *2015:A *2014:B 0.000203437
27 *2015:A *2015:B 4.5051e-05
28 *2040:A *560:8 3.61695e-05
29 *2040:A *560:18 0.000182832
30 *2040:A *596:8 1.21972e-05
31 *472:6 *473:83 2.4754e-05
32 *472:6 *554:34 0.000187129
33 *472:14 *513:10 0
34 *472:14 *554:10 8.98318e-06
35 *472:14 *554:14 0.0001832
36 *472:18 *2007:C_N 0
37 *472:18 *2009:B1_N 0
38 *472:31 *517:10 0.000140259
39 *472:37 *2007:C_N 0
40 *472:37 *596:8 8.60108e-05
41 *472:47 *560:18 0.000191497
42 *472:81 *1979:B 3.06608e-05
43 *472:106 *1989:B 8.6949e-05
44 *472:106 *473:83 0.000159743
45 *472:106 *554:34 0.00012612
46 *472:106 *555:6 0.000230604
47 *2016:A1 *2015:A 5.50106e-05
48 *2022:A2 *472:18 0
49 *2022:B1 *472:18 0
50 *2026:B *472:18 0
51 *2027:A1 *472:18 0
52 *2043:A1 *472:47 0
53 *2052:A1 *472:37 9.91798e-05
54 *2052:B1 *472:37 5.3304e-05
55 *51:9 *472:6 0.000141954
56 *51:9 *472:106 5.3304e-05
57 *357:10 *472:81 5.50106e-05
58 *357:18 *472:14 0
59 *367:10 *1989:A 8.52481e-05
60 *367:10 *472:106 9.84851e-05
61 *370:8 *472:14 6.7177e-06
62 *370:8 *472:18 6.78463e-05
63 *370:14 *472:18 0.000149011
64 *374:10 *472:18 0
65 *380:10 *472:18 0
66 *383:8 *2005:A 0.000167277
67 *385:10 *472:18 0
68 *386:8 *472:18 0
69 *387:14 *2005:A 0.000136738
70 *388:8 *472:18 0
71 *392:10 *2015:A 0.00031345
72 *392:10 *472:88 9.91895e-05
73 *400:10 *472:18 0
74 *401:12 *472:18 0
75 *415:8 *472:47 8.264e-05
76 *415:20 *472:47 5.50106e-05
77 *417:22 *472:47 4.5051e-05
78 *420:8 *2006:A 0
79 *420:8 *472:37 0
80 *423:6 *472:37 0.000152169
81 *434:10 *472:47 0.000136486
*RES
1 *2187:X *472:6 25.0507 
2 *472:6 *472:14 21.5457 
3 *472:14 *472:18 38.3864 
4 *472:18 *2005:A 30.0636 
5 *472:18 *472:31 16.5743 
6 *472:31 *472:37 29.6657 
7 *472:37 *472:47 33.9771 
8 *472:47 *2039:A 23 
9 *472:37 *2040:A 26.5007 
10 *472:31 *2006:A 38.8493 
11 *472:14 *472:72 15 
12 *472:72 *1979:A 23 
13 *472:72 *472:81 2.54786 
14 *472:81 *1978:A 23 
15 *472:81 *472:88 11.5793 
16 *472:88 *2014:A 23 
17 *472:88 *2015:A 30.4571 
18 *472:6 *472:106 7.29143 
19 *472:106 *1990:A 23 
20 *472:106 *1989:A 25.5479 
*END

*D_NET *473 0.0176701
*CONN
*I *2031:A I *D sky130_fd_sc_hd__and2_2
*I *2030:A I *D sky130_fd_sc_hd__nor2_2
*I *2187:A I *D sky130_fd_sc_hd__buf_4
*I *1982:A1 I *D sky130_fd_sc_hd__a21boi_2
*I *1983:A1 I *D sky130_fd_sc_hd__o21ai_2
*I *1970:A I *D sky130_fd_sc_hd__nand2_2
*I *1969:A I *D sky130_fd_sc_hd__and2_2
*I *2109:B I *D sky130_fd_sc_hd__nand2b_2
*I *2188:X O *D sky130_fd_sc_hd__buf_2
*CAP
1 *2031:A 0
2 *2030:A 0.000393387
3 *2187:A 0
4 *1982:A1 0
5 *1983:A1 8.30686e-05
6 *1970:A 0.000104904
7 *1969:A 3.2572e-05
8 *2109:B 0.000217626
9 *2188:X 0.000286668
10 *473:89 0.00147717
11 *473:83 0.00187971
12 *473:72 0.000932017
13 *473:65 0.000219152
14 *473:47 0.000556648
15 *473:25 0.000137476
16 *473:14 0.00211246
17 *473:12 0.00209697
18 *473:10 0.00104545
19 *1969:A *552:23 2.93747e-05
20 *1970:A *552:23 4.61404e-05
21 *2030:A *2031:B 9.06374e-05
22 *2030:A *2034:B1_N 5.67058e-05
23 *473:10 *570:75 8.57661e-05
24 *473:10 *589:12 9.03979e-05
25 *473:12 *570:75 6.4393e-05
26 *473:12 *589:12 6.08032e-05
27 *473:14 *575:20 0
28 *473:14 *589:12 0.000286494
29 *473:14 *607:12 0
30 *473:47 *1983:A2 2.02517e-05
31 *473:47 *552:10 9.84851e-05
32 *473:65 *1982:A2 1.14154e-05
33 *473:65 *1983:A2 0.000161311
34 *473:65 *554:34 1.76557e-05
35 *473:72 *1982:B1_N 5.50106e-05
36 *473:72 *554:34 0.000171898
37 *473:83 *1989:B 0.000185428
38 *473:83 *554:34 4.75937e-05
39 *473:83 *555:6 0.000230604
40 *473:89 *515:8 0
41 *1971:B *473:12 7.80035e-05
42 *1976:A1 *473:14 0
43 *1983:B1 *473:65 0.000129251
44 *1987:B1 *473:14 0.000106516
45 *1989:A *473:83 4.79641e-05
46 *1995:B *473:47 0.000184497
47 *2028:B1 *473:89 0
48 *2034:A2 *2030:A 0.000144067
49 *2301:A *473:14 6.0093e-05
50 *51:9 *473:83 0.000185434
51 *81:8 *473:10 3.7122e-06
52 *113:12 *473:14 0
53 *113:34 *473:14 0
54 *260:10 *473:14 0.000171906
55 *261:12 *473:14 0
56 *345:8 *473:14 7.55832e-05
57 *346:8 *473:14 0.000209094
58 *349:8 *473:12 0
59 *350:10 *1970:A 5.50049e-05
60 *350:10 *473:12 0.000193388
61 *353:6 *473:47 0.000137651
62 *354:10 *473:14 0.000428682
63 *360:16 *473:47 0.000141954
64 *362:42 *473:47 6.51763e-05
65 *362:42 *473:65 3.22879e-05
66 *364:10 *473:12 7.55491e-05
67 *364:10 *473:14 0.000117121
68 *373:8 *473:47 0.000131304
69 *390:10 *473:89 0
70 *392:10 *473:89 6.43005e-05
71 *393:10 *473:89 0.000173303
72 *393:12 *473:89 0.000107548
73 *393:18 *473:89 0.000230966
74 *394:8 *473:89 0.00074963
75 *399:10 *473:14 0
76 *402:10 *473:89 0
77 *472:6 *473:83 2.4754e-05
78 *472:106 *473:83 0.000159743
*RES
1 *2188:X *473:10 42.6607 
2 *473:10 *473:12 5.42714 
3 *473:12 *473:14 42.4021 
4 *473:14 *2109:B 41.9564 
5 *473:12 *473:25 15 
6 *473:25 *1969:A 23.6214 
7 *473:25 *1970:A 25.0714 
8 *473:10 *473:47 27.0764 
9 *473:47 *1983:A1 23 
10 *1983:A1 *473:65 27.0186 
11 *473:65 *1982:A1 23 
12 *473:65 *473:72 3.48 
13 *473:72 *2187:A 23 
14 *473:72 *473:83 31.8407 
15 *473:83 *473:89 39.9607 
16 *473:89 *2030:A 31.1614 
17 *473:89 *2031:A 23 
*END

*D_NET *474 0.00160652
*CONN
*I *1820:B2 I *D sky130_fd_sc_hd__o221a_2
*I *2293:X O *D sky130_fd_sc_hd__buf_2
*CAP
1 *1820:B2 0.000117281
2 *2293:X 0.000247404
3 *474:8 0.000364685
4 *1820:B2 *1820:C1 0.000181131
5 *1820:B2 *2147:A1 6.82611e-05
6 *474:8 *477:10 3.47781e-05
7 *474:8 *478:10 0
8 *474:8 *539:24 0
9 *1819:B1 *474:8 5.40866e-05
10 *1819:B2 *474:8 0.000126343
11 *1820:A1 *1820:B2 3.45862e-05
12 *1820:A2 *1820:B2 0.000223692
13 *1820:B1 *1820:B2 5.71784e-05
14 *146:10 *474:8 9.03784e-05
15 *151:51 *474:8 0
16 *470:16 *474:8 6.7177e-06
*RES
1 *2293:X *474:8 43.075 
2 *474:8 *1820:B2 41.9564 
*END

*D_NET *475 0.000641857
*CONN
*I *1876:B I *D sky130_fd_sc_hd__xor2_2
*I *2294:X O *D sky130_fd_sc_hd__buf_6
*CAP
1 *1876:B 0
2 *2294:X 0.000291009
3 *475:10 0.000291009
4 *475:10 *579:10 0
5 *109:10 *475:10 1.14452e-05
6 *341:16 *475:10 4.83941e-05
*RES
1 *2294:X *475:10 42.785 
2 *475:10 *1876:B 15 
*END

*D_NET *476 0.00501283
*CONN
*I *2101:A I *D sky130_fd_sc_hd__inv_2
*I *1844:B1 I *D sky130_fd_sc_hd__o21ai_4
*I *2193:X O *D sky130_fd_sc_hd__clkdlybuf4s25_1
*CAP
1 *2101:A 0
2 *1844:B1 0
3 *2193:X 0.000473084
4 *476:33 0.00112252
5 *476:10 0.0015956
6 *476:10 *547:12 6.01083e-05
7 *476:33 *521:8 0.000141869
8 *476:33 *544:20 0.000191148
9 *476:33 *547:8 0.000119139
10 *476:33 *547:12 0.000168179
11 *1881:B1 *476:33 7.45536e-05
12 *42:15 *476:33 4.37033e-05
13 *103:8 *476:33 5.79042e-05
14 *103:12 *476:33 0
15 *231:8 *476:10 9.28078e-06
16 *231:8 *476:33 0.000156666
17 *232:19 *476:10 4.55963e-05
18 *233:6 *476:10 0.000484536
19 *458:10 *476:33 0
20 *458:16 *476:33 0
21 *459:55 *476:10 2.68708e-05
22 *459:116 *476:33 0
23 *460:8 *476:33 0.000242076
*RES
1 *2193:X *476:10 45.6436 
2 *476:10 *1844:B1 38 
3 *476:10 *476:33 38.3243 
4 *476:33 *2101:A 23 
*END

*D_NET *477 0.00202652
*CONN
*I *1820:C1 I *D sky130_fd_sc_hd__o221a_2
*I *2295:X O *D sky130_fd_sc_hd__buf_2
*CAP
1 *1820:C1 6.17587e-05
2 *2295:X 0.000456115
3 *477:10 0.000517874
4 *1819:B1 *477:10 2.71291e-05
5 *1820:A1 *1820:C1 9.62764e-05
6 *1820:B2 *1820:C1 0.000181131
7 *141:10 *477:10 0.000426061
8 *141:19 *477:10 9.28739e-05
9 *146:10 *477:10 0.000132521
10 *470:16 *477:10 0
11 *474:8 *477:10 3.47781e-05
*RES
1 *2295:X *477:10 47.0314 
2 *477:10 *1820:C1 40.0507 
*END

*D_NET *478 0.0141791
*CONN
*I *2175:A1 I *D sky130_fd_sc_hd__a21o_2
*I *2173:B I *D sky130_fd_sc_hd__nand2b_2
*I *2170:A I *D sky130_fd_sc_hd__and2_2
*I *2174:A1 I *D sky130_fd_sc_hd__o21ai_2
*I *2171:A_N I *D sky130_fd_sc_hd__and2b_2
*I *2147:A1 I *D sky130_fd_sc_hd__a21o_4
*I *2152:A I *D sky130_fd_sc_hd__and2_2
*I *2153:A1 I *D sky130_fd_sc_hd__o21ai_2
*I *2150:B I *D sky130_fd_sc_hd__nand2b_2
*I *2296:X O *D sky130_fd_sc_hd__buf_2
*CAP
1 *2175:A1 5.47794e-05
2 *2173:B 0
3 *2170:A 0
4 *2174:A1 0
5 *2171:A_N 6.97873e-05
6 *2147:A1 0.000703255
7 *2152:A 0.000484705
8 *2153:A1 0.000452106
9 *2150:B 0.000593458
10 *2296:X 0.000254368
11 *478:92 0.000323792
12 *478:79 0.000630484
13 *478:77 0.000364229
14 *478:75 0.000544662
15 *478:27 0.00103892
16 *478:16 0.00138773
17 *478:10 0.0021219
18 *2147:A1 *2142:B 3.06213e-05
19 *2147:A1 *537:27 6.39201e-05
20 *2152:A *2152:B 7.23724e-05
21 *2153:A1 *2153:B1 2.93747e-05
22 *2153:A1 *534:6 0.000171734
23 *2153:A1 *534:21 0
24 *2171:A_N *2171:B 5.50049e-05
25 *2171:A_N *563:54 5.50049e-05
26 *2175:A1 *563:54 5.67058e-05
27 *478:10 *538:20 7.03413e-05
28 *478:16 *482:10 4.13358e-05
29 *478:75 *2150:A_N 0.000115705
30 *478:75 *2172:B 4.95081e-05
31 *478:75 *563:61 7.27182e-05
32 *478:75 *607:43 5.78923e-05
33 *478:75 *607:47 3.53115e-05
34 *478:77 *563:61 0.000139352
35 *478:79 *2171:B 8.43466e-05
36 *478:79 *563:54 0.000745398
37 *478:79 *563:61 8.43466e-05
38 *478:92 *563:8 1.83564e-05
39 *478:92 *563:30 7.91596e-05
40 *478:92 *563:45 0.00011218
41 *1819:B1 *478:10 0.000107242
42 *1820:A1 *2147:A1 3.70071e-06
43 *1820:A2 *2147:A1 9.67842e-05
44 *1820:B2 *2147:A1 6.82611e-05
45 *2142:A *2147:A1 8.82055e-05
46 *2147:B1 *2147:A1 3.71251e-05
47 *2155:A1 *2152:A 2.02872e-05
48 *2155:B1 *2152:A 5.3304e-05
49 *32:11 *2153:A1 0
50 *141:10 *478:16 8.76088e-05
51 *141:19 *478:10 1.58805e-05
52 *141:19 *478:16 7.55491e-05
53 *151:51 *478:10 0.000309206
54 *151:51 *478:16 8.62876e-05
55 *153:10 *478:75 0.000185428
56 *154:10 *2152:A 0.000547258
57 *155:8 *2153:A1 0
58 *155:16 *2153:A1 8.4047e-05
59 *155:16 *478:27 0.000185104
60 *157:10 *2153:A1 0
61 *161:8 *478:16 9.39159e-05
62 *162:10 *478:16 0
63 *164:20 *478:16 0
64 *172:10 *478:79 2.93747e-05
65 *173:10 *478:79 0.000103637
66 *174:10 *478:75 0.000185434
67 *176:14 *478:92 0
68 *206:8 *478:16 0
69 *206:21 *478:16 0
70 *207:10 *478:10 0.000267167
71 *211:8 *478:92 0.000130148
72 *470:8 *478:10 5.3304e-05
73 *470:16 *478:16 0
74 *474:8 *478:10 0
*RES
1 *2296:X *478:10 45.3743 
2 *478:10 *478:16 37.33 
3 *478:16 *2150:B 24.5743 
4 *478:16 *478:27 17.61 
5 *478:27 *2153:A1 47.0521 
6 *478:27 *2152:A 47.86 
7 *478:10 *2147:A1 48.3986 
8 *2150:B *478:75 33.6679 
9 *478:75 *478:77 1.57429 
10 *478:77 *478:79 9.19714 
11 *478:79 *2171:A_N 23.6214 
12 *478:79 *478:92 35.7793 
13 *478:92 *2174:A1 23 
14 *478:77 *2170:A 23 
15 *478:75 *2173:B 23 
16 *2171:A_N *2175:A1 47.0979 
*END

*D_NET *479 0.000374651
*CONN
*I *2079:A2 I *D sky130_fd_sc_hd__a22oi_4
*I *2297:X O *D sky130_fd_sc_hd__buf_2
*CAP
1 *2079:A2 0
2 *2297:X 0.000187326
3 *479:10 0.000187326
4 *171:42 *479:10 0
5 *215:10 *479:10 0
6 *218:8 *479:10 0
*RES
1 *2297:X *479:10 40.8793 
2 *479:10 *2079:A2 38 
*END

*D_NET *480 0.00207673
*CONN
*I *2148:B1 I *D sky130_fd_sc_hd__o21ai_2
*I *2298:X O *D sky130_fd_sc_hd__buf_2
*CAP
1 *2148:B1 0.000393974
2 *2298:X 7.26516e-05
3 *480:8 0.000466626
4 *2148:B1 *481:24 0.00072303
5 *2144:A1 *2148:B1 3.22879e-05
6 *34:11 *480:8 0.000114083
7 *146:8 *2148:B1 0.000274078
8 *448:10 *480:8 0
*RES
1 *2298:X *480:8 39.5536 
2 *480:8 *2148:B1 48.6264 
*END

*D_NET *481 0.0030628
*CONN
*I *2148:A1 I *D sky130_fd_sc_hd__o21ai_2
*I *2299:X O *D sky130_fd_sc_hd__buf_2
*CAP
1 *2148:A1 0
2 *2299:X 0.000427976
3 *481:24 0.000291304
4 *481:8 0.00071928
5 *481:8 *2144:B1_N 0
6 *481:8 *531:10 0
7 *481:24 *2144:B1_N 0.000184527
8 *481:24 *537:14 0.000319148
9 *2144:A1 *481:24 5.50049e-05
10 *2148:A2 *481:24 5.50049e-05
11 *2148:B1 *481:24 0.00072303
12 *3:11 *481:8 4.92359e-05
13 *34:11 *481:8 5.10221e-05
14 *146:8 *481:24 1.03955e-05
15 *150:10 *481:24 0.000176873
16 *448:10 *481:8 0
*RES
1 *2299:X *481:8 46.2443 
2 *481:8 *481:24 27.5529 
3 *481:24 *2148:A1 23 
*END

*D_NET *482 0.00125001
*CONN
*I *2080:A2 I *D sky130_fd_sc_hd__a21oi_2
*I *2081:B I *D sky130_fd_sc_hd__and3_2
*I *2300:X O *D sky130_fd_sc_hd__buf_2
*CAP
1 *2080:A2 0
2 *2081:B 0.000129317
3 *2300:X 0.000249141
4 *482:12 0.000129317
5 *482:10 0.000249141
6 *2081:B *2081:C 0.000123934
7 *162:10 *482:10 0.000135557
8 *164:20 *482:10 5.20072e-05
9 *445:8 *2081:B 0.000140259
10 *478:16 *482:10 4.13358e-05
*RES
1 *2300:X *482:10 41.9564 
2 *482:10 *482:12 15 
3 *482:12 *2081:B 26.5214 
4 *482:12 *2080:A2 23 
*END

*D_NET *483 0.00162927
*CONN
*I *1975:A1 I *D sky130_fd_sc_hd__a21oi_2
*I *2301:X O *D sky130_fd_sc_hd__buf_6
*CAP
1 *1975:A1 0.00040747
2 *2301:X 9.28105e-05
3 *483:8 0.00050028
4 *1967:A *1975:A1 0.000261563
5 *1967:B *1975:A1 0.00014196
6 *2301:A *483:8 0
7 *347:10 *1975:A1 0.000122582
8 *347:14 *483:8 4.59027e-05
9 *355:10 *1975:A1 5.67058e-05
*RES
1 *2301:X *483:8 39.9057 
2 *483:8 *1975:A1 46.7414 
*END

*D_NET *484 0.00158299
*CONN
*I *1935:B I *D sky130_fd_sc_hd__nand2_2
*I *1938:A2_N I *D sky130_fd_sc_hd__o2bb2ai_2
*I *2302:X O *D sky130_fd_sc_hd__buf_2
*CAP
1 *1935:B 0
2 *1938:A2_N 0
3 *2302:X 0.000242161
4 *484:16 0.000124701
5 *484:8 0.000366862
6 *1938:A1_N *484:16 1.3523e-05
7 *1948:B *484:8 5.79559e-05
8 *1948:C *484:8 5.55951e-05
9 *297:27 *484:8 8.06804e-06
10 *304:12 *484:16 8.29713e-05
11 *304:42 *484:8 3.20961e-05
12 *309:18 *484:16 0.000240857
13 *317:10 *484:8 1.59094e-05
14 *317:10 *484:16 0.000158796
15 *318:10 *484:16 1.26098e-05
16 *320:10 *484:16 2.46906e-05
17 *329:10 *484:8 0.000146195
*RES
1 *2302:X *484:8 28.2821 
2 *484:8 *484:16 33.7079 
3 *484:16 *1938:A2_N 23 
4 *484:8 *1935:B 23 
*END

*D_NET *485 0.000712218
*CONN
*I *1804:A I *D sky130_fd_sc_hd__nand2_2
*I *2303:X O *D sky130_fd_sc_hd__buf_2
*CAP
1 *1804:A 0.000179035
2 *2303:X 8.86817e-05
3 *485:8 0.000267717
4 *1804:A *566:51 0.000130892
5 *190:8 *485:8 0
6 *457:51 *485:8 4.58924e-05
*RES
1 *2303:X *485:8 39.9057 
2 *485:8 *1804:A 41.5007 
*END

*D_NET *486 0.00180673
*CONN
*I *1791:A I *D sky130_fd_sc_hd__nand2_2
*I *1793:B I *D sky130_fd_sc_hd__nand2_2
*I *2304:X O *D sky130_fd_sc_hd__buf_2
*CAP
1 *1791:A 0.000251193
2 *1793:B 8.64912e-05
3 *2304:X 5.64658e-05
4 *486:8 0.00039415
5 *1791:A *1799:A_N 5.3304e-05
6 *1791:A *529:46 0.000120318
7 *1791:A *565:41 0.000160361
8 *1793:B *493:32 0.000122087
9 *486:8 *493:32 6.67764e-05
10 *1795:A2 *1793:B 0.000199158
11 *1795:A2 *486:8 7.03869e-05
12 *1799:B *1791:A 0.000121561
13 *179:10 *1791:A 5.79559e-05
14 *187:10 *1791:A 4.65192e-05
*RES
1 *2304:X *486:8 39.9057 
2 *486:8 *1793:B 40.9621 
3 *486:8 *1791:A 44.9807 
*END

*D_NET *487 0.00132083
*CONN
*I *1910:C I *D sky130_fd_sc_hd__nand3b_4
*I *1911:B1_N I *D sky130_fd_sc_hd__o21bai_4
*I *2194:X O *D sky130_fd_sc_hd__clkdlybuf4s25_1
*CAP
1 *1910:C 0
2 *1911:B1_N 0.000149477
3 *2194:X 0.000289193
4 *487:10 0.00043867
5 *1911:B1_N *491:8 4.83778e-05
6 *1911:B1_N *570:16 0
7 *487:10 *491:8 7.45318e-05
8 *487:10 *584:8 6.6869e-05
9 *13:11 *487:10 0
10 *45:11 *487:10 2.19643e-05
11 *293:10 *1911:B1_N 1.14452e-05
12 *293:10 *487:10 0.000165294
13 *463:63 *1911:B1_N 5.50049e-05
14 *463:71 *1911:B1_N 0
*RES
1 *2194:X *487:10 44.1729 
2 *487:10 *1911:B1_N 41.2314 
3 *487:10 *1910:C 38 
*END

*D_NET *488 0.000467091
*CONN
*I *1920:B2 I *D sky130_fd_sc_hd__o22ai_4
*I *2305:X O *D sky130_fd_sc_hd__buf_2
*CAP
1 *1920:B2 0.000116242
2 *2305:X 0.000116242
3 *2325:A *1920:B2 0.000234606
*RES
1 *2305:X *1920:B2 49.3764 
*END

*D_NET *489 0.00297927
*CONN
*I *1912:A I *D sky130_fd_sc_hd__nand2_2
*I *1932:A1_N I *D sky130_fd_sc_hd__o2bb2ai_4
*I *1931:C1 I *D sky130_fd_sc_hd__o2111ai_2
*I *1922:A1 I *D sky130_fd_sc_hd__a21o_2
*I *2306:X O *D sky130_fd_sc_hd__buf_2
*CAP
1 *1912:A 4.01156e-05
2 *1932:A1_N 0.000244293
3 *1931:C1 2.95294e-05
4 *1922:A1 0.000262239
5 *2306:X 7.57351e-05
6 *489:23 0.000407158
7 *489:12 0.000708236
8 *489:6 0.000428512
9 *1931:C1 *570:52 5.50049e-05
10 *489:12 *570:16 0
11 *1921:A *1922:A1 9.84794e-05
12 *1922:A2 *1922:A1 0.000113293
13 *1922:A2 *489:12 0
14 *1922:B1 *1922:A1 0.0002263
15 *1931:A2 *489:12 0
16 *1931:A2 *489:23 0
17 *2306:A *1912:A 0
18 *296:10 *489:6 9.84794e-05
19 *305:10 *1922:A1 5.3304e-05
20 *305:10 *489:23 0
21 *305:25 *1932:A1_N 0
22 *311:30 *489:12 0
23 *312:8 *1932:A1_N 0
24 *312:8 *489:23 0
25 *314:10 *1932:A1_N 4.95442e-05
26 *315:10 *1932:A1_N 8.90445e-05
*RES
1 *2306:X *489:6 24.5743 
2 *489:6 *489:12 19.06 
3 *489:12 *1922:A1 43.8621 
4 *489:12 *489:23 2.25786 
5 *489:23 *1931:C1 38.6214 
6 *489:23 *1932:A1_N 42.4121 
7 *489:6 *1912:A 23.8493 
*END

*D_NET *490 0.00553378
*CONN
*I *1931:B1 I *D sky130_fd_sc_hd__o2111ai_2
*I *1930:B1 I *D sky130_fd_sc_hd__o21a_2
*I *1962:A1 I *D sky130_fd_sc_hd__a311oi_2
*I *1950:A1 I *D sky130_fd_sc_hd__a31oi_2
*I *2307:X O *D sky130_fd_sc_hd__buf_2
*CAP
1 *1931:B1 0.000537997
2 *1930:B1 0.000204545
3 *1962:A1 0
4 *1950:A1 0
5 *2307:X 0.000165676
6 *490:41 0.000788311
7 *490:22 0.000120238
8 *490:16 0.00063745
9 *490:10 0.00063712
10 *1930:B1 *549:20 0.000102389
11 *1931:B1 *2183:A 0.000187069
12 *1931:B1 *570:52 8.18576e-05
13 *1931:B1 *570:69 0.000212703
14 *490:22 *1940:B 0
15 *1937:A1 *490:10 3.64337e-05
16 *1937:B1 *490:10 4.06255e-05
17 *1937:B1 *490:16 9.77405e-05
18 *1962:A2 *490:16 3.23684e-05
19 *1962:B1 *490:16 0
20 *2306:A *1930:B1 0.000100069
21 *307:14 *1931:B1 9.84794e-05
22 *307:68 *490:16 5.50049e-05
23 *308:10 *490:16 0.000184527
24 *309:8 *1931:B1 9.41704e-05
25 *310:10 *1930:B1 6.38845e-05
26 *310:10 *1931:B1 9.94675e-05
27 *310:20 *1930:B1 0.000248979
28 *311:10 *490:10 5.44889e-06
29 *319:8 *490:16 0.000352103
30 *325:10 *490:22 0.000113624
31 *342:10 *490:22 0
32 *464:6 *1931:B1 1.56762e-05
33 *464:16 *1931:B1 4.50413e-05
34 *466:18 *490:10 3.97382e-05
35 *466:18 *490:16 9.94414e-05
36 *466:18 *490:41 3.56063e-05
*RES
1 *2307:X *490:10 40.7757 
2 *490:10 *490:16 26.1236 
3 *490:16 *490:22 32.9621 
4 *490:22 *1950:A1 23 
5 *490:16 *1962:A1 23 
6 *2307:X *490:41 38.6214 
7 *490:41 *1930:B1 43.1164 
8 *490:41 *1931:B1 48.7714 
*END

*D_NET *491 0.000638199
*CONN
*I *1909:A I *D sky130_fd_sc_hd__nand2_2
*I *2308:X O *D sky130_fd_sc_hd__buf_2
*CAP
1 *1909:A 0
2 *2308:X 0.000180428
3 *491:8 0.000180428
4 *1911:B1_N *491:8 4.83778e-05
5 *13:11 *491:8 0.000154433
6 *487:10 *491:8 7.45318e-05
*RES
1 *2308:X *491:8 43.075 
2 *491:8 *1909:A 38 
*END

*D_NET *492 0.00701166
*CONN
*I *1887:A I *D sky130_fd_sc_hd__nand2_2
*I *1899:A I *D sky130_fd_sc_hd__nand2_2
*I *2309:X O *D sky130_fd_sc_hd__buf_2
*CAP
1 *1887:A 5.9029e-05
2 *1899:A 0.000526385
3 *2309:X 0
4 *492:23 0.00141963
5 *492:4 0.00188698
6 *1887:A *1887:B 0.000141954
7 *1887:A *586:6 7.53384e-06
8 *1899:A *1899:B 1.37232e-05
9 *1899:A *580:20 3.04595e-05
10 *492:23 *1885:B 0.000562285
11 *492:23 *1887:B 0.000509846
12 *492:23 *2104:A 0.000122304
13 *492:23 *586:27 9.28842e-05
14 *1904:A2 *492:23 9.64943e-05
15 *1915:A_N *492:23 0.000105072
16 *107:8 *492:23 0
17 *108:10 *492:23 0
18 *263:32 *492:23 1.37349e-05
19 *263:45 *492:23 0.000133656
20 *269:8 *1887:A 3.85753e-05
21 *269:12 *492:23 0
22 *269:22 *492:23 9.88678e-05
23 *273:10 *1887:A 5.67058e-05
24 *275:22 *1899:A 0.000490274
25 *275:22 *492:23 0.000256809
26 *298:8 *492:23 0.000348459
27 *299:8 *492:23 0
28 *462:14 *492:23 0
*RES
1 *2309:X *492:4 23 
2 *492:4 *1899:A 31.7829 
3 *492:4 *492:23 44.2071 
4 *492:23 *1887:A 40.0507 
*END

*D_NET *493 0.00653894
*CONN
*I *1862:B1 I *D sky130_fd_sc_hd__o211ai_2
*I *1803:A I *D sky130_fd_sc_hd__and2_2
*I *1798:A1 I *D sky130_fd_sc_hd__o21bai_2
*I *2310:X O *D sky130_fd_sc_hd__buf_2
*CAP
1 *1862:B1 0
2 *1803:A 0.000150124
3 *1798:A1 0
4 *2310:X 0.000466449
5 *493:32 0.000997961
6 *493:20 0.00164745
7 *493:16 0.000818175
8 *493:10 0.00078526
9 *1803:A *1803:B 0.000231039
10 *1803:A *566:8 0.000119313
11 *493:10 *496:32 0.000111852
12 *493:20 *496:10 6.4393e-05
13 *493:20 *535:42 0
14 *493:32 *1798:B1_N 0
15 *493:32 *1807:A2 0
16 *493:32 *496:10 1.83564e-05
17 *493:32 *508:14 0
18 *493:32 *566:12 0
19 *1793:B *493:32 0.000122087
20 *1795:A2 *493:32 1.22906e-05
21 *1798:A2 *493:32 7.46187e-05
22 *1861:A2 *493:20 0
23 *1862:A2 *493:20 4.21594e-06
24 *1862:C1 *493:16 6.69899e-05
25 *2310:A *493:10 5.70419e-05
26 *29:11 *493:32 0
27 *55:17 *493:10 0.000157973
28 *102:8 *493:32 1.83564e-05
29 *102:23 *493:32 9.46813e-05
30 *181:8 *493:32 7.03766e-05
31 *192:10 *493:32 5.61414e-05
32 *234:27 *493:20 4.21594e-06
33 *235:8 *1803:A 0.000224329
34 *248:18 *493:20 0
35 *248:18 *493:32 0
36 *454:29 *493:10 0
37 *456:10 *493:10 9.84794e-05
38 *457:76 *493:32 0
39 *486:8 *493:32 6.67764e-05
*RES
1 *2310:X *493:10 45.4157 
2 *493:10 *493:16 19.93 
3 *493:16 *493:20 23.5964 
4 *493:20 *493:32 34.8029 
5 *493:32 *1798:A1 23 
6 *493:20 *1803:A 42.9093 
7 *493:16 *1862:B1 23 
*END

*D_NET *494 0.00178094
*CONN
*I *1837:A I *D sky130_fd_sc_hd__nor2_2
*I *1836:A I *D sky130_fd_sc_hd__and2_4
*I *1839:A1 I *D sky130_fd_sc_hd__o21ai_2
*I *2311:X O *D sky130_fd_sc_hd__buf_2
*CAP
1 *1837:A 0
2 *1836:A 4.56652e-05
3 *1839:A1 0.000150908
4 *2311:X 0.000336556
5 *494:12 0.000316847
6 *494:10 0.00045683
7 *1836:A *559:18 5.67058e-05
8 *1836:A *559:31 4.17736e-05
9 *1839:A1 *1839:A2 5.90675e-06
10 *1839:A1 *1855:B1_N 2.30292e-05
11 *1839:A1 *559:18 0
12 *494:10 *559:31 1.14452e-05
13 *494:12 *559:18 0
14 *494:12 *559:31 0.000197479
15 *1852:A1 *494:12 0
16 *224:8 *1839:A1 0.000114092
17 *224:44 *1839:A1 0
18 *225:10 *1839:A1 0
19 *227:8 *1839:A1 4.21594e-06
20 *233:10 *494:10 0
21 *233:10 *494:12 0
22 *453:102 *494:10 1.94812e-05
*RES
1 *2311:X *494:10 43.6964 
2 *494:10 *494:12 2.96214 
3 *494:12 *1839:A1 41.3764 
4 *494:12 *1836:A 39.0979 
5 *494:10 *1837:A 38 
*END

*D_NET *495 0.000854095
*CONN
*I *1801:B I *D sky130_fd_sc_hd__nand2b_4
*I *2312:X O *D sky130_fd_sc_hd__buf_2
*CAP
1 *1801:B 0
2 *2312:X 0.000137638
3 *495:8 0.000137638
4 *495:8 *508:14 1.69668e-05
5 *495:8 *566:42 0.000196549
6 *457:47 *495:8 0.000196549
7 *457:51 *495:8 0.000168754
*RES
1 *2312:X *495:8 42.7229 
2 *495:8 *1801:B 38 
*END

*D_NET *496 0.00449978
*CONN
*I *2065:A0 I *D sky130_fd_sc_hd__mux2_1
*I *1847:A I *D sky130_fd_sc_hd__nor2_2
*I *2313:X O *D sky130_fd_sc_hd__buf_2
*CAP
1 *2065:A0 0
2 *1847:A 0
3 *2313:X 0.000440062
4 *496:32 0.000834858
5 *496:26 0.000957196
6 *496:10 0.000317723
7 *496:10 *535:42 7.81176e-05
8 *496:10 *562:8 0.000311554
9 *496:26 *2282:A 0.000136738
10 *496:32 *2065:S 3.16665e-05
11 *496:32 *508:14 8.85189e-05
12 *1850:B1 *496:32 0.0002263
13 *1850:B2 *496:32 1.86869e-05
14 *2065:A1 *496:32 2.69859e-05
15 *33:11 *496:32 0.000124448
16 *58:11 *496:32 0
17 *234:16 *496:32 5.94125e-05
18 *248:8 *496:32 0.000118409
19 *454:29 *496:32 0
20 *456:10 *496:32 0.000534499
21 *493:10 *496:32 0.000111852
22 *493:20 *496:10 6.4393e-05
23 *493:32 *496:10 1.83564e-05
*RES
1 *2313:X *496:10 43.7379 
2 *496:10 *1847:A 38 
3 *2313:X *496:26 39.5743 
4 *496:26 *496:32 31.7993 
5 *496:32 *2065:A0 23 
*END

*D_NET *497 0.00131772
*CONN
*I *2067:B1 I *D sky130_fd_sc_hd__o211a_2
*I *2314:X O *D sky130_fd_sc_hd__buf_2
*CAP
1 *2067:B1 0.000351316
2 *2314:X 0.000110088
3 *497:8 0.000461404
4 *1853:C1 *2067:B1 5.3304e-05
5 *1863:B *2067:B1 2.94787e-05
6 *2314:A *497:8 0
7 *2329:A *497:8 0.000138718
8 *239:10 *497:8 6.22448e-06
9 *251:10 *2067:B1 2.32004e-05
10 *437:10 *2067:B1 0.00014399
*RES
1 *2314:X *497:8 40.2579 
2 *497:8 *2067:B1 44.8357 
*END

*D_NET *498 0.00192768
*CONN
*I *1928:B1 I *D sky130_fd_sc_hd__o21ai_2
*I *1926:B1_N I *D sky130_fd_sc_hd__o21ba_2
*I *1927:B1_N I *D sky130_fd_sc_hd__o21bai_4
*I *2195:X O *D sky130_fd_sc_hd__clkdlybuf4s25_1
*CAP
1 *1928:B1 0.000144414
2 *1926:B1_N 0
3 *1927:B1_N 2.07933e-05
4 *2195:X 0.000185623
5 *498:21 0.00037693
6 *498:6 0.000438932
7 *1928:B1 *570:69 0.000168931
8 *1928:A1 *1928:B1 5.90675e-06
9 *1932:B1 *498:6 0.000233359
10 *1932:B1 *498:21 0
11 *14:11 *1927:B1_N 1.12349e-05
12 *14:11 *498:6 3.22051e-05
13 *14:11 *498:21 7.87147e-05
14 *309:8 *1928:B1 2.02978e-05
15 *310:10 *498:6 5.40337e-05
16 *310:10 *498:21 4.93812e-05
17 *311:10 *1928:B1 9.47227e-05
18 *466:22 *1928:B1 1.21972e-05
19 *466:51 *1928:B1 0
*RES
1 *2195:X *498:6 26.9564 
2 *498:6 *1927:B1_N 23.4971 
3 *498:6 *498:21 34.1843 
4 *498:21 *1926:B1_N 23 
5 *498:21 *1928:B1 26.9771 
*END

*D_NET *499 0.00087572
*CONN
*I *2108:A I *D sky130_fd_sc_hd__nand2_2
*I *2315:X O *D sky130_fd_sc_hd__buf_2
*CAP
1 *2108:A 0
2 *2315:X 0.000379214
3 *499:10 0.000379214
4 *499:10 *541:20 6.07611e-06
5 *499:10 *607:12 0
6 *263:6 *499:10 0.000107001
7 *453:134 *499:10 4.21594e-06
*RES
1 *2315:X *499:10 44.2143 
2 *499:10 *2108:A 38 
*END

*D_NET *500 0.00192536
*CONN
*I *1823:A1 I *D sky130_fd_sc_hd__a21oi_2
*I *2316:X O *D sky130_fd_sc_hd__buf_2
*CAP
1 *1823:A1 0.000404861
2 *2316:X 0.000224015
3 *500:8 0.000628876
4 *1823:A1 *1823:A2 2.02517e-05
5 *1823:A1 *1824:A_N 5.3304e-05
6 *500:8 *1822:A2 0.000144915
7 *500:8 *1824:A_N 3.47781e-05
8 *500:8 *2316:A 5.20202e-05
9 *1823:B1 *1823:A1 0.000128391
10 *172:10 *500:8 7.55491e-05
11 *212:12 *1823:A1 0.000158404
12 *213:8 *500:8 0
*RES
1 *2316:X *500:8 43.4271 
2 *500:8 *1823:A1 46.265 
*END

*D_NET *501 0.000688698
*CONN
*I *2055:A I *D sky130_fd_sc_hd__and2_2
*I *2054:A I *D sky130_fd_sc_hd__nor2_2
*I *2317:X O *D sky130_fd_sc_hd__buf_2
*CAP
1 *2055:A 0.000130512
2 *2054:A 0
3 *2317:X 0
4 *501:12 0.00019974
5 *501:4 0.000330252
6 *501:12 *2054:B 0
7 *2093:B1 *2055:A 1.24376e-05
8 *2093:B1 *501:12 1.57571e-05
*RES
1 *2317:X *501:4 23 
2 *501:4 *501:12 32.8793 
3 *501:12 *2054:A 23 
4 *501:4 *2055:A 25.4236 
*END

*D_NET *502 0.000968769
*CONN
*I *2080:A1 I *D sky130_fd_sc_hd__a21oi_2
*I *2081:C I *D sky130_fd_sc_hd__and3_2
*I *2318:X O *D sky130_fd_sc_hd__buf_2
*CAP
1 *2080:A1 0
2 *2081:C 0.000122879
3 *2318:X 9.159e-05
4 *502:12 0.000146707
5 *502:8 0.000115419
6 *502:8 *536:14 0
7 *2081:B *2081:C 0.000123934
8 *2083:B2 *502:8 4.6318e-06
9 *162:10 *502:8 4.23817e-05
10 *443:35 *2081:C 0.000177805
11 *443:35 *502:8 2.60152e-05
12 *443:35 *502:12 5.41288e-05
13 *445:8 *2081:C 2.79662e-05
14 *445:8 *502:12 3.53115e-05
15 *470:24 *502:8 0
*RES
1 *2318:X *502:8 39.9057 
2 *502:8 *502:12 16.0979 
3 *502:12 *2081:C 26.9771 
4 *502:12 *2080:A1 23 
*END

*D_NET *503 0.00139781
*CONN
*I *1998:A1_N I *D sky130_fd_sc_hd__o2bb2ai_2
*I *1999:A2 I *D sky130_fd_sc_hd__a211o_2
*I *2319:X O *D sky130_fd_sc_hd__buf_2
*CAP
1 *1998:A1_N 0
2 *1999:A2 0
3 *2319:X 0.000334245
4 *503:14 0.000131986
5 *503:8 0.000466231
6 *503:8 *505:12 1.14154e-05
7 *1998:B1 *503:8 0.000187129
8 *1998:B2 *503:8 1.41077e-05
9 *2000:B *503:8 5.12328e-05
10 *2319:A *503:8 2.18506e-05
11 *347:48 *503:14 0
12 *371:8 *503:8 2.13733e-05
13 *371:22 *503:8 8.06804e-06
14 *375:10 *503:14 7.20519e-05
15 *377:8 *503:14 7.81176e-05
*RES
1 *2319:X *503:8 29.3593 
2 *503:8 *503:14 32.9621 
3 *503:14 *1999:A2 23 
4 *503:8 *1998:A1_N 23 
*END

*D_NET *504 0.000919191
*CONN
*I *2002:C I *D sky130_fd_sc_hd__nand3_4
*I *2020:B I *D sky130_fd_sc_hd__and4_2
*I *2320:X O *D sky130_fd_sc_hd__buf_2
*CAP
1 *2002:C 0
2 *2020:B 0.000155957
3 *2320:X 7.09604e-05
4 *504:8 0.000226917
5 *2020:A *2020:B 6.17437e-06
6 *2021:A *2020:B 6.25829e-05
7 *344:18 *2020:B 5.50106e-05
8 *344:18 *504:8 0
9 *372:10 *2020:B 1.14452e-05
10 *372:10 *504:8 0.000132665
11 *372:12 *2020:B 0.000197479
12 *396:10 *2020:B 0
*RES
1 *2320:X *504:8 39.9057 
2 *504:8 *2020:B 41.9357 
3 *504:8 *2002:C 38 
*END

*D_NET *505 0.000728091
*CONN
*I *1998:A2_N I *D sky130_fd_sc_hd__o2bb2ai_2
*I *2321:X O *D sky130_fd_sc_hd__buf_2
*CAP
1 *1998:A2_N 0
2 *2321:X 0.000226833
3 *505:12 0.000226833
4 *1998:B2 *505:12 0
5 *2000:B *505:12 7.62051e-05
6 *347:48 *505:12 9.95119e-05
7 *371:22 *505:12 5.50049e-05
8 *378:10 *505:12 3.22879e-05
9 *503:8 *505:12 1.14154e-05
*RES
1 *2321:X *505:12 28.5721 
2 *505:12 *1998:A2_N 23 
*END

*D_NET *506 0.000900874
*CONN
*I *1905:A2 I *D sky130_fd_sc_hd__o31ai_4
*I *2322:X O *D sky130_fd_sc_hd__buf_4
*CAP
1 *1905:A2 0
2 *2322:X 0.000297773
3 *506:8 0.000297773
4 *1905:A3 *506:8 2.7754e-05
5 *278:6 *506:8 9.22068e-05
6 *290:10 *506:8 0.000185368
*RES
1 *2322:X *506:8 29.3593 
2 *506:8 *1905:A2 23 
*END

*D_NET *507 0.0016359
*CONN
*I *1941:C_N I *D sky130_fd_sc_hd__nor3b_2
*I *1942:B1_N I *D sky130_fd_sc_hd__o21bai_2
*I *2196:X O *D sky130_fd_sc_hd__clkdlybuf4s25_1
*CAP
1 *1941:C_N 0
2 *1942:B1_N 0.000138832
3 *2196:X 0.000268817
4 *507:10 0.00040765
5 *1942:B1_N *1939:B 8.24662e-05
6 *1942:B1_N *1940:B 0.00015795
7 *1942:B1_N *588:12 0
8 *507:10 *1939:B 0.00016517
9 *1943:A_N *1942:B1_N 9.84794e-05
10 *321:10 *507:10 5.67058e-05
11 *324:10 *1942:B1_N 0.00010018
12 *466:57 *1942:B1_N 9.28739e-05
13 *466:57 *507:10 6.67764e-05
*RES
1 *2196:X *507:10 42.4329 
2 *507:10 *1942:B1_N 42.4121 
3 *507:10 *1941:C_N 38 
*END

*D_NET *508 0.00408504
*CONN
*I *2067:A1 I *D sky130_fd_sc_hd__o211a_2
*I *2066:A I *D sky130_fd_sc_hd__xnor2_2
*I *2323:X O *D sky130_fd_sc_hd__buf_2
*CAP
1 *2067:A1 0.000351716
2 *2066:A 0.000225987
3 *2323:X 8.07342e-05
4 *508:14 0.00122562
5 *508:8 0.000728654
6 *2066:A *2271:A 0.00010018
7 *2067:A1 *2271:A 1.32314e-05
8 *508:14 *530:23 0.000186981
9 *508:14 *566:42 0.000214054
10 *1863:B *2067:A1 0.000210959
11 *2247:A *508:14 5.04995e-05
12 *58:11 *508:14 0
13 *76:10 *2066:A 0.000168821
14 *76:10 *2067:A1 8.92578e-05
15 *192:10 *508:8 4.06849e-05
16 *194:10 *508:14 7.30875e-05
17 *248:18 *508:14 6.78594e-05
18 *437:10 *2067:A1 0.000125205
19 *456:10 *508:14 2.60152e-05
20 *493:32 *508:14 0
21 *495:8 *508:14 1.69668e-05
22 *496:32 *508:14 8.85189e-05
*RES
1 *2323:X *508:8 39.5743 
2 *508:8 *508:14 29.3757 
3 *508:14 *2066:A 27.93 
4 *508:14 *2067:A1 30.7575 
*END

*D_NET *509 0.00315066
*CONN
*I *1954:C I *D sky130_fd_sc_hd__and3b_2
*I *1955:A I *D sky130_fd_sc_hd__nand2_2
*I *1957:A I *D sky130_fd_sc_hd__or2_2
*I *1956:A I *D sky130_fd_sc_hd__nor2_2
*I *2197:X O *D sky130_fd_sc_hd__clkdlybuf4s25_1
*CAP
1 *1954:C 0.000134144
2 *1955:A 0
3 *1957:A 0
4 *1956:A 0
5 *2197:X 0.000125585
6 *509:24 0.000174348
7 *509:16 0.000327078
8 *509:12 0.000620792
9 *509:6 0.000727791
10 *509:12 *551:14 0.000274543
11 *509:12 *579:10 0
12 *509:24 *579:10 8.26672e-05
13 *1955:B *509:16 0.000185428
14 *1968:A *1954:C 3.59635e-05
15 *1968:A *509:6 0.000125488
16 *16:9 *1954:C 0.000164995
17 *303:24 *509:24 0
18 *335:21 *509:12 0
19 *337:6 *509:24 2.4754e-05
20 *338:8 *509:16 4.95081e-05
21 *342:10 *509:12 0
22 *343:6 *509:24 9.75779e-05
23 *466:68 *509:12 0
24 *466:74 *509:12 0
*RES
1 *2197:X *509:6 25.5271 
2 *509:6 *509:12 39.3007 
3 *509:12 *509:16 3.50071 
4 *509:16 *509:24 33.8321 
5 *509:24 *1956:A 23 
6 *509:16 *1957:A 23 
7 *509:12 *1955:A 23 
8 *509:6 *1954:C 25.7654 
*END

*D_NET *510 0.00234667
*CONN
*I *1895:A2 I *D sky130_fd_sc_hd__o21a_2
*I *2324:X O *D sky130_fd_sc_hd__buf_2
*CAP
1 *1895:A2 0.000187852
2 *2324:X 0.000347845
3 *510:8 0.000535697
4 *510:8 *1885:B 7.73797e-05
5 *510:8 *586:16 6.48142e-05
6 *1917:A *510:8 3.58196e-05
7 *105:9 *1895:A2 0.000187065
8 *105:24 *1895:A2 4.5051e-05
9 *105:24 *510:8 0.000164282
10 *105:30 *510:8 0.000271392
11 *106:8 *510:8 0.000140949
12 *263:32 *510:8 5.80963e-05
13 *266:29 *510:8 3.82956e-05
14 *273:10 *510:8 7.0907e-05
15 *301:12 *510:8 0.000121222
*RES
1 *2324:X *510:8 49.0614 
2 *510:8 *1895:A2 41.48 
*END

*D_NET *511 0.000255829
*CONN
*I *2294:A I *D sky130_fd_sc_hd__buf_6
*I *2325:X O *D sky130_fd_sc_hd__buf_2
*CAP
1 *2294:A 0.000117789
2 *2325:X 0.000117789
3 *2325:A *2294:A 2.02517e-05
*RES
1 *2325:X *2294:A 48.4236 
*END

*D_NET *512 0.0030001
*CONN
*I *1973:B1_N I *D sky130_fd_sc_hd__o21bai_4
*I *1972:C I *D sky130_fd_sc_hd__nand3b_4
*I *1971:C I *D sky130_fd_sc_hd__and3b_2
*I *2198:X O *D sky130_fd_sc_hd__clkdlybuf4s25_1
*CAP
1 *1973:B1_N 8.19641e-05
2 *1972:C 0.000210565
3 *1971:C 0
4 *2198:X 0.000384635
5 *512:16 0.00059005
6 *512:10 0.000846085
7 *512:10 *590:8 0
8 *512:16 *570:69 7.43025e-06
9 *512:16 *590:8 0
10 S[16] *512:10 5.561e-05
11 *1972:A_N *1972:C 0.000161929
12 *1972:A_N *512:16 6.87289e-05
13 *1973:A1 *1973:B1_N 6.17437e-06
14 *1973:A1 *512:16 5.08899e-05
15 *16:9 *512:16 0
16 *17:11 *512:10 1.59094e-05
17 *48:13 *512:10 0.000130424
18 *48:13 *512:16 0.000304057
19 *72:8 *1973:B1_N 5.67058e-05
20 *348:10 *512:16 1.19796e-05
21 *348:19 *512:16 1.69668e-05
*RES
1 *2198:X *512:10 43.8621 
2 *512:10 *512:16 22.5452 
3 *512:16 *1971:C 23 
4 *512:16 *1972:C 26.9513 
5 *512:10 *1973:B1_N 39.5743 
*END

*D_NET *513 0.00180599
*CONN
*I *1982:B1_N I *D sky130_fd_sc_hd__a21boi_2
*I *1981:B1_N I *D sky130_fd_sc_hd__o21bai_2
*I *1980:B1_N I *D sky130_fd_sc_hd__o21ba_2
*I *2199:X O *D sky130_fd_sc_hd__clkdlybuf4s25_1
*CAP
1 *1982:B1_N 3.27105e-05
2 *1981:B1_N 0.000122357
3 *1980:B1_N 0.000147326
4 *2199:X 7.05314e-05
5 *513:10 0.00042765
6 *513:8 0.000261209
7 *1980:B1_N *592:14 6.07929e-05
8 *513:8 *592:14 5.20202e-05
9 *513:10 *592:14 0.000132542
10 *51:9 *513:8 0
11 *358:14 *1980:B1_N 0.000195248
12 *358:14 *513:10 1.01436e-05
13 *359:8 *1980:B1_N 6.48142e-05
14 *360:8 *1981:B1_N 0.000141954
15 *374:10 *1980:B1_N 3.16784e-05
16 *472:14 *513:10 0
17 *473:72 *1982:B1_N 5.50106e-05
*RES
1 *2199:X *513:8 39.5536 
2 *513:8 *513:10 3.66643 
3 *513:10 *1980:B1_N 41.7079 
4 *513:10 *1981:B1_N 40.5271 
5 *513:8 *1982:B1_N 38.6214 
*END

*D_NET *514 0.001412
*CONN
*I *2067:A2 I *D sky130_fd_sc_hd__o211a_2
*I *2326:X O *D sky130_fd_sc_hd__buf_2
*CAP
1 *2067:A2 0
2 *2326:X 0.000381652
3 *514:14 0.000381652
4 *514:14 *520:10 0.00017778
5 *514:14 *562:8 5.75086e-05
6 *514:14 *595:18 0.000160915
7 *2326:A *514:14 4.04089e-05
8 *2329:A *514:14 0.000158057
9 *457:14 *514:14 5.40241e-05
*RES
1 *2326:X *514:14 46.2857 
2 *514:14 *2067:A2 38 
*END

*D_NET *515 0.000616297
*CONN
*I *2102:A I *D sky130_fd_sc_hd__inv_2
*I *2200:X O *D sky130_fd_sc_hd__clkdlybuf4s25_1
*CAP
1 *2102:A 0
2 *2200:X 0.000308148
3 *515:8 0.000308148
4 *367:10 *515:8 0
5 *473:89 *515:8 0
*RES
1 *2200:X *515:8 43.075 
2 *515:8 *2102:A 38 
*END

*D_NET *516 0.00114916
*CONN
*I *2138:B1 I *D sky130_fd_sc_hd__o21ai_2
*I *2140:B1_N I *D sky130_fd_sc_hd__o21bai_4
*I *2201:X O *D sky130_fd_sc_hd__clkdlybuf4s25_1
*CAP
1 *2138:B1 0
2 *2140:B1_N 0
3 *2201:X 0.0001675
4 *516:14 0.000156734
5 *516:6 0.000324234
6 *516:6 *2138:A2 5.50049e-05
7 *516:14 *536:23 0.000244517
8 *516:14 *604:8 9.84794e-05
9 *2140:A2 *516:14 9.84794e-05
10 *138:12 *516:14 4.21594e-06
11 *140:8 *516:14 0
12 *140:19 *516:14 0
*RES
1 *2201:X *516:6 25.5271 
2 *516:6 *516:14 34.4121 
3 *516:14 *2140:B1_N 23 
4 *516:6 *2138:B1 23 
*END

*D_NET *517 0.00395454
*CONN
*I *2010:B1_N I *D sky130_fd_sc_hd__o21bai_2
*I *2009:B1_N I *D sky130_fd_sc_hd__o21ba_2
*I *2007:C_N I *D sky130_fd_sc_hd__or3b_4
*I *2202:X O *D sky130_fd_sc_hd__clkdlybuf4s25_1
*CAP
1 *2010:B1_N 0
2 *2009:B1_N 0.00013099
3 *2007:C_N 0.000393121
4 *2202:X 0.000782172
5 *517:14 0.000539091
6 *517:10 0.000797153
7 *517:10 *2005:B 0.000157723
8 *517:10 *2006:B 1.14154e-05
9 *517:10 *556:14 0.000224816
10 *517:14 *2005:B 5.50106e-05
11 *2005:A *517:10 2.28212e-05
12 *2007:A *2007:C_N 0.000180218
13 *2007:B *2007:C_N 2.4754e-05
14 *2009:A2 *2007:C_N 0
15 *2009:A2 *2009:B1_N 0
16 *2051:B *517:10 5.50049e-05
17 *2061:A *517:10 0.000175986
18 *383:8 *517:10 8.6949e-05
19 *383:8 *517:14 5.50106e-05
20 *386:8 *2009:B1_N 6.70363e-05
21 *434:8 *517:10 5.50049e-05
22 *472:18 *2007:C_N 0
23 *472:18 *2009:B1_N 0
24 *472:31 *517:10 0.000140259
25 *472:37 *2007:C_N 0
*RES
1 *2202:X *517:10 40.3379 
2 *517:10 *517:14 15.6214 
3 *517:14 *2007:C_N 44.5871 
4 *517:14 *2009:B1_N 40.61 
5 *517:10 *2010:B1_N 23 
*END

*D_NET *518 0.00129972
*CONN
*I *2073:A1 I *D sky130_fd_sc_hd__a31o_4
*I *2327:X O *D sky130_fd_sc_hd__buf_2
*CAP
1 *2073:A1 0
2 *2327:X 0.000269132
3 *518:8 0.000269132
4 *1816:A1 *518:8 0.000391691
5 *2328:A *518:8 8.15327e-05
6 *177:23 *518:8 3.92407e-05
7 *199:29 *518:8 0
8 *204:8 *518:8 0
9 *216:10 *518:8 0.000248989
*RES
1 *2327:X *518:8 45.8921 
2 *518:8 *2073:A1 38 
*END

*D_NET *519 0.000780921
*CONN
*I *2071:B I *D sky130_fd_sc_hd__nand2_4
*I *2328:X O *D sky130_fd_sc_hd__buf_6
*CAP
1 *2071:B 0
2 *2328:X 0.000235936
3 *519:10 0.000235936
4 *1827:B *519:10 2.30292e-05
5 *2072:B *519:10 8.16459e-05
6 *2073:A2 *519:10 0
7 *171:42 *519:10 0
8 *204:18 *519:10 3.70187e-05
9 *217:10 *519:10 0
10 *217:21 *519:10 8.58219e-05
11 *439:8 *519:10 8.15327e-05
*RES
1 *2328:X *519:10 44.0486 
2 *519:10 *2071:B 38 
*END

*D_NET *520 0.000623897
*CONN
*I *2067:C1 I *D sky130_fd_sc_hd__o211a_2
*I *2329:X O *D sky130_fd_sc_hd__buf_2
*CAP
1 *2067:C1 0
2 *2329:X 0.000203401
3 *520:10 0.000203401
4 *2326:A *520:10 2.80281e-05
5 *250:14 *520:10 1.12863e-05
6 *514:14 *520:10 0.00017778
*RES
1 *2329:X *520:10 41.48 
2 *520:10 *2067:C1 38 
*END

*D_NET *521 0.00103895
*CONN
*I *2103:B I *D sky130_fd_sc_hd__xor2_4
*I *2330:X O *D sky130_fd_sc_hd__buf_2
*CAP
1 *2103:B 0
2 *2330:X 0.000391494
3 *521:8 0.000391494
4 *521:8 *570:18 0
5 *521:8 *581:10 0.000114092
6 *1896:A *521:8 0
7 *103:12 *521:8 0
8 *274:8 *521:8 0
9 *281:10 *521:8 0
10 *459:116 *521:8 0
11 *476:33 *521:8 0.000141869
*RES
1 *2330:X *521:8 45.54 
2 *521:8 *2103:B 38 
*END

*D_NET *522 0.00127196
*CONN
*I *2016:B1_N I *D sky130_fd_sc_hd__o21bai_2
*I *2017:C_N I *D sky130_fd_sc_hd__or3b_4
*I *2203:X O *D sky130_fd_sc_hd__clkdlybuf4s25_1
*CAP
1 *2016:B1_N 0
2 *2017:C_N 0.000279198
3 *2203:X 0
4 *522:19 0.00022326
5 *522:4 0.000502458
6 *2017:B *2017:C_N 0.000187129
7 *2017:B *522:19 0
8 *391:10 *522:19 0
9 *393:6 *2017:C_N 2.32101e-05
10 *393:54 *2017:C_N 5.67058e-05
*RES
1 *2203:X *522:4 23 
2 *522:4 *2017:C_N 29.3386 
3 *522:4 *522:19 33.9357 
4 *522:19 *2016:B1_N 23 
*END

*D_NET *523 0.00244468
*CONN
*I *2035:B1_N I *D sky130_fd_sc_hd__o21bai_2
*I *2032:C_N I *D sky130_fd_sc_hd__or3b_2
*I *2034:B1_N I *D sky130_fd_sc_hd__o21ba_2
*I *2204:X O *D sky130_fd_sc_hd__clkdlybuf4s25_1
*CAP
1 *2035:B1_N 0
2 *2032:C_N 0.000323466
3 *2034:B1_N 0.000148117
4 *2204:X 0
5 *523:42 0.000234358
6 *523:10 0.000734203
7 *523:4 0.000496978
8 *523:42 *558:10 0
9 S[29] *523:10 2.26497e-05
10 *2030:A *2034:B1_N 5.67058e-05
11 *2032:A *2032:C_N 9.0102e-05
12 *2034:A2 *2034:B1_N 5.50049e-05
13 *2037:B2 *2034:B1_N 3.83778e-05
14 *2037:B2 *523:10 8.6769e-05
15 *405:25 *2032:C_N 1.24376e-05
16 *405:25 *523:42 9.84794e-05
17 *409:16 *2034:B1_N 4.08537e-05
18 *410:10 *523:42 6.17437e-06
*RES
1 *2204:X *523:4 23 
2 *523:4 *523:10 19.5364 
3 *523:10 *2034:B1_N 40.8793 
4 *523:10 *2032:C_N 42.9507 
5 *523:4 *523:42 34.785 
6 *523:42 *2035:B1_N 23 
*END

*D_NET *524 0.00691054
*CONN
*I *1839:B1 I *D sky130_fd_sc_hd__o21ai_2
*I *1855:B1_N I *D sky130_fd_sc_hd__o21bai_2
*I *2069:A1 I *D sky130_fd_sc_hd__o22a_2
*I *1852:A2 I *D sky130_fd_sc_hd__a22oi_2
*I *2205:X O *D sky130_fd_sc_hd__clkdlybuf4s25_1
*CAP
1 *1839:B1 0
2 *1855:B1_N 4.32032e-05
3 *2069:A1 0
4 *1852:A2 0
5 *2205:X 0.000809549
6 *524:39 0.000279916
7 *524:33 0.000468488
8 *524:29 0.000431077
9 *524:16 0.000616121
10 *524:6 0.00113996
11 *1855:B1_N *1839:A2 4.00259e-06
12 *524:33 *1839:A2 2.18409e-05
13 *524:33 *559:10 7.28721e-05
14 *1838:B *1855:B1_N 0
15 *1839:A1 *1855:B1_N 2.30292e-05
16 *1848:A1 *524:16 2.15048e-05
17 *1852:A1 *524:29 0.000272377
18 *1852:B1 *524:6 0.000596288
19 *2069:A2 *524:39 0.000303237
20 *224:16 *524:39 4.2361e-05
21 *226:8 *1855:B1_N 8.60475e-05
22 *226:8 *524:33 0.000137651
23 *227:8 *524:39 0.000164282
24 *227:20 *524:39 0
25 *231:48 *524:29 0
26 *233:10 *524:29 0.000435004
27 *240:8 *524:29 0.000270682
28 *241:14 *524:39 0.000194318
29 *251:10 *524:39 1.02387e-05
30 *459:55 *524:6 0.000396683
31 *459:65 *524:6 6.9805e-05
*RES
1 *2205:X *524:6 35.5321 
2 *524:6 *524:16 33.5214 
3 *524:16 *1852:A2 23 
4 *524:16 *524:29 38.7829 
5 *524:29 *524:33 3.02429 
6 *524:33 *524:39 37.8921 
7 *524:39 *2069:A1 23 
8 *524:33 *1855:B1_N 24.595 
9 *524:29 *1839:B1 23 
*END

*D_NET *525 0.000772202
*CONN
*I *2043:B1_N I *D sky130_fd_sc_hd__o21ba_2
*I *2041:C_N I *D sky130_fd_sc_hd__or3b_2
*I *2206:X O *D sky130_fd_sc_hd__clkdlybuf4s25_1
*CAP
1 *2043:B1_N 5.37734e-05
2 *2041:C_N 9.01926e-05
3 *2206:X 0.000111659
4 *525:10 0.000143966
5 *525:8 0.000111659
6 *2041:B *525:8 0
7 *2043:A1 *2041:C_N 5.67058e-05
8 *2043:A2 *2041:C_N 4.5051e-05
9 *2206:A *525:8 0
10 *417:10 *2041:C_N 3.17516e-05
11 *417:10 *2043:B1_N 1.94812e-05
12 *417:10 *525:8 9.48381e-06
13 *417:14 *2041:C_N 9.84794e-05
*RES
1 *2206:X *525:8 39.9057 
2 *525:8 *525:10 15 
3 *525:10 *2041:C_N 25.5271 
4 *525:10 *2043:B1_N 24.0979 
*END

*D_NET *526 0.00304996
*CONN
*I *2056:C_N I *D sky130_fd_sc_hd__nor3b_2
*I *2057:B1_N I *D sky130_fd_sc_hd__o21ba_2
*I *2207:X O *D sky130_fd_sc_hd__clkdlybuf4s25_1
*CAP
1 *2056:C_N 9.17597e-05
2 *2057:B1_N 0.000114065
3 *2207:X 0.000457745
4 *526:10 0.000504187
5 *526:8 0.000756108
6 *526:10 *578:18 0.00020246
7 S[15] *526:10 4.99857e-05
8 *2058:B *526:8 0.000441972
9 *2058:B *526:10 0
10 *6:11 *526:10 0
11 *25:13 *526:8 0.000119313
12 *25:13 *526:10 7.7341e-05
13 *99:8 *2057:B1_N 0.000222225
14 *99:8 *526:10 1.28035e-05
*RES
1 *2207:X *526:8 45.2914 
2 *526:8 *526:10 7.54 
3 *526:10 *2057:B1_N 40.9621 
4 *526:10 *2056:C_N 39.7193 
*END

*D_NET *527 0.00537726
*CONN
*I *1854:A_N I *D sky130_fd_sc_hd__nand3b_2
*I *1835:B1 I *D sky130_fd_sc_hd__o21ai_2
*I *1857:A1 I *D sky130_fd_sc_hd__o21ai_2
*I *1856:A1 I *D sky130_fd_sc_hd__o21a_2
*I *1858:A1 I *D sky130_fd_sc_hd__a22oi_4
*I *2208:X O *D sky130_fd_sc_hd__clkdlybuf4s25_1
*CAP
1 *1854:A_N 0
2 *1835:B1 0
3 *1857:A1 0
4 *1856:A1 0.0001098
5 *1858:A1 0
6 *2208:X 9.63241e-05
7 *527:64 0.000195486
8 *527:53 0.000160442
9 *527:38 0.000243889
10 *527:36 0.000581294
11 *527:19 0.000487248
12 *527:10 0.00080799
13 *527:8 0.000829228
14 *527:8 *532:27 8.1796e-05
15 *1834:B *527:64 1.47563e-05
16 *1857:A2 *527:36 8.52481e-05
17 *1857:A2 *527:38 0.000184527
18 *1857:A2 *527:53 4.95081e-05
19 *1858:A2 *527:10 1.14452e-05
20 *1858:A2 *527:19 0.000166522
21 *1858:A2 *527:36 3.70187e-05
22 *1864:A1 *527:64 0
23 *2070:A *527:36 0
24 *171:19 *527:10 0
25 *171:36 *527:10 0
26 *203:10 *527:10 0.000137071
27 *204:8 *527:10 6.18339e-05
28 *214:8 *527:10 0.000114083
29 *222:8 *527:36 2.46345e-05
30 *222:8 *527:64 4.31366e-05
31 *222:10 *527:36 0.00042672
32 *223:22 *527:64 0
33 *242:8 *527:64 0.000171906
34 *244:8 *527:10 4.21594e-06
35 *244:8 *527:19 4.06512e-05
36 *252:8 *527:36 0
37 *252:8 *527:53 4.59027e-05
38 *252:8 *527:64 5.61414e-05
39 *461:19 *527:53 2.08324e-05
40 *461:19 *527:64 0
41 *461:25 *527:10 0
42 *461:25 *527:19 0
43 *461:25 *527:36 0
44 *461:25 *527:53 8.76088e-05
45 *461:56 *527:10 0
46 *461:58 *527:10 0
*RES
1 *2208:X *527:8 39.5743 
2 *527:8 *527:10 13.5264 
3 *527:10 *1858:A1 38 
4 *527:10 *527:19 2.25786 
5 *527:19 *1856:A1 39.595 
6 *527:19 *527:36 22.5814 
7 *527:36 *527:38 2.05071 
8 *527:38 *1857:A1 23 
9 *527:38 *527:53 34.205 
10 *527:53 *1835:B1 23 
11 *527:36 *527:64 35.4271 
12 *527:64 *1854:A_N 23 
*END

*D_NET *528 0.00228975
*CONN
*I *1824:A_N I *D sky130_fd_sc_hd__nand3b_2
*I *1822:B1_N I *D sky130_fd_sc_hd__o21bai_2
*I *2174:B1 I *D sky130_fd_sc_hd__o21ai_2
*I *2209:X O *D sky130_fd_sc_hd__clkdlybuf4s25_1
*CAP
1 *1824:A_N 0.00023493
2 *1822:B1_N 0
3 *2174:B1 3.95491e-05
4 *2209:X 0.000265706
5 *528:20 0.000131705
6 *528:14 0.000592792
7 *1824:A_N *1822:A2 4.06512e-05
8 *2174:B1 *1822:A1 0.00012377
9 *528:14 *600:12 0
10 *528:20 *1822:A1 0.000315852
11 *528:20 *1822:A2 5.50049e-05
12 S[12] *528:14 7.02069e-05
13 *1823:A1 *1824:A_N 5.3304e-05
14 *91:8 *528:14 1.39317e-05
15 *172:10 *1824:A_N 1.14452e-05
16 *176:29 *1824:A_N 3.81658e-05
17 *176:29 *2174:B1 0.000131304
18 *176:29 *528:20 2.9938e-05
19 *210:10 *528:20 5.70419e-05
20 *212:12 *1824:A_N 4.96717e-05
21 *500:8 *1824:A_N 3.47781e-05
*RES
1 *2209:X *528:14 41.77 
2 *528:14 *528:20 18.9771 
3 *528:20 *2174:B1 25.5271 
4 *528:20 *1822:B1_N 23 
5 *528:14 *1824:A_N 42.06 
*END

*D_NET *529 0.00465992
*CONN
*I *1796:B1 I *D sky130_fd_sc_hd__o21ai_2
*I *1799:A_N I *D sky130_fd_sc_hd__nand3b_2
*I *1798:B1_N I *D sky130_fd_sc_hd__o21bai_2
*I *1795:B1 I *D sky130_fd_sc_hd__o21a_4
*I *2210:X O *D sky130_fd_sc_hd__clkdlybuf4s25_1
*CAP
1 *1796:B1 0.000157982
2 *1799:A_N 1.94238e-05
3 *1798:B1_N 2.41748e-05
4 *1795:B1 0
5 *2210:X 0.000150122
6 *529:46 0.000549415
7 *529:38 0.000862858
8 *529:24 0.00032872
9 *529:14 0.000516867
10 *529:8 0.000488978
11 *1796:B1 *565:33 0
12 *529:24 *565:47 0
13 *529:38 *565:33 0
14 *529:46 *565:33 4.21062e-05
15 *1791:A *1799:A_N 5.3304e-05
16 *1791:A *529:46 0.000120318
17 *1799:B *1799:A_N 5.56356e-05
18 *1811:B *1796:B1 3.92407e-05
19 *2075:A1_N *1796:B1 0.000131735
20 *2075:A1_N *529:38 8.72173e-05
21 *28:11 *529:14 1.07603e-05
22 *102:31 *529:46 8.81493e-05
23 *182:8 *529:46 1.00084e-05
24 *183:10 *529:14 0
25 *183:10 *529:24 0.000195248
26 *183:10 *529:38 0
27 *186:10 *529:8 0.000228909
28 *186:10 *529:14 6.97004e-05
29 *186:10 *529:24 8.15864e-05
30 *186:10 *529:38 0
31 *187:10 *529:46 0.000271906
32 *453:66 *529:14 7.55552e-05
33 *493:32 *1798:B1_N 0
*RES
1 *2210:X *529:8 40.5271 
2 *529:8 *529:14 18.2521 
3 *529:14 *529:24 36.7114 
4 *529:24 *1795:B1 23 
5 *529:14 *1798:B1_N 23.4971 
6 *529:8 *529:38 2.96214 
7 *529:38 *529:46 38.0164 
8 *529:46 *1799:A_N 38.6214 
9 *529:38 *1796:B1 41.3557 
*END

*D_NET *530 0.00190991
*CONN
*I *1807:B1 I *D sky130_fd_sc_hd__o21ai_2
*I *1805:A_N I *D sky130_fd_sc_hd__nand3b_4
*I *1806:B1 I *D sky130_fd_sc_hd__o21a_4
*I *2211:X O *D sky130_fd_sc_hd__clkdlybuf4s25_1
*CAP
1 *1807:B1 1.36815e-05
2 *1805:A_N 0
3 *1806:B1 2.3577e-05
4 *2211:X 0
5 *530:23 0.000134942
6 *530:10 0.000345315
7 *530:4 0.000200478
8 *1806:B1 *1806:A2 6.17437e-06
9 *1806:B1 *566:27 2.02872e-05
10 *1807:B1 *566:27 5.67058e-05
11 *530:10 *1806:A2 0
12 *530:10 *566:27 0.000555994
13 *530:23 *566:42 6.25829e-05
14 *189:8 *530:23 0
15 *194:10 *530:10 2.64616e-05
16 *457:28 *1807:B1 6.17437e-06
17 *457:36 *1806:B1 5.50106e-05
18 *457:36 *1807:B1 1.03836e-05
19 *457:36 *530:10 0.00020516
20 *508:14 *530:23 0.000186981
*RES
1 *2211:X *530:4 23 
2 *530:4 *530:10 6.98071 
3 *530:10 *1806:B1 23.6214 
4 *530:10 *530:23 32.61 
5 *530:23 *1805:A_N 23 
6 *530:4 *1807:B1 23.6214 
*END

*D_NET *531 0.00211966
*CONN
*I *2146:B1 I *D sky130_fd_sc_hd__o21ai_4
*I *2145:B1_N I *D sky130_fd_sc_hd__o21bai_4
*I *2144:B1_N I *D sky130_fd_sc_hd__o21ba_2
*I *2212:X O *D sky130_fd_sc_hd__clkdlybuf4s25_1
*CAP
1 *2146:B1 2.1227e-05
2 *2145:B1_N 0
3 *2144:B1_N 0.000260814
4 *2212:X 0.000178059
5 *531:10 0.000417646
6 *2144:B1_N *537:14 0.00018282
7 *2146:B1 *542:12 8.1796e-05
8 *2119:A1 *531:10 0
9 *2299:A *2146:B1 0.000143655
10 *2299:A *531:10 2.93747e-05
11 *3:11 *531:10 0
12 *147:10 *2144:B1_N 0.000396711
13 *147:10 *531:10 5.33597e-05
14 *150:10 *2144:B1_N 0.000169674
15 *481:8 *2144:B1_N 0
16 *481:8 *531:10 0
17 *481:24 *2144:B1_N 0.000184527
*RES
1 *2212:X *531:10 40.8793 
2 *531:10 *2144:B1_N 45.4779 
3 *531:10 *2145:B1_N 38 
4 *2212:X *2146:B1 47.5743 
*END

*D_NET *532 0.00272266
*CONN
*I *1813:B1 I *D sky130_fd_sc_hd__o21ai_2
*I *2169:A_N I *D sky130_fd_sc_hd__nand3b_4
*I *2213:X O *D sky130_fd_sc_hd__clkdlybuf4s25_1
*CAP
1 *1813:B1 0
2 *2169:A_N 6.80678e-05
3 *2213:X 0.000286194
4 *532:27 0.000580354
5 *532:10 0.000934616
6 *532:10 *563:8 0
7 *532:27 *1813:A2 5.71321e-05
8 *532:27 *563:30 0
9 *1813:A1 *532:27 0.00026877
10 *1828:A *532:27 0.00014196
11 *1828:B *532:27 0
12 *26:9 *532:27 5.50106e-05
13 *168:10 *532:27 0.000238617
14 *171:8 *532:10 0
15 *171:8 *532:27 0
16 *176:14 *532:27 0
17 *202:10 *532:27 1.01436e-05
18 *527:8 *532:27 8.1796e-05
*RES
1 *2213:X *532:10 42.3086 
2 *532:10 *2169:A_N 39.0979 
3 *532:10 *532:27 28.6093 
4 *532:27 *1813:B1 23 
*END

*D_NET *533 0.000881682
*CONN
*I *2161:B1_N I *D sky130_fd_sc_hd__o21ba_2
*I *2162:B1_N I *D sky130_fd_sc_hd__o21bai_4
*I *2158:B1 I *D sky130_fd_sc_hd__o21ai_4
*I *2214:X O *D sky130_fd_sc_hd__clkdlybuf4s25_1
*CAP
1 *2161:B1_N 0
2 *2162:B1_N 0
3 *2158:B1 0
4 *2214:X 0.000226148
5 *533:30 0.000157631
6 *533:24 0.000196209
7 *533:10 0.000187569
8 *2083:B2 *533:30 2.76611e-06
9 *31:9 *533:10 0
10 *160:8 *533:10 4.83778e-05
11 *160:8 *533:30 0
12 *163:10 *533:10 8.85299e-06
13 *163:10 *533:24 5.41288e-05
14 *163:10 *533:30 0
15 *470:28 *533:30 0
16 *470:34 *533:30 0
*RES
1 *2214:X *533:10 41.3557 
2 *533:10 *2158:B1 38 
3 *2214:X *533:24 24.0979 
4 *533:24 *533:30 32.61 
5 *533:30 *2162:B1_N 23 
6 *533:24 *2161:B1_N 23 
*END

*D_NET *534 0.000880964
*CONN
*I *2154:A_N I *D sky130_fd_sc_hd__nand3b_2
*I *2153:B1 I *D sky130_fd_sc_hd__o21ai_2
*I *2215:X O *D sky130_fd_sc_hd__clkdlybuf4s25_1
*CAP
1 *2154:A_N 0
2 *2153:B1 3.16967e-05
3 *2215:X 0.000148244
4 *534:21 0.000126454
5 *534:6 0.000306395
6 *534:21 *569:19 0
7 *2153:A1 *2153:B1 2.93747e-05
8 *2153:A1 *534:6 0.000171734
9 *2153:A1 *534:21 0
10 *153:10 *534:21 1.14452e-05
11 *155:8 *534:21 5.56203e-05
12 *155:16 *534:21 0
*RES
1 *2215:X *534:6 26.48 
2 *534:6 *2153:B1 23.6214 
3 *534:6 *534:21 32.4029 
4 *534:21 *2154:A_N 23 
*END

*D_NET *535 0.00737526
*CONN
*I *1848:A2 I *D sky130_fd_sc_hd__o21ai_4
*I *1846:B I *D sky130_fd_sc_hd__and2_2
*I *1849:A2 I *D sky130_fd_sc_hd__a21oi_2
*I *1862:A1 I *D sky130_fd_sc_hd__o211ai_2
*I *1847:B I *D sky130_fd_sc_hd__nor2_2
*I *2065:S I *D sky130_fd_sc_hd__mux2_1
*I *2064:B I *D sky130_fd_sc_hd__xor2_2
*I *2216:X O *D sky130_fd_sc_hd__dlymetal6s4s_1
*CAP
1 *1848:A2 0.000108735
2 *1846:B 0.000258496
3 *1849:A2 4.28837e-05
4 *1862:A1 0
5 *1847:B 0
6 *2065:S 0.000122185
7 *2064:B 7.76522e-05
8 *2216:X 0
9 *535:60 0.000571522
10 *535:49 0.000363214
11 *535:42 0.000473671
12 *535:36 0.000774289
13 *535:30 0.000438113
14 *535:8 0.000496209
15 *535:4 0.000418204
16 *1849:A2 *559:10 0.000233367
17 *535:42 *566:12 1.14452e-05
18 *535:42 *595:18 0.000260665
19 *535:49 *595:18 2.93431e-05
20 *535:60 *595:18 2.46906e-05
21 *1846:A *1846:B 0.000274234
22 *1848:A1 *1846:B 5.94125e-05
23 *1851:B *1849:A2 4.93812e-05
24 *1862:A2 *535:36 0.000194327
25 *1862:A2 *535:42 3.70094e-05
26 *1862:A2 *535:60 0
27 *2065:A1 *2065:S 9.58714e-05
28 *2326:A *535:42 0
29 *1:11 *1846:B 5.58975e-06
30 *55:17 *535:8 0.000260631
31 *55:17 *535:30 0.000119313
32 *58:11 *2064:B 0.000248979
33 *58:11 *2065:S 0.000150724
34 *231:48 *1846:B 0
35 *234:6 *1846:B 7.12002e-05
36 *234:27 *1848:A2 0
37 *234:27 *535:36 0
38 *236:22 *1848:A2 0.000139657
39 *236:22 *535:36 2.55642e-05
40 *239:10 *535:60 0
41 *250:14 *535:36 2.45549e-06
42 *250:14 *535:49 1.46522e-05
43 *250:14 *535:60 2.87441e-05
44 *437:10 *535:42 0
45 *454:8 *1846:B 0.000229801
46 *454:29 *2064:B 0.000246748
47 *454:29 *2065:S 0.000135313
48 *457:14 *535:42 0
49 *458:22 *1848:A2 1.14452e-05
50 *458:30 *1848:A2 1.52362e-05
51 *458:30 *1849:A2 0.000144501
52 *493:20 *535:42 0
53 *496:10 *535:42 7.81176e-05
54 *496:32 *2065:S 3.16665e-05
*RES
1 *2216:X *535:4 23 
2 *535:4 *535:8 20.3857 
3 *535:8 *2064:B 18.3143 
4 *535:8 *2065:S 41.3557 
5 *535:4 *535:30 17.5271 
6 *535:30 *535:36 19.06 
7 *535:36 *535:42 39.3007 
8 *535:42 *1847:B 23 
9 *535:36 *535:49 1.57429 
10 *535:49 *1862:A1 23 
11 *535:49 *535:60 19.6607 
12 *535:60 *1849:A2 40.5271 
13 *535:60 *1846:B 44.9186 
14 *535:30 *1848:A2 40.61 
*END

*D_NET *536 0.00479621
*CONN
*I *2139:A2 I *D sky130_fd_sc_hd__a21o_4
*I *2138:A2 I *D sky130_fd_sc_hd__o21ai_2
*I *2137:B I *D sky130_fd_sc_hd__nor2_2
*I *2136:B I *D sky130_fd_sc_hd__and2_4
*I *2217:X O *D sky130_fd_sc_hd__clkdlybuf4s25_1
*CAP
1 *2139:A2 0.000265053
2 *2138:A2 0.000166972
3 *2137:B 9.10744e-05
4 *2136:B 0
5 *2217:X 0.000114279
6 *536:23 0.000474127
7 *536:21 0.000481133
8 *536:14 0.000525153
9 *536:6 0.000639432
10 *2137:B *2290:A 2.04774e-05
11 *536:6 *572:8 0.000185434
12 *536:14 *572:8 5.50049e-05
13 *536:23 *2261:A 0
14 *536:23 *2290:A 3.49587e-05
15 *2087:A1_N *2139:A2 0.000173181
16 *2087:A2_N *2139:A2 5.50106e-05
17 *2087:B1 *2139:A2 0.000267173
18 *2139:B1 *2139:A2 2.32004e-05
19 *2298:A *2139:A2 2.18409e-05
20 *138:8 *536:14 0.000477639
21 *138:12 *536:23 0
22 *139:8 *2137:B 0.000114083
23 *139:8 *536:23 0.000194318
24 *147:30 *2139:A2 1.03836e-05
25 *447:26 *2139:A2 0
26 *447:26 *536:14 6.51843e-05
27 *470:24 *536:14 4.15745e-05
28 *502:8 *536:14 0
29 *516:6 *2138:A2 5.50049e-05
30 *516:14 *536:23 0.000244517
*RES
1 *2217:X *536:6 25.0507 
2 *536:6 *536:14 38.1407 
3 *536:14 *2136:B 23 
4 *536:6 *536:21 15 
5 *536:21 *536:23 5.42714 
6 *536:23 *2137:B 40.2579 
7 *536:23 *2138:A2 41.0243 
8 *536:21 *2139:A2 44.67 
*END

*D_NET *537 0.00441489
*CONN
*I *2146:A1 I *D sky130_fd_sc_hd__o21ai_4
*I *2143:B I *D sky130_fd_sc_hd__and2_4
*I *2142:B I *D sky130_fd_sc_hd__nor2_2
*I *2147:A2 I *D sky130_fd_sc_hd__a21o_4
*I *2218:X O *D sky130_fd_sc_hd__clkdlybuf4s25_1
*CAP
1 *2146:A1 0
2 *2143:B 8.40529e-05
3 *2142:B 0.000123547
4 *2147:A2 0
5 *2218:X 0.000278857
6 *537:42 0.000285426
7 *537:27 0.000415631
8 *537:18 0.000177632
9 *537:14 0.000365778
10 *2143:B *542:12 1.21972e-05
11 *2142:A *2142:B 0.000228903
12 *2142:A *537:42 6.08751e-05
13 *2144:B1_N *537:14 0.00018282
14 *2146:A2 *2143:B 9.67842e-05
15 *2147:A1 *2142:B 3.06213e-05
16 *2147:A1 *537:27 6.39201e-05
17 *2147:B1 *2142:B 5.67058e-05
18 *2147:B1 *537:27 4.17736e-05
19 *2299:A *537:42 1.22803e-05
20 *144:8 *2142:B 0.000355029
21 *144:8 *537:27 0.000181125
22 *145:8 *2143:B 7.15126e-05
23 *145:36 *537:14 0.000164282
24 *147:10 *537:14 0
25 *148:10 *537:42 0.000100778
26 *148:12 *537:42 0.000238185
27 *150:10 *537:14 0.000354122
28 *468:16 *537:42 0.000112906
29 *481:24 *537:14 0.000319148
*RES
1 *2218:X *537:14 46.7621 
2 *537:14 *537:18 16.0979 
3 *537:18 *2147:A2 23 
4 *537:18 *537:27 2.9 
5 *537:27 *2142:B 27.93 
6 *537:27 *537:42 35.075 
7 *537:42 *2143:B 25.0714 
8 *537:42 *2146:A1 23 
*END

*D_NET *538 0.00598983
*CONN
*I *2120:B I *D sky130_fd_sc_hd__nand2_2
*I *2122:A2 I *D sky130_fd_sc_hd__o21a_2
*I *2099:A I *D sky130_fd_sc_hd__inv_2
*I *2219:X O *D sky130_fd_sc_hd__clkdlybuf4s25_1
*CAP
1 *2120:B 0
2 *2122:A2 0
3 *2099:A 0
4 *2219:X 0.00153554
5 *538:40 0.000530548
6 *538:28 0.0006839
7 *538:20 0.00168889
8 *538:40 *2122:B1 2.64616e-05
9 *538:40 *542:12 5.61255e-06
10 *538:40 *542:24 0.000108681
11 *538:40 *570:28 2.61527e-06
12 *1819:A1 *538:20 2.65879e-05
13 *1819:A2 *538:20 2.81406e-06
14 *1819:B1 *538:20 0.000120326
15 *2118:A *538:20 0.000141954
16 *2120:A *538:20 3.06608e-05
17 *2120:A *538:28 0.00013417
18 *2131:D1 *538:40 1.20811e-05
19 *2296:A *538:20 5.50106e-05
20 *101:8 *538:40 6.51161e-05
21 *101:27 *538:40 0
22 *120:8 *538:20 0.00015286
23 *121:31 *538:40 0
24 *122:10 *538:28 0.000111852
25 *122:10 *538:40 0.000188926
26 *124:8 *538:40 1.12487e-05
27 *133:8 *538:40 1.14762e-05
28 *147:10 *538:20 1.39317e-05
29 *207:10 *538:20 9.24795e-06
30 *207:10 *538:28 6.7177e-06
31 *469:14 *538:40 0.000142949
32 *470:8 *538:20 9.93103e-05
33 *478:10 *538:20 7.03413e-05
*RES
1 *2219:X *538:20 46.5314 
2 *538:20 *538:28 33.2314 
3 *538:28 *538:40 40.8129 
4 *538:40 *2099:A 23 
5 *538:28 *2122:A2 23 
6 *538:20 *2120:B 23 
*END

*D_NET *539 0.00306077
*CONN
*I *2124:A2 I *D sky130_fd_sc_hd__o21ai_4
*I *2117:B I *D sky130_fd_sc_hd__and2_4
*I *2118:B I *D sky130_fd_sc_hd__nor2_2
*I *2220:X O *D sky130_fd_sc_hd__clkdlybuf4s25_1
*CAP
1 *2124:A2 6.92897e-05
2 *2117:B 0
3 *2118:B 0
4 *2220:X 0.000463996
5 *539:24 0.000340537
6 *539:16 0.000388629
7 *539:12 0.000117381
8 *539:10 0.000463996
9 *539:10 *2124:B1 0
10 *539:10 *553:8 0
11 *539:10 *561:10 8.62783e-05
12 *539:10 *577:10 3.82058e-06
13 *2119:A1 *539:10 0
14 *2124:A1 *2124:A2 4.34745e-05
15 *2124:A1 *539:16 5.67058e-05
16 *2125:B1 *539:24 0
17 *2317:A *539:10 0.000113728
18 *126:10 *2124:A2 0.000185434
19 *126:10 *539:10 0.000139657
20 *126:10 *539:16 5.50049e-05
21 *468:12 *539:10 2.36741e-05
22 *468:12 *539:24 2.55642e-05
23 *468:14 *539:24 0.000157299
24 *468:16 *539:24 0.000242657
25 *468:58 *2124:A2 0
26 *468:58 *539:16 2.86356e-05
27 *468:58 *539:24 5.50106e-05
28 *470:16 *539:24 0
29 *474:8 *539:24 0
*RES
1 *2220:X *539:10 46.1614 
2 *539:10 *539:12 15 
3 *539:12 *539:16 1.595 
4 *539:16 *539:24 36.8771 
5 *539:24 *2118:B 23 
6 *539:16 *2117:B 23 
7 *539:12 *2124:A2 25.5479 
*END

*D_NET *540 0.00453913
*CONN
*I *2115:A2 I *D sky130_fd_sc_hd__a21o_2
*I *2114:A1 I *D sky130_fd_sc_hd__o21bai_2
*I *2113:A I *D sky130_fd_sc_hd__nor2_2
*I *2112:B I *D sky130_fd_sc_hd__and2_4
*I *2221:X O *D sky130_fd_sc_hd__clkdlybuf4s25_1
*CAP
1 *2115:A2 0.000186506
2 *2114:A1 0
3 *2113:A 0.000103238
4 *2112:B 6.84964e-05
5 *2221:X 0.0010102
6 *540:23 0.000216012
7 *540:19 0.000468079
8 *540:6 0.00124749
9 *2113:A *2113:B 1.14154e-05
10 *2113:A *2114:A2 3.61695e-05
11 *2113:A *578:10 2.4754e-05
12 *2113:A *607:106 2.93747e-05
13 *2113:A *607:115 6.82611e-05
14 *540:19 *607:125 0.000169472
15 *540:23 *607:125 0.000139657
16 *2060:A2 *540:6 0.000139754
17 *2060:B1 *540:6 3.60919e-05
18 *2116:A1 *2115:A2 2.02872e-05
19 *2116:A2 *2115:A2 9.41704e-05
20 *114:8 *540:19 0.000138727
21 *114:12 *2115:A2 2.02872e-05
22 *114:25 *540:23 1.37246e-05
23 *116:6 *2113:A 1.24376e-05
24 *116:20 *2113:A 0.000181131
25 *116:20 *2115:A2 5.67058e-05
26 *117:8 *2115:A2 1.03836e-05
27 *117:12 *540:19 0
28 *117:12 *540:23 0
29 *415:20 *540:6 2.78218e-05
30 *417:46 *540:6 8.48502e-06
*RES
1 *2221:X *540:6 39.82 
2 *540:6 *2112:B 24.1186 
3 *540:6 *540:19 19.0186 
4 *540:19 *540:23 17.2579 
5 *540:23 *2113:A 26.5214 
6 *540:23 *2114:A1 23 
7 *540:19 *2115:A2 41.0036 
*END

*D_NET *541 0.00922267
*CONN
*I *2109:A_N I *D sky130_fd_sc_hd__nand2b_2
*I *2108:B I *D sky130_fd_sc_hd__nand2_2
*I *2222:X O *D sky130_fd_sc_hd__clkdlybuf4s25_1
*CAP
1 *2109:A_N 0
2 *2108:B 0
3 *2222:X 0
4 *541:20 0.000456919
5 *541:12 0.000648816
6 *541:6 0.00197074
7 *541:4 0.00177884
8 *541:6 *1842:B 2.68258e-05
9 *541:6 *544:12 0.000315848
10 *541:6 *544:34 0.000335306
11 *541:20 *2110:B1_N 2.95125e-05
12 *541:20 *575:10 9.98995e-05
13 *2098:A *541:6 9.65021e-05
14 *41:17 *541:6 8.95707e-05
15 *230:8 *541:6 0.00095283
16 *453:6 *541:6 6.30636e-05
17 *453:102 *541:6 0.00170613
18 *453:109 *541:6 0.000244627
19 *453:121 *541:6 1.76557e-05
20 *453:134 *541:12 0.000383503
21 *453:134 *541:20 0
22 *499:10 *541:20 6.07611e-06
*RES
1 *2222:X *541:4 23 
2 *541:4 *541:6 42.5471 
3 *541:6 *541:12 35.075 
4 *541:12 *541:20 38.7829 
5 *541:20 *2108:B 23 
6 *541:12 *2109:A_N 23 
*END

*D_NET *542 0.00686966
*CONN
*I *2122:B1 I *D sky130_fd_sc_hd__o21a_2
*I *2091:A1 I *D sky130_fd_sc_hd__a32o_2
*I *2132:B1 I *D sky130_fd_sc_hd__a21o_2
*I *2223:X O *D sky130_fd_sc_hd__clkdlybuf4s25_1
*CAP
1 *2122:B1 6.42457e-05
2 *2091:A1 0
3 *2132:B1 0
4 *2223:X 7.99533e-05
5 *542:39 0.00015714
6 *542:24 0.000526151
7 *542:12 0.00193624
8 *542:8 0.00158294
9 *542:39 *607:41 0
10 *2089:A *542:39 6.10809e-05
11 *2119:A1 *542:8 0
12 *2123:B1 *542:24 5.50049e-05
13 *2125:A2_N *542:24 4.08664e-05
14 *2132:A1 *542:24 0.000614963
15 *2143:B *542:12 1.21972e-05
16 *2146:A2 *542:12 0.000128401
17 *2146:B1 *542:12 8.1796e-05
18 *2299:A *542:12 0.000201049
19 *101:27 *542:24 5.67058e-05
20 *122:39 *542:39 0.000218962
21 *124:8 *542:24 0.000110913
22 *125:10 *542:24 0.000130426
23 *125:10 *542:39 2.64616e-05
24 *145:8 *542:12 9.52332e-06
25 *151:51 *542:12 0.000103647
26 *259:22 *542:39 0.00021673
27 *450:6 *542:39 4.5602e-06
28 *469:14 *542:12 0.000308952
29 *538:40 *2122:B1 2.64616e-05
30 *538:40 *542:12 5.61255e-06
31 *538:40 *542:24 0.000108681
*RES
1 *2223:X *542:8 39.2014 
2 *542:8 *542:12 37.0607 
3 *542:12 *542:24 40.9164 
4 *542:24 *2132:B1 23 
5 *542:24 *542:39 34.5571 
6 *542:39 *2091:A1 23 
7 *542:12 *2122:B1 24.4707 
*END

*D_NET *543 0.000376853
*CONN
*I *2103:A I *D sky130_fd_sc_hd__xor2_4
*I *2224:X O *D sky130_fd_sc_hd__clkdlybuf4s25_1
*CAP
1 *2103:A 0
2 *2224:X 6.1994e-05
3 *543:8 6.1994e-05
4 *543:8 *570:28 0.000168754
5 *103:12 *543:8 8.41115e-05
*RES
1 *2224:X *543:8 40.2579 
2 *543:8 *2103:A 38 
*END

*D_NET *544 0.00430683
*CONN
*I *1878:B I *D sky130_fd_sc_hd__nand2_2
*I *1880:A2 I *D sky130_fd_sc_hd__a21oi_2
*I *1877:B I *D sky130_fd_sc_hd__or2_4
*I *1881:A2 I *D sky130_fd_sc_hd__o21ai_2
*I *2225:X O *D sky130_fd_sc_hd__clkdlybuf4s25_1
*CAP
1 *1878:B 0.000143936
2 *1880:A2 0.000335206
3 *1877:B 0
4 *1881:A2 0
5 *2225:X 0
6 *544:34 0.000765894
7 *544:20 0.000226533
8 *544:12 0.000517403
9 *544:4 0.000577622
10 *1880:A2 *1840:B 0.000146822
11 *544:20 *597:6 0.000265472
12 *1840:A_N *1880:A2 0.000102389
13 *1881:B1 *544:12 8.51329e-05
14 *103:12 *544:20 6.18132e-05
15 *453:29 *1880:A2 0
16 *458:22 *544:12 0.000167443
17 *459:18 *1880:A2 0
18 *459:99 *1878:B 3.11916e-05
19 *459:99 *1880:A2 3.76761e-05
20 *476:33 *544:20 0.000191148
21 *541:6 *544:12 0.000315848
22 *541:6 *544:34 0.000335306
*RES
1 *2225:X *544:4 23 
2 *544:4 *544:12 35.7379 
3 *544:12 *544:20 35.6136 
4 *544:20 *1881:A2 23 
5 *544:12 *1877:B 23 
6 *544:4 *544:34 18.9564 
7 *544:34 *1880:A2 44.3593 
8 *544:34 *1878:B 40.2579 
*END

*D_NET *545 0.00855839
*CONN
*I *1885:B I *D sky130_fd_sc_hd__nor2_4
*I *1887:B I *D sky130_fd_sc_hd__nand2_2
*I *1886:B I *D sky130_fd_sc_hd__and2_2
*I *2226:X O *D sky130_fd_sc_hd__clkdlybuf4s25_1
*CAP
1 *1885:B 0.000446597
2 *1887:B 0.000344826
3 *1886:B 0
4 *2226:X 0
5 *545:21 0.00207028
6 *545:12 0.000414956
7 *545:4 0.00169382
8 *1885:B *580:12 0.000166062
9 *1887:B *586:6 2.9938e-05
10 *1885:A *1885:B 0
11 *1887:A *1887:B 0.000141954
12 *1894:A2 *545:21 3.3577e-05
13 *1894:B1_N *545:21 2.05015e-05
14 *2106:B *545:21 1.85916e-05
15 *10:13 *545:12 0
16 *42:15 *545:12 2.4754e-05
17 *103:8 *545:12 0.000401899
18 *103:8 *545:21 0.000213069
19 *105:24 *545:21 8.06804e-06
20 *105:30 *1885:B 2.84912e-05
21 *263:32 *1885:B 0.000167452
22 *266:14 *1887:B 7.86509e-06
23 *266:29 *1887:B 4.35228e-05
24 *273:10 *1885:B 0.000101708
25 *273:10 *1887:B 0.000482051
26 *280:8 *545:21 0.000140935
27 *455:8 *545:12 0
28 *460:8 *545:21 0.000306836
29 *460:52 *545:21 2.93335e-05
30 *462:6 *545:21 5.8649e-05
31 *462:14 *545:21 1.3138e-05
32 *492:23 *1885:B 0.000562285
33 *492:23 *1887:B 0.000509846
34 *510:8 *1885:B 7.73797e-05
*RES
1 *2226:X *545:4 23 
2 *545:4 *545:12 37.1671 
3 *545:12 *1886:B 23 
4 *545:4 *545:21 32.7729 
5 *545:21 *1887:B 48.6886 
6 *545:21 *1885:B 49.5171 
*END

*D_NET *546 0.00296433
*CONN
*I *1897:B I *D sky130_fd_sc_hd__nor2_2
*I *1899:B I *D sky130_fd_sc_hd__nand2_2
*I *1898:B I *D sky130_fd_sc_hd__and2_2
*I *2227:X O *D sky130_fd_sc_hd__clkdlybuf4s25_1
*CAP
1 *1897:B 7.83935e-05
2 *1899:B 0.00045663
3 *1898:B 7.6322e-05
4 *2227:X 0.000538234
5 *546:17 0.000535024
6 *546:6 0.000614556
7 *1899:B *570:16 0
8 *1899:B *580:20 6.29487e-05
9 *1899:A *1899:B 1.37232e-05
10 *1900:A_N *1899:B 5.10297e-05
11 *1902:B1_N *546:6 5.41385e-05
12 *282:10 *1897:B 5.61414e-05
13 *282:10 *1899:B 1.7992e-05
14 *283:8 *1898:B 0
15 *283:8 *546:6 0.000182826
16 *283:14 *1897:B 0
17 *287:10 *546:6 1.41077e-05
18 *463:71 *1897:B 6.07611e-06
19 *463:75 *1897:B 9.6289e-05
20 *463:75 *1899:B 3.55887e-05
21 *463:83 *1898:B 2.53471e-05
22 *463:83 *546:6 4.89617e-05
*RES
1 *2227:X *546:6 32.1971 
2 *546:6 *1898:B 24.4707 
3 *546:6 *546:17 15 
4 *546:17 *1899:B 47.1557 
5 *546:17 *1897:B 40.61 
*END

*D_NET *547 0.00708375
*CONN
*I *1842:B I *D sky130_fd_sc_hd__and2_2
*I *1840:B I *D sky130_fd_sc_hd__nand2b_2
*I *1844:A1 I *D sky130_fd_sc_hd__o21ai_4
*I *1841:A_N I *D sky130_fd_sc_hd__nand2b_2
*I *1845:A2 I *D sky130_fd_sc_hd__a21o_4
*I *2228:X O *D sky130_fd_sc_hd__clkdlybuf4s25_1
*CAP
1 *1842:B 0.000285316
2 *1840:B 0.000169813
3 *1844:A1 2.07933e-05
4 *1841:A_N 0
5 *1845:A2 4.48791e-05
6 *2228:X 8.58561e-05
7 *547:44 0.000272379
8 *547:35 0.000403539
9 *547:18 0.000620906
10 *547:12 0.000346422
11 *547:8 0.000463334
12 *1840:A_N *1840:B 0.000104807
13 *1850:B2 *547:18 0
14 *1860:B1 *547:18 8.71791e-05
15 *1880:A2 *1840:B 0.000146822
16 *1881:B1 *547:8 0.000187996
17 *1881:B1 *547:12 0.00014034
18 *2098:A *1842:B 3.23857e-06
19 *12:15 *547:35 0.000522803
20 *41:17 *1842:B 0.000139352
21 *228:6 *1840:B 0.000527655
22 *228:6 *547:18 0.000264564
23 *228:6 *547:44 0.000297137
24 *228:14 *547:18 1.83667e-05
25 *230:8 *1842:B 0.000210642
26 *231:29 *547:18 9.58714e-05
27 *231:29 *547:44 0.000265477
28 *248:8 *1845:A2 6.16439e-05
29 *248:8 *547:18 0.000136486
30 *453:6 *1842:B 1.24376e-05
31 *453:20 *1842:B 0.000357205
32 *459:39 *1840:B 0.00025805
33 *459:39 *1844:A1 1.12349e-05
34 *459:39 *547:44 2.31687e-05
35 *459:55 *547:12 2.73792e-05
36 *460:18 *547:35 9.64022e-05
37 *476:10 *547:12 6.01083e-05
38 *476:33 *547:8 0.000119139
39 *476:33 *547:12 0.000168179
40 *541:6 *1842:B 2.68258e-05
*RES
1 *2228:X *547:8 40.61 
2 *547:8 *547:12 17.9621 
3 *547:12 *547:18 19.9093 
4 *547:18 *1845:A2 38.8493 
5 *547:18 *547:35 38.4721 
6 *547:35 *1841:A_N 38 
7 *547:12 *547:44 3.48 
8 *547:44 *1844:A1 23.4971 
9 *547:44 *1840:B 30.3121 
10 *547:8 *1842:B 45.3121 
*END

*D_NET *548 0.00239734
*CONN
*I *1909:B I *D sky130_fd_sc_hd__nand2_2
*I *1907:B I *D sky130_fd_sc_hd__nor2_2
*I *1908:B I *D sky130_fd_sc_hd__and2_2
*I *2229:X O *D sky130_fd_sc_hd__clkdlybuf4s25_1
*CAP
1 *1909:B 0.000343855
2 *1907:B 0
3 *1908:B 0
4 *2229:X 7.57014e-05
5 *548:27 0.000137159
6 *548:14 0.00037997
7 *548:8 0.000662367
8 *1934:C1 *1909:B 0.000140259
9 *77:10 *1909:B 0.000144231
10 *291:20 *548:14 1.14452e-05
11 *291:20 *548:27 0
12 *292:10 *548:14 5.70419e-05
13 *294:10 *548:14 0
14 *295:8 *548:14 7.55892e-05
15 *295:19 *548:8 3.28979e-05
16 *295:19 *548:14 9.48381e-06
17 *297:27 *548:14 0
18 *304:42 *548:14 0.000103647
19 *304:42 *548:27 2.93747e-05
20 *311:30 *548:8 0
21 *463:52 *548:27 0.000194318
*RES
1 *2229:X *548:8 39.5536 
2 *548:8 *548:14 20.7171 
3 *548:14 *1908:B 23 
4 *548:14 *548:27 33.2314 
5 *548:27 *1907:B 23 
6 *548:8 *1909:B 43.8829 
*END

*D_NET *549 0.00505109
*CONN
*I *1928:A2 I *D sky130_fd_sc_hd__o21ai_2
*I *1925:B I *D sky130_fd_sc_hd__nor2_2
*I *1924:B I *D sky130_fd_sc_hd__and2_4
*I *1929:A2 I *D sky130_fd_sc_hd__a21oi_2
*I *2230:X O *D sky130_fd_sc_hd__clkdlybuf4s25_1
*CAP
1 *1928:A2 0
2 *1925:B 0
3 *1924:B 0
4 *1929:A2 0
5 *2230:X 0.000288321
6 *549:32 0.000546625
7 *549:20 0.00130905
8 *549:12 0.000970204
9 *549:8 0.0004961
10 *549:8 *588:12 0
11 *549:12 *588:12 0
12 *549:20 *588:12 0
13 *1921:A *549:32 0.000363836
14 *1922:A2 *549:32 0
15 *1927:A2 *549:8 0
16 *1927:A2 *549:12 4.21594e-06
17 *1929:A1 *549:32 8.06804e-06
18 *1930:A2 *549:20 1.21972e-05
19 *1930:B1 *549:20 0.000102389
20 *2306:A *549:20 0.00022332
21 *2306:A *549:32 0.000268756
22 *14:11 *549:8 0
23 *297:27 *549:32 0.000166513
24 *307:14 *549:32 8.62783e-05
25 *307:68 *549:12 4.95196e-05
26 *307:68 *549:20 2.76611e-06
27 *311:12 *549:20 0
28 *311:18 *549:20 0
29 *463:10 *549:32 0
30 *463:14 *549:32 2.76611e-06
31 *466:37 *549:12 0.000138718
32 *466:37 *549:20 1.14452e-05
*RES
1 *2230:X *549:8 43.075 
2 *549:8 *549:12 3.70786 
3 *549:12 *549:20 28.3607 
4 *549:20 *549:32 40.5436 
5 *549:32 *1929:A2 23 
6 *549:20 *1924:B 23 
7 *549:12 *1925:B 38 
8 *549:8 *1928:A2 38 
*END

*D_NET *550 0.00304219
*CONN
*I *1939:B I *D sky130_fd_sc_hd__and2_4
*I *1940:B I *D sky130_fd_sc_hd__nor2_2
*I *2231:X O *D sky130_fd_sc_hd__clkdlybuf4s25_1
*CAP
1 *1939:B 0.000189582
2 *1940:B 0.000366547
3 *2231:X 0.00036042
4 *550:8 0.00091655
5 *1942:B1_N *1939:B 8.24662e-05
6 *1942:B1_N *1940:B 0.00015795
7 *1950:B1 *1940:B 0.000124368
8 *47:11 *1939:B 0
9 *47:11 *550:8 8.19644e-06
10 *80:10 *1939:B 1.32314e-05
11 *321:10 *1939:B 0
12 *323:8 *1939:B 6.26356e-05
13 *323:8 *1940:B 5.62433e-05
14 *323:10 *1940:B 0.000105072
15 *324:16 *1940:B 0
16 *325:10 *1940:B 0
17 *335:21 *1940:B 0.000192087
18 *342:10 *1940:B 0.000221193
19 *466:57 *1939:B 2.04774e-05
20 *490:22 *1940:B 0
21 *507:10 *1939:B 0.00016517
*RES
1 *2231:X *550:8 42.4329 
2 *550:8 *1940:B 47.4664 
3 *550:8 *1939:B 42.7643 
*END

*D_NET *551 0.0013068
*CONN
*I *1952:B I *D sky130_fd_sc_hd__nand2_2
*I *1951:B I *D sky130_fd_sc_hd__nor2_2
*I *2232:X O *D sky130_fd_sc_hd__clkdlybuf4s25_1
*CAP
1 *1952:B 0
2 *1951:B 0
3 *2232:X 0.000131451
4 *551:14 0.00029828
5 *551:6 0.000429731
6 *551:6 *570:69 3.97702e-05
7 *551:14 *579:10 0
8 *1942:A1 *551:14 0
9 *1953:B_N *551:14 0
10 *333:10 *551:6 0.000103637
11 *333:10 *551:14 2.93845e-05
12 *466:68 *551:14 0
13 *509:12 *551:14 0.000274543
*RES
1 *2232:X *551:6 26.0036 
2 *551:6 *551:14 36.4007 
3 *551:14 *1951:B 23 
4 *551:6 *1952:B 23 
*END

*D_NET *552 0.00225869
*CONN
*I *1969:B I *D sky130_fd_sc_hd__and2_2
*I *1968:B I *D sky130_fd_sc_hd__nor2_4
*I *1970:B I *D sky130_fd_sc_hd__nand2_2
*I *2233:X O *D sky130_fd_sc_hd__clkdlybuf4s25_1
*CAP
1 *1969:B 0
2 *1968:B 0.000172117
3 *1970:B 0
4 *2233:X 0.000304308
5 *552:23 0.000515623
6 *552:12 0.000343506
7 *552:10 0.000304308
8 *552:10 *591:8 0
9 *1969:A *552:23 2.93747e-05
10 *1970:A *552:23 4.61404e-05
11 *1995:C *552:10 8.85189e-05
12 *1997:A1 *552:23 2.93845e-05
13 *350:10 *552:23 5.3304e-05
14 *352:8 *552:10 0.000273623
15 *360:16 *552:10 0
16 *378:10 *552:10 0
17 *473:47 *552:10 9.84851e-05
*RES
1 *2233:X *552:10 43.8207 
2 *552:10 *552:12 15 
3 *552:12 *1970:B 23 
4 *552:12 *552:23 5.42714 
5 *552:23 *1968:B 26.0036 
6 *552:23 *1969:B 23 
*END

*D_NET *553 0.00184441
*CONN
*I *2119:B1_N I *D sky130_fd_sc_hd__o21bai_4
*I *2124:B1 I *D sky130_fd_sc_hd__o21ai_4
*I *2234:X O *D sky130_fd_sc_hd__clkdlybuf4s25_1
*CAP
1 *2119:B1_N 0.000335352
2 *2124:B1 0.000194085
3 *2234:X 0.000243681
4 *553:8 0.000773117
5 S[13] *553:8 2.47015e-05
6 *2119:A1 *2124:B1 8.41115e-05
7 *2119:A2 *2119:B1_N 0.00014196
8 *37:11 *553:8 2.26497e-05
9 *121:10 *2119:B1_N 2.4754e-05
10 *539:10 *2124:B1 0
11 *539:10 *553:8 0
*RES
1 *2234:X *553:8 42.3707 
2 *553:8 *2124:B1 41.6664 
3 *553:8 *2119:B1_N 44.3593 
*END

*D_NET *554 0.00391261
*CONN
*I *1982:A2 I *D sky130_fd_sc_hd__a21boi_2
*I *1983:A2 I *D sky130_fd_sc_hd__o21ai_2
*I *1979:B I *D sky130_fd_sc_hd__and2_2
*I *1978:B I *D sky130_fd_sc_hd__nor2_2
*I *2235:X O *D sky130_fd_sc_hd__clkdlybuf4s25_1
*CAP
1 *1982:A2 1.26784e-05
2 *1983:A2 0.000164228
3 *1979:B 0.000132425
4 *1978:B 0
5 *2235:X 0.000323654
6 *554:34 0.000583385
7 *554:14 0.00034508
8 *554:10 0.000942787
9 *19:11 *554:10 9.01041e-05
10 *51:9 *554:10 0
11 *357:10 *1979:B 0.00013775
12 *362:42 *1983:A2 3.53115e-05
13 *367:10 *554:14 0
14 *368:8 *554:14 0
15 *369:8 *554:14 1.02387e-05
16 *370:8 *554:14 0.000168754
17 *472:6 *554:34 0.000187129
18 *472:14 *554:10 8.98318e-06
19 *472:14 *554:14 0.0001832
20 *472:81 *1979:B 3.06608e-05
21 *472:106 *554:34 0.00012612
22 *473:47 *1983:A2 2.02517e-05
23 *473:65 *1982:A2 1.14154e-05
24 *473:65 *1983:A2 0.000161311
25 *473:65 *554:34 1.76557e-05
26 *473:72 *554:34 0.000171898
27 *473:83 *554:34 4.75937e-05
*RES
1 *2235:X *554:10 43.1371 
2 *554:10 *554:14 20.075 
3 *554:14 *1978:B 23 
4 *554:14 *1979:B 26.045 
5 *554:10 *554:34 23.7207 
6 *554:34 *1983:A2 26.8529 
7 *554:34 *1982:A2 23.4971 
*END

*D_NET *555 0.000947976
*CONN
*I *1989:B I *D sky130_fd_sc_hd__nor2_2
*I *1990:B I *D sky130_fd_sc_hd__and2_2
*I *2236:X O *D sky130_fd_sc_hd__clkdlybuf4s25_1
*CAP
1 *1989:B 3.05231e-05
2 *1990:B 0
3 *2236:X 2.74327e-05
4 *555:6 5.79558e-05
5 *1989:A *1989:B 9.84794e-05
6 *472:106 *1989:B 8.6949e-05
7 *472:106 *555:6 0.000230604
8 *473:83 *1989:B 0.000185428
9 *473:83 *555:6 0.000230604
*RES
1 *2236:X *555:6 25.5271 
2 *555:6 *1990:B 23 
3 *555:6 *1989:B 25.0507 
*END

*D_NET *556 0.005047
*CONN
*I *2006:B I *D sky130_fd_sc_hd__and2_2
*I *2005:B I *D sky130_fd_sc_hd__nor2_2
*I *2237:X O *D sky130_fd_sc_hd__clkdlybuf4s25_1
*CAP
1 *2006:B 2.0995e-05
2 *2005:B 0.000399451
3 *2237:X 8.35363e-05
4 *556:14 0.00169365
5 *556:8 0.00135674
6 *556:14 *2283:A 2.93845e-05
7 *2005:A *2005:B 5.83393e-05
8 *2061:A *556:14 0.000530627
9 *52:11 *556:8 0
10 *382:8 *2005:B 0.000188954
11 *383:8 *2005:B 0.000133698
12 *387:14 *2005:B 0.000102655
13 *517:10 *2005:B 0.000157723
14 *517:10 *2006:B 1.14154e-05
15 *517:10 *556:14 0.000224816
16 *517:14 *2005:B 5.50106e-05
*RES
1 *2237:X *556:8 39.2014 
2 *556:8 *556:14 34.2229 
3 *556:14 *2005:B 32.7771 
4 *556:14 *2006:B 23.4971 
*END

*D_NET *557 0.00137068
*CONN
*I *2015:B I *D sky130_fd_sc_hd__and2_2
*I *2014:B I *D sky130_fd_sc_hd__nor2_2
*I *2238:X O *D sky130_fd_sc_hd__clkdlybuf4s25_1
*CAP
1 *2015:B 7.78286e-05
2 *2014:B 0.000186883
3 *2238:X 0.000101288
4 *557:10 0.000264712
5 *557:8 0.000101288
6 *2015:A *2014:B 0.000203437
7 *2015:A *2015:B 4.5051e-05
8 *2016:A1 *2014:B 5.50106e-05
9 *391:10 *2014:B 0.000140259
10 *391:10 *2015:B 0.000185434
11 *391:10 *557:8 9.48381e-06
*RES
1 *2238:X *557:8 39.5536 
2 *557:8 *557:10 15 
3 *557:10 *2014:B 27.93 
4 *557:10 *2015:B 25.5479 
*END

*D_NET *558 0.00271421
*CONN
*I *2031:B I *D sky130_fd_sc_hd__and2_2
*I *2030:B I *D sky130_fd_sc_hd__nor2_2
*I *2239:X O *D sky130_fd_sc_hd__clkdlybuf4s25_1
*CAP
1 *2031:B 0.000325272
2 *2030:B 0
3 *2239:X 0.00059909
4 *558:12 0.000325272
5 *558:10 0.00059909
6 *2030:A *2031:B 9.06374e-05
7 *2034:A1 *558:10 1.86869e-05
8 *2034:A2 *2031:B 0.000312348
9 *2037:B2 *558:10 0
10 *22:11 *558:10 0.000156197
11 *54:13 *558:10 0
12 *85:8 *558:10 5.91772e-05
13 *405:8 *2031:B 9.84851e-05
14 *405:25 *558:10 3.31683e-05
15 *409:8 *2031:B 9.67842e-05
16 *523:42 *558:10 0
*RES
1 *2239:X *558:10 48.0671 
2 *558:10 *558:12 15 
3 *558:12 *2030:B 23 
4 *558:12 *2031:B 30.8093 
*END

*D_NET *559 0.0028674
*CONN
*I *1839:A2 I *D sky130_fd_sc_hd__o21ai_2
*I *1837:B I *D sky130_fd_sc_hd__nor2_2
*I *1836:B I *D sky130_fd_sc_hd__and2_4
*I *2240:X O *D sky130_fd_sc_hd__clkdlybuf4s25_1
*CAP
1 *1839:A2 5.54196e-05
2 *1837:B 0
3 *1836:B 0
4 *2240:X 0.000523826
5 *559:31 0.000142413
6 *559:18 0.000326451
7 *559:10 0.000763284
8 *1836:A *559:18 5.67058e-05
9 *1836:A *559:31 4.17736e-05
10 *1839:A1 *1839:A2 5.90675e-06
11 *1839:A1 *559:18 0
12 *1849:A2 *559:10 0.000233367
13 *1849:B1 *559:10 5.79559e-05
14 *1851:B *559:10 1.85803e-05
15 *1852:A1 *559:18 0.000225275
16 *1855:B1_N *1839:A2 4.00259e-06
17 *225:10 *559:31 5.61414e-05
18 *227:8 *559:18 3.70187e-05
19 *458:30 *559:10 1.56446e-05
20 *494:10 *559:31 1.14452e-05
21 *494:12 *559:18 0
22 *494:12 *559:31 0.000197479
23 *524:33 *1839:A2 2.18409e-05
24 *524:33 *559:10 7.28721e-05
*RES
1 *2240:X *559:10 32.8393 
2 *559:10 *559:18 34.5364 
3 *559:18 *1836:B 23 
4 *559:18 *559:31 33.7079 
5 *559:31 *1837:B 23 
6 *559:10 *1839:A2 24.1186 
*END

*D_NET *560 0.00160293
*CONN
*I *2040:B I *D sky130_fd_sc_hd__and2_2
*I *2039:B I *D sky130_fd_sc_hd__nor2_2
*I *2241:X O *D sky130_fd_sc_hd__clkdlybuf4s25_1
*CAP
1 *2040:B 0
2 *2039:B 0
3 *2241:X 0.000127266
4 *560:18 0.000179587
5 *560:8 0.000306853
6 *560:8 *596:8 0.000274078
7 *560:18 *596:8 9.16557e-05
8 *2040:A *560:8 3.61695e-05
9 *2040:A *560:18 0.000182832
10 *2041:B *560:18 1.83667e-05
11 *413:6 *560:18 5.67058e-05
12 *414:8 *560:18 4.85126e-05
13 *415:8 *560:18 2.18409e-05
14 *415:42 *560:18 1.4471e-05
15 *417:22 *560:18 2.81138e-05
16 *434:10 *560:18 2.49836e-05
17 *472:47 *560:18 0.000191497
*RES
1 *2241:X *560:8 26.9771 
2 *560:8 *560:18 35.7586 
3 *560:18 *2039:B 23 
4 *560:8 *2040:B 23 
*END

*D_NET *561 0.00278563
*CONN
*I *2054:B I *D sky130_fd_sc_hd__nor2_2
*I *2055:B I *D sky130_fd_sc_hd__and2_2
*I *2242:X O *D sky130_fd_sc_hd__clkdlybuf4s25_1
*CAP
1 *2054:B 0.000253669
2 *2055:B 4.24511e-05
3 *2242:X 0.000587277
4 *561:10 0.000543717
5 *561:8 0.000834874
6 *2054:B *578:10 0.000228903
7 *561:8 *2264:A 2.30292e-05
8 *561:10 *577:10 0
9 S[14] *2054:B 0
10 *2317:A *561:10 0
11 *37:11 *561:10 0
12 *427:16 *2054:B 0.000185428
13 *501:12 *2054:B 0
14 *539:10 *561:10 8.62783e-05
*RES
1 *2242:X *561:8 45.7679 
2 *561:8 *561:10 4.72286 
3 *561:10 *2055:B 38.6214 
4 *561:10 *2054:B 43.9864 
*END

*D_NET *562 0.00787042
*CONN
*I *1831:A_N I *D sky130_fd_sc_hd__nand2b_2
*I *1832:B I *D sky130_fd_sc_hd__nand2_2
*I *1833:B I *D sky130_fd_sc_hd__and2_2
*I *1835:A2 I *D sky130_fd_sc_hd__o21ai_2
*I *2243:X O *D sky130_fd_sc_hd__clkdlybuf4s25_1
*CAP
1 *1831:A_N 8.14869e-05
2 *1832:B 0
3 *1833:B 0
4 *1835:A2 4.24211e-05
5 *2243:X 0
6 *562:36 0.000151263
7 *562:30 0.000418089
8 *562:23 0.000507589
9 *562:10 0.000884352
10 *562:8 0.00174566
11 *562:4 0.00122597
12 *562:8 *2282:A 0.000113368
13 *562:10 *599:14 5.93485e-05
14 *1831:B *1831:A_N 0.000172197
15 *1831:B *562:30 0.00010018
16 *1833:A *562:30 7.59794e-05
17 *1856:B1 *562:10 0.000249909
18 *1857:B1 *562:10 0.000131744
19 *1858:B2 *562:8 0.000331266
20 *2069:A2 *562:8 0.00010018
21 *2255:A *562:8 0.000168975
22 *2314:A *562:8 8.1796e-05
23 *2326:A *562:8 0.000146822
24 *2329:A *562:8 6.65213e-05
25 *220:8 *562:36 0
26 *241:24 *562:8 0.000177674
27 *245:8 *562:10 8.51329e-05
28 *245:8 *562:23 8.26672e-05
29 *457:14 *562:8 0.000100061
30 *461:6 *562:30 9.61128e-05
31 *461:19 *562:23 6.78567e-05
32 *461:25 *562:10 3.67389e-05
33 *462:29 *562:36 0
34 *496:10 *562:8 0.000311554
35 *514:14 *562:8 5.75086e-05
*RES
1 *2243:X *562:4 23 
2 *562:4 *562:8 42.3014 
3 *562:8 *562:10 12.1179 
4 *562:10 *1835:A2 38.6214 
5 *562:10 *562:23 20.7793 
6 *562:23 *1833:B 23 
7 *562:23 *562:30 4.43286 
8 *562:30 *562:36 32.61 
9 *562:36 *1832:B 23 
10 *562:30 *1831:A_N 25.0507 
*END

*D_NET *563 0.0057748
*CONN
*I *2171:B I *D sky130_fd_sc_hd__and2b_2
*I *2172:B I *D sky130_fd_sc_hd__nand2_2
*I *2173:A_N I *D sky130_fd_sc_hd__nand2b_2
*I *2170:B I *D sky130_fd_sc_hd__and2_2
*I *2175:A2 I *D sky130_fd_sc_hd__a21o_2
*I *1823:A2 I *D sky130_fd_sc_hd__a21oi_2
*I *2174:A2 I *D sky130_fd_sc_hd__o21ai_2
*I *1822:A1 I *D sky130_fd_sc_hd__o21bai_2
*I *2244:X O *D sky130_fd_sc_hd__clkdlybuf4s25_1
*CAP
1 *2171:B 0.000108545
2 *2172:B 1.36349e-05
3 *2173:A_N 0
4 *2170:B 0
5 *2175:A2 0
6 *1823:A2 8.62605e-05
7 *2174:A2 0
8 *1822:A1 0.000427643
9 *2244:X 0.000133253
10 *563:61 0.000132357
11 *563:54 0.000452327
12 *563:47 0.00037372
13 *563:45 0.000240572
14 *563:30 0.000259014
15 *563:12 0.000487548
16 *563:8 0.000274
17 *1822:A1 *1822:A2 2.71844e-05
18 *2172:B *607:47 0.00010018
19 *563:61 *607:47 0.000226306
20 *1823:A1 *1823:A2 2.02517e-05
21 *2171:A_N *2171:B 5.50049e-05
22 *2171:A_N *563:54 5.50049e-05
23 *2174:B1 *1822:A1 0.00012377
24 *2175:A1 *563:54 5.67058e-05
25 *176:14 *1822:A1 5.29672e-05
26 *176:14 *563:12 0.000139357
27 *176:14 *563:30 7.03869e-05
28 *176:14 *563:45 0.000107548
29 *176:29 *1822:A1 9.24795e-06
30 *212:12 *1823:A2 4.07902e-05
31 *478:75 *2172:B 4.95081e-05
32 *478:75 *563:61 7.27182e-05
33 *478:77 *563:61 0.000139352
34 *478:79 *2171:B 8.43466e-05
35 *478:79 *563:54 0.000745398
36 *478:79 *563:61 8.43466e-05
37 *478:92 *563:8 1.83564e-05
38 *478:92 *563:30 7.91596e-05
39 *478:92 *563:45 0.00011218
40 *528:20 *1822:A1 0.000315852
41 *532:10 *563:8 0
42 *532:27 *563:30 0
*RES
1 *2244:X *563:8 40.2579 
2 *563:8 *563:12 16.5743 
3 *563:12 *1822:A1 32.9429 
4 *563:12 *2174:A2 23 
5 *563:8 *563:30 2.25786 
6 *563:30 *1823:A2 39.595 
7 *563:30 *563:45 17.9621 
8 *563:45 *563:47 0.849286 
9 *563:47 *2175:A2 23 
10 *563:47 *563:54 9.19714 
11 *563:54 *2170:B 23 
12 *563:54 *563:61 3.95643 
13 *563:61 *2173:A_N 23 
14 *563:61 *2172:B 24.0979 
15 *563:45 *2171:B 25.0507 
*END

*D_NET *564 0.00366326
*CONN
*I *2114:B1_N I *D sky130_fd_sc_hd__o21bai_2
*I *2116:B1 I *D sky130_fd_sc_hd__o21ai_4
*I *2245:X O *D sky130_fd_sc_hd__clkdlybuf4s25_1
*CAP
1 *2114:B1_N 0
2 *2116:B1 4.24511e-05
3 *2245:X 0.00126269
4 *564:25 0.0001072
5 *564:10 0.00141234
6 *564:25 *578:10 1.94693e-05
7 *2062:B *564:10 0.000469663
8 *2063:B1 *564:10 6.99492e-05
9 *117:12 *564:25 0.000102365
10 *118:8 *564:25 0.000169683
11 *417:56 *564:10 7.44161e-06
*RES
1 *2245:X *564:10 42.1193 
2 *564:10 *2116:B1 23.6214 
3 *564:10 *564:25 33.2314 
4 *564:25 *2114:B1_N 23 
*END

*D_NET *565 0.00594591
*CONN
*I *2176:B I *D sky130_fd_sc_hd__and2_2
*I *1796:A2 I *D sky130_fd_sc_hd__o21ai_2
*I *1791:B I *D sky130_fd_sc_hd__nand2_2
*I *1794:B I *D sky130_fd_sc_hd__nand2_2
*I *1795:A1 I *D sky130_fd_sc_hd__o21a_4
*I *2100:A I *D sky130_fd_sc_hd__inv_2
*I *1792:A I *D sky130_fd_sc_hd__nor2_2
*I *2246:X O *D sky130_fd_sc_hd__clkdlybuf4s25_1
*CAP
1 *2176:B 3.52973e-05
2 *1796:A2 0
3 *1791:B 0
4 *1794:B 0
5 *1795:A1 0
6 *2100:A 0.00010491
7 *1792:A 0
8 *2246:X 0.000349631
9 *565:47 0.000254716
10 *565:41 0.000725071
11 *565:33 0.000886181
12 *565:23 0.000463389
13 *565:21 0.000402438
14 *565:10 0.000564298
15 *565:10 *602:12 0
16 *1791:A *565:41 0.000160361
17 *1794:A *565:41 1.27321e-05
18 *1794:A *565:47 6.07611e-06
19 *1795:A2 *2100:A 1.83444e-05
20 *1795:A2 *565:41 0.000129513
21 *1795:A2 *565:47 0.000245333
22 *1796:A1 *565:23 0.000184527
23 *1796:B1 *565:33 0
24 *1799:B *565:41 0.000181805
25 *1810:A *565:21 0.000207498
26 *2074:A *565:10 1.14452e-05
27 *2074:A *565:21 0.000224336
28 *2075:A1_N *565:33 0.000153528
29 *2075:A2_N *565:33 5.83407e-05
30 *2076:B *565:21 7.56417e-05
31 *2076:B *565:33 0
32 *93:8 *565:10 4.04598e-06
33 *102:31 *565:41 8.62783e-05
34 *180:10 *565:21 3.88504e-05
35 *182:8 *565:41 7.76364e-06
36 *183:10 *565:47 0
37 *184:10 *565:23 4.66047e-05
38 *186:10 *565:21 0
39 *187:10 *565:33 1.3523e-05
40 *187:10 *565:41 2.70658e-05
41 *441:8 *565:33 0.000128391
42 *461:35 *2176:B 4.08664e-05
43 *461:35 *565:23 5.50049e-05
44 *529:24 *565:47 0
45 *529:38 *565:33 0
46 *529:46 *565:33 4.21062e-05
*RES
1 *2246:X *565:10 43.2614 
2 *565:10 *1792:A 38 
3 *565:10 *565:21 20.7793 
4 *565:21 *565:23 3.48 
5 *565:23 *565:33 37.4157 
6 *565:33 *565:41 24.57 
7 *565:41 *565:47 18.5836 
8 *565:47 *2100:A 25.0714 
9 *565:47 *1795:A1 23 
10 *565:41 *1794:B 38 
11 *565:33 *1791:B 23 
12 *565:23 *1796:A2 23 
13 *565:21 *2176:B 23.6214 
*END

*D_NET *566 0.00616698
*CONN
*I *1803:B I *D sky130_fd_sc_hd__and2_2
*I *1802:B I *D sky130_fd_sc_hd__nand2b_4
*I *1801:A_N I *D sky130_fd_sc_hd__nand2b_4
*I *1804:B I *D sky130_fd_sc_hd__nand2_2
*I *1806:A2 I *D sky130_fd_sc_hd__o21a_4
*I *1807:A2 I *D sky130_fd_sc_hd__o21ai_2
*I *2247:X O *D sky130_fd_sc_hd__clkdlybuf4s25_1
*CAP
1 *1803:B 0.000117436
2 *1802:B 2.34823e-05
3 *1801:A_N 0
4 *1804:B 0
5 *1806:A2 0.000158638
6 *1807:A2 0.000136099
7 *2247:X 8.68262e-05
8 *566:59 0.000162429
9 *566:51 0.000462205
10 *566:42 0.000505211
11 *566:27 0.000905776
12 *566:12 0.000813088
13 *566:8 0.00036303
14 *1803:A *1803:B 0.000231039
15 *1803:A *566:8 0.000119313
16 *1804:A *566:51 0.000130892
17 *1806:A1 *1806:A2 1.94693e-05
18 *1806:B1 *1806:A2 6.17437e-06
19 *1806:B1 *566:27 2.02872e-05
20 *1807:B1 *566:27 5.67058e-05
21 *189:8 *566:42 0
22 *190:8 *566:59 0.000169683
23 *193:8 *1803:B 0.000139347
24 *193:8 *566:8 0.000269775
25 *195:10 *1807:A2 7.51453e-06
26 *235:8 *566:8 1.57571e-05
27 *457:28 *1807:A2 5.79559e-05
28 *457:28 *566:27 9.78729e-06
29 *457:36 *1806:A2 2.98648e-05
30 *457:47 *566:42 0.000108569
31 *493:32 *1807:A2 0
32 *493:32 *566:12 0
33 *495:8 *566:42 0.000196549
34 *508:14 *566:42 0.000214054
35 *530:10 *1806:A2 0
36 *530:10 *566:27 0.000555994
37 *530:23 *566:42 6.25829e-05
38 *535:42 *566:12 1.14452e-05
*RES
1 *2247:X *566:8 26.5007 
2 *566:8 *566:12 16.9057 
3 *566:12 *1807:A2 40.4236 
4 *566:12 *566:27 22.7679 
5 *566:27 *1806:A2 25.4236 
6 *566:27 *566:42 36.4836 
7 *566:42 *1804:B 23 
8 *566:42 *566:51 4.93 
9 *566:51 *566:59 33.3557 
10 *566:59 *1801:A_N 23 
11 *566:51 *1802:B 23.4971 
12 *566:8 *1803:B 26.48 
*END

*D_NET *567 0.0037602
*CONN
*I *1814:A2 I *D sky130_fd_sc_hd__a21o_2
*I *2168:B I *D sky130_fd_sc_hd__and2_2
*I *2167:B I *D sky130_fd_sc_hd__nand2b_2
*I *2166:A_N I *D sky130_fd_sc_hd__nand2b_2
*I *1813:A2 I *D sky130_fd_sc_hd__o21ai_2
*I *2248:X O *D sky130_fd_sc_hd__clkdlybuf4s25_1
*CAP
1 *1814:A2 0
2 *2168:B 0.000137045
3 *2167:B 0.00026787
4 *2166:A_N 0
5 *1813:A2 0.000204709
6 *2248:X 0.000454179
7 *567:52 0.000153895
8 *567:12 0.000204709
9 *567:10 0.000705199
10 *2167:B *599:14 6.15678e-05
11 *2167:B *603:12 0.000164308
12 *567:10 *599:14 0.000194327
13 *567:10 *603:12 0.000180401
14 S[3] *567:10 7.03766e-05
15 *1813:A1 *1813:A2 3.34129e-05
16 *1814:B1 *2168:B 8.96802e-05
17 *1814:B1 *567:52 5.50106e-05
18 *2168:A *2168:B 0.000260937
19 *2168:A *567:52 2.18506e-05
20 *26:9 *567:10 0
21 *94:8 *567:10 6.69899e-05
22 *201:10 *2167:B 0.000111852
23 *202:10 *2168:B 0.000184527
24 *461:31 *2167:B 6.37845e-05
25 *461:35 *2167:B 1.64402e-05
26 *461:35 *2168:B 0
27 *532:27 *1813:A2 5.71321e-05
*RES
1 *2248:X *567:10 46.6793 
2 *567:10 *567:12 15 
3 *567:12 *1813:A2 26.9979 
4 *567:12 *2166:A_N 23 
5 *567:10 *2167:B 43.4479 
6 *2167:B *567:52 23.6214 
7 *567:52 *2168:B 28.5721 
8 *567:52 *1814:A2 23 
*END

*D_NET *568 0.0047383
*CONN
*I *2159:A2 I *D sky130_fd_sc_hd__a21oi_2
*I *2160:A2 I *D sky130_fd_sc_hd__a21o_4
*I *2156:B I *D sky130_fd_sc_hd__and2_4
*I *2157:B I *D sky130_fd_sc_hd__nor2_2
*I *2158:A2 I *D sky130_fd_sc_hd__o21ai_4
*I *2249:X O *D sky130_fd_sc_hd__clkdlybuf4s25_1
*CAP
1 *2159:A2 8.88896e-05
2 *2160:A2 0.000397762
3 *2156:B 0
4 *2157:B 0
5 *2158:A2 2.34823e-05
6 *2249:X 0.000657228
7 *568:57 0.000273216
8 *568:30 0.000599795
9 *568:17 0.000422839
10 *568:6 0.00071719
11 *568:6 *2291:A 0.00014196
12 *568:57 *605:8 5.44006e-05
13 *2137:A *2160:A2 0.000171296
14 *2157:A *568:17 8.01689e-05
15 *2157:A *568:30 5.67058e-05
16 *2160:A1 *2160:A2 0.000182826
17 *2162:A1 *2160:A2 0.00015954
18 *63:9 *568:6 5.50106e-05
19 *157:10 *568:57 6.63698e-05
20 *158:23 *2160:A2 9.176e-05
21 *159:10 *2160:A2 3.70094e-05
22 *159:10 *568:30 0.000194327
23 *446:10 *2159:A2 2.93845e-05
24 *446:10 *568:57 7.28526e-05
25 *470:28 *2160:A2 0
26 *470:44 *568:30 0.000164291
*RES
1 *2249:X *568:6 31.2443 
2 *568:6 *2158:A2 23.4971 
3 *568:6 *568:17 4.45357 
4 *568:17 *2157:B 23 
5 *568:17 *568:30 19.5571 
6 *568:30 *2156:B 38 
7 *568:30 *2160:A2 47.3836 
8 *2249:X *568:57 42.7229 
9 *568:57 *2159:A2 39.5743 
*END

*D_NET *569 0.00297145
*CONN
*I *2152:B I *D sky130_fd_sc_hd__and2_2
*I *2151:B I *D sky130_fd_sc_hd__nand2_2
*I *2150:A_N I *D sky130_fd_sc_hd__nand2b_2
*I *2153:A2 I *D sky130_fd_sc_hd__o21ai_2
*I *2250:X O *D sky130_fd_sc_hd__clkdlybuf4s25_1
*CAP
1 *2152:B 9.88862e-05
2 *2151:B 0
3 *2150:A_N 0.000118926
4 *2153:A2 0
5 *2250:X 0.000508773
6 *569:25 0.000335906
7 *569:19 0.000408996
8 *569:10 0.000601903
9 *2150:A_N *2151:A 2.28308e-05
10 *2150:A_N *2172:A 0
11 *2150:A_N *607:41 3.04516e-05
12 *2150:A_N *607:43 2.93845e-05
13 *569:19 *574:16 7.80354e-05
14 *569:25 *574:16 0.000243596
15 *2152:A *2152:B 7.23724e-05
16 *32:11 *569:10 0
17 *32:11 *569:19 0
18 *64:9 *569:10 1.94812e-05
19 *153:10 *2150:A_N 0.000143655
20 *153:10 *569:25 0
21 *154:10 *2152:B 9.41704e-05
22 *155:8 *569:19 4.83778e-05
23 *156:12 *569:25 0
24 *478:75 *2150:A_N 0.000115705
25 *534:21 *569:19 0
*RES
1 *2250:X *569:10 45.1671 
2 *569:10 *2153:A2 38 
3 *569:10 *569:19 2.61 
4 *569:19 *569:25 18.9357 
5 *569:25 *2150:A_N 27.1429 
6 *569:25 *2151:B 23 
7 *569:19 *2152:B 40.0507 
*END

*D_NET *570 0.0284892
*CONN
*I *2188:A I *D sky130_fd_sc_hd__buf_2
*I *2183:A I *D sky130_fd_sc_hd__dlymetal6s2s_1
*I *2181:A I *D sky130_fd_sc_hd__buf_8
*I *2186:A I *D sky130_fd_sc_hd__buf_6
*I *2251:X O *D sky130_fd_sc_hd__buf_8
*CAP
1 *2188:A 0
2 *2183:A 3.7099e-05
3 *2181:A 0
4 *2186:A 0
5 *2251:X 6.88399e-05
6 *570:75 0.000201142
7 *570:69 0.00232506
8 *570:52 0.00288801
9 *570:28 0.00541161
10 *570:18 0.00586822
11 *570:16 0.00158646
12 *570:6 0.00192569
13 *570:16 *2274:A 1.69668e-05
14 *570:16 *584:8 0
15 *570:75 *589:12 0
16 *1888:A_N *570:18 4.58924e-05
17 *1889:A2 *570:16 4.21594e-06
18 *1889:A2 *570:18 0
19 *1899:B *570:16 0
20 *1900:A_N *570:16 2.12347e-06
21 *1900:C *570:16 0.000185845
22 *1911:B1_N *570:16 0
23 *1914:B *570:16 0
24 *1922:A2 *570:16 0.000188256
25 *1922:B1 *570:16 6.16439e-05
26 *1928:B1 *570:69 0.000168931
27 *1931:B1 *2183:A 0.000187069
28 *1931:B1 *570:52 8.18576e-05
29 *1931:B1 *570:69 0.000212703
30 *1931:C1 *570:52 5.50049e-05
31 *1931:D1 *570:52 5.50106e-05
32 *1952:A *570:69 0.000131188
33 *1971:B *570:69 0.000400198
34 *1972:A_N *570:69 0.0005715
35 *1:11 *570:28 0
36 *11:15 *570:16 0.00057406
37 *44:11 *570:28 5.32119e-05
38 *45:11 *570:16 3.34818e-06
39 *48:13 *570:69 7.44257e-05
40 *49:17 *570:75 0.000194318
41 *73:10 *570:16 0
42 *74:10 *570:18 0.00014908
43 *103:12 *570:18 1.86869e-05
44 *103:12 *570:28 0.000180997
45 *228:14 *570:28 0.000174644
46 *230:10 *570:28 0.000205064
47 *271:18 *570:18 7.30978e-05
48 *274:8 *570:18 0
49 *275:10 *570:16 4.23817e-05
50 *276:10 *570:18 9.64022e-05
51 *284:8 *570:16 0.000107548
52 *285:8 *570:16 0
53 *293:10 *570:16 0
54 *295:8 *570:16 0.00046504
55 *295:19 *570:16 0.000185104
56 *304:42 *570:16 0.000620126
57 *305:10 *570:16 0.000164291
58 *309:8 *570:69 7.21403e-05
59 *311:10 *570:69 1.32939e-05
60 *314:10 *570:52 3.22879e-05
61 *333:10 *570:69 0.000228903
62 *349:8 *570:75 5.05552e-05
63 *453:39 *570:28 8.84148e-05
64 *453:102 *570:28 0.000122266
65 *455:8 *570:18 0
66 *455:19 *570:18 0
67 *460:10 *570:18 0
68 *460:10 *570:28 0
69 *460:18 *570:28 0
70 *463:71 *570:16 0
71 *463:83 *570:18 2.54646e-05
72 *464:6 *2183:A 0.000142636
73 *464:6 *570:52 9.90847e-05
74 *464:16 *570:52 0.000142775
75 *465:10 *570:16 6.67764e-05
76 *465:12 *570:16 0.000122304
77 *466:22 *570:69 3.70071e-06
78 *466:37 *570:69 3.82058e-06
79 *466:51 *570:69 0.000530622
80 *466:64 *570:69 0.00030373
81 *469:14 *570:28 9.28078e-06
82 *473:10 *570:75 8.57661e-05
83 *473:12 *570:75 6.4393e-05
84 *489:12 *570:16 0
85 *512:16 *570:69 7.43025e-06
86 *521:8 *570:18 0
87 *538:40 *570:28 2.61527e-06
88 *543:8 *570:28 0.000168754
89 *551:6 *570:69 3.97702e-05
*RES
1 *2251:X *570:6 24.0979 
2 *570:6 *570:16 47.2936 
3 *570:16 *570:18 8.94857 
4 *570:18 *570:28 42.015 
5 *570:28 *2186:A 38 
6 *570:18 *2181:A 38 
7 *570:6 *570:52 13.195 
8 *570:52 *2183:A 25.0507 
9 *570:52 *570:69 37.8657 
10 *570:69 *570:75 35.075 
11 *570:75 *2188:A 23 
*END

*D_NET *571 0.00198937
*CONN
*I *2260:A I *D sky130_fd_sc_hd__clkdlybuf4s25_1
*I *2064:X O *D sky130_fd_sc_hd__xor2_2
*CAP
1 *2260:A 0.000163158
2 *2064:X 0.000488561
3 *571:10 0.000651718
4 *58:11 *571:10 0
5 *65:8 *571:10 0.000272917
6 *190:8 *571:10 0.000193135
7 *436:8 *571:10 0.000219882
*RES
1 *2064:X *571:10 49.6829 
2 *571:10 *2260:A 40.5271 
*END

*D_NET *572 0.00207973
*CONN
*I *2261:A I *D sky130_fd_sc_hd__clkbuf_2
*I *2086:X O *D sky130_fd_sc_hd__xor2_2
*CAP
1 *2261:A 0.000412528
2 *2086:X 7.9376e-05
3 *572:8 0.000491904
4 *2261:A *2290:A 0.000227479
5 S[10] *2261:A 0.000400005
6 *447:26 *572:8 0.000228001
7 *536:6 *572:8 0.000185434
8 *536:14 *572:8 5.50049e-05
9 *536:23 *2261:A 0
*RES
1 *2086:X *572:8 41.0036 
2 *572:8 *2261:A 49.0614 
*END

*D_NET *573 0.000709912
*CONN
*I *2262:A I *D sky130_fd_sc_hd__buf_4
*I *2088:X O *D sky130_fd_sc_hd__xor2_2
*CAP
1 *2262:A 0
2 *2088:X 0.000354956
3 *573:8 0.000354956
*RES
1 *2088:X *573:8 28.4064 
2 *573:8 *2262:A 23 
*END

*D_NET *574 0.00385251
*CONN
*I *2263:A I *D sky130_fd_sc_hd__dlymetal6s4s_1
*I *2090:X O *D sky130_fd_sc_hd__xor2_2
*CAP
1 *2263:A 0
2 *2090:X 4.24211e-05
3 *574:16 0.00135781
4 *574:8 0.00140023
5 *574:16 *600:12 0
6 *574:16 *607:41 0.000481437
7 *151:22 *574:16 0.000248979
8 *156:12 *574:16 0
9 *174:10 *574:16 0
10 *258:10 *574:16 0
11 *569:19 *574:16 7.80354e-05
12 *569:25 *574:16 0.000243596
*RES
1 *2090:X *574:8 38.6214 
2 *574:8 *574:16 45.16 
3 *574:16 *2263:A 23 
*END

*D_NET *575 0.00861747
*CONN
*I *2110:B1_N I *D sky130_fd_sc_hd__a21bo_2
*I *2111:A_N I *D sky130_fd_sc_hd__nand3b_2
*I *2252:X O *D sky130_fd_sc_hd__clkdlybuf4s25_1
*CAP
1 *2110:B1_N 3.07992e-05
2 *2111:A_N 0
3 *2252:X 0
4 *575:20 0.000172686
5 *575:10 0.000382459
6 *575:6 0.0031285
7 *575:4 0.00294952
8 *575:6 *1879:C 0.000137368
9 *575:6 *597:6 0.000866624
10 *1878:A *575:6 0.000188307
11 *1879:B *575:6 1.10658e-05
12 *2111:B *575:20 1.57571e-05
13 *2111:C *575:20 9.67842e-05
14 *9:15 *575:6 5.67058e-05
15 *110:10 *575:20 4.21594e-06
16 *111:8 *575:20 1.58805e-05
17 *112:6 *575:20 0.000310653
18 *453:134 *2110:B1_N 1.97329e-05
19 *453:134 *575:10 0.000101004
20 *453:134 *575:20 0
21 *473:14 *575:20 0
22 *541:20 *2110:B1_N 2.95125e-05
23 *541:20 *575:10 9.98995e-05
*RES
1 *2252:X *575:4 23 
2 *575:4 *575:6 40.6414 
3 *575:6 *575:10 19.3707 
4 *575:10 *575:20 49.3293 
5 *575:20 *2111:A_N 23 
6 *575:10 *2110:B1_N 38.9995 
*END

*D_NET *576 7.06952e-05
*CONN
*I *2264:A I *D sky130_fd_sc_hd__dlygate4sd1_1
*I *2092:Y O *D sky130_fd_sc_hd__xnor2_2
*CAP
1 *2264:A 2.3833e-05
2 *2092:Y 2.3833e-05
3 *561:8 *2264:A 2.30292e-05
*RES
1 *2092:Y *2264:A 46.6214 
*END

*D_NET *577 0.000734645
*CONN
*I *2265:A I *D sky130_fd_sc_hd__buf_6
*I *2094:Y O *D sky130_fd_sc_hd__xnor2_2
*CAP
1 *2265:A 0
2 *2094:Y 0.000365412
3 *577:10 0.000365412
4 *430:12 *577:10 0
5 *539:10 *577:10 3.82058e-06
6 *561:10 *577:10 0
*RES
1 *2094:Y *577:10 42.9093 
2 *577:10 *2265:A 38 
*END

*D_NET *578 0.00564386
*CONN
*I *2266:A I *D sky130_fd_sc_hd__clkbuf_4
*I *2096:X O *D sky130_fd_sc_hd__xor2_2
*CAP
1 *2266:A 0
2 *2096:X 0.00136385
3 *578:18 0.000394804
4 *578:10 0.00175865
5 *578:10 *607:106 2.65879e-05
6 *578:18 *606:10 0.000612349
7 *2054:B *578:10 0.000228903
8 *2056:A *578:18 2.64616e-05
9 *2113:A *578:10 2.4754e-05
10 *2221:A *578:18 5.32119e-05
11 *99:8 *578:18 7.8712e-05
12 *116:6 *578:10 8.60475e-05
13 *116:20 *578:10 0.000182826
14 *427:16 *578:10 1.56762e-05
15 *427:16 *578:18 0.000412737
16 *428:25 *578:18 6.00315e-05
17 *430:12 *578:18 9.63367e-05
18 *526:10 *578:18 0.00020246
19 *564:25 *578:10 1.94693e-05
*RES
1 *2096:X *578:10 42.5957 
2 *578:10 *578:18 44.2514 
3 *578:18 *2266:A 23 
*END

*D_NET *579 0.00360029
*CONN
*I *2267:A I *D sky130_fd_sc_hd__buf_6
*I *1876:X O *D sky130_fd_sc_hd__xor2_2
*CAP
1 *2267:A 0
2 *1876:X 0
3 *579:10 0.00127819
4 *579:6 0.00127819
5 *1953:B_N *579:10 5.56306e-05
6 *1956:B *579:10 5.3656e-05
7 *16:9 *579:10 0.000435022
8 *332:19 *579:10 0.000118797
9 *333:10 *579:10 0.000163168
10 *334:10 *579:10 0.000134971
11 *475:10 *579:10 0
12 *509:12 *579:10 0
13 *509:24 *579:10 8.26672e-05
14 *551:14 *579:10 0
*RES
1 *1876:X *579:6 38 
2 *579:6 *579:10 42.9643 
3 *579:10 *2267:A 23 
*END

*D_NET *580 0.0040892
*CONN
*I *2268:A I *D sky130_fd_sc_hd__buf_6
*I *1884:X O *D sky130_fd_sc_hd__xor2_2
*CAP
1 *2268:A 0
2 *1884:X 0.000652143
3 *580:20 0.000584155
4 *580:12 0.0012363
5 *1884:A *580:12 5.41385e-05
6 *1885:A *580:12 1.46594e-05
7 *1885:A *580:20 2.59343e-05
8 *1885:B *580:12 0.000166062
9 *1899:A *580:20 3.04595e-05
10 *1899:B *580:20 6.29487e-05
11 *1904:B1 *580:20 0.00018304
12 *1906:B *580:12 7.87147e-05
13 *1914:C *580:20 5.50049e-05
14 *271:14 *580:12 0.000116064
15 *274:26 *580:20 0.00043937
16 *275:22 *580:20 0.000102051
17 *298:8 *580:20 0.000288162
*RES
1 *1884:X *580:12 49.2686 
2 *580:12 *580:20 29.1064 
3 *580:20 *2268:A 23 
*END

*D_NET *581 0.000612328
*CONN
*I *2269:A I *D sky130_fd_sc_hd__buf_6
*I *1896:X O *D sky130_fd_sc_hd__xor2_2
*CAP
1 *2269:A 6.80978e-05
2 *1896:X 0.000143738
3 *581:10 0.000211835
4 *1896:A *581:10 0
5 *273:16 *581:10 1.94693e-05
6 *274:8 *581:10 5.50955e-05
7 *521:8 *581:10 0.000114092
*RES
1 *1896:X *581:10 40.8793 
2 *581:10 *2269:A 39.0979 
*END

*D_NET *582 0.00182784
*CONN
*I *2270:A I *D sky130_fd_sc_hd__buf_6
*I *1906:Y O *D sky130_fd_sc_hd__xnor2_2
*CAP
1 *2270:A 0.0003392
2 *1906:Y 0.000255269
3 *582:10 0.000594469
4 *1900:A_N *2270:A 0.00010018
5 *1903:B *2270:A 0.000182832
6 *271:14 *582:10 2.30292e-05
7 *274:19 *582:10 8.62783e-05
8 *285:26 *2270:A 2.18409e-05
9 *288:8 *582:10 0.00010068
10 *463:83 *582:10 0.000124062
*RES
1 *1906:Y *582:10 43.3443 
2 *582:10 *2270:A 44.3593 
*END

*D_NET *583 0.000239001
*CONN
*I *2271:A I *D sky130_fd_sc_hd__buf_6
*I *2066:Y O *D sky130_fd_sc_hd__xnor2_2
*CAP
1 *2271:A 1.27045e-05
2 *2066:Y 1.27045e-05
3 *2066:A *2271:A 0.00010018
4 *2067:A1 *2271:A 1.32314e-05
5 *76:10 *2271:A 0.00010018
*RES
1 *2066:Y *2271:A 47.0979 
*END

*D_NET *584 0.00138634
*CONN
*I *2272:A I *D sky130_fd_sc_hd__buf_8
*I *1923:X O *D sky130_fd_sc_hd__and2_4
*CAP
1 *2272:A 0
2 *1923:X 0.000515001
3 *584:8 0.000515001
4 *1922:B1 *584:8 1.4471e-05
5 *13:11 *584:8 0
6 *45:11 *584:8 0.000193388
7 *304:42 *584:8 8.1606e-05
8 *305:10 *584:8 0
9 *305:25 *584:8 0
10 *306:10 *584:8 0
11 *487:10 *584:8 6.6869e-05
12 *570:16 *584:8 0
*RES
1 *1923:X *584:8 49.0614 
2 *584:8 *2272:A 38 
*END

*D_NET *585 0.00120419
*CONN
*I *2273:A I *D sky130_fd_sc_hd__buf_8
*I *1933:Y O *D sky130_fd_sc_hd__nand2_4
*CAP
1 *2273:A 0
2 *1933:Y 0.000345745
3 *585:10 0.000345745
4 *1933:A *585:10 5.50049e-05
5 *1933:B *585:10 9.45494e-05
6 *78:8 *585:10 5.67058e-05
7 *463:8 *585:10 0.000306442
*RES
1 *1933:Y *585:10 31.8864 
2 *585:10 *2273:A 23 
*END

*D_NET *586 0.00483778
*CONN
*I *2104:A I *D sky130_fd_sc_hd__nand2_4
*I *2106:A I *D sky130_fd_sc_hd__or2_4
*I *1893:C I *D sky130_fd_sc_hd__nand3_2
*I *2253:X O *D sky130_fd_sc_hd__clkdlybuf4s25_1
*CAP
1 *2104:A 0.00010089
2 *2106:A 0
3 *1893:C 0
4 *2253:X 0.000908156
5 *586:27 0.000411259
6 *586:16 0.000449831
7 *586:6 0.00104762
8 *1887:A *586:6 7.53384e-06
9 *1887:B *586:6 2.9938e-05
10 *40:15 *586:6 5.67058e-05
11 *108:10 *2104:A 8.41115e-05
12 *266:29 *586:6 0.000116278
13 *266:29 *586:16 5.48411e-05
14 *268:6 *586:6 0.000662954
15 *268:19 *586:6 0.000144494
16 *269:8 *586:6 0.000313185
17 *269:12 *2104:A 0
18 *269:12 *586:27 0
19 *273:10 *586:16 0.000145227
20 *453:20 *586:6 2.4754e-05
21 *492:23 *2104:A 0.000122304
22 *492:23 *586:27 9.28842e-05
23 *510:8 *586:16 6.48142e-05
*RES
1 *2253:X *586:6 41.7257 
2 *586:6 *586:16 33.3764 
3 *586:16 *1893:C 23 
4 *586:16 *586:27 20.1371 
5 *586:27 *2106:A 38 
6 *586:27 *2104:A 41.3143 
*END

*D_NET *587 0.00195088
*CONN
*I *2274:A I *D sky130_fd_sc_hd__buf_6
*I *1947:Y O *D sky130_fd_sc_hd__nand2_2
*CAP
1 *2274:A 0.000117545
2 *1947:Y 0.000334173
3 *587:8 0.000451718
4 *286:8 *587:8 0.000919564
5 *465:10 *2274:A 0.000110913
6 *570:16 *2274:A 1.69668e-05
*RES
1 *1947:Y *587:8 48.15 
2 *587:8 *2274:A 40.2579 
*END

*D_NET *588 0.00183292
*CONN
*I *2275:A I *D sky130_fd_sc_hd__buf_6
*I *1960:Y O *D sky130_fd_sc_hd__nand2_2
*CAP
1 *2275:A 0
2 *1960:Y 3.02401e-05
3 *588:12 0.000629946
4 *588:8 0.000660186
5 *1942:B1_N *588:12 0
6 *1950:A3 *588:12 0.000224345
7 *1958:A1_N *588:8 3.22879e-05
8 *324:16 *588:12 0.000185104
9 *325:10 *588:12 4.57902e-05
10 *325:14 *588:12 2.50227e-05
11 *466:37 *588:12 0
12 *466:57 *588:12 0
13 *549:8 *588:12 0
14 *549:12 *588:12 0
15 *549:20 *588:12 0
*RES
1 *1960:Y *588:8 38.6214 
2 *588:8 *588:12 28.5264 
3 *588:12 *2275:A 23 
*END

*D_NET *589 0.00317759
*CONN
*I *2276:A I *D sky130_fd_sc_hd__buf_6
*I *1977:X O *D sky130_fd_sc_hd__and2b_2
*CAP
1 *2276:A 0
2 *1977:X 0.000191583
3 *589:12 0.000514047
4 *589:8 0.000705631
5 *1971:B *589:12 8.94487e-05
6 *1976:A1 *589:12 8.16356e-05
7 *1976:B1 *589:8 7.53384e-06
8 *1977:B *589:8 0.000137651
9 *1995:C *589:12 1.94522e-05
10 *350:10 *589:12 0.000191157
11 *352:10 *589:12 6.02277e-06
12 *353:10 *589:12 0.000626975
13 *353:16 *589:12 0.000168754
14 *473:10 *589:12 9.03979e-05
15 *473:12 *589:12 6.08032e-05
16 *473:14 *589:12 0.000286494
17 *570:75 *589:12 0
*RES
1 *1977:X *589:8 40.5271 
2 *589:8 *589:12 30.9914 
3 *589:12 *2276:A 23 
*END

*D_NET *590 0.00144322
*CONN
*I *2277:A I *D sky130_fd_sc_hd__buf_6
*I *1988:Y O *D sky130_fd_sc_hd__nor2_4
*CAP
1 *2277:A 1.49804e-05
2 *1988:Y 0.000599381
3 *590:8 0.000614361
4 S[16] *590:8 0
5 *1973:A1 *590:8 5.0135e-05
6 *1987:A1 *590:8 0
7 *16:9 *590:8 0
8 *17:11 *2277:A 5.50106e-05
9 *49:17 *590:8 0
10 *82:8 *2277:A 5.50106e-05
11 *332:19 *590:8 0
12 *348:10 *590:8 3.21327e-05
13 *348:19 *590:8 2.22079e-05
14 *349:8 *590:8 0
15 *351:8 *590:8 0
16 *512:10 *590:8 0
17 *512:16 *590:8 0
*RES
1 *1988:Y *590:8 49.0614 
2 *590:8 *2277:A 38.6214 
*END

*D_NET *591 0.0014172
*CONN
*I *2278:A I *D sky130_fd_sc_hd__buf_6
*I *2001:Y O *D sky130_fd_sc_hd__nand2_2
*CAP
1 *2278:A 9.74448e-05
2 *2001:Y 0.000441609
3 *591:8 0.000539054
4 *83:8 *2278:A 0.00010018
5 *360:16 *591:8 0.000111138
6 *373:10 *591:8 0
7 *377:8 *591:8 6.38845e-05
8 *378:10 *591:8 6.38845e-05
9 *552:10 *591:8 0
*RES
1 *2001:Y *591:8 46.9486 
2 *591:8 *2278:A 40.0507 
*END

*D_NET *592 0.00252904
*CONN
*I *2279:A I *D sky130_fd_sc_hd__buf_6
*I *2013:Y O *D sky130_fd_sc_hd__nand2_2
*CAP
1 *2279:A 0
2 *2013:Y 0
3 *592:14 0.00089138
4 *592:6 0.00089138
5 *1980:B1_N *592:14 6.07929e-05
6 *50:13 *592:14 0.000187129
7 *51:9 *592:14 0
8 *359:8 *592:14 0.000274553
9 *362:8 *592:14 0
10 *362:12 *592:14 0
11 *374:10 *592:14 0
12 *380:10 *592:14 0
13 *381:10 *592:14 3.92407e-05
14 *513:8 *592:14 5.20202e-05
15 *513:10 *592:14 0.000132542
*RES
1 *2013:Y *592:6 38 
2 *592:6 *592:14 33.8914 
3 *592:14 *2279:A 23 
*END

*D_NET *593 0.00101937
*CONN
*I *2280:A I *D sky130_fd_sc_hd__clkbuf_2
*I *2029:X O *D sky130_fd_sc_hd__and2_4
*CAP
1 *2280:A 0
2 *2029:X 0.000509686
3 *593:6 0.000509686
*RES
1 *2029:X *593:6 30.7679 
2 *593:6 *2280:A 23 
*END

*D_NET *594 0.000638168
*CONN
*I *2281:A I *D sky130_fd_sc_hd__clkbuf_4
*I *2038:Y O *D sky130_fd_sc_hd__nand2_2
*CAP
1 *2281:A 0
2 *2038:Y 0.000180172
3 *594:8 0.000180172
4 *2037:B2 *594:8 8.51329e-05
5 *85:8 *594:8 0
6 *411:12 *594:8 0.000192691
*RES
1 *2038:Y *594:8 43.075 
2 *594:8 *2281:A 38 
*END

*D_NET *595 0.00289291
*CONN
*I *2282:A I *D sky130_fd_sc_hd__buf_6
*I *2068:X O *D sky130_fd_sc_hd__xor2_2
*CAP
1 *2282:A 0.000602625
2 *2068:X 0.000299131
3 *595:18 0.000901756
4 *2255:A *2282:A 0.00030894
5 *250:14 *595:18 5.47392e-05
6 *496:26 *2282:A 0.000136738
7 *514:14 *595:18 0.000160915
8 *535:42 *595:18 0.000260665
9 *535:49 *595:18 2.93431e-05
10 *535:60 *595:18 2.46906e-05
11 *562:8 *2282:A 0.000113368
*RES
1 *2068:X *595:18 45.7057 
2 *595:18 *2282:A 49.6 
*END

*D_NET *596 0.00223422
*CONN
*I *2283:A I *D sky130_fd_sc_hd__buf_6
*I *2052:Y O *D sky130_fd_sc_hd__o21ai_4
*CAP
1 *2283:A 0.000161992
2 *2052:Y 0.000428602
3 *596:8 0.000590593
4 *2040:A *596:8 1.21972e-05
5 *2202:A *2283:A 0.000105399
6 *52:11 *2283:A 0
7 *88:10 *2283:A 0
8 *415:42 *2283:A 0
9 *416:8 *596:8 0.000269781
10 *423:6 *596:8 0.000184527
11 *472:37 *596:8 8.60108e-05
12 *556:14 *2283:A 2.93845e-05
13 *560:8 *596:8 0.000274078
14 *560:18 *596:8 9.16557e-05
*RES
1 *2052:Y *596:8 48.15 
2 *596:8 *2283:A 41.2314 
*END

*D_NET *597 0.00349818
*CONN
*I *1879:C I *D sky130_fd_sc_hd__nand3_2
*I *1880:B1 I *D sky130_fd_sc_hd__a21oi_2
*I *2254:X O *D sky130_fd_sc_hd__clkdlybuf4s25_1
*CAP
1 *1879:C 9.69521e-05
2 *1880:B1 0
3 *2254:X 0.000299161
4 *597:14 0.000323197
5 *597:6 0.00071931
6 *1877:A *597:6 5.50106e-05
7 *1878:A *1879:C 0
8 *1879:A *597:6 5.79559e-05
9 *1879:B *1879:C 3.98484e-05
10 *2098:A *597:14 2.24151e-05
11 *266:8 *597:14 6.48049e-05
12 *267:8 *597:14 5.79559e-05
13 *458:22 *597:14 0
14 *459:14 *1879:C 8.06804e-06
15 *459:14 *597:6 3.74284e-05
16 *459:18 *597:14 0.000336157
17 *459:39 *597:14 0.000102389
18 *459:99 *1879:C 8.06804e-06
19 *544:20 *597:6 0.000265472
20 *575:6 *1879:C 0.000137368
21 *575:6 *597:6 0.000866624
*RES
1 *2254:X *597:6 32.6736 
2 *597:6 *597:14 37.2293 
3 *597:14 *1880:B1 23 
4 *597:6 *1879:C 25.0714 
*END

*D_NET *598 0.00113949
*CONN
*I *2284:A I *D sky130_fd_sc_hd__buf_6
*I *2063:Y O *D sky130_fd_sc_hd__a22oi_4
*CAP
1 *2284:A 8.05533e-05
2 *2063:Y 0.000160488
3 *598:12 0.000241041
4 *2062:B *598:12 2.93747e-05
5 *2063:B1 *598:12 2.02517e-05
6 *2063:B2 *598:12 0
7 *2097:A1 *2284:A 0.000185434
8 *2097:A1 *598:12 0
9 *2097:B1 *2284:A 0.000185428
10 *417:56 *598:12 7.08854e-05
11 *427:16 *2284:A 5.54148e-05
12 *429:8 *2284:A 5.50106e-05
13 *435:23 *598:12 5.561e-05
*RES
1 *2063:Y *598:12 41.3764 
2 *598:12 *2284:A 41.5007 
*END

*D_NET *599 0.00331221
*CONN
*I *2285:A I *D sky130_fd_sc_hd__buf_6
*I *2070:Y O *D sky130_fd_sc_hd__xnor2_2
*CAP
1 *2285:A 0
2 *2070:Y 8.25057e-05
3 *599:14 0.000769929
4 *599:8 0.000852435
5 *599:14 *603:12 6.53609e-05
6 *2070:A *599:8 5.12254e-05
7 *2167:B *599:14 6.15678e-05
8 *169:8 *599:14 0.000174427
9 *193:41 *599:14 0
10 *199:12 *599:14 0
11 *201:10 *599:14 0.000188926
12 *201:27 *599:14 0.000164291
13 *442:10 *599:14 0.000141869
14 *461:25 *599:14 0.000454426
15 *461:27 *599:14 2.96154e-05
16 *461:56 *599:14 1.42006e-05
17 *461:58 *599:14 7.75329e-06
18 *562:10 *599:14 5.93485e-05
19 *567:10 *599:14 0.000194327
*RES
1 *2070:Y *599:8 39.0979 
2 *599:8 *599:14 34.9064 
3 *599:14 *2285:A 23 
*END

*D_NET *600 0.00221818
*CONN
*I *2286:A I *D sky130_fd_sc_hd__buf_6
*I *2072:Y O *D sky130_fd_sc_hd__xnor2_2
*CAP
1 *2286:A 0
2 *2072:Y 3.2551e-05
3 *600:12 0.000676579
4 *600:8 0.00070913
5 *600:12 *1822:A2 0.000128601
6 *600:12 *2316:A 8.51432e-05
7 S[12] *600:12 8.16149e-05
8 *1827:A *600:8 5.50106e-05
9 *1827:B *600:8 9.67842e-05
10 *174:10 *600:12 8.76088e-05
11 *175:8 *600:12 0.000171906
12 *198:18 *600:12 7.91596e-05
13 *213:8 *600:12 0
14 *215:10 *600:8 1.40958e-05
15 *528:14 *600:12 0
16 *574:16 *600:12 0
*RES
1 *2072:Y *600:8 39.0979 
2 *600:8 *600:12 29.2307 
3 *600:12 *2286:A 23 
*END

*D_NET *601 0.000317373
*CONN
*I *2287:A I *D sky130_fd_sc_hd__buf_6
*I *2074:X O *D sky130_fd_sc_hd__xor2_2
*CAP
1 *2287:A 0
2 *2074:X 0.00011914
3 *601:8 0.00011914
4 *601:8 *602:12 0
5 *601:8 *603:12 7.90939e-05
*RES
1 *2074:X *601:8 40.9621 
2 *601:8 *2287:A 38 
*END

*D_NET *602 0.0020883
*CONN
*I *2288:A I *D sky130_fd_sc_hd__buf_6
*I *2076:Y O *D sky130_fd_sc_hd__xnor2_2
*CAP
1 *2288:A 0
2 *2076:Y 0
3 *602:12 0.000750166
4 *602:6 0.000750166
5 *602:12 *603:12 0
6 *1810:A *602:12 0
7 *2074:A *602:12 0
8 *2074:B *602:12 7.03663e-05
9 *2076:B *602:12 0
10 *2077:B1 *602:12 5.96687e-05
11 *93:8 *602:12 9.84794e-05
12 *178:10 *602:12 0
13 *184:10 *602:12 0
14 *197:12 *602:12 0
15 *199:12 *602:12 0.000141879
16 *440:12 *602:12 0.000217572
17 *565:10 *602:12 0
18 *601:8 *602:12 0
*RES
1 *2076:Y *602:6 38 
2 *602:6 *602:12 31.2814 
3 *602:12 *2288:A 23 
*END

*D_NET *603 0.00205847
*CONN
*I *2289:A I *D sky130_fd_sc_hd__buf_6
*I *2078:X O *D sky130_fd_sc_hd__xor2_2
*CAP
1 *2289:A 0
2 *2078:X 4.24511e-05
3 *603:12 0.00062599
4 *603:8 0.000668441
5 S[3] *603:12 0
6 *2074:B *603:12 0
7 *2077:B1 *603:12 0
8 *2167:B *603:12 0.000164308
9 *193:41 *603:12 0.000113624
10 *201:10 *603:12 4.07715e-05
11 *201:27 *603:12 7.80251e-05
12 *440:12 *603:12 0
13 *567:10 *603:12 0.000180401
14 *599:14 *603:12 6.53609e-05
15 *601:8 *603:12 7.90939e-05
16 *602:12 *603:12 0
*RES
1 *2078:X *603:8 38.6214 
2 *603:8 *603:12 29.2307 
3 *603:12 *2289:A 23 
*END

*D_NET *604 0.00222607
*CONN
*I *2290:A I *D sky130_fd_sc_hd__buf_6
*I *2082:X O *D sky130_fd_sc_hd__or2_2
*CAP
1 *2290:A 0.000231502
2 *2082:X 0.000513526
3 *604:8 0.000745028
4 *2137:B *2290:A 2.04774e-05
5 *2140:A2 *604:8 0.000114846
6 *2261:A *2290:A 0.000227479
7 *139:8 *2290:A 0.000148402
8 *142:8 *604:8 3.46673e-05
9 *143:10 *604:8 5.67058e-05
10 *516:14 *604:8 9.84794e-05
11 *536:23 *2290:A 3.49587e-05
*RES
1 *2082:X *604:8 47.1971 
2 *604:8 *2290:A 44.7529 
*END

*D_NET *605 0.000770109
*CONN
*I *2291:A I *D sky130_fd_sc_hd__buf_4
*I *2084:X O *D sky130_fd_sc_hd__xor2_2
*CAP
1 *2291:A 7.94373e-05
2 *2084:X 0.000154189
3 *605:8 0.000233627
4 S[9] *605:8 9.48381e-06
5 *31:9 *605:8 0
6 *63:9 *605:8 2.76611e-06
7 *96:8 *2291:A 5.50049e-05
8 *160:8 *605:8 0
9 *446:10 *605:8 3.92407e-05
10 *568:6 *2291:A 0.00014196
11 *568:57 *605:8 5.44006e-05
*RES
1 *2084:X *605:8 41.6664 
2 *605:8 *2291:A 40.0507 
*END

*D_NET *606 0.00217838
*CONN
*I *2292:A I *D sky130_fd_sc_hd__buf_2
*I *2097:X O *D sky130_fd_sc_hd__a21o_2
*CAP
1 *2292:A 0
2 *2097:X 0.000628514
3 *606:10 0.000628514
4 *2234:A *606:10 2.33476e-05
5 *99:8 *606:10 0.000142075
6 *428:25 *606:10 0.000110379
7 *430:12 *606:10 3.31962e-05
8 *578:18 *606:10 0.000612349
*RES
1 *2097:X *606:10 49.5379 
2 *606:10 *2292:A 38 
*END

*D_NET *607 0.0138415
*CONN
*I *2115:A1 I *D sky130_fd_sc_hd__a21o_2
*I *2114:A2 I *D sky130_fd_sc_hd__o21bai_2
*I *2112:A I *D sky130_fd_sc_hd__and2_4
*I *2113:B I *D sky130_fd_sc_hd__nor2_2
*I *2121:A I *D sky130_fd_sc_hd__nand2_2
*I *2151:A I *D sky130_fd_sc_hd__nand2_2
*I *2172:A I *D sky130_fd_sc_hd__nand2_2
*I *2316:A I *D sky130_fd_sc_hd__buf_2
*I *1822:A2 I *D sky130_fd_sc_hd__o21bai_2
*I *2315:A I *D sky130_fd_sc_hd__buf_2
*I *2189:X O *D sky130_fd_sc_hd__buf_8
*CAP
1 *2115:A1 0
2 *2114:A2 7.21854e-05
3 *2112:A 0
4 *2113:B 2.0995e-05
5 *2121:A 0
6 *2151:A 1.01911e-05
7 *2172:A 2.34823e-05
8 *2316:A 7.1891e-05
9 *1822:A2 0.000344206
10 *2315:A 0
11 *2189:X 0
12 *607:125 0.000220285
13 *607:115 0.000383394
14 *607:106 0.000258058
15 *607:98 0.000521915
16 *607:47 0.000616844
17 *607:43 0.000357138
18 *607:41 0.00141689
19 *607:35 0.00190934
20 *607:33 0.00101133
21 *607:31 0.00120038
22 *607:12 0.000232398
23 *607:4 0.00143277
24 *1822:A1 *1822:A2 2.71844e-05
25 *1824:A_N *1822:A2 4.06512e-05
26 *1872:A2_N *607:31 9.84794e-05
27 *1872:B1 *607:31 8.4047e-05
28 *1872:B2 *607:31 4.08537e-05
29 *2089:A *607:35 0
30 *2113:A *2113:B 1.14154e-05
31 *2113:A *2114:A2 3.61695e-05
32 *2113:A *607:106 2.93747e-05
33 *2113:A *607:115 6.82611e-05
34 *2127:B *607:31 4.38638e-05
35 *2134:B *607:31 0.000280282
36 *2150:A_N *2151:A 2.28308e-05
37 *2150:A_N *2172:A 0
38 *2150:A_N *607:41 3.04516e-05
39 *2150:A_N *607:43 2.93845e-05
40 *2165:A *607:41 0
41 *2172:B *607:47 0.00010018
42 *68:8 *1822:A2 2.45549e-06
43 *101:27 *607:41 0
44 *113:34 *607:31 2.57636e-05
45 *114:25 *607:125 0.000188926
46 *116:6 *2114:A2 1.5769e-05
47 *116:20 *607:98 5.41288e-05
48 *116:20 *607:106 3.31683e-05
49 *117:8 *607:98 2.65879e-05
50 *123:12 *607:41 0.000107641
51 *124:8 *607:41 0
52 *129:6 *607:31 0.000136743
53 *129:10 *607:31 5.50049e-05
54 *133:10 *607:35 0
55 *136:10 *607:35 0
56 *136:10 *607:98 0
57 *151:22 *607:41 0.000124873
58 *156:12 *607:41 0
59 *156:25 *607:41 0
60 *166:8 *607:41 0
61 *175:8 *1822:A2 0.000168754
62 *213:8 *2316:A 0
63 *258:10 *607:35 0
64 *258:10 *607:41 0
65 *259:22 *607:41 0
66 *260:10 *607:31 4.39278e-05
67 *449:8 *607:35 0
68 *452:8 *607:35 9.88575e-05
69 *453:121 *607:35 3.98496e-05
70 *453:121 *607:41 6.95618e-05
71 *453:134 *607:12 0
72 *473:14 *607:12 0
73 *478:75 *607:43 5.78923e-05
74 *478:75 *607:47 3.53115e-05
75 *499:10 *607:12 0
76 *500:8 *1822:A2 0.000144915
77 *500:8 *2316:A 5.20202e-05
78 *528:20 *1822:A2 5.50049e-05
79 *540:19 *607:125 0.000169472
80 *540:23 *607:125 0.000139657
81 *542:39 *607:41 0
82 *563:61 *607:47 0.000226306
83 *574:16 *607:41 0.000481437
84 *578:10 *607:106 2.65879e-05
85 *600:12 *1822:A2 0.000128601
86 *600:12 *2316:A 8.51432e-05
*RES
1 *2189:X *607:4 23 
2 *607:4 *607:12 34.2879 
3 *607:12 *2315:A 23 
4 *607:4 *607:31 48.8086 
5 *607:31 *607:33 15 
6 *607:33 *607:35 12.1179 
7 *607:35 *607:41 43.5857 
8 *607:41 *607:43 2.52714 
9 *607:43 *607:47 19.4329 
10 *607:47 *1822:A2 46.4721 
11 *607:47 *2316:A 40.2579 
12 *607:43 *2172:A 23.4971 
13 *607:41 *2151:A 23.4971 
14 *607:35 *2121:A 38 
15 *607:33 *607:98 20.6343 
16 *607:98 *607:106 33.1279 
17 *607:106 *2113:B 23.4971 
18 *607:106 *607:115 1.57429 
19 *607:115 *607:125 35.8414 
20 *607:125 *2112:A 23 
21 *607:115 *2114:A2 24.595 
22 *607:98 *2115:A1 23 
*END
