*SPEF "ieee 1481-1999"
*DESIGN "ALU"
*DATE "08:27:24 Thursday September 17, 2026"
*VENDOR "The OpenROAD Project"
*PROGRAM "OpenROAD"
*VERSION "dcf36133a369abc8f3c5e5738cd4d82e4903c0e0"
*DESIGN_FLOW "NAME_SCOPE LOCAL" "PIN_CAP NONE"
*DIVIDER /
*DELIMITER :
*BUS_DELIMITER []
*T_UNIT 1 NS
*C_UNIT 1 PF
*R_UNIT 1 OHM
*L_UNIT 1 HENRY

*NAME_MAP
*1 A[0]
*2 A[10]
*3 A[11]
*4 A[12]
*5 A[13]
*6 A[14]
*7 A[15]
*8 A[16]
*9 A[17]
*10 A[18]
*11 A[19]
*12 A[1]
*13 A[20]
*14 A[21]
*15 A[22]
*16 A[23]
*17 A[24]
*18 A[25]
*19 A[26]
*20 A[27]
*21 A[28]
*22 A[29]
*23 A[2]
*24 A[30]
*25 A[31]
*26 A[3]
*27 A[4]
*28 A[5]
*29 A[6]
*30 A[7]
*31 A[8]
*32 A[9]
*33 B[0]
*34 B[10]
*35 B[11]
*36 B[12]
*37 B[13]
*38 B[14]
*39 B[15]
*40 B[16]
*41 B[17]
*42 B[18]
*43 B[19]
*44 B[1]
*45 B[20]
*46 B[21]
*47 B[22]
*48 B[23]
*49 B[24]
*50 B[25]
*51 B[26]
*52 B[27]
*53 B[28]
*54 B[29]
*55 B[2]
*56 B[30]
*57 B[31]
*58 B[3]
*59 B[4]
*60 B[5]
*61 B[6]
*62 B[7]
*63 B[8]
*64 B[9]
*67 opCode[0]
*68 opCode[1]
*69 opCode[2]
*70 statusIn[0]
*71 statusIn[1]
*72 statusIn[2]
*73 statusOut
*74 y[0]
*75 y[10]
*76 y[11]
*77 y[12]
*78 y[13]
*79 y[14]
*80 y[15]
*81 y[16]
*82 y[17]
*83 y[18]
*84 y[19]
*85 y[1]
*86 y[20]
*87 y[21]
*88 y[22]
*89 y[23]
*90 y[24]
*91 y[25]
*92 y[26]
*93 y[27]
*94 y[28]
*95 y[29]
*96 y[2]
*97 y[30]
*98 y[31]
*99 y[3]
*100 y[4]
*101 y[5]
*102 y[6]
*103 y[7]
*104 y[8]
*105 y[9]
*106 _000_
*107 _001_
*108 _002_
*109 _003_
*110 _004_
*111 _005_
*112 _006_
*113 _007_
*114 _008_
*115 _009_
*116 _010_
*117 _011_
*118 _012_
*119 _013_
*120 _014_
*121 _015_
*122 _016_
*123 _017_
*124 _018_
*125 _019_
*126 _020_
*127 _021_
*128 _022_
*129 _023_
*130 _024_
*131 _025_
*132 _026_
*133 _027_
*134 _028_
*135 _029_
*136 _030_
*137 _031_
*138 _032_
*139 _033_
*140 _034_
*141 _035_
*142 _036_
*143 _037_
*144 _038_
*145 _039_
*146 _040_
*147 _041_
*148 _042_
*149 _043_
*150 _044_
*151 _045_
*152 _046_
*153 _047_
*154 _048_
*155 _049_
*156 _050_
*157 _051_
*158 _052_
*159 _053_
*160 _054_
*161 _055_
*162 _056_
*163 _057_
*164 _058_
*165 _059_
*166 _060_
*167 _061_
*168 _062_
*169 _063_
*170 _064_
*171 _065_
*172 _066_
*173 _067_
*174 _068_
*175 _069_
*176 _070_
*177 _071_
*178 _072_
*179 _073_
*180 _074_
*181 _075_
*182 _076_
*183 _077_
*184 _078_
*185 _079_
*186 _080_
*187 _081_
*188 _082_
*189 _083_
*190 _084_
*191 _085_
*192 _086_
*193 _087_
*194 _088_
*195 _089_
*196 _090_
*197 _091_
*198 _092_
*199 _093_
*200 _094_
*201 _095_
*202 _096_
*203 _097_
*204 _098_
*205 _099_
*206 _100_
*207 _101_
*208 _102_
*209 _103_
*210 _104_
*211 _105_
*212 _106_
*213 _107_
*214 _108_
*215 _109_
*216 _110_
*217 _111_
*218 _112_
*219 _113_
*220 _114_
*221 _115_
*222 _116_
*223 _117_
*224 _118_
*225 _119_
*226 _120_
*227 _121_
*228 _122_
*229 _123_
*230 _124_
*231 _125_
*232 _126_
*233 _127_
*234 _128_
*235 _129_
*236 _130_
*237 _131_
*238 _132_
*239 _133_
*240 _134_
*241 _135_
*242 _136_
*243 _137_
*244 _138_
*245 _139_
*246 _140_
*247 _141_
*248 _142_
*249 _143_
*250 _144_
*251 _145_
*252 _146_
*253 _147_
*254 _148_
*255 _149_
*256 _150_
*257 _151_
*258 _152_
*259 _153_
*260 _154_
*261 _155_
*262 _156_
*263 _157_
*264 _158_
*265 _159_
*266 _160_
*267 _161_
*268 _162_
*269 _163_
*270 _164_
*271 _165_
*272 _166_
*273 _167_
*274 _168_
*275 _169_
*276 _170_
*277 _171_
*278 _172_
*279 _173_
*280 _174_
*281 _175_
*282 _176_
*283 _177_
*284 _178_
*285 _179_
*286 _180_
*287 _181_
*288 _182_
*289 _183_
*290 _184_
*291 _185_
*292 _186_
*293 _187_
*294 _188_
*295 _189_
*296 _190_
*297 _191_
*298 _192_
*299 _193_
*300 _194_
*301 _195_
*302 _196_
*303 _197_
*304 _198_
*305 _199_
*306 _200_
*307 _201_
*308 _202_
*309 _203_
*310 _204_
*311 _205_
*312 _206_
*313 _207_
*314 _208_
*315 _209_
*316 _210_
*317 _211_
*318 _212_
*319 _213_
*320 _214_
*321 _215_
*322 _216_
*323 _217_
*324 _218_
*325 _219_
*326 _220_
*327 _221_
*328 _222_
*329 _223_
*330 _224_
*331 _225_
*332 _226_
*333 _227_
*334 _228_
*335 _229_
*336 _230_
*337 _231_
*338 _232_
*339 _233_
*340 _234_
*341 _235_
*342 _236_
*343 _237_
*344 _238_
*345 _239_
*346 _240_
*347 _241_
*348 _242_
*349 _243_
*350 _244_
*351 _245_
*352 _246_
*353 _247_
*354 _248_
*355 _249_
*356 _250_
*357 _251_
*358 _252_
*359 _253_
*360 _254_
*361 _255_
*362 _256_
*363 _257_
*364 _258_
*365 _259_
*366 _260_
*367 _261_
*368 _262_
*369 _263_
*370 _264_
*371 _265_
*372 _266_
*373 _267_
*374 _268_
*375 _269_
*376 _270_
*377 _271_
*378 _272_
*379 _273_
*380 _274_
*381 _275_
*382 _276_
*383 _277_
*384 _278_
*385 _279_
*386 _280_
*387 _281_
*388 _282_
*389 _283_
*390 _284_
*391 _285_
*392 _286_
*393 _287_
*394 _288_
*395 _289_
*396 _290_
*397 _291_
*398 _292_
*399 _293_
*400 _294_
*401 _295_
*402 _296_
*403 _297_
*404 _298_
*405 _299_
*406 _300_
*407 _301_
*408 _302_
*409 _303_
*410 _304_
*411 _305_
*412 _306_
*413 _307_
*414 _308_
*415 _309_
*416 _310_
*417 _311_
*418 _312_
*419 _313_
*420 _314_
*421 _315_
*422 _316_
*423 _317_
*424 _318_
*425 _319_
*426 _320_
*427 _321_
*428 _322_
*429 _323_
*430 _324_
*431 _325_
*432 _326_
*433 _327_
*434 _328_
*435 _329_
*436 _330_
*437 _331_
*438 _332_
*439 _333_
*440 _334_
*441 _335_
*442 _336_
*443 _337_
*444 _338_
*445 _339_
*446 _340_
*447 _341_
*448 _342_
*449 _343_
*450 _344_
*451 _345_
*452 _346_
*453 _347_
*454 _348_
*455 _349_
*456 _350_
*457 _351_
*458 _352_
*459 _353_
*460 _354_
*461 _355_
*462 _356_
*463 _357_
*464 _358_
*465 _359_
*466 _360_
*467 _361_
*468 _362_
*469 _363_
*470 _364_
*471 _365_
*472 _366_
*473 _367_
*474 _368_
*475 _369_
*476 _370_
*477 _371_
*478 _372_
*479 _373_
*480 _374_
*481 _375_
*482 _376_
*483 _377_
*484 _378_
*485 _379_
*486 _380_
*487 _381_
*488 _382_
*489 _383_
*490 _384_
*491 _385_
*492 _386_
*493 _387_
*494 _388_
*495 _389_
*496 _390_
*497 _391_
*498 _392_
*499 _393_
*500 _394_
*501 _395_
*502 _396_
*503 _397_
*504 _398_
*505 _399_
*506 _400_
*507 _401_
*508 _402_
*509 _403_
*510 _404_
*511 _405_
*512 _406_
*513 _407_
*514 _408_
*515 _409_
*516 _410_
*517 _411_
*518 _412_
*519 _413_
*520 _414_
*521 _415_
*522 _416_
*523 _417_
*524 _418_
*525 _419_
*526 _420_
*527 _421_
*528 _422_
*529 _423_
*530 _424_
*531 _425_
*532 _426_
*533 _427_
*534 _428_
*535 net1
*536 net10
*537 net100
*538 net101
*539 net102
*540 net103
*541 net104
*542 net105
*543 net106
*544 net107
*545 net108
*546 net109
*547 net11
*548 net110
*549 net111
*550 net112
*551 net113
*552 net114
*553 net115
*554 net116
*555 net117
*556 net118
*557 net119
*558 net12
*559 net120
*560 net121
*561 net122
*562 net123
*563 net124
*564 net125
*565 net126
*566 net127
*567 net128
*568 net129
*569 net13
*570 net130
*571 net14
*572 net15
*573 net16
*574 net17
*575 net18
*576 net19
*577 net2
*578 net20
*579 net21
*580 net22
*581 net23
*582 net24
*583 net25
*584 net26
*585 net27
*586 net28
*587 net29
*588 net3
*589 net30
*590 net31
*591 net32
*592 net33
*593 net34
*594 net35
*595 net36
*596 net37
*597 net38
*598 net39
*599 net4
*600 net40
*601 net41
*602 net42
*603 net43
*604 net44
*605 net45
*606 net46
*607 net47
*608 net48
*609 net49
*610 net5
*611 net50
*612 net51
*613 net52
*614 net53
*615 net54
*616 net55
*617 net56
*618 net57
*619 net58
*620 net59
*621 net6
*622 net60
*623 net61
*624 net62
*625 net63
*626 net64
*627 net65
*628 net66
*629 net67
*630 net68
*631 net69
*632 net7
*633 net70
*634 net71
*635 net72
*636 net73
*637 net74
*638 net75
*639 net76
*640 net77
*641 net78
*642 net79
*643 net8
*644 net80
*645 net81
*646 net82
*647 net83
*648 net84
*649 net85
*650 net86
*651 net87
*652 net88
*653 net89
*654 net9
*655 net90
*656 net91
*657 net92
*658 net93
*659 net94
*660 net95
*661 net96
*662 net97
*663 net98
*664 net99
*665 FILLER_0_120
*666 FILLER_0_139
*667 FILLER_0_149
*668 FILLER_0_167
*669 FILLER_0_57
*670 FILLER_10_100
*671 FILLER_10_103
*672 FILLER_10_106
*673 FILLER_10_109
*674 FILLER_10_11
*675 FILLER_10_112
*676 FILLER_10_141
*677 FILLER_10_168
*678 FILLER_10_180
*679 FILLER_10_25
*680 FILLER_10_29
*681 FILLER_10_32
*682 FILLER_10_60
*683 FILLER_10_63
*684 FILLER_10_66
*685 FILLER_10_69
*686 FILLER_10_72
*687 FILLER_10_80
*688 FILLER_10_83
*689 FILLER_10_85
*690 FILLER_10_88
*691 FILLER_10_91
*692 FILLER_10_94
*693 FILLER_10_97
*694 FILLER_11_101
*695 FILLER_11_108
*696 FILLER_11_111
*697 FILLER_11_117
*698 FILLER_11_120
*699 FILLER_11_149
*700 FILLER_11_158
*701 FILLER_11_174
*702 FILLER_11_188
*703 FILLER_11_24
*704 FILLER_11_3
*705 FILLER_11_57
*706 FILLER_11_60
*707 FILLER_11_77
*708 FILLER_11_80
*709 FILLER_11_83
*710 FILLER_11_86
*711 FILLER_11_89
*712 FILLER_11_92
*713 FILLER_11_95
*714 FILLER_11_98
*715 FILLER_12_115
*716 FILLER_12_131
*717 FILLER_12_158
*718 FILLER_12_161
*719 FILLER_12_181
*720 FILLER_12_27
*721 FILLER_12_82
*722 FILLER_13_101
*723 FILLER_13_130
*724 FILLER_13_16
*725 FILLER_13_166
*726 FILLER_13_3
*727 FILLER_13_39
*728 FILLER_13_86
*729 FILLER_13_89
*730 FILLER_14_105
*731 FILLER_14_112
*732 FILLER_14_131
*733 FILLER_14_189
*734 FILLER_14_29
*735 FILLER_14_62
*736 FILLER_14_71
*737 FILLER_14_82
*738 FILLER_14_85
*739 FILLER_14_88
*740 FILLER_14_91
*741 FILLER_14_94
*742 FILLER_15_111
*743 FILLER_15_120
*744 FILLER_15_131
*745 FILLER_15_142
*746 FILLER_15_167
*747 FILLER_15_3
*748 FILLER_15_57
*749 FILLER_15_6
*750 FILLER_15_82
*751 FILLER_16_106
*752 FILLER_16_114
*753 FILLER_16_137
*754 FILLER_16_162
*755 FILLER_16_165
*756 FILLER_16_27
*757 FILLER_16_53
*758 FILLER_16_68
*759 FILLER_16_71
*760 FILLER_16_80
*761 FILLER_16_83
*762 FILLER_16_85
*763 FILLER_17_100
*764 FILLER_17_109
*765 FILLER_17_113
*766 FILLER_17_135
*767 FILLER_17_138
*768 FILLER_17_17
*769 FILLER_17_178
*770 FILLER_17_181
*771 FILLER_17_20
*772 FILLER_17_3
*773 FILLER_17_44
*774 FILLER_17_53
*775 FILLER_17_57
*776 FILLER_17_60
*777 FILLER_17_81
*778 FILLER_17_97
*779 FILLER_18_115
*780 FILLER_18_118
*781 FILLER_18_128
*782 FILLER_18_131
*783 FILLER_18_134
*784 FILLER_18_157
*785 FILLER_18_180
*786 FILLER_18_26
*787 FILLER_18_29
*788 FILLER_18_32
*789 FILLER_18_40
*790 FILLER_18_43
*791 FILLER_18_67
*792 FILLER_18_70
*793 FILLER_18_80
*794 FILLER_18_83
*795 FILLER_18_85
*796 FILLER_18_88
*797 FILLER_18_98
*798 FILLER_19_11
*799 FILLER_19_113
*800 FILLER_19_137
*801 FILLER_19_181
*802 FILLER_19_40
*803 FILLER_19_43
*804 FILLER_19_64
*805 FILLER_19_67
*806 FILLER_19_70
*807 FILLER_19_78
*808 FILLER_19_93
*809 FILLER_19_96
*810 FILLER_1_102
*811 FILLER_1_113
*812 FILLER_1_130
*813 FILLER_1_174
*814 FILLER_1_188
*815 FILLER_1_32
*816 FILLER_1_57
*817 FILLER_20_104
*818 FILLER_20_107
*819 FILLER_20_110
*820 FILLER_20_113
*821 FILLER_20_136
*822 FILLER_20_139
*823 FILLER_20_141
*824 FILLER_20_16
*825 FILLER_20_164
*826 FILLER_20_19
*827 FILLER_20_41
*828 FILLER_20_49
*829 FILLER_20_52
*830 FILLER_20_55
*831 FILLER_20_77
*832 FILLER_20_80
*833 FILLER_20_83
*834 FILLER_20_85
*835 FILLER_20_88
*836 FILLER_21_102
*837 FILLER_21_105
*838 FILLER_21_113
*839 FILLER_21_116
*840 FILLER_21_119
*841 FILLER_21_126
*842 FILLER_21_129
*843 FILLER_21_141
*844 FILLER_21_144
*845 FILLER_21_159
*846 FILLER_21_162
*847 FILLER_21_55
*848 FILLER_21_57
*849 FILLER_21_78
*850 FILLER_21_81
*851 FILLER_21_93
*852 FILLER_22_114
*853 FILLER_22_117
*854 FILLER_22_120
*855 FILLER_22_123
*856 FILLER_22_126
*857 FILLER_22_144
*858 FILLER_22_168
*859 FILLER_22_20
*860 FILLER_22_3
*861 FILLER_22_36
*862 FILLER_22_39
*863 FILLER_22_56
*864 FILLER_22_68
*865 FILLER_22_80
*866 FILLER_22_83
*867 FILLER_22_91
*868 FILLER_22_98
*869 FILLER_23_104
*870 FILLER_23_123
*871 FILLER_23_141
*872 FILLER_23_16
*873 FILLER_23_169
*874 FILLER_23_32
*875 FILLER_23_35
*876 FILLER_23_48
*877 FILLER_23_51
*878 FILLER_23_54
*879 FILLER_23_72
*880 FILLER_23_81
*881 FILLER_23_84
*882 FILLER_24_11
*883 FILLER_24_126
*884 FILLER_24_14
*885 FILLER_24_166
*886 FILLER_24_34
*887 FILLER_24_47
*888 FILLER_24_78
*889 FILLER_25_113
*890 FILLER_25_129
*891 FILLER_25_132
*892 FILLER_25_142
*893 FILLER_25_145
*894 FILLER_25_167
*895 FILLER_25_169
*896 FILLER_25_19
*897 FILLER_25_27
*898 FILLER_25_30
*899 FILLER_25_53
*900 FILLER_25_57
*901 FILLER_25_76
*902 FILLER_26_11
*903 FILLER_26_157
*904 FILLER_26_168
*905 FILLER_26_19
*906 FILLER_26_22
*907 FILLER_26_29
*908 FILLER_26_57
*909 FILLER_26_75
*910 FILLER_26_85
*911 FILLER_27_103
*912 FILLER_27_113
*913 FILLER_27_116
*914 FILLER_27_12
*915 FILLER_27_165
*916 FILLER_27_20
*917 FILLER_27_23
*918 FILLER_27_26
*919 FILLER_27_29
*920 FILLER_27_3
*921 FILLER_27_55
*922 FILLER_27_57
*923 FILLER_27_6
*924 FILLER_27_85
*925 FILLER_27_9
*926 FILLER_2_125
*927 FILLER_2_157
*928 FILLER_2_25
*929 FILLER_2_29
*930 FILLER_2_51
*931 FILLER_2_80
*932 FILLER_2_92
*933 FILLER_3_102
*934 FILLER_3_118
*935 FILLER_3_126
*936 FILLER_3_188
*937 FILLER_3_33
*938 FILLER_3_65
*939 FILLER_3_82
*940 FILLER_3_93
*941 FILLER_4_124
*942 FILLER_4_141
*943 FILLER_4_144
*944 FILLER_4_168
*945 FILLER_4_18
*946 FILLER_4_3
*947 FILLER_4_36
*948 FILLER_4_65
*949 FILLER_4_73
*950 FILLER_4_83
*951 FILLER_5_3
*952 FILLER_5_50
*953 FILLER_5_70
*954 FILLER_6_141
*955 FILLER_6_151
*956 FILLER_6_186
*957 FILLER_6_189
*958 FILLER_6_27
*959 FILLER_6_29
*960 FILLER_6_32
*961 FILLER_6_69
*962 FILLER_6_92
*963 FILLER_7_113
*964 FILLER_7_144
*965 FILLER_7_147
*966 FILLER_7_166
*967 FILLER_7_169
*968 FILLER_7_181
*969 FILLER_7_3
*970 FILLER_7_46
*971 FILLER_7_69
*972 FILLER_7_72
*973 FILLER_7_87
*974 FILLER_7_90
*975 FILLER_7_93
*976 FILLER_8_114
*977 FILLER_8_141
*978 FILLER_8_144
*979 FILLER_8_161
*980 FILLER_8_188
*981 FILLER_8_29
*982 FILLER_8_3
*983 FILLER_8_44
*984 FILLER_8_68
*985 FILLER_8_71
*986 FILLER_8_81
*987 FILLER_8_85
*988 FILLER_9_104
*989 FILLER_9_107
*990 FILLER_9_11
*991 FILLER_9_110
*992 FILLER_9_164
*993 FILLER_9_167
*994 FILLER_9_53
*995 FILLER_9_62
*996 FILLER_9_65
*997 FILLER_9_68
*998 FILLER_9_88
*999 FILLER_9_91
*1000 FILLER_9_94
*1001 FILLER_9_97
*1002 PHY_EDGE_ROW_0_Left_28
*1003 PHY_EDGE_ROW_0_Right_0
*1004 PHY_EDGE_ROW_10_Left_38
*1005 PHY_EDGE_ROW_10_Right_10
*1006 PHY_EDGE_ROW_11_Left_39
*1007 PHY_EDGE_ROW_11_Right_11
*1008 PHY_EDGE_ROW_12_Left_40
*1009 PHY_EDGE_ROW_12_Right_12
*1010 PHY_EDGE_ROW_13_Left_41
*1011 PHY_EDGE_ROW_13_Right_13
*1012 PHY_EDGE_ROW_14_Left_42
*1013 PHY_EDGE_ROW_14_Right_14
*1014 PHY_EDGE_ROW_15_Left_43
*1015 PHY_EDGE_ROW_15_Right_15
*1016 PHY_EDGE_ROW_16_Left_44
*1017 PHY_EDGE_ROW_16_Right_16
*1018 PHY_EDGE_ROW_17_Left_45
*1019 PHY_EDGE_ROW_17_Right_17
*1020 PHY_EDGE_ROW_18_Left_46
*1021 PHY_EDGE_ROW_18_Right_18
*1022 PHY_EDGE_ROW_19_Left_47
*1023 PHY_EDGE_ROW_19_Right_19
*1024 PHY_EDGE_ROW_1_Left_29
*1025 PHY_EDGE_ROW_1_Right_1
*1026 PHY_EDGE_ROW_20_Left_48
*1027 PHY_EDGE_ROW_20_Right_20
*1028 PHY_EDGE_ROW_21_Left_49
*1029 PHY_EDGE_ROW_21_Right_21
*1030 PHY_EDGE_ROW_22_Left_50
*1031 PHY_EDGE_ROW_22_Right_22
*1032 PHY_EDGE_ROW_23_Left_51
*1033 PHY_EDGE_ROW_23_Right_23
*1034 PHY_EDGE_ROW_24_Left_52
*1035 PHY_EDGE_ROW_24_Right_24
*1036 PHY_EDGE_ROW_25_Left_53
*1037 PHY_EDGE_ROW_25_Right_25
*1038 PHY_EDGE_ROW_26_Left_54
*1039 PHY_EDGE_ROW_26_Right_26
*1040 PHY_EDGE_ROW_27_Left_55
*1041 PHY_EDGE_ROW_27_Right_27
*1042 PHY_EDGE_ROW_2_Left_30
*1043 PHY_EDGE_ROW_2_Right_2
*1044 PHY_EDGE_ROW_3_Left_31
*1045 PHY_EDGE_ROW_3_Right_3
*1046 PHY_EDGE_ROW_4_Left_32
*1047 PHY_EDGE_ROW_4_Right_4
*1048 PHY_EDGE_ROW_5_Left_33
*1049 PHY_EDGE_ROW_5_Right_5
*1050 PHY_EDGE_ROW_6_Left_34
*1051 PHY_EDGE_ROW_6_Right_6
*1052 PHY_EDGE_ROW_7_Left_35
*1053 PHY_EDGE_ROW_7_Right_7
*1054 PHY_EDGE_ROW_8_Left_36
*1055 PHY_EDGE_ROW_8_Right_8
*1056 PHY_EDGE_ROW_9_Left_37
*1057 PHY_EDGE_ROW_9_Right_9
*1058 TAP_TAPCELL_ROW_0_56
*1059 TAP_TAPCELL_ROW_0_57
*1060 TAP_TAPCELL_ROW_0_58
*1061 TAP_TAPCELL_ROW_0_59
*1062 TAP_TAPCELL_ROW_0_60
*1063 TAP_TAPCELL_ROW_0_61
*1064 TAP_TAPCELL_ROW_10_89
*1065 TAP_TAPCELL_ROW_10_90
*1066 TAP_TAPCELL_ROW_10_91
*1067 TAP_TAPCELL_ROW_11_92
*1068 TAP_TAPCELL_ROW_11_93
*1069 TAP_TAPCELL_ROW_11_94
*1070 TAP_TAPCELL_ROW_12_95
*1071 TAP_TAPCELL_ROW_12_96
*1072 TAP_TAPCELL_ROW_12_97
*1073 TAP_TAPCELL_ROW_13_100
*1074 TAP_TAPCELL_ROW_13_98
*1075 TAP_TAPCELL_ROW_13_99
*1076 TAP_TAPCELL_ROW_14_101
*1077 TAP_TAPCELL_ROW_14_102
*1078 TAP_TAPCELL_ROW_14_103
*1079 TAP_TAPCELL_ROW_15_104
*1080 TAP_TAPCELL_ROW_15_105
*1081 TAP_TAPCELL_ROW_15_106
*1082 TAP_TAPCELL_ROW_16_107
*1083 TAP_TAPCELL_ROW_16_108
*1084 TAP_TAPCELL_ROW_16_109
*1085 TAP_TAPCELL_ROW_17_110
*1086 TAP_TAPCELL_ROW_17_111
*1087 TAP_TAPCELL_ROW_17_112
*1088 TAP_TAPCELL_ROW_18_113
*1089 TAP_TAPCELL_ROW_18_114
*1090 TAP_TAPCELL_ROW_18_115
*1091 TAP_TAPCELL_ROW_19_116
*1092 TAP_TAPCELL_ROW_19_117
*1093 TAP_TAPCELL_ROW_19_118
*1094 TAP_TAPCELL_ROW_1_62
*1095 TAP_TAPCELL_ROW_1_63
*1096 TAP_TAPCELL_ROW_1_64
*1097 TAP_TAPCELL_ROW_20_119
*1098 TAP_TAPCELL_ROW_20_120
*1099 TAP_TAPCELL_ROW_20_121
*1100 TAP_TAPCELL_ROW_21_122
*1101 TAP_TAPCELL_ROW_21_123
*1102 TAP_TAPCELL_ROW_21_124
*1103 TAP_TAPCELL_ROW_22_125
*1104 TAP_TAPCELL_ROW_22_126
*1105 TAP_TAPCELL_ROW_22_127
*1106 TAP_TAPCELL_ROW_23_128
*1107 TAP_TAPCELL_ROW_23_129
*1108 TAP_TAPCELL_ROW_23_130
*1109 TAP_TAPCELL_ROW_24_131
*1110 TAP_TAPCELL_ROW_24_132
*1111 TAP_TAPCELL_ROW_24_133
*1112 TAP_TAPCELL_ROW_25_134
*1113 TAP_TAPCELL_ROW_25_135
*1114 TAP_TAPCELL_ROW_25_136
*1115 TAP_TAPCELL_ROW_26_137
*1116 TAP_TAPCELL_ROW_26_138
*1117 TAP_TAPCELL_ROW_26_139
*1118 TAP_TAPCELL_ROW_27_140
*1119 TAP_TAPCELL_ROW_27_141
*1120 TAP_TAPCELL_ROW_27_142
*1121 TAP_TAPCELL_ROW_27_143
*1122 TAP_TAPCELL_ROW_27_144
*1123 TAP_TAPCELL_ROW_27_145
*1124 TAP_TAPCELL_ROW_2_65
*1125 TAP_TAPCELL_ROW_2_66
*1126 TAP_TAPCELL_ROW_2_67
*1127 TAP_TAPCELL_ROW_3_68
*1128 TAP_TAPCELL_ROW_3_69
*1129 TAP_TAPCELL_ROW_3_70
*1130 TAP_TAPCELL_ROW_4_71
*1131 TAP_TAPCELL_ROW_4_72
*1132 TAP_TAPCELL_ROW_4_73
*1133 TAP_TAPCELL_ROW_5_74
*1134 TAP_TAPCELL_ROW_5_75
*1135 TAP_TAPCELL_ROW_5_76
*1136 TAP_TAPCELL_ROW_6_77
*1137 TAP_TAPCELL_ROW_6_78
*1138 TAP_TAPCELL_ROW_6_79
*1139 TAP_TAPCELL_ROW_7_80
*1140 TAP_TAPCELL_ROW_7_81
*1141 TAP_TAPCELL_ROW_7_82
*1142 TAP_TAPCELL_ROW_8_83
*1143 TAP_TAPCELL_ROW_8_84
*1144 TAP_TAPCELL_ROW_8_85
*1145 TAP_TAPCELL_ROW_9_86
*1146 TAP_TAPCELL_ROW_9_87
*1147 TAP_TAPCELL_ROW_9_88
*1148 _429_
*1149 _430_
*1150 _431_
*1151 _432_
*1152 _433_
*1153 _434_
*1154 _435_
*1155 _436_
*1156 _437_
*1157 _438_
*1158 _439_
*1159 _440_
*1160 _441_
*1161 _442_
*1162 _443_
*1163 _444_
*1164 _445_
*1165 _446_
*1166 _447_
*1167 _448_
*1168 _449_
*1169 _450_
*1170 _451_
*1171 _452_
*1172 _453_
*1173 _454_
*1174 _455_
*1175 _456_
*1176 _457_
*1177 _458_
*1178 _459_
*1179 _460_
*1180 _461_
*1181 _462_
*1182 _463_
*1183 _464_
*1184 _465_
*1185 _466_
*1186 _467_
*1187 _468_
*1188 _469_
*1189 _470_
*1190 _471_
*1191 _472_
*1192 _473_
*1193 _474_
*1194 _475_
*1195 _476_
*1196 _477_
*1197 _478_
*1198 _479_
*1199 _480_
*1200 _481_
*1201 _482_
*1202 _483_
*1203 _484_
*1204 _485_
*1205 _486_
*1206 _487_
*1207 _488_
*1208 _489_
*1209 _490_
*1210 _491_
*1211 _492_
*1212 _493_
*1213 _494_
*1214 _495_
*1215 _496_
*1216 _497_
*1217 _498_
*1218 _499_
*1219 _500_
*1220 _501_
*1221 _502_
*1222 _503_
*1223 _504_
*1224 _505_
*1225 _506_
*1226 _507_
*1227 _508_
*1228 _509_
*1229 _510_
*1230 _511_
*1231 _512_
*1232 _513_
*1233 _514_
*1234 _515_
*1235 _516_
*1236 _517_
*1237 _518_
*1238 _519_
*1239 _520_
*1240 _521_
*1241 _522_
*1242 _523_
*1243 _524_
*1244 _525_
*1245 _526_
*1246 _527_
*1247 _528_
*1248 _529_
*1249 _530_
*1250 _531_
*1251 _532_
*1252 _533_
*1253 _534_
*1254 _535_
*1255 _536_
*1256 _537_
*1257 _538_
*1258 _539_
*1259 _540_
*1260 _541_
*1261 _542_
*1262 _543_
*1263 _544_
*1264 _545_
*1265 _546_
*1266 _547_
*1267 _548_
*1268 _549_
*1269 _550_
*1270 _551_
*1271 _552_
*1272 _553_
*1273 _554_
*1274 _555_
*1275 _556_
*1276 _557_
*1277 _558_
*1278 _559_
*1279 _560_
*1280 _561_
*1281 _562_
*1282 _563_
*1283 _564_
*1284 _565_
*1285 _566_
*1286 _567_
*1287 _568_
*1288 _569_
*1289 _570_
*1290 _571_
*1291 _572_
*1292 _573_
*1293 _574_
*1294 _575_
*1295 _576_
*1296 _577_
*1297 _578_
*1298 _579_
*1299 _580_
*1300 _581_
*1301 _582_
*1302 _583_
*1303 _584_
*1304 _585_
*1305 _586_
*1306 _587_
*1307 _588_
*1308 _589_
*1309 _590_
*1310 _591_
*1311 _592_
*1312 _593_
*1313 _594_
*1314 _595_
*1315 _596_
*1316 _597_
*1317 _598_
*1318 _599_
*1319 _600_
*1320 _601_
*1321 _602_
*1322 _603_
*1323 _604_
*1324 _605_
*1325 _606_
*1326 _607_
*1327 _608_
*1328 _609_
*1329 _610_
*1330 _611_
*1331 _612_
*1332 _613_
*1333 _614_
*1334 _615_
*1335 _616_
*1336 _617_
*1337 _618_
*1338 _619_
*1339 _620_
*1340 _621_
*1341 _622_
*1342 _623_
*1343 _624_
*1344 _625_
*1345 _626_
*1346 _627_
*1347 _628_
*1348 _629_
*1349 _630_
*1350 _631_
*1351 _632_
*1352 _633_
*1353 _634_
*1354 _635_
*1355 _636_
*1356 _637_
*1357 _638_
*1358 _639_
*1359 _640_
*1360 _641_
*1361 _642_
*1362 _643_
*1363 _644_
*1364 _645_
*1365 _646_
*1366 _647_
*1367 _648_
*1368 _649_
*1369 _650_
*1370 _651_
*1371 _652_
*1372 _653_
*1373 _654_
*1374 _655_
*1375 _656_
*1376 _657_
*1377 _658_
*1378 _659_
*1379 _660_
*1380 _661_
*1381 _662_
*1382 _663_
*1383 _664_
*1384 _665_
*1385 _666_
*1386 _667_
*1387 _668_
*1388 _669_
*1389 _670_
*1390 _671_
*1391 _672_
*1392 _673_
*1393 _674_
*1394 _675_
*1395 _676_
*1396 _677_
*1397 _678_
*1398 _679_
*1399 _680_
*1400 _681_
*1401 _682_
*1402 _683_
*1403 _684_
*1404 _685_
*1405 _686_
*1406 _687_
*1407 _688_
*1408 _689_
*1409 _690_
*1410 _691_
*1411 _692_
*1412 _693_
*1413 _694_
*1414 _695_
*1415 _696_
*1416 _697_
*1417 _698_
*1418 _699_
*1419 _700_
*1420 _701_
*1421 _702_
*1422 _703_
*1423 _704_
*1424 _705_
*1425 _706_
*1426 _707_
*1427 _708_
*1428 _709_
*1429 _710_
*1430 _711_
*1431 _712_
*1432 _713_
*1433 _714_
*1434 _715_
*1435 _716_
*1436 _717_
*1437 _718_
*1438 _719_
*1439 _720_
*1440 _721_
*1441 _722_
*1442 _723_
*1443 _724_
*1444 _725_
*1445 _726_
*1446 _727_
*1447 _728_
*1448 _729_
*1449 _730_
*1450 _731_
*1451 _732_
*1452 _733_
*1453 _734_
*1454 _735_
*1455 _736_
*1456 _737_
*1457 _738_
*1458 _739_
*1459 _740_
*1460 _741_
*1461 _742_
*1462 _743_
*1463 _744_
*1464 _745_
*1465 _746_
*1466 _747_
*1467 _748_
*1468 _749_
*1469 _750_
*1470 _751_
*1471 _752_
*1472 _753_
*1473 _754_
*1474 _755_
*1475 _756_
*1476 _757_
*1477 _758_
*1478 _759_
*1479 _760_
*1480 _761_
*1481 _762_
*1482 _763_
*1483 _764_
*1484 _765_
*1485 _766_
*1486 _767_
*1487 _768_
*1488 _769_
*1489 _770_
*1490 _771_
*1491 _772_
*1492 _773_
*1493 _774_
*1494 _775_
*1495 _776_
*1496 _777_
*1497 _778_
*1498 _779_
*1499 _780_
*1500 _781_
*1501 _782_
*1502 _783_
*1503 _784_
*1504 _785_
*1505 _786_
*1506 _787_
*1507 _788_
*1508 _789_
*1509 _790_
*1510 _791_
*1511 _792_
*1512 _793_
*1513 _794_
*1514 _795_
*1515 _796_
*1516 _797_
*1517 _798_
*1518 _799_
*1519 _800_
*1520 _801_
*1521 _802_
*1522 _803_
*1523 _804_
*1524 _805_
*1525 _806_
*1526 _807_
*1527 _808_
*1528 _809_
*1529 _810_
*1530 _811_
*1531 _812_
*1532 _813_
*1533 _814_
*1534 _815_
*1535 _816_
*1536 _817_
*1537 _818_
*1538 _819_
*1539 _820_
*1540 _821_
*1541 _822_
*1542 _823_
*1543 _824_
*1544 _825_
*1545 _826_
*1546 _827_
*1547 _828_
*1548 _829_
*1549 _830_
*1550 _831_
*1551 _832_
*1552 _833_
*1553 _834_
*1554 _835_
*1555 _836_
*1556 _837_
*1557 _838_
*1558 _839_
*1559 _840_
*1560 _841_
*1561 _842_
*1562 _843_
*1563 _844_
*1564 _845_
*1565 _846_
*1566 _847_
*1567 _848_
*1568 _849_
*1569 _850_
*1570 _851_
*1571 _852_
*1572 _853_
*1573 _854_
*1574 _855_
*1575 _856_
*1576 _857_
*1577 _858_
*1578 _859_
*1579 _860_
*1580 _861_
*1581 _862_
*1582 _863_
*1583 _864_
*1584 _865_
*1585 _866_
*1586 _867_
*1587 _868_
*1588 _869_
*1589 _870_
*1590 _871_
*1591 _872_
*1592 _873_
*1593 _874_
*1594 _875_
*1595 _876_
*1596 _877_
*1597 _878_
*1598 _879_
*1599 _880_
*1600 _881_
*1601 _882_
*1602 _883_
*1603 _884_
*1604 _885_
*1605 _886_
*1606 _887_
*1607 _888_
*1608 _889_
*1609 _890_
*1610 fanout108
*1611 fanout109
*1612 fanout110
*1613 fanout111
*1614 fanout112
*1615 fanout113
*1616 fanout115
*1617 fanout116
*1618 fanout117
*1619 fanout118
*1620 fanout119
*1621 fanout120
*1622 fanout121
*1623 fanout122
*1624 fanout123
*1625 fanout124
*1626 fanout125
*1627 fanout126
*1628 fanout127
*1629 fanout129
*1630 fanout130
*1631 input1
*1632 input10
*1633 input11
*1634 input12
*1635 input13
*1636 input14
*1637 input15
*1638 input16
*1639 input17
*1640 input18
*1641 input19
*1642 input2
*1643 input20
*1644 input21
*1645 input22
*1646 input23
*1647 input24
*1648 input25
*1649 input26
*1650 input27
*1651 input28
*1652 input29
*1653 input3
*1654 input30
*1655 input31
*1656 input32
*1657 input33
*1658 input34
*1659 input35
*1660 input36
*1661 input37
*1662 input38
*1663 input39
*1664 input4
*1665 input40
*1666 input41
*1667 input42
*1668 input43
*1669 input44
*1670 input45
*1671 input46
*1672 input47
*1673 input48
*1674 input49
*1675 input5
*1676 input50
*1677 input51
*1678 input52
*1679 input53
*1680 input54
*1681 input55
*1682 input56
*1683 input57
*1684 input58
*1685 input59
*1686 input6
*1687 input60
*1688 input61
*1689 input62
*1690 input63
*1691 input64
*1692 input65
*1693 input66
*1694 input67
*1695 input68
*1696 input7
*1697 input8
*1698 input9
*1699 load_slew128
*1700 max_cap102
*1701 max_cap103
*1702 max_cap104
*1703 max_cap105
*1704 max_cap106
*1705 max_cap107
*1706 max_cap114
*1707 output100
*1708 output101
*1709 output69
*1710 output70
*1711 output71
*1712 output72
*1713 output73
*1714 output74
*1715 output75
*1716 output76
*1717 output77
*1718 output78
*1719 output79
*1720 output80
*1721 output81
*1722 output82
*1723 output83
*1724 output84
*1725 output85
*1726 output86
*1727 output87
*1728 output88
*1729 output89
*1730 output90
*1731 output91
*1732 output92
*1733 output93
*1734 output94
*1735 output95
*1736 output96
*1737 output97
*1738 output98
*1739 output99

*PORTS
A[0] I
A[10] I
A[11] I
A[12] I
A[13] I
A[14] I
A[15] I
A[16] I
A[17] I
A[18] I
A[19] I
A[1] I
A[20] I
A[21] I
A[22] I
A[23] I
A[24] I
A[25] I
A[26] I
A[27] I
A[28] I
A[29] I
A[2] I
A[30] I
A[31] I
A[3] I
A[4] I
A[5] I
A[6] I
A[7] I
A[8] I
A[9] I
B[0] I
B[10] I
B[11] I
B[12] I
B[13] I
B[14] I
B[15] I
B[16] I
B[17] I
B[18] I
B[19] I
B[1] I
B[20] I
B[21] I
B[22] I
B[23] I
B[24] I
B[25] I
B[26] I
B[27] I
B[28] I
B[29] I
B[2] I
B[30] I
B[31] I
B[3] I
B[4] I
B[5] I
B[6] I
B[7] I
B[8] I
B[9] I
opCode[0] I
opCode[1] I
opCode[2] I
statusIn[0] I
statusIn[1] I
statusIn[2] I
statusOut O
y[0] O
y[10] O
y[11] O
y[12] O
y[13] O
y[14] O
y[15] O
y[16] O
y[17] O
y[18] O
y[19] O
y[1] O
y[20] O
y[21] O
y[22] O
y[23] O
y[24] O
y[25] O
y[26] O
y[27] O
y[28] O
y[29] O
y[2] O
y[30] O
y[31] O
y[3] O
y[4] O
y[5] O
y[6] O
y[7] O
y[8] O
y[9] O

*D_NET *1 0.00355342
*CONN
*P A[0] I
*I *1631:A I *D sky130_fd_sc_hd__clkdlybuf4s25_1
*CAP
1 A[0] 0.000756632
2 *1631:A 0.000756632
3 *1631:A y[2] 4.21973e-05
4 *1631:A *1195:A2 0.000173916
5 *1631:A *1195:B1 0.000176219
6 *1631:A *1657:A 0.0003649
7 *1631:A *1732:A 0.000120655
8 *1631:A *116:27 0.000166249
9 *1631:A *116:33 0.000128545
10 *1631:A *521:10 0.000158066
11 *1631:A *535:58 0.000363272
12 *1631:A *619:24 0.000346135
*RES
1 A[0] *1631:A 16.9944 
*END

*D_NET *2 0.00201227
*CONN
*P A[10] I
*I *1642:A I *D sky130_fd_sc_hd__clkdlybuf4s25_1
*CAP
1 A[10] 0.00050631
2 *1642:A 0.00050631
3 *1642:A y[10] 0.000277913
4 *1642:A y[11] 1.52121e-05
5 *1642:A y[12] 8.16204e-05
6 *1642:A *1290:A 9.32439e-05
7 *1642:A *1301:A2 0
8 *1642:A *1658:A 0.000235302
9 *1642:A *238:10 0.000100288
10 *1642:A *549:34 0.000196077
*RES
1 A[10] *1642:A 11.5634 
*END

*D_NET *3 0.00196691
*CONN
*P A[11] I
*I *1653:A I *D sky130_fd_sc_hd__clkdlybuf4s25_1
*CAP
1 A[11] 0.000288699
2 *1653:A 0.000288699
3 *1653:A y[8] 0.000569372
4 *1653:A *1659:A 0.000493059
5 *1653:A *588:10 6.71882e-05
6 *1653:A *589:20 0.000139238
7 *1653:A *624:35 0.000120655
*RES
1 A[11] *1653:A 16.035 
*END

*D_NET *4 0.00161661
*CONN
*P A[12] I
*I *1664:A I *D sky130_fd_sc_hd__clkdlybuf4s25_1
*CAP
1 A[12] 0.000636692
2 *1664:A 0.000636692
3 *1664:A y[13] 0.000105108
4 *1664:A y[15] 4.92062e-05
5 *1664:A *1661:A 0.000188914
*RES
1 A[12] *1664:A 13.5088 
*END

*D_NET *5 0.00232234
*CONN
*P A[13] I
*I *1675:A I *D sky130_fd_sc_hd__clkdlybuf4s25_1
*CAP
1 A[13] 0.00063752
2 *1675:A 0.00063752
3 *1675:A y[15] 0.000303869
4 *1675:A y[19] 0
5 *1675:A *1349:A2_N 1.54862e-05
6 *1675:A *1661:A 9.70043e-06
7 *1675:A *1662:A 0.000599728
8 *1675:A *1715:A 0.00011852
9 *1675:A *549:75 0
10 *1675:A *549:96 0
*RES
1 A[13] *1675:A 11.2928 
*END

*D_NET *6 0.00136167
*CONN
*P A[14] I
*I *1686:A I *D sky130_fd_sc_hd__clkdlybuf4s25_1
*CAP
1 A[14] 0.000363832
2 *1686:A 0.000363832
3 *1686:A y[19] 0.000312979
4 *1686:A *1662:A 0.000283983
5 *1686:A *1720:A 3.70488e-05
*RES
1 A[14] *1686:A 9.30183 
*END

*D_NET *7 0.00192292
*CONN
*P A[15] I
*I *1696:A I *D sky130_fd_sc_hd__clkdlybuf4s25_1
*CAP
1 A[15] 0.000474317
2 *1696:A 0.000474317
3 *1696:A y[13] 0.000326055
4 *1696:A *1445:A1 1.05827e-05
5 *1696:A *1660:A 0.000321995
6 *1696:A *1663:A 0.000118394
7 *1696:A *1716:A 0.000150081
8 *1696:A *559:18 3.12319e-05
9 *1696:A *599:10 1.59477e-05
*RES
1 A[15] *1696:A 6.4039 
*END

*D_NET *8 0.00194211
*CONN
*P A[16] I
*I *1697:A I *D sky130_fd_sc_hd__clkdlybuf4s25_1
*CAP
1 A[16] 0.000661164
2 *1697:A 0.000661164
3 *1697:A statusOut 6.32125e-05
4 *1697:A *1665:A 0.000548156
5 *1697:A *1683:A 0
6 *1697:A *1684:A 8.41703e-06
*RES
1 A[16] *1697:A 16.2272 
*END

*D_NET *9 0.00117449
*CONN
*P A[17] I
*I *1698:A I *D sky130_fd_sc_hd__clkdlybuf4s25_1
*CAP
1 A[17] 0.000202057
2 *1698:A 0.000202057
3 *1698:A y[30] 0.000389416
4 *1698:A *1666:A 1.93045e-05
5 *1698:A *1682:A 0.000361652
6 *1698:A *582:31 0
*RES
1 A[17] *1698:A 6.52963 
*END

*D_NET *10 0.00297542
*CONN
*P A[18] I
*I *1632:A I *D sky130_fd_sc_hd__clkdlybuf4s25_1
*CAP
1 A[18] 0.000451076
2 *1632:A 0.000451076
3 *1632:A y[18] 0.000608955
4 *1632:A y[26] 0.000279787
5 *1632:A *1526:A2 0.0001249
6 *1632:A *1526:B1 0.000180373
7 *1632:A *1667:A 0.000650771
8 *1632:A *1677:A 0.00012657
9 *1632:A *545:180 0.000101917
*RES
1 A[18] *1632:A 20.925 
*END

*D_NET *11 0.0012947
*CONN
*P A[19] I
*I *1633:A I *D sky130_fd_sc_hd__clkdlybuf4s25_1
*CAP
1 A[19] 0.000412995
2 *1633:A 0.000412995
3 *1633:A y[14] 2.58237e-05
4 *1633:A y[19] 0
5 *1633:A *1668:A 0.000442885
*RES
1 A[19] *1633:A 7.00163 
*END

*D_NET *12 0.0019214
*CONN
*P A[1] I
*I *1634:A I *D sky130_fd_sc_hd__clkdlybuf4s25_1
*CAP
1 A[1] 0.000615956
2 *1634:A 0.000615956
3 *1634:A y[5] 0
4 *1634:A *1181:A1 4.99619e-05
5 *1634:A *1181:B1 4.95456e-05
6 *1634:A *1669:A 0.000349791
7 *1634:A *1721:A 0.000240186
*RES
1 A[1] *1634:A 17.295 
*END

*D_NET *13 0.00180263
*CONN
*P A[20] I
*I *1635:A I *D sky130_fd_sc_hd__clkdlybuf4s25_1
*CAP
1 A[20] 0.000463633
2 *1635:A 0.000463633
3 *1635:A *1433:A 0
4 *1635:A *1433:B 0
5 *1635:A *1670:A 0.000347649
6 *1635:A *1671:A 0.000527712
7 *1635:A *569:10 0
*RES
1 A[20] *1635:A 10.8266 
*END

*D_NET *14 0.00211576
*CONN
*P A[21] I
*I *1636:A I *D sky130_fd_sc_hd__clkdlybuf4s25_1
*CAP
1 A[21] 0.000571574
2 *1636:A 0.000571574
3 *1636:A y[21] 0
4 *1636:A *1446:B 0
5 *1636:A *1670:A 0
6 *1636:A *1671:A 0.00081643
7 *1636:A *571:10 0
8 *1636:A *606:10 0.000120364
9 *1636:A *606:14 3.58184e-05
*RES
1 A[21] *1636:A 12.7582 
*END

*D_NET *15 0.00134955
*CONN
*P A[22] I
*I *1637:A I *D sky130_fd_sc_hd__clkdlybuf4s25_1
*CAP
1 A[22] 0.000436724
2 *1637:A 0.000436724
3 *1637:A y[22] 0
4 *1637:A *1672:A 0.000476101
5 *1637:A *1724:A 0
*RES
1 A[22] *1637:A 14.715 
*END

*D_NET *16 0.00151568
*CONN
*P A[23] I
*I *1638:A I *D sky130_fd_sc_hd__clkdlybuf4s25_1
*CAP
1 A[23] 0.000483219
2 *1638:A 0.000483219
3 *1638:A *1673:A 0.000549239
*RES
1 A[23] *1638:A 15.3 
*END

*D_NET *17 0.00116969
*CONN
*P A[24] I
*I *1639:A I *D sky130_fd_sc_hd__clkdlybuf4s25_1
*CAP
1 A[24] 0.000400879
2 *1639:A 0.000400879
3 *1639:A y[28] 0.000183965
4 *1639:A *1674:A 0.000183965
*RES
1 A[24] *1639:A 10.2035 
*END

*D_NET *18 0.00147844
*CONN
*P A[25] I
*I *1640:A I *D sky130_fd_sc_hd__clkdlybuf4s25_1
*CAP
1 A[25] 0.000418135
2 *1640:A 0.000418135
3 *1640:A *1507:B 4.99619e-05
4 *1640:A *1676:A 0.000543918
5 *1640:A *1728:A 0
6 *1640:A *611:10 4.82919e-05
*RES
1 A[25] *1640:A 14.61 
*END

*D_NET *19 0.00142774
*CONN
*P A[26] I
*I *1641:A I *D sky130_fd_sc_hd__clkdlybuf4s25_1
*CAP
1 A[26] 0.000424596
2 *1641:A 0.000424596
3 *1641:A y[18] 2.75229e-05
4 *1641:A *1677:A 0.000546582
5 *1641:A *1719:A 4.43871e-06
*RES
1 A[26] *1641:A 14.61 
*END

*D_NET *20 0.00163188
*CONN
*P A[27] I
*I *1643:A I *D sky130_fd_sc_hd__clkdlybuf4s25_1
*CAP
1 A[27] 0.000548036
2 *1643:A 0.000548036
3 *1643:A *1678:A 0.000535802
*RES
1 A[27] *1643:A 16.095 
*END

*D_NET *21 0.00153727
*CONN
*P A[28] I
*I *1644:A I *D sky130_fd_sc_hd__clkdlybuf4s25_1
*CAP
1 A[28] 0.000586183
2 *1644:A 0.000586183
3 *1644:A y[28] 0
4 *1644:A y[29] 0.0003649
5 *1644:A *1597:A_N 0
6 *1644:A *1598:C1 0
7 *1644:A *478:16 0
8 *1644:A *614:27 0
*RES
1 A[28] *1644:A 9.84463 
*END

*D_NET *22 0.00110703
*CONN
*P A[29] I
*I *1645:A I *D sky130_fd_sc_hd__clkdlybuf4s25_1
*CAP
1 A[29] 0.000247768
2 *1645:A 0.000247768
3 *1645:A y[29] 0.000158569
4 *1645:A *1598:C1 0
5 *1645:A *1679:A 8.99386e-05
6 *1645:A *1680:A 0.000362984
*RES
1 A[29] *1645:A 7.03963 
*END

*D_NET *23 0.00307898
*CONN
*P A[2] I
*I *1646:A I *D sky130_fd_sc_hd__clkdlybuf4s25_1
*CAP
1 A[2] 0.000760398
2 *1646:A 0.000760398
3 *1646:A y[2] 0.000439514
4 *1646:A y[3] 0
5 *1646:A *1192:B 4.89395e-05
6 *1646:A *1194:C1 1.88602e-05
7 *1646:A *1592:A 0.000240424
8 *1646:A *1604:C1 2.69153e-05
9 *1646:A *1606:B2 1.88904e-05
10 *1646:A *1648:A 4.07308e-05
11 *1646:A *1681:A 0.000196455
12 *1646:A *1710:A 0
13 *1646:A *1735:A 0.000299
14 *1646:A *141:14 0.000110791
15 *1646:A *519:21 0.00011766
*RES
1 A[2] *1646:A 10.9719 
*END

*D_NET *24 0.00145431
*CONN
*P A[30] I
*I *1647:A I *D sky130_fd_sc_hd__clkdlybuf4s25_1
*CAP
1 A[30] 0.000290596
2 *1647:A 0.000290596
3 *1647:A *1577:A 1.22505e-05
4 *1647:A *1600:A 5.85717e-05
5 *1647:A *1666:A 0.000395526
6 *1647:A *1692:A 0
7 *1647:A *1693:A 2.58171e-05
8 *1647:A *1694:A 0.000361652
9 *1647:A *1733:A 1.92979e-05
10 *1647:A *582:39 0
*RES
1 A[30] *1647:A 5.72077 
*END

*D_NET *25 0.00283896
*CONN
*P A[31] I
*I *1648:A I *D sky130_fd_sc_hd__clkdlybuf4s25_1
*CAP
1 A[31] 0.000638606
2 *1648:A 0.000638606
3 *1648:A y[16] 0.000273025
4 *1648:A y[3] 0.000353854
5 *1648:A *1184:B 3.58134e-05
6 *1648:A *1606:B2 7.80945e-05
7 *1648:A *1608:A1 7.10171e-05
8 *1648:A *1683:A 0.000149433
9 *1648:A *1734:A 0.000191248
10 *1648:A *1735:A 0
11 *1648:A *519:21 0.000368536
12 *1646:A *1648:A 4.07308e-05
*RES
1 A[31] *1648:A 10.4636 
*END

*D_NET *26 0.00115174
*CONN
*P A[3] I
*I *1649:A I *D sky130_fd_sc_hd__clkdlybuf4s25_1
*CAP
1 A[3] 0.000522488
2 *1649:A 0.000522488
3 *1649:A y[6] 0
4 *1649:A *1247:B1 5.84749e-05
5 *1649:A *1738:A 4.82919e-05
*RES
1 A[3] *1649:A 13.05 
*END

*D_NET *27 0.00145374
*CONN
*P A[4] I
*I *1650:A I *D sky130_fd_sc_hd__clkdlybuf4s25_1
*CAP
1 A[4] 0.000472885
2 *1650:A 0.000472885
3 *1650:A *1223:A1 3.64998e-06
4 *1650:A *1254:A2 3.72916e-05
5 *1650:A *1652:A 0
6 *1650:A *1685:A 0.000467034
*RES
1 A[4] *1650:A 14.775 
*END

*D_NET *28 0.00171725
*CONN
*P A[5] I
*I *1651:A I *D sky130_fd_sc_hd__clkdlybuf4s25_1
*CAP
1 A[5] 0.000344906
2 *1651:A 0.000344906
3 *1651:A y[5] 0
4 *1651:A y[6] 0.000450933
5 *1651:A *1189:A3 4.82919e-05
6 *1651:A *1246:B1 9.50342e-06
7 *1651:A *1247:B1 0
8 *1651:A *1687:A 0.000463596
9 *1651:A *584:10 5.51158e-05
*RES
1 A[5] *1651:A 15.345 
*END

*D_NET *29 0.00108904
*CONN
*P A[6] I
*I *1652:A I *D sky130_fd_sc_hd__clkdlybuf4s25_1
*CAP
1 A[6] 0.000535326
2 *1652:A 0.000535326
3 *1652:A *1254:A2 1.83847e-05
4 *1652:A *1688:A 0
5 *1650:A *1652:A 0
*RES
1 A[6] *1652:A 13.05 
*END

*D_NET *30 0.00116645
*CONN
*P A[7] I
*I *1654:A I *D sky130_fd_sc_hd__clkdlybuf4s25_1
*CAP
1 A[7] 0.00034944
2 *1654:A 0.00034944
3 *1654:A *1257:C1 9.50342e-06
4 *1654:A *1659:A 0
5 *1654:A *1689:A 0.000458064
*RES
1 A[7] *1654:A 12.6 
*END

*D_NET *31 0.00220437
*CONN
*P A[8] I
*I *1655:A I *D sky130_fd_sc_hd__clkdlybuf4s25_1
*CAP
1 A[8] 0.000707964
2 *1655:A 0.000707964
3 *1655:A *1281:B1 5.18317e-06
4 *1655:A *1690:A 0.000458451
5 *1655:A *590:19 0.000149766
6 *1655:A *590:25 0.000175045
*RES
1 A[8] *1655:A 18.27 
*END

*D_NET *32 0.0017399
*CONN
*P A[9] I
*I *1656:A I *D sky130_fd_sc_hd__clkdlybuf4s25_1
*CAP
1 A[9] 0.000638294
2 *1656:A 0.000638294
3 *1656:A *1279:B 0
4 *1656:A *1658:A 0
5 *1656:A *1691:A 0.000243294
6 *1656:A *591:8 0.0001249
7 *1656:A *626:8 9.51192e-05
8 *1656:A *626:19 0
9 *1656:A *626:32 0
*RES
1 A[9] *1656:A 12.6168 
*END

*D_NET *33 0.00249961
*CONN
*P B[0] I
*I *1657:A I *D sky130_fd_sc_hd__clkdlybuf4s25_1
*CAP
1 B[0] 0.000610278
2 *1657:A 0.000610278
3 *1657:A y[0] 0
4 *1657:A *1172:A1 9.04332e-05
5 *1657:A *1172:B1 8.68436e-05
6 *1657:A *1172:B2 8.247e-05
7 *1657:A *1173:B1_N 4.80285e-05
8 *1657:A *1195:A1 1.61831e-05
9 *1657:A *1195:A2 9.62841e-05
10 *1657:A *1195:B1 4.82919e-05
11 *1657:A *1695:A 0.000341577
12 *1657:A *1710:A 0.000104042
13 *1631:A *1657:A 0.0003649
*RES
1 B[0] *1657:A 14.2996 
*END

*D_NET *34 0.00230917
*CONN
*P B[10] I
*I *1658:A I *D sky130_fd_sc_hd__clkdlybuf4s25_1
*CAP
1 B[10] 0.000538464
2 *1658:A 0.000538464
3 *1658:A y[10] 0.000769992
4 *1658:A *1286:A1 1.52352e-05
5 *1658:A *1691:A 0
6 *1658:A *1711:A 8.23457e-05
7 *1658:A *593:12 0.000129369
8 *1642:A *1658:A 0.000235302
9 *1656:A *1658:A 0
*RES
1 B[10] *1658:A 14.7803 
*END

*D_NET *35 0.00192253
*CONN
*P B[11] I
*I *1659:A I *D sky130_fd_sc_hd__clkdlybuf4s25_1
*CAP
1 B[11] 0.000550526
2 *1659:A 0.000550526
3 *1659:A y[8] 0
4 *1659:A *1256:A1 0.000120323
5 *1659:A *1256:B1 5.53249e-06
6 *1659:A *1257:C1 1.83756e-05
7 *1659:A *1268:A_N 0
8 *1659:A *588:10 4.49498e-05
9 *1659:A *589:20 0.000139238
10 *1653:A *1659:A 0.000493059
11 *1654:A *1659:A 0
*RES
1 B[11] *1659:A 17.13 
*END

*D_NET *36 0.00307133
*CONN
*P B[12] I
*I *1660:A I *D sky130_fd_sc_hd__clkdlybuf4s25_1
*CAP
1 B[12] 0.000739032
2 *1660:A 0.000739032
3 *1660:A y[11] 0
4 *1660:A y[12] 0.00029997
5 *1660:A *1339:A 1.01661e-05
6 *1660:A *1342:B1 9.50342e-06
7 *1660:A *1663:A 0.000118394
8 *1660:A *1714:A 0.000124956
9 *1660:A *1716:A 0
10 *1660:A *262:18 7.38718e-05
11 *1660:A *598:18 0.000634408
12 *1696:A *1660:A 0.000321995
*RES
1 B[12] *1660:A 8.26157 
*END

*D_NET *37 0.00175023
*CONN
*P B[13] I
*I *1661:A I *D sky130_fd_sc_hd__clkdlybuf4s25_1
*CAP
1 B[13] 0.000433647
2 *1661:A 0.000433647
3 *1661:A y[13] 0
4 *1661:A y[15] 0.000325745
5 *1661:A *279:6 1.47256e-05
6 *1661:A *279:21 0.000261505
7 *1661:A *596:8 8.23457e-05
8 *1664:A *1661:A 0.000188914
9 *1675:A *1661:A 9.70043e-06
*RES
1 B[13] *1661:A 10.4534 
*END

*D_NET *38 0.00213118
*CONN
*P B[14] I
*I *1662:A I *D sky130_fd_sc_hd__clkdlybuf4s25_1
*CAP
1 B[14] 0.000465938
2 *1662:A 0.000465938
3 *1662:A y[19] 2.19868e-05
4 *1662:A *1720:A 0.00027299
5 *1662:A *549:75 2.06147e-05
6 *1675:A *1662:A 0.000599728
7 *1686:A *1662:A 0.000283983
*RES
1 B[14] *1662:A 8.77103 
*END

*D_NET *39 0.0013996
*CONN
*P B[15] I
*I *1663:A I *D sky130_fd_sc_hd__clkdlybuf4s25_1
*CAP
1 B[15] 0.000581408
2 *1663:A 0.000581408
3 *1663:A y[12] 0
4 *1663:A y[13] 0
5 *1660:A *1663:A 0.000118394
6 *1696:A *1663:A 0.000118394
*RES
1 B[15] *1663:A 13.289 
*END

*D_NET *40 0.00184531
*CONN
*P B[16] I
*I *1665:A I *D sky130_fd_sc_hd__clkdlybuf4s25_1
*CAP
1 B[16] 0.000575987
2 *1665:A 0.000575987
3 *1665:A statusOut 9.70043e-06
4 *1665:A *1683:A 4.87605e-05
5 *1665:A *1692:A 8.67192e-05
6 *1697:A *1665:A 0.000548156
*RES
1 B[16] *1665:A 15.1754 
*END

*D_NET *41 0.00161278
*CONN
*P B[17] I
*I *1666:A I *D sky130_fd_sc_hd__clkdlybuf4s25_1
*CAP
1 B[17] 0.000263869
2 *1666:A 0.000263869
3 *1666:A y[30] 0.000369887
4 *1666:A *1693:A 0.00027922
5 *1666:A *654:10 2.11084e-05
6 *1647:A *1666:A 0.000395526
7 *1698:A *1666:A 1.93045e-05
*RES
1 B[17] *1666:A 8.3429 
*END

*D_NET *42 0.0024531
*CONN
*P B[18] I
*I *1667:A I *D sky130_fd_sc_hd__clkdlybuf4s25_1
*CAP
1 B[18] 0.00040533
2 *1667:A 0.00040533
3 *1667:A *1526:B1 0.000140587
4 *1667:A *1539:A2 0
5 *1667:A *1677:A 0.000504609
6 *1667:A *1719:A 0
7 *1667:A *1728:A 0
8 *1667:A *450:12 0.000111011
9 *1667:A *451:35 2.8531e-05
10 *1667:A *451:51 0.000130313
11 *1667:A *451:62 3.46196e-05
12 *1667:A *545:180 4.19967e-05
13 *1632:A *1667:A 0.000650771
*RES
1 B[18] *1667:A 18.795 
*END

*D_NET *43 0.00174109
*CONN
*P B[19] I
*I *1668:A I *D sky130_fd_sc_hd__clkdlybuf4s25_1
*CAP
1 B[19] 0.000424821
2 *1668:A 0.000424821
3 *1668:A y[20] 0.000365912
4 *1668:A *1433:A 8.2651e-05
5 *1633:A *1668:A 0.000442885
*RES
1 B[19] *1668:A 10.5699 
*END

*D_NET *44 0.00189535
*CONN
*P B[1] I
*I *1669:A I *D sky130_fd_sc_hd__clkdlybuf4s25_1
*CAP
1 B[1] 0.0005563
2 *1669:A 0.0005563
3 *1669:A *1175:B 7.67036e-05
4 *1669:A *1181:C1 0.000346755
5 *1669:A *1737:A 9.50342e-06
6 *1669:A *544:12 0
7 *1669:A *558:20 0
8 *1634:A *1669:A 0.000349791
*RES
1 B[1] *1669:A 17.235 
*END

*D_NET *45 0.00167206
*CONN
*P B[20] I
*I *1670:A I *D sky130_fd_sc_hd__clkdlybuf4s25_1
*CAP
1 B[20] 0.000575557
2 *1670:A 0.000575557
3 *1670:A y[20] 6.44676e-05
4 *1670:A *1432:A 0
5 *1670:A *1433:B 7.79101e-05
6 *1670:A *1455:A1 0
7 *1670:A *1461:A_N 3.09233e-05
8 *1670:A *1671:A 0
9 *1635:A *1670:A 0.000347649
10 *1636:A *1670:A 0
*RES
1 B[20] *1670:A 8.29103 
*END

*D_NET *46 0.00211411
*CONN
*P B[21] I
*I *1671:A I *D sky130_fd_sc_hd__clkdlybuf4s25_1
*CAP
1 B[21] 0.000371228
2 *1671:A 0.000371228
3 *1671:A y[21] 2.75145e-05
4 *1671:A *606:14 0
5 *1635:A *1671:A 0.000527712
6 *1636:A *1671:A 0.00081643
7 *1670:A *1671:A 0
*RES
1 B[21] *1671:A 11.5899 
*END

*D_NET *47 0.00142406
*CONN
*P B[22] I
*I *1672:A I *D sky130_fd_sc_hd__clkdlybuf4s25_1
*CAP
1 B[22] 0.000473981
2 *1672:A 0.000473981
3 *1637:A *1672:A 0.000476101
*RES
1 B[22] *1672:A 14.955 
*END

*D_NET *48 0.00175079
*CONN
*P B[23] I
*I *1673:A I *D sky130_fd_sc_hd__clkdlybuf4s25_1
*CAP
1 B[23] 0.000514612
2 *1673:A 0.000514612
3 *1673:A y[23] 0
4 *1673:A *1491:C1 3.00381e-05
5 *1673:A *1725:A 0.000114761
6 *1673:A *573:8 0
7 *1673:A *573:10 0
8 *1673:A *608:6 2.75229e-05
9 *1638:A *1673:A 0.000549239
*RES
1 B[23] *1673:A 16.905 
*END

*D_NET *49 0.00147254
*CONN
*P B[24] I
*I *1674:A I *D sky130_fd_sc_hd__clkdlybuf4s25_1
*CAP
1 B[24] 0.000551557
2 *1674:A 0.000551557
3 *1674:A y[25] 0
4 *1674:A y[28] 0.000102818
5 *1674:A *420:16 5.51245e-05
6 *1674:A *478:16 0
7 *1674:A *574:8 2.75229e-05
8 *1639:A *1674:A 0.000183965
*RES
1 B[24] *1674:A 9.3629 
*END

*D_NET *50 0.00232902
*CONN
*P B[25] I
*I *1676:A I *D sky130_fd_sc_hd__clkdlybuf4s25_1
*CAP
1 B[25] 0.000460382
2 *1676:A 0.000460382
3 *1676:A *1507:B 0.000433003
4 *1676:A *611:10 0.000431333
5 *1640:A *1676:A 0.000543918
*RES
1 B[25] *1676:A 18.06 
*END

*D_NET *51 0.00202395
*CONN
*P B[26] I
*I *1677:A I *D sky130_fd_sc_hd__clkdlybuf4s25_1
*CAP
1 B[26] 0.000275582
2 *1677:A 0.000275582
3 *1677:A y[18] 8.57406e-05
4 *1677:A *1526:B1 0.0001249
5 *1677:A *545:180 8.43862e-05
6 *1632:A *1677:A 0.00012657
7 *1641:A *1677:A 0.000546582
8 *1667:A *1677:A 0.000504609
*RES
1 B[26] *1677:A 16.68 
*END

*D_NET *52 0.00254544
*CONN
*P B[27] I
*I *1678:A I *D sky130_fd_sc_hd__clkdlybuf4s25_1
*CAP
1 B[27] 0.000467452
2 *1678:A 0.000467452
3 *1678:A y[27] 0.000551106
4 *1678:A *1544:B1 7.09921e-05
5 *1678:A *1545:C_N 6.10014e-05
6 *1678:A *1617:A 1.65192e-05
7 *1678:A *1729:A 8.98657e-05
8 *1678:A *464:8 0.00019637
9 *1678:A *554:16 8.88799e-05
10 *1643:A *1678:A 0.000535802
*RES
1 B[27] *1678:A 20.07 
*END

*D_NET *53 0.00110533
*CONN
*P B[28] I
*I *1679:A I *D sky130_fd_sc_hd__clkdlybuf4s25_1
*CAP
1 B[28] 0.000464335
2 *1679:A 0.000464335
3 *1679:A y[29] 8.67192e-05
4 *1645:A *1679:A 8.99386e-05
*RES
1 B[28] *1679:A 11.3504 
*END

*D_NET *54 0.00104342
*CONN
*P B[29] I
*I *1680:A I *D sky130_fd_sc_hd__clkdlybuf4s25_1
*CAP
1 B[29] 0.00015582
2 *1680:A 0.00015582
3 *1680:A *1598:C1 0
4 *1680:A *1682:A 0.000368799
5 *1645:A *1680:A 0.000362984
*RES
1 B[29] *1680:A 5.76463 
*END

*D_NET *55 0.00231223
*CONN
*P B[2] I
*I *1681:A I *D sky130_fd_sc_hd__clkdlybuf4s25_1
*CAP
1 B[2] 0.000900193
2 *1681:A 0.000900193
3 *1681:A y[3] 4.58443e-05
4 *1681:A *1683:A 0.000159318
5 *1681:A *1684:A 0.000110226
6 *1681:A *1710:A 0
7 *1646:A *1681:A 0.000196455
*RES
1 B[2] *1681:A 17.3718 
*END

*D_NET *56 0.000999623
*CONN
*P B[30] I
*I *1682:A I *D sky130_fd_sc_hd__clkdlybuf4s25_1
*CAP
1 B[30] 0.000134586
2 *1682:A 0.000134586
3 *1680:A *1682:A 0.000368799
4 *1698:A *1682:A 0.000361652
*RES
1 B[30] *1682:A 5.25463 
*END

*D_NET *57 0.00188883
*CONN
*P B[31] I
*I *1683:A I *D sky130_fd_sc_hd__clkdlybuf4s25_1
*CAP
1 B[31] 0.000586672
2 *1683:A 0.000586672
3 *1683:A y[16] 0.000149433
4 *1683:A y[3] 0
5 *1683:A *1684:A 0.000208542
6 *1648:A *1683:A 0.000149433
7 *1665:A *1683:A 4.87605e-05
8 *1681:A *1683:A 0.000159318
9 *1697:A *1683:A 0
*RES
1 B[31] *1683:A 15.0802 
*END

*D_NET *58 0.00214803
*CONN
*P B[3] I
*I *1684:A I *D sky130_fd_sc_hd__clkdlybuf4s25_1
*CAP
1 B[3] 0.00085726
2 *1684:A 0.00085726
3 *1684:A y[3] 0.000106327
4 *1684:A *1695:A 0
5 *1681:A *1684:A 0.000110226
6 *1683:A *1684:A 0.000208542
7 *1697:A *1684:A 8.41703e-06
*RES
1 B[3] *1684:A 18.9687 
*END

*D_NET *59 0.0017089
*CONN
*P B[4] I
*I *1685:A I *D sky130_fd_sc_hd__clkdlybuf4s25_1
*CAP
1 B[4] 0.000246083
2 *1685:A 0.000246083
3 *1685:A y[4] 0.000440154
4 *1685:A *1223:A1 7.63204e-05
5 *1685:A *1721:A 0.000233231
6 *1650:A *1685:A 0.000467034
*RES
1 B[4] *1685:A 14.895 
*END

*D_NET *60 0.00181723
*CONN
*P B[5] I
*I *1687:A I *D sky130_fd_sc_hd__clkdlybuf4s25_1
*CAP
1 B[5] 0.000419701
2 *1687:A 0.000419701
3 *1687:A y[5] 0
4 *1687:A y[6] 0.000237249
5 *1687:A *1182:B1 0.000207896
6 *1687:A *1721:A 6.90876e-05
7 *1651:A *1687:A 0.000463596
*RES
1 B[5] *1687:A 15.81 
*END

*D_NET *61 0.00146237
*CONN
*P B[6] I
*I *1688:A I *D sky130_fd_sc_hd__clkdlybuf4s25_1
*CAP
1 B[6] 0.000645634
2 *1688:A 0.000645634
3 *1688:A y[7] 0
4 *1688:A *1151:A 5.4155e-06
5 *1688:A *623:6 5.30673e-05
6 *1688:A *623:21 0.000112622
7 *1652:A *1688:A 0
*RES
1 B[6] *1688:A 15.225 
*END

*D_NET *62 0.00214806
*CONN
*P B[7] I
*I *1689:A I *D sky130_fd_sc_hd__clkdlybuf4s25_1
*CAP
1 B[7] 0.000454247
2 *1689:A 0.000454247
3 *1689:A *1251:B 4.82919e-05
4 *1689:A *1257:B1 0.000271992
5 *1689:A *1257:C1 0.000210151
6 *1689:A *1264:C1 8.08153e-06
7 *1689:A *202:21 4.66108e-05
8 *1689:A *202:40 4.82919e-05
9 *1689:A *624:6 0.000148084
10 *1654:A *1689:A 0.000458064
*RES
1 B[7] *1689:A 16.725 
*END

*D_NET *63 0.00138004
*CONN
*P B[8] I
*I *1690:A I *D sky130_fd_sc_hd__clkdlybuf4s25_1
*CAP
1 B[8] 0.000376663
2 *1690:A 0.000376663
3 *1690:A *1276:A2 8.41307e-05
4 *1690:A *590:25 8.41307e-05
5 *1655:A *1690:A 0.000458451
*RES
1 B[8] *1690:A 13.395 
*END

*D_NET *64 0.00129226
*CONN
*P B[9] I
*I *1691:A I *D sky130_fd_sc_hd__clkdlybuf4s25_1
*CAP
1 B[9] 0.000524485
2 *1691:A 0.000524485
3 *1656:A *1691:A 0.000243294
4 *1658:A *1691:A 0
*RES
1 B[9] *1691:A 12.269 
*END

*D_NET *67 0.00242036
*CONN
*P opCode[0] I
*I *1692:A I *D sky130_fd_sc_hd__clkdlybuf4s25_1
*CAP
1 opCode[0] 0.000527626
2 *1692:A 0.000527626
3 *1692:A statusOut 0
4 *1692:A *1577:B 3.17287e-05
5 *1692:A *1589:A2 2.85364e-05
6 *1692:A *1600:A 5.87974e-05
7 *1692:A *1693:A 0.000403819
8 *1692:A *505:19 4.10051e-05
9 *1692:A *600:20 0.000391325
10 *1692:A *643:26 0.000323182
11 *1647:A *1692:A 0
12 *1665:A *1692:A 8.67192e-05
*RES
1 opCode[0] *1692:A 6.75517 
*END

*D_NET *68 0.00267588
*CONN
*P opCode[1] I
*I *1693:A I *D sky130_fd_sc_hd__clkdlybuf4s25_1
*CAP
1 opCode[1] 0.000519918
2 *1693:A 0.000519918
3 *1693:A y[30] 2.0117e-05
4 *1693:A *1391:A 2.49909e-05
5 *1693:A *1577:A 0
6 *1693:A *1600:A 4.05129e-06
7 *1693:A *1694:A 0.000419419
8 *1693:A *1733:A 0.000345347
9 *1693:A *582:31 3.47837e-05
10 *1693:A *654:10 7.84791e-05
11 *1647:A *1693:A 2.58171e-05
12 *1666:A *1693:A 0.00027922
13 *1692:A *1693:A 0.000403819
*RES
1 opCode[1] *1693:A 13.9812 
*END

*D_NET *69 0.00170864
*CONN
*P opCode[2] I
*I *1694:A I *D sky130_fd_sc_hd__clkdlybuf4s25_1
*CAP
1 opCode[2] 0.000463785
2 *1694:A 0.000463785
3 *1694:A *1600:A 0
4 *1694:A *1602:B 0
5 *1647:A *1694:A 0.000361652
6 *1693:A *1694:A 0.000419419
*RES
1 opCode[2] *1694:A 10.6096 
*END

*D_NET *70 0.00191283
*CONN
*P statusIn[0] I
*I *1695:A I *D sky130_fd_sc_hd__clkdlybuf4s25_1
*CAP
1 statusIn[0] 0.000624246
2 *1695:A 0.000624246
3 *1695:A y[0] 0.000163084
4 *1695:A *1173:A1 2.15271e-05
5 *1695:A *1173:A2 3.00381e-05
6 *1695:A *1173:B1_N 5.98172e-05
7 *1695:A *1710:A 4.82919e-05
8 *1657:A *1695:A 0.000341577
9 *1684:A *1695:A 0
*RES
1 statusIn[0] *1695:A 12.4298 
*END

*D_NET *73 0.0022917
*CONN
*P statusOut O
*I *1709:X O *D sky130_fd_sc_hd__clkdlybuf4s25_1
*CAP
1 statusOut 0.000747452
2 *1709:X 0.000747452
3 statusOut y[16] 0.000164293
4 statusOut y[31] 0.000438733
5 statusOut *1580:B 1.44071e-06
6 statusOut *1608:B1 2.05641e-05
7 statusOut *505:19 9.58678e-06
8 statusOut *643:26 8.92684e-05
9 *1665:A statusOut 9.70043e-06
10 *1692:A statusOut 0
11 *1697:A statusOut 6.32125e-05
*RES
1 *1709:X statusOut 6.41997 
*END

*D_NET *74 0.00318839
*CONN
*P y[0] O
*I *1710:X O *D sky130_fd_sc_hd__clkdlybuf4s25_1
*CAP
1 y[0] 0.00124886
2 *1710:X 0.00124886
3 y[0] y[2] 0
4 y[0] *1173:A1 0
5 y[0] *1176:A2 1.60268e-05
6 y[0] *1192:B 5.12581e-05
7 y[0] *1710:A 0.000287141
8 y[0] *1735:A 7.71138e-05
9 y[0] *114:28 9.60445e-05
10 *1657:A y[0] 0
11 *1695:A y[0] 0.000163084
*RES
1 *1710:X y[0] 8.13917 
*END

*D_NET *75 0.00295455
*CONN
*P y[10] O
*I *1711:X O *D sky130_fd_sc_hd__clkdlybuf4s25_1
*CAP
1 y[10] 0.000421534
2 *1711:X 0.000421534
3 y[10] y[11] 0.00028294
4 y[10] y[12] 0.000405882
5 y[10] *1286:A1 0.000374754
6 *1642:A y[10] 0.000277913
7 *1658:A y[10] 0.000769992
*RES
1 *1711:X y[10] 15.1818 
*END

*D_NET *76 0.00221133
*CONN
*P y[11] O
*I *1712:X O *D sky130_fd_sc_hd__clkdlybuf4s25_1
*CAP
1 y[11] 0.000915051
2 *1712:X 0.000915051
3 y[11] y[12] 0
4 y[11] *1286:A1 1.88656e-05
5 y[11] *263:12 4.95285e-06
6 y[11] *553:108 1.88656e-05
7 y[11] *559:28 4.03905e-05
8 y[11] *598:18 0
9 y[10] y[11] 0.00028294
10 *1642:A y[11] 1.52121e-05
11 *1660:A y[11] 0
*RES
1 *1712:X y[11] 6.44023 
*END

*D_NET *77 0.00221536
*CONN
*P y[12] O
*I *1713:X O *D sky130_fd_sc_hd__clkdlybuf4s25_1
*CAP
1 y[12] 0.000683612
2 *1713:X 0.000683612
3 y[12] y[13] 6.06593e-05
4 y[12] *1301:A2 0
5 y[12] *1713:A 0
6 y[10] y[12] 0.000405882
7 y[11] y[12] 0
8 *1642:A y[12] 8.16204e-05
9 *1660:A y[12] 0.00029997
10 *1663:A y[12] 0
*RES
1 *1713:X y[12] 14.5651 
*END

*D_NET *78 0.00158459
*CONN
*P y[13] O
*I *1714:X O *D sky130_fd_sc_hd__clkdlybuf4s25_1
*CAP
1 y[13] 0.000443618
2 *1714:X 0.000443618
3 y[13] y[15] 5.89925e-05
4 y[13] *1348:B 0.00014654
5 y[13] *1713:A 0
6 y[13] *549:47 0
7 y[12] y[13] 6.06593e-05
8 *1661:A y[13] 0
9 *1663:A y[13] 0
10 *1664:A y[13] 0.000105108
11 *1696:A y[13] 0.000326055
*RES
1 *1714:X y[13] 10.1984 
*END

*D_NET *79 0.00089516
*CONN
*P y[14] O
*I *1715:X O *D sky130_fd_sc_hd__clkdlybuf4s25_1
*CAP
1 y[14] 0.000409117
2 *1715:X 0.000409117
3 y[14] y[19] 5.11015e-05
4 *1633:A y[14] 2.58237e-05
*RES
1 *1715:X y[14] 10.0692 
*END

*D_NET *80 0.00164023
*CONN
*P y[15] O
*I *1716:X O *D sky130_fd_sc_hd__clkdlybuf4s25_1
*CAP
1 y[15] 0.000412097
2 *1716:X 0.000412097
3 y[15] *1348:B 7.8226e-05
4 y[15] *1349:A1_N 0
5 y[13] y[15] 5.89925e-05
6 *1661:A y[15] 0.000325745
7 *1664:A y[15] 4.92062e-05
8 *1675:A y[15] 0.000303869
*RES
1 *1716:X y[15] 10.4851 
*END

*D_NET *81 0.00243314
*CONN
*P y[16] O
*I *1717:X O *D sky130_fd_sc_hd__clkdlybuf4s25_1
*CAP
1 y[16] 0.000524705
2 *1717:X 0.000524705
3 y[16] y[31] 0.00045502
4 y[16] *1580:B 6.1443e-05
5 y[16] *1608:A1 2.63223e-05
6 y[16] *1734:A 0.000244929
7 y[16] *555:18 9.26907e-06
8 y[16] *643:26 0
9 statusOut y[16] 0.000164293
10 *1648:A y[16] 0.000273025
11 *1683:A y[16] 0.000149433
*RES
1 *1717:X y[16] 6.5365 
*END

*D_NET *82 0.00136913
*CONN
*P y[17] O
*I *1718:X O *D sky130_fd_sc_hd__clkdlybuf4s25_1
*CAP
1 y[17] 0.000418942
2 *1718:X 0.000418942
3 y[17] y[27] 0.000531243
*RES
1 *1718:X y[17] 14.1 
*END

*D_NET *83 0.00272801
*CONN
*P y[18] O
*I *1719:X O *D sky130_fd_sc_hd__clkdlybuf4s25_1
*CAP
1 y[18] 0.000966111
2 *1719:X 0.000966111
3 y[18] y[26] 0
4 y[18] *1719:A 7.35729e-05
5 y[18] *1728:A 0
6 *1632:A y[18] 0.000608955
7 *1641:A y[18] 2.75229e-05
8 *1677:A y[18] 8.57406e-05
*RES
1 *1719:X y[18] 20.655 
*END

*D_NET *84 0.000950773
*CONN
*P y[19] O
*I *1720:X O *D sky130_fd_sc_hd__clkdlybuf4s25_1
*CAP
1 y[19] 0.000282353
2 *1720:X 0.000282353
3 y[14] y[19] 5.11015e-05
4 *1633:A y[19] 0
5 *1662:A y[19] 2.19868e-05
6 *1675:A y[19] 0
7 *1686:A y[19] 0.000312979
*RES
1 *1720:X y[19] 6.11837 
*END

*D_NET *85 0.00179881
*CONN
*P y[1] O
*I *1721:X O *D sky130_fd_sc_hd__clkdlybuf4s25_1
*CAP
1 y[1] 0.000802774
2 *1721:X 0.000802774
3 y[1] *1721:A 0.000193259
*RES
1 *1721:X y[1] 17.28 
*END

*D_NET *86 0.00173526
*CONN
*P y[20] O
*I *1722:X O *D sky130_fd_sc_hd__clkdlybuf4s25_1
*CAP
1 y[20] 0.000559397
2 *1722:X 0.000559397
3 y[20] *1433:B 0.000186083
4 y[20] *1455:A1 0
5 *1668:A y[20] 0.000365912
6 *1670:A y[20] 6.44676e-05
*RES
1 *1722:X y[20] 9.25277 
*END

*D_NET *87 0.00121336
*CONN
*P y[21] O
*I *1723:X O *D sky130_fd_sc_hd__clkdlybuf4s25_1
*CAP
1 y[21] 0.000542431
2 *1723:X 0.000542431
3 y[21] *606:10 8.65961e-05
4 y[21] *606:50 1.4389e-05
5 *1636:A y[21] 0
6 *1671:A y[21] 2.75145e-05
*RES
1 *1723:X y[21] 9.19683 
*END

*D_NET *88 0.00121278
*CONN
*P y[22] O
*I *1724:X O *D sky130_fd_sc_hd__clkdlybuf4s25_1
*CAP
1 y[22] 0.000605622
2 *1724:X 0.000605622
3 y[22] *572:10 1.54061e-06
4 *1637:A y[22] 0
*RES
1 *1724:X y[22] 14.1 
*END

*D_NET *89 0.00146346
*CONN
*P y[23] O
*I *1725:X O *D sky130_fd_sc_hd__clkdlybuf4s25_1
*CAP
1 y[23] 0.000731728
2 *1725:X 0.000731728
3 *1673:A y[23] 0
*RES
1 *1725:X y[23] 15.48 
*END

*D_NET *90 0.00268187
*CONN
*P y[24] O
*I *1726:X O *D sky130_fd_sc_hd__clkdlybuf4s25_1
*CAP
1 y[24] 0.00100495
2 *1726:X 0.00100495
3 y[24] y[26] 0
4 y[24] *1507:B 4.00257e-05
5 y[24] *1526:A1 0
6 y[24] *1526:A2 0
7 y[24] *1527:C 4.56031e-05
8 y[24] *1529:A1 0.00048243
9 y[24] *1728:A 0
10 y[24] *611:10 0.000103919
*RES
1 *1726:X y[24] 18.2972 
*END

*D_NET *91 0.000968418
*CONN
*P y[25] O
*I *1727:X O *D sky130_fd_sc_hd__clkdlybuf4s25_1
*CAP
1 y[25] 0.000484209
2 *1727:X 0.000484209
3 y[25] *1727:A 0
4 y[25] *420:16 0
5 *1674:A y[25] 0
*RES
1 *1727:X y[25] 7.29463 
*END

*D_NET *92 0.00298533
*CONN
*P y[26] O
*I *1728:X O *D sky130_fd_sc_hd__clkdlybuf4s25_1
*CAP
1 y[26] 0.00110985
2 *1728:X 0.00110985
3 y[26] *1728:A 2.66935e-05
4 y[26] *545:180 7.03516e-05
5 y[26] *611:10 0.00038879
6 y[18] y[26] 0
7 y[24] y[26] 0
8 *1632:A y[26] 0.000279787
*RES
1 *1728:X y[26] 21.345 
*END

*D_NET *93 0.00161087
*CONN
*P y[27] O
*I *1729:X O *D sky130_fd_sc_hd__clkdlybuf4s25_1
*CAP
1 y[27] 0.000264263
2 *1729:X 0.000264263
3 y[17] y[27] 0.000531243
4 *1678:A y[27] 0.000551106
*RES
1 *1729:X y[27] 14.955 
*END

*D_NET *94 0.000919984
*CONN
*P y[28] O
*I *1730:X O *D sky130_fd_sc_hd__clkdlybuf4s25_1
*CAP
1 y[28] 0.000316601
2 *1730:X 0.000316601
3 y[28] *478:16 0
4 *1639:A y[28] 0.000183965
5 *1644:A y[28] 0
6 *1674:A y[28] 0.000102818
*RES
1 *1730:X y[28] 6.27463 
*END

*D_NET *95 0.00150527
*CONN
*P y[29] O
*I *1731:X O *D sky130_fd_sc_hd__clkdlybuf4s25_1
*CAP
1 y[29] 0.000370813
2 *1731:X 0.000370813
3 y[29] *1154:A 0.000105911
4 y[29] *1584:A1 2.38115e-05
5 y[29] *582:39 0
6 y[29] *617:85 2.37321e-05
7 *1644:A y[29] 0.0003649
8 *1645:A y[29] 0.000158569
9 *1679:A y[29] 8.67192e-05
*RES
1 *1731:X y[29] 6.74077 
*END

*D_NET *96 0.00342368
*CONN
*P y[2] O
*I *1732:X O *D sky130_fd_sc_hd__clkdlybuf4s25_1
*CAP
1 y[2] 0.000815082
2 *1732:X 0.000815082
3 y[2] y[3] 0
4 y[2] *1195:B1 0.000431821
5 y[2] *560:18 0.000571255
6 y[2] *619:24 0.000308724
7 y[0] y[2] 0
8 *1631:A y[2] 4.21973e-05
9 *1646:A y[2] 0.000439514
*RES
1 *1732:X y[2] 15.731 
*END

*D_NET *97 0.00125199
*CONN
*P y[30] O
*I *1733:X O *D sky130_fd_sc_hd__clkdlybuf4s25_1
*CAP
1 y[30] 0.000236285
2 *1733:X 0.000236285
3 *1666:A y[30] 0.000369887
4 *1693:A y[30] 2.0117e-05
5 *1698:A y[30] 0.000389416
*RES
1 *1733:X y[30] 7.17637 
*END

*D_NET *98 0.00223495
*CONN
*P y[31] O
*I *1734:X O *D sky130_fd_sc_hd__clkdlybuf4s25_1
*CAP
1 y[31] 0.000557803
2 *1734:X 0.000557803
3 y[31] y[3] 0
4 y[31] *1602:B 0.000127903
5 y[31] *555:59 2.46089e-05
6 y[31] *560:18 3.1562e-06
7 y[31] *600:20 4.49328e-05
8 y[31] *643:26 2.49909e-05
9 statusOut y[31] 0.000438733
10 y[16] y[31] 0.00045502
*RES
1 *1734:X y[31] 11.5627 
*END

*D_NET *99 0.00208281
*CONN
*P y[3] O
*I *1735:X O *D sky130_fd_sc_hd__clkdlybuf4s25_1
*CAP
1 y[3] 0.000736557
2 *1735:X 0.000736557
3 y[3] *1195:B1 0
4 y[3] *1710:A 0.000103668
5 y[3] *555:59 0
6 y[3] *560:18 0
7 y[2] y[3] 0
8 y[31] y[3] 0
9 *1646:A y[3] 0
10 *1648:A y[3] 0.000353854
11 *1681:A y[3] 4.58443e-05
12 *1683:A y[3] 0
13 *1684:A y[3] 0.000106327
*RES
1 *1735:X y[3] 13.9246 
*END

*D_NET *100 0.00127422
*CONN
*P y[4] O
*I *1736:X O *D sky130_fd_sc_hd__clkdlybuf4s25_1
*CAP
1 y[4] 0.000392891
2 *1736:X 0.000392891
3 y[4] *1721:A 4.82863e-05
4 *1685:A y[4] 0.000440154
*RES
1 *1736:X y[4] 12.885 
*END

*D_NET *101 0.00210571
*CONN
*P y[5] O
*I *1737:X O *D sky130_fd_sc_hd__clkdlybuf4s25_1
*CAP
1 y[5] 0.00081954
2 *1737:X 0.00081954
3 y[5] *180:20 6.95739e-05
4 y[5] *555:98 0.000192125
5 y[5] *584:10 2.9031e-05
6 y[5] *586:12 8.34493e-05
7 y[5] *622:12 9.24545e-05
8 *1634:A y[5] 0
9 *1651:A y[5] 0
10 *1687:A y[5] 0
*RES
1 *1737:X y[5] 18 
*END

*D_NET *102 0.00198049
*CONN
*P y[6] O
*I *1738:X O *D sky130_fd_sc_hd__clkdlybuf4s25_1
*CAP
1 y[6] 0.000412241
2 *1738:X 0.000412241
3 y[6] *1182:B1 9.80032e-06
4 y[6] *1247:B1 2.97004e-06
5 y[6] *1721:A 0.000385338
6 y[6] *1738:A 6.97202e-05
7 *1649:A y[6] 0
8 *1651:A y[6] 0.000450933
9 *1687:A y[6] 0.000237249
*RES
1 *1738:X y[6] 15.9 
*END

*D_NET *103 0.0017063
*CONN
*P y[7] O
*I *1739:X O *D sky130_fd_sc_hd__clkdlybuf4s25_1
*CAP
1 y[7] 0.000781816
2 *1739:X 0.000781816
3 y[7] *1258:B1 0
4 y[7] *202:40 0.000142669
5 y[7] *623:21 0
6 *1688:A y[7] 0
*RES
1 *1739:X y[7] 16.305 
*END

*D_NET *104 0.00230073
*CONN
*P y[8] O
*I *1707:X O *D sky130_fd_sc_hd__clkdlybuf4s25_1
*CAP
1 y[8] 0.000579781
2 *1707:X 0.000579781
3 y[8] *1250:B 0
4 y[8] *1256:A1 4.11198e-05
5 y[8] *1256:B1 7.70938e-05
6 y[8] *1277:A2 5.36384e-06
7 y[8] *1277:B1 0.000448214
8 *1653:A y[8] 0.000569372
9 *1659:A y[8] 0
*RES
1 *1707:X y[8] 18.66 
*END

*D_NET *105 0.000836208
*CONN
*P y[9] O
*I *1708:X O *D sky130_fd_sc_hd__clkdlybuf4s25_1
*CAP
1 y[9] 0.000388608
2 *1708:X 0.000388608
3 y[9] *1288:B1 5.89925e-05
*RES
1 *1708:X y[9] 6.11837 
*END

*D_NET *106 0.00703763
*CONN
*I *1177:A1 I *D sky130_fd_sc_hd__a21oi_2
*I *1189:A1 I *D sky130_fd_sc_hd__a31o_2
*I *1148:Y O *D sky130_fd_sc_hd__inv_2
*CAP
1 *1177:A1 5.75911e-05
2 *1189:A1 0.00031789
3 *1148:Y 0.00126144
4 *106:14 0.00163693
5 *1177:A1 *1177:B1 6.05614e-05
6 *1177:A1 *172:24 8.23457e-05
7 *1177:A1 *563:26 4.41506e-05
8 *1177:A1 *584:10 6.83304e-05
9 *1189:A1 *1156:B 0.00027517
10 *1189:A1 *1177:B1 0.000141825
11 *1189:A1 *1189:A3 1.69273e-05
12 *1189:A1 *1229:A 1.83114e-05
13 *1189:A1 *145:18 9.41235e-05
14 *1189:A1 *563:45 0.000346389
15 *1189:A1 *584:10 0.000140522
16 *1189:A1 *592:55 0.000256172
17 *106:14 *1183:A 8.53113e-06
18 *106:14 *1194:A2 0.000265765
19 *106:14 *1203:C1 3.63576e-05
20 *106:14 *1218:A2 2.1553e-05
21 *106:14 *1592:A 0.000278473
22 *106:14 *1594:A 4.33239e-05
23 *106:14 *1594:B 0.00036516
24 *106:14 *140:31 7.41442e-05
25 *106:14 *154:8 0.000196873
26 *106:14 *519:21 0
27 *106:14 *520:12 0.000111293
28 *106:14 *535:58 0.00021464
29 *106:14 *535:66 9.50342e-06
30 *106:14 *563:26 0.000553433
31 *106:14 *563:136 0
32 *106:14 *630:10 3.99039e-05
*RES
1 *1148:Y *106:14 28.315 
2 *106:14 *1189:A1 7.70373 
3 *106:14 *1177:A1 5.265 
*END

*D_NET *107 0.00182662
*CONN
*I *1230:A1 I *D sky130_fd_sc_hd__a21oi_2
*I *1241:A1 I *D sky130_fd_sc_hd__a31o_2
*I *1149:Y O *D sky130_fd_sc_hd__inv_2
*CAP
1 *1230:A1 0
2 *1241:A1 0.000341738
3 *1149:Y 0.000206272
4 *107:10 0.000548011
5 *1241:A1 *1149:A 0.000147874
6 *1241:A1 *1171:A2 1.59079e-05
7 *1241:A1 *1176:A1 2.53191e-06
8 *1241:A1 *1224:B2 1.75385e-05
9 *1241:A1 *1244:A2 0
10 *1241:A1 *131:20 0.0001619
11 *1241:A1 *181:33 2.75145e-05
12 *107:10 *1149:A 0.000165756
13 *107:10 *1323:A1 8.23457e-05
14 *107:10 *131:20 6.26178e-05
15 *107:10 *563:26 4.66108e-05
*RES
1 *1149:Y *107:10 7.065 
2 *107:10 *1241:A1 9.555 
3 *107:10 *1230:A1 3.6 
*END

*D_NET *108 0.000392682
*CONN
*I *1269:A1 I *D sky130_fd_sc_hd__a31o_2
*I *1150:Y O *D sky130_fd_sc_hd__inv_2
*CAP
1 *1269:A1 0.000136093
2 *1150:Y 0.000136093
3 *1269:A1 *1255:B 4.21666e-05
4 *1269:A1 *1269:A2 4.82919e-05
5 *1269:A1 *1269:B1 3.00381e-05
*RES
1 *1150:Y *1269:A1 5.03 
*END

*D_NET *109 0.00143828
*CONN
*I *1254:A2 I *D sky130_fd_sc_hd__o311a_2
*I *1151:Y O *D sky130_fd_sc_hd__inv_2
*CAP
1 *1254:A2 0.000517503
2 *1151:Y 0.000517503
3 *1254:A2 *1223:A1 0
4 *1254:A2 *1264:C1 0
5 *1254:A2 *189:25 0.000140905
6 *1254:A2 *587:12 0.000160635
7 *1254:A2 *623:21 4.60584e-05
8 *1650:A *1254:A2 3.72916e-05
9 *1652:A *1254:A2 1.83847e-05
*RES
1 *1151:Y *1254:A2 14.865 
*END

*D_NET *110 0.00106596
*CONN
*I *1349:A1_N I *D sky130_fd_sc_hd__o2bb2a_2
*I *1350:B1 I *D sky130_fd_sc_hd__a2bb2o_2
*I *1152:Y O *D sky130_fd_sc_hd__inv_2
*CAP
1 *1349:A1_N 0.000304652
2 *1350:B1 0
3 *1152:Y 4.68726e-05
4 *110:6 0.000351525
5 *1349:A1_N *1152:A 3.83041e-05
6 *1349:A1_N *1348:B 0
7 *1349:A1_N *1349:A2_N 7.50953e-06
8 *1349:A1_N *1349:B1 0.000244938
9 *1349:A1_N *1349:B2 2.21923e-05
10 *110:6 *1152:A 4.99619e-05
11 y[15] *1349:A1_N 0
*RES
1 *1152:Y *110:6 2.395 
2 *110:6 *1350:B1 1.6 
3 *110:6 *1349:A1_N 11.4725 
*END

*D_NET *111 0.000812372
*CONN
*I *1384:A1 I *D sky130_fd_sc_hd__a221o_2
*I *1153:Y O *D sky130_fd_sc_hd__inv_2
*CAP
1 *1384:A1 0.000271555
2 *1153:Y 0.000271555
3 *1384:A1 *1153:A 0.000161837
4 *1384:A1 *1384:C1 0
5 *1384:A1 *598:31 9.5433e-05
6 *1384:A1 *632:12 1.19928e-05
*RES
1 *1153:Y *1384:A1 11.19 
*END

*D_NET *112 0.000976724
*CONN
*I *1584:A2 I *D sky130_fd_sc_hd__o31a_2
*I *1571:A2 I *D sky130_fd_sc_hd__o221a_2
*I *1154:Y O *D sky130_fd_sc_hd__inv_2
*CAP
1 *1584:A2 5.01772e-05
2 *1571:A2 4.52561e-05
3 *1154:Y 6.20239e-05
4 *112:6 0.000157457
5 *1571:A2 *1571:B1 3.69837e-05
6 *1571:A2 *580:6 8.23457e-05
7 *1571:A2 *580:12 4.35648e-05
8 *1584:A2 *490:30 0.000156607
9 *1584:A2 *523:14 0.000158488
10 *112:6 *1571:B1 6.03947e-06
11 *112:6 *1584:A1 3.48406e-05
12 *112:6 *580:6 0.00014294
*RES
1 *1154:Y *112:6 3.085 
2 *112:6 *1571:A2 2.755 
3 *112:6 *1584:A2 7.49 
*END

*D_NET *113 0.000613974
*CONN
*I *1606:B1 I *D sky130_fd_sc_hd__o32ai_2
*I *1155:Y O *D sky130_fd_sc_hd__inv_2
*CAP
1 *1606:B1 0.000185493
2 *1155:Y 0.000185493
3 *1606:B1 *1577:A 0
4 *1606:B1 *1577:B 0.000136884
5 *1606:B1 *1606:A3 9.50342e-06
6 *1606:B1 *629:6 9.66021e-05
*RES
1 *1155:Y *1606:B1 10.32 
*END

*D_NET *114 0.00964581
*CONN
*I *1187:A I *D sky130_fd_sc_hd__or2_2
*I *1199:A1 I *D sky130_fd_sc_hd__o31a_2
*I *1172:B2 I *D sky130_fd_sc_hd__o221a_2
*I *1178:A1 I *D sky130_fd_sc_hd__a31o_2
*I *1156:Y O *D sky130_fd_sc_hd__nand2_2
*CAP
1 *1187:A 0.000119995
2 *1199:A1 5.80092e-05
3 *1172:B2 0.000640506
4 *1178:A1 0.000140192
5 *1156:Y 0.000217252
6 *114:28 0.00123385
7 *114:22 0.00116959
8 *114:12 0.000995671
9 *1172:B2 *1172:B1 7.68906e-05
10 *1172:B2 *1227:B 6.52265e-05
11 *1172:B2 *117:38 5.97883e-06
12 *1172:B2 *139:16 7.30547e-05
13 *1172:B2 *555:63 0
14 *1172:B2 *555:71 9.50342e-06
15 *1172:B2 *592:51 0.000230429
16 *1178:A1 *1178:A2 8.6625e-05
17 *1178:A1 *1181:A1 8.93004e-05
18 *1178:A1 *180:20 8.8266e-05
19 *1178:A1 *550:163 9.28013e-05
20 *1187:A *1206:A 3.66286e-05
21 *1187:A *1207:C1 1.91597e-05
22 *1187:A *545:51 0.00015747
23 *1199:A1 *1199:A2 0.000263412
24 *1199:A1 *140:31 0.000189564
25 *1199:A1 *154:8 2.01934e-05
26 *114:12 *1156:A 4.87465e-06
27 *114:12 *1174:A 1.56428e-05
28 *114:12 *1174:B 0
29 *114:12 *1206:B 0.000103431
30 *114:12 *1213:A 2.0851e-06
31 *114:12 *1213:B 0
32 *114:12 *131:20 0.000124311
33 *114:22 *1184:A 0.00109124
34 *114:22 *1184:B 3.98864e-05
35 *114:22 *1191:A3 8.72865e-05
36 *114:22 *1199:A2 5.69248e-06
37 *114:22 *1204:B1 0
38 *114:22 *1206:B 4.77148e-05
39 *114:22 *1213:A 5.05066e-06
40 *114:22 *1603:A 0
41 *114:22 *1613:A 1.32141e-05
42 *114:22 *1735:A 0.000396852
43 *114:22 *115:24 0.000115337
44 *114:22 *131:20 1.93765e-05
45 *114:22 *140:20 0.000287414
46 *114:22 *153:27 7.35057e-05
47 *114:28 *1173:A2 0
48 *114:28 *1178:A2 2.34691e-05
49 *114:28 *1190:A2 7.91333e-05
50 *114:28 *1192:B 5.77377e-07
51 *114:28 *1199:A2 7.27402e-06
52 *114:28 *1201:B1 8.74464e-05
53 *114:28 *1203:A2 0.000297448
54 *114:28 *116:33 4.36573e-06
55 *114:28 *117:38 0.00026001
56 *114:28 *140:20 2.8531e-05
57 *114:28 *145:18 3.76132e-05
58 *114:28 *157:12 0
59 *114:28 *550:163 0.000128943
60 y[0] *114:28 9.60445e-05
61 *1657:A *1172:B2 8.247e-05
*RES
1 *1156:Y *114:12 7.08 
2 *114:12 *114:22 6.79907 
3 *114:22 *114:28 10.605 
4 *114:28 *1178:A1 6.54 
5 *114:28 *1172:B2 15.925 
6 *114:22 *1199:A1 6.135 
7 *114:12 *1187:A 6.135 
*END

*D_NET *115 0.00959268
*CONN
*I *1159:B I *D sky130_fd_sc_hd__nand2_2
*I *1164:A2 I *D sky130_fd_sc_hd__o21a_2
*I *1157:X O *D sky130_fd_sc_hd__xor2_2
*CAP
1 *1159:B 0.000310166
2 *1164:A2 0
3 *1157:X 0.00364437
4 *115:24 0.00395454
5 *1159:B *1159:A 4.82863e-05
6 *1159:B *1174:B 0.000137689
7 *1159:B *1196:A 1.1071e-05
8 *1159:B *1196:B 3.08152e-05
9 *1159:B *1605:A2 3.70488e-05
10 *1159:B *550:24 7.65363e-05
11 *1159:B *557:21 0.00033137
12 *1159:B *560:151 0
13 *115:24 *1157:A 0
14 *115:24 *1157:B 0
15 *115:24 *1174:B 4.22926e-05
16 *115:24 *1178:B1 3.3616e-05
17 *115:24 *1181:A2 7.61574e-05
18 *115:24 *1191:A3 8.61866e-05
19 *115:24 *1196:A 2.06578e-05
20 *115:24 *153:27 3.61873e-05
21 *115:24 *560:24 0.000600354
22 *115:24 *566:30 0
23 *114:22 *115:24 0.000115337
*RES
1 *1157:X *115:24 13.5593 
2 *115:24 *1164:A2 3.6 
3 *115:24 *1159:B 10.335 
*END

*D_NET *116 0.00728177
*CONN
*I *1202:B I *D sky130_fd_sc_hd__and4_2
*I *1190:A2 I *D sky130_fd_sc_hd__a311oi_2
*I *1176:A2 I *D sky130_fd_sc_hd__a21o_2
*I *1172:A1 I *D sky130_fd_sc_hd__o221a_2
*I *1158:Y O *D sky130_fd_sc_hd__xnor2_2
*CAP
1 *1202:B 0
2 *1190:A2 7.00605e-05
3 *1176:A2 0.000788487
4 *1172:A1 0.000174167
5 *1158:Y 3.84011e-05
6 *116:33 0.000966866
7 *116:27 0.000461625
8 *116:8 0.000565875
9 *1172:A1 *1172:B1 2.60787e-05
10 *1172:A1 *1195:A1 0
11 *1176:A2 *1172:C1 0
12 *1176:A2 *1176:A1 4.12756e-05
13 *1176:A2 *1180:B1 0.000535256
14 *1176:A2 *1181:A2 1.55893e-05
15 *1176:A2 *1191:A3 8.9328e-06
16 *1176:A2 *131:20 0.000328248
17 *1176:A2 *145:18 1.34936e-05
18 *1176:A2 *193:22 3.96153e-05
19 *1176:A2 *535:16 0.00134473
20 *1190:A2 *1192:B 0.00016185
21 *116:8 *1183:B 3.30343e-05
22 *116:8 *139:16 6.72143e-05
23 *116:27 *1172:C1 8.34204e-05
24 *116:27 *1183:B 9.89899e-05
25 *116:27 *139:16 0.000372998
26 *116:27 *521:10 8.40213e-05
27 *116:27 *616:8 0.00011686
28 *116:33 *1192:B 6.27968e-05
29 *116:33 *1202:C 0.000232111
30 *116:33 *117:38 5.30242e-05
31 *116:33 *535:58 1.19928e-05
32 y[0] *1176:A2 1.60268e-05
33 *1631:A *116:27 0.000166249
34 *1631:A *116:33 0.000128545
35 *1657:A *1172:A1 9.04332e-05
36 *114:28 *1190:A2 7.91333e-05
37 *114:28 *116:33 4.36573e-06
*RES
1 *1158:Y *116:8 4.47 
2 *116:8 *1172:A1 6.15 
3 *116:8 *116:27 9.995 
4 *116:27 *116:33 5.2625 
5 *116:33 *1176:A2 7.5727 
6 *116:33 *1190:A2 5.6175 
7 *116:27 *1202:B 1.6 
*END

*D_NET *117 0.00883007
*CONN
*I *1216:A I *D sky130_fd_sc_hd__or4_2
*I *1186:A1 I *D sky130_fd_sc_hd__o21a_2
*I *1173:A1 I *D sky130_fd_sc_hd__a21bo_2
*I *1178:A2 I *D sky130_fd_sc_hd__a31o_2
*I *1159:Y O *D sky130_fd_sc_hd__nand2_2
*CAP
1 *1216:A 0
2 *1186:A1 6.61396e-05
3 *1173:A1 0.000638218
4 *1178:A2 0.000166725
5 *1159:Y 0.000764299
6 *117:38 0.00120884
7 *117:22 0.000573509
8 *117:20 0.000867771
9 *1173:A1 *1172:C1 0.000629322
10 *1173:A1 *1173:A2 4.35648e-05
11 *1173:A1 *555:63 1.7635e-05
12 *1173:A1 *555:71 4.14001e-05
13 *1173:A1 *560:24 1.93372e-05
14 *1178:A2 *1179:B 4.56073e-05
15 *1178:A2 *1192:B 7.86172e-05
16 *1186:A1 *1186:A2 2.49909e-05
17 *1186:A1 *142:6 5.83121e-06
18 *1186:A1 *619:24 5.12793e-05
19 *1186:A1 *630:35 0.000107535
20 *117:20 *1159:A 8.10701e-05
21 *117:20 *1177:A2 0.000139441
22 *117:20 *1205:B 0.000197566
23 *117:20 *1207:A2 0
24 *117:20 *1207:B1 6.63966e-05
25 *117:20 *1216:D 7.86882e-05
26 *117:20 *1603:A 0.000302559
27 *117:20 *1613:A 0.000101912
28 *117:20 *1734:A 0.000325591
29 *117:20 *140:20 3.97171e-05
30 *117:20 *153:12 5.53549e-06
31 *117:20 *545:39 0.000638841
32 *117:20 *563:20 0.000195741
33 *117:20 *592:51 2.03253e-05
34 *117:22 *1216:C 4.7878e-05
35 *117:22 *1217:B 9.9732e-05
36 *117:22 *1603:A 8.7152e-06
37 *117:22 *156:10 5.5995e-05
38 *117:38 *1173:A2 0
39 *117:38 *1192:B 0.000108844
40 *117:38 *1202:C 9.95705e-05
41 *117:38 *1217:B 0.000152485
42 *117:38 *535:16 2.63322e-05
43 *117:38 *535:58 0.000202148
44 *117:38 *544:63 2.20732e-05
45 *117:38 *604:40 1.16578e-05
46 y[0] *1173:A1 0
47 *1172:B2 *117:38 5.97883e-06
48 *1178:A1 *1178:A2 8.6625e-05
49 *1695:A *1173:A1 2.15271e-05
50 *114:28 *1178:A2 2.34691e-05
51 *114:28 *117:38 0.00026001
52 *116:33 *117:38 5.30242e-05
*RES
1 *1159:Y *117:20 16.5716 
2 *117:20 *117:22 1.89 
3 *117:22 *117:38 13.3975 
4 *117:38 *1178:A2 6.8325 
5 *117:38 *1173:A1 7.21737 
6 *117:22 *1186:A1 5.43 
7 *117:20 *1216:A 3.6 
*END

*D_NET *118 0.0106642
*CONN
*I *1600:A I *D sky130_fd_sc_hd__or2_2
*I *1571:C1 I *D sky130_fd_sc_hd__o221a_2
*I *1586:S I *D sky130_fd_sc_hd__mux2_1
*I *1609:A1 I *D sky130_fd_sc_hd__a21o_2
*I *1628:A I *D sky130_fd_sc_hd__clkdlybuf4s25_1
*I *1160:Y O *D sky130_fd_sc_hd__nor3b_2
*CAP
1 *1600:A 0.000645748
2 *1571:C1 0.000560564
3 *1586:S 1.88655e-05
4 *1609:A1 0
5 *1628:A 0.000640625
6 *1160:Y 0.000112533
7 *118:54 0.000733406
8 *118:50 0.001042
9 *118:20 0.00088561
10 *118:12 0.000599791
11 *1571:C1 *1586:A1 9.21178e-05
12 *1571:C1 *1608:A1 0.000121312
13 *1571:C1 *1608:A2 8.97006e-07
14 *1571:C1 *523:14 0.000169509
15 *1571:C1 *555:18 0.000363963
16 *1571:C1 *556:29 0
17 *1571:C1 *556:49 0.000129523
18 *1571:C1 *582:39 0.000155356
19 *1571:C1 *617:85 0.00017086
20 *1586:S *1391:A 5.05437e-05
21 *1586:S *1586:A1 4.99619e-05
22 *1586:S *654:10 2.05056e-05
23 *1600:A *1580:B 0
24 *1600:A *1589:A1 5.25616e-05
25 *1600:A *1589:B2 2.9643e-06
26 *1600:A *1601:B1 6.0153e-05
27 *1600:A *1602:B 0.000113817
28 *1600:A *1608:A1 0
29 *1600:A *600:20 0.00074898
30 *1628:A *1165:A 0
31 *1628:A *1167:A 2.75229e-05
32 *1628:A *1388:A1 8.38564e-05
33 *1628:A *1388:A2 1.2818e-05
34 *1628:A *1388:B1 9.58804e-05
35 *1628:A *1388:B2 0.00029796
36 *1628:A *1612:A 8.15211e-05
37 *1628:A *1709:A 4.70919e-05
38 *1628:A *123:6 0.000238519
39 *1628:A *548:6 4.82919e-05
40 *1628:A *560:151 0.000129114
41 *1628:A *566:59 5.70744e-05
42 *1628:A *643:26 0
43 *118:12 *1615:A 4.82863e-05
44 *118:12 *124:10 7.14804e-05
45 *118:12 *570:22 1.42087e-05
46 *118:12 *570:28 6.53268e-05
47 *118:20 *1163:A 3.9141e-05
48 *118:20 *1580:B 0
49 *118:20 *1609:A2 8.7152e-06
50 *118:20 *1620:A 2.29402e-05
51 *118:20 *568:62 2.8531e-05
52 *118:20 *600:20 0.000396383
53 *118:50 *1580:B 0
54 *118:50 *1589:A1 1.33276e-06
55 *118:50 *1589:B2 8.23655e-05
56 *118:50 *600:20 0.000526889
57 *118:54 *1589:B1 7.30547e-05
58 *118:54 *1599:B1 0.000125396
59 *118:54 *1608:A2 4.70748e-05
60 *118:54 *555:18 0.000329792
61 *1647:A *1600:A 5.85717e-05
62 *1692:A *1600:A 5.87974e-05
63 *1693:A *1600:A 4.05129e-06
64 *1694:A *1600:A 0
*RES
1 *1160:Y *118:12 6.3125 
2 *118:12 *118:20 3.86317 
3 *118:20 *1628:A 18.2 
4 *118:20 *1609:A1 1.6 
5 *118:12 *118:50 0.853733 
6 *118:50 *118:54 4.5575 
7 *118:54 *1586:S 4.395 
8 *118:54 *1571:C1 11.842 
9 *118:50 *1600:A 8.65063 
*END

*D_NET *119 0.0124981
*CONN
*I *1626:A I *D sky130_fd_sc_hd__clkdlybuf4s25_1
*I *1625:A I *D sky130_fd_sc_hd__clkdlybuf4s25_1
*I *1623:A I *D sky130_fd_sc_hd__clkdlybuf4s25_1
*I *1624:A I *D sky130_fd_sc_hd__clkdlybuf4s25_1
*I *1161:X O *D sky130_fd_sc_hd__or3b_2
*CAP
1 *1626:A 0.000676939
2 *1625:A 0.00039091
3 *1623:A 0.000481389
4 *1624:A 0.000694852
5 *1161:X 0.00108439
6 *119:51 0.00183817
7 *119:14 0.00149032
8 *1623:A *1156:A 0.000129511
9 *1623:A *1221:B1 0
10 *1623:A *1225:A1 5.31158e-06
11 *1623:A *1387:A 0
12 *1623:A *1392:A1 4.05358e-05
13 *1623:A *1393:B 0.000118513
14 *1623:A *1396:B1 5.84456e-05
15 *1623:A *548:107 0
16 *1623:A *550:32 0
17 *1623:A *567:10 1.82563e-05
18 *1624:A *1389:A2 5.9964e-06
19 *1624:A *1392:A2 0.000290851
20 *1624:A *1718:A 0
21 *1624:A *326:10 0.000140912
22 *1624:A *326:19 0.000375619
23 *1624:A *326:34 0.000333503
24 *1624:A *326:47 6.57205e-05
25 *1624:A *344:26 0.000122877
26 *1624:A *548:107 0.000171756
27 *1624:A *557:105 0
28 *1624:A *557:131 4.61658e-05
29 *1625:A *1184:A 8.249e-05
30 *1625:A *1502:A1 0.000286949
31 *1625:A *1577:B 0
32 *1625:A *1622:A 0
33 *1625:A *140:20 0
34 *1625:A *157:12 6.12882e-05
35 *1625:A *520:10 2.88357e-05
36 *1625:A *551:10 0
37 *1625:A *555:18 0.000353833
38 *1625:A *563:128 2.747e-05
39 *1625:A *581:38 2.62338e-05
40 *1626:A *1502:A1 0.000283844
41 *1626:A *1577:A 4.09173e-05
42 *1626:A *1595:A 8.41307e-05
43 *1626:A *1606:A1 8.79635e-05
44 *1626:A *1606:A2 2.75145e-05
45 *1626:A *1606:A3 2.49909e-05
46 *1626:A *1609:A2 2.8107e-05
47 *1626:A *555:18 0.000293442
48 *1626:A *600:20 9.76758e-05
49 *1626:A *627:25 5.16211e-05
50 *1626:A *643:26 1.7635e-05
51 *119:14 *1389:A1 0.000102024
52 *119:14 *1389:A2 0.000175157
53 *119:14 *1392:A1 2.75145e-05
54 *119:14 *1620:A 0.000161634
55 *119:14 *1717:A 0.0004887
56 *119:14 *557:21 0.000113282
57 *119:14 *557:64 0.000265547
58 *119:14 *568:43 0
59 *119:51 *1169:C 0.00013802
60 *119:51 *1170:A_N 9.52851e-05
61 *119:51 *1170:C 7.40446e-05
62 *119:51 *1620:A 0.000198046
63 *119:51 *1709:A 2.20732e-05
64 *119:51 *1717:A 0.000130363
65 *119:51 *568:43 2.05056e-05
*RES
1 *1161:X *119:14 12.5425 
2 *119:14 *1624:A 20.75 
3 *119:14 *1623:A 14.99 
4 *1161:X *119:51 13.365 
5 *119:51 *1625:A 12.495 
6 *119:51 *1626:A 18.715 
*END

*D_NET *120 0.0129288
*CONN
*I *1621:A I *D sky130_fd_sc_hd__clkdlybuf4s25_1
*I *1622:A I *D sky130_fd_sc_hd__clkdlybuf4s25_1
*I *1162:X O *D sky130_fd_sc_hd__or2_2
*CAP
1 *1621:A 0.00360975
2 *1622:A 0.000375626
3 *1162:X 0.000261871
4 *120:10 0.00424725
5 *1621:A *1341:C1 6.18325e-06
6 *1621:A *1716:A 0.00105694
7 *1621:A *1734:A 0
8 *1621:A *565:100 1.92979e-05
9 *1621:A *598:18 0
10 *1621:A *643:26 0.00120893
11 *1622:A *1170:B 7.36562e-05
12 *1622:A *1208:A1 2.49909e-05
13 *1622:A *1613:A 1.92979e-05
14 *1622:A *1618:A 0
15 *1622:A *140:20 0.00028012
16 *1622:A *508:14 0
17 *1622:A *551:10 0.000211677
18 *1622:A *551:46 0.00033071
19 *1622:A *627:31 2.59981e-05
20 *120:10 *1162:A 0.000602765
21 *120:10 *1590:A1 0.000224914
22 *120:10 *1600:B 3.07008e-05
23 *120:10 *551:46 8.9513e-05
24 *120:10 *556:29 0.000228593
25 *1625:A *1622:A 0
*RES
1 *1162:X *120:10 11.4225 
2 *120:10 *1622:A 12.4425 
3 *120:10 *1621:A 11.8042 
*END

*D_NET *121 0.00757447
*CONN
*I *1527:A I *D sky130_fd_sc_hd__nand3_2
*I *1573:B1 I *D sky130_fd_sc_hd__o31a_2
*I *1588:B1 I *D sky130_fd_sc_hd__o21a_2
*I *1620:A I *D sky130_fd_sc_hd__clkdlybuf4s25_1
*I *1163:Y O *D sky130_fd_sc_hd__nor2_2
*CAP
1 *1527:A 0.00052528
2 *1573:B1 1.16927e-05
3 *1588:B1 5.96252e-05
4 *1620:A 0.000353564
5 *1163:Y 0
6 *121:42 0.00086775
7 *121:25 0.000642999
8 *121:6 0.000606161
9 *1527:A *1499:S 0
10 *1527:A *1503:A1 0.000171179
11 *1527:A *1503:A2 0
12 *1527:A *1504:B 0.000212646
13 *1527:A *1505:A 1.71207e-05
14 *1527:A *1563:B 4.83411e-05
15 *1527:A *1570:A1 0
16 *1527:A *1573:A3 0
17 *1527:A *1582:A2 0
18 *1527:A *1726:A 0.000441991
19 *1527:A *421:14 0.000116167
20 *1527:A *480:36 0
21 *1527:A *490:16 0
22 *1527:A *495:56 2.46271e-05
23 *1527:A *560:172 0.00022448
24 *1527:A *611:10 6.48855e-05
25 *1573:B1 *1569:B 4.82863e-05
26 *1573:B1 *1573:A1 4.66108e-05
27 *1588:B1 *1162:B 4.66108e-05
28 *1588:B1 *1561:S 9.80032e-06
29 *1588:B1 *1588:A1 3.09774e-05
30 *1588:B1 *1591:A2 4.41506e-05
31 *1620:A *1163:A 5.00159e-05
32 *1620:A *1166:C_N 1.94892e-05
33 *1620:A *1609:A2 0.000173178
34 *1620:A *1717:A 2.63666e-05
35 *1620:A *545:115 0.000513517
36 *1620:A *557:21 4.82863e-05
37 *1620:A *568:26 4.62396e-05
38 *1620:A *568:43 0.000123225
39 *121:25 *1163:A 1.73877e-05
40 *121:25 *1561:S 0.000342778
41 *121:25 *1578:B 0.000148474
42 *121:25 *1579:B 4.82863e-05
43 *121:25 *1588:A1 8.30403e-05
44 *121:25 *1591:A2 6.07575e-06
45 *121:25 *1609:B1 0
46 *121:25 *1706:A 4.66108e-05
47 *121:25 *545:115 0.000422773
48 *121:42 *1569:B 0.000133126
49 *121:42 *1572:A2 0
50 *121:42 *1573:A3 0
51 *121:42 *1575:A1 6.7685e-05
52 *121:42 *1575:A2 0
53 *121:42 *1576:B1_N 0.000135912
54 *121:42 *1731:A 3.86529e-05
55 *121:42 *124:33 6.93295e-05
56 *121:42 *495:56 6.63219e-06
57 *121:42 *510:18 9.82856e-06
58 *118:20 *1620:A 2.29402e-05
59 *119:14 *1620:A 0.000161634
60 *119:51 *1620:A 0.000198046
*RES
1 *1163:Y *121:6 3.6 
2 *121:6 *1620:A 13.74 
3 *121:6 *121:25 10.16 
4 *121:25 *1588:B1 3.01 
5 *121:25 *121:42 8.27 
6 *121:42 *1573:B1 4.05 
7 *121:42 *1527:A 15.945 
*END

*D_NET *122 0.0063482
*CONN
*I *1173:A2 I *D sky130_fd_sc_hd__a21bo_2
*I *1164:X O *D sky130_fd_sc_hd__o21a_2
*CAP
1 *1173:A2 0.00153577
2 *1164:X 0.00153577
3 *1173:A2 *1178:B1 0.00088231
4 *1173:A2 *1179:A 1.31227e-05
5 *1173:A2 *1179:B 0.000119756
6 *1173:A2 *1180:B1 3.96263e-05
7 *1173:A2 *1181:C1 7.16174e-05
8 *1173:A2 *1183:A 3.18147e-05
9 *1173:A2 *1187:B 7.06865e-05
10 *1173:A2 *1190:A3 7.80581e-05
11 *1173:A2 *1191:A3 1.79536e-05
12 *1173:A2 *1196:A 2.75746e-05
13 *1173:A2 *1200:B 9.39684e-05
14 *1173:A2 *1201:B1 0.000331104
15 *1173:A2 *1203:A2 1.67201e-05
16 *1173:A2 *1217:B 0
17 *1173:A2 *1233:B1 0.000135584
18 *1173:A2 *141:44 5.75434e-05
19 *1173:A2 *145:18 0.000649033
20 *1173:A2 *535:16 1.7635e-05
21 *1173:A2 *550:163 5.68887e-05
22 *1173:A2 *581:16 4.51031e-05
23 *1173:A2 *584:10 6.33448e-05
24 *1173:A2 *604:21 0
25 *1173:A2 *619:24 0.000383612
26 *1173:A1 *1173:A2 4.35648e-05
27 *1695:A *1173:A2 3.00381e-05
28 *114:28 *1173:A2 0
29 *117:38 *1173:A2 0
*RES
1 *1164:X *1173:A2 32.9285 
*END

*D_NET *123 0.00283585
*CONN
*I *1398:B2 I *D sky130_fd_sc_hd__a22o_2
*I *1388:B2 I *D sky130_fd_sc_hd__a221o_2
*I *1165:Y O *D sky130_fd_sc_hd__nor3b_2
*CAP
1 *1398:B2 0.000293282
2 *1388:B2 0.000225691
3 *1165:Y 0.000257327
4 *123:6 0.0007763
5 *1388:B2 *1388:A2 1.37448e-05
6 *1388:B2 *1388:B1 2.66464e-05
7 *1388:B2 *1388:C1 4.55864e-06
8 *1388:B2 *315:19 1.43729e-05
9 *1398:B2 *1398:A2 1.37395e-05
10 *1398:B2 *1399:B1 1.70935e-05
11 *1398:B2 *1501:A 4.01778e-05
12 *1398:B2 *1578:B 0
13 *1398:B2 *548:23 0.000293726
14 *1398:B2 *548:148 0.000101125
15 *1398:B2 *566:59 9.92626e-05
16 *123:6 *1612:A 0.000122325
17 *1628:A *1388:B2 0.00029796
18 *1628:A *123:6 0.000238519
*RES
1 *1165:Y *123:6 5.155 
2 *123:6 *1388:B2 8.975 
3 *123:6 *1398:B2 12.245 
*END

*D_NET *124 0.0142521
*CONN
*I *1618:A I *D sky130_fd_sc_hd__clkdlybuf4s25_1
*I *1617:A I *D sky130_fd_sc_hd__clkdlybuf4s25_1
*I *1616:A I *D sky130_fd_sc_hd__clkdlybuf4s25_1
*I *1619:A I *D sky130_fd_sc_hd__clkdlybuf4s25_1
*I *1166:X O *D sky130_fd_sc_hd__or3b_2
*CAP
1 *1618:A 0.000315408
2 *1617:A 0.000648325
3 *1616:A 0.000364649
4 *1619:A 7.62952e-05
5 *1166:X 0.000201879
6 *124:33 0.00248837
7 *124:10 0.00191625
8 *124:6 0.000881851
9 *1616:A *1406:A 2.16833e-05
10 *1616:A *1409:B 8.49205e-05
11 *1616:A *1439:B 0.000203776
12 *1616:A *326:34 0
13 *1616:A *326:47 0.000120228
14 *1616:A *332:46 4.82919e-05
15 *1616:A *349:10 0.000176647
16 *1616:A *552:24 0.000543954
17 *1617:A *1439:B 0.000109016
18 *1617:A *1540:C1 6.65887e-05
19 *1617:A *1543:A 6.55601e-05
20 *1617:A *1544:B2 0.000188727
21 *1617:A *1545:A 0.000118513
22 *1617:A *1545:C_N 0.000289011
23 *1617:A *1551:B 0
24 *1617:A *1552:A1 0
25 *1617:A *1552:B1 0.000193564
26 *1617:A *1554:A2 0.000139252
27 *1617:A *1554:B1 0.000328079
28 *1617:A *1559:B1 0.000316421
29 *1617:A *1718:A 0
30 *1617:A *326:47 0.000172979
31 *1617:A *470:18 0
32 *1617:A *554:8 7.23602e-05
33 *1617:A *562:17 0.000177299
34 *1618:A *1603:A 0
35 *1618:A *1605:A2 0.000220453
36 *1618:A *1615:A 2.78732e-05
37 *1618:A *140:20 0
38 *1618:A *508:14 9.26537e-05
39 *1618:A *550:24 5.49658e-05
40 *1619:A *1630:A 3.45252e-05
41 *1619:A *506:12 8.33817e-05
42 *1619:A *570:20 0.000161529
43 *124:6 *1605:A2 0.000315527
44 *124:10 *1167:B 0.000213181
45 *124:10 *1169:B 7.23533e-05
46 *124:10 *1578:A 8.53113e-06
47 *124:10 *1603:A 0.00015356
48 *124:10 *1610:A 1.26626e-05
49 *124:10 *1612:A 1.15688e-05
50 *124:10 *508:22 7.59297e-05
51 *124:10 *545:115 0
52 *124:10 *570:22 0
53 *124:10 *570:28 1.43823e-05
54 *124:10 *570:32 3.69334e-05
55 *124:33 *1414:B2 0.000203178
56 *124:33 *1415:B 4.82863e-05
57 *124:33 *1416:A 1.83847e-05
58 *124:33 *1425:A3 5.9064e-05
59 *124:33 *1425:B1 1.83847e-05
60 *124:33 *1572:B1 9.27255e-06
61 *124:33 *1575:A2 5.16348e-05
62 *124:33 *1575:B1 3.78034e-06
63 *124:33 *1575:C1 6.97118e-05
64 *124:33 *1576:B1_N 4.43871e-06
65 *124:33 *1578:A 0.000317141
66 *124:33 *1580:B 0.000168971
67 *124:33 *1591:A2 5.38986e-06
68 *124:33 *1609:B1 2.80762e-06
69 *124:33 *125:25 1.80064e-05
70 *124:33 *364:6 0.00106711
71 *124:33 *498:12 8.09021e-06
72 *124:33 *545:115 0
73 *124:33 *556:29 8.23457e-05
74 *124:33 *582:39 1.88602e-05
75 *1622:A *1618:A 0
76 *1678:A *1617:A 1.65192e-05
77 *118:12 *124:10 7.14804e-05
78 *121:42 *124:33 6.93295e-05
*RES
1 *1166:X *124:6 4.465 
2 *124:6 *124:10 10.01 
3 *124:10 *1619:A 5.79 
4 *124:10 *124:33 29.335 
5 *124:33 *1616:A 13.335 
6 *124:33 *1617:A 22.38 
7 *124:6 *1618:A 10.685 
*END

*D_NET *125 0.00284422
*CONN
*I *1574:A I *D sky130_fd_sc_hd__nand2_2
*I *1416:A I *D sky130_fd_sc_hd__nand2_2
*I *1706:A I *D sky130_fd_sc_hd__clkbuf_2
*I *1167:Y O *D sky130_fd_sc_hd__nor3b_2
*CAP
1 *1574:A 0
2 *1416:A 0.000113609
3 *1706:A 1.83028e-05
4 *1167:Y 0.000190403
5 *125:25 0.000259596
6 *125:8 0.000354693
7 *1416:A *1501:A 0.000118496
8 *1416:A *1574:B 7.45881e-05
9 *1416:A *1609:B1 2.0514e-05
10 *1416:A *536:18 4.82863e-05
11 *1416:A *545:115 0
12 *1706:A *1578:B 1.56428e-05
13 *125:8 *1167:B 9.31547e-06
14 *125:8 *1578:B 6.71803e-06
15 *125:8 *1579:B 1.8279e-05
16 *125:8 *1588:A1 0.000172158
17 *125:8 *508:22 0.000349205
18 *125:8 *545:115 0.000586548
19 *125:25 *1572:B1 0
20 *125:25 *1575:C1 7.35729e-05
21 *125:25 *1579:B 4.43871e-06
22 *125:25 *1609:B1 0.000198934
23 *125:25 *545:115 0.000124311
24 *125:25 *582:39 3.60648e-06
25 *121:25 *1706:A 4.66108e-05
26 *124:33 *1416:A 1.83847e-05
27 *124:33 *125:25 1.80064e-05
*RES
1 *1167:Y *125:8 10.59 
2 *125:8 *1706:A 4.05 
3 *125:8 *125:25 5.825 
4 *125:25 *1416:A 8.9 
5 *125:25 *1574:A 1.6 
*END

*D_NET *126 0.0013251
*CONN
*I *1615:A I *D sky130_fd_sc_hd__clkdlybuf4s25_1
*I *1168:X O *D sky130_fd_sc_hd__or3b_2
*CAP
1 *1615:A 0.000264433
2 *1168:X 0.000264433
3 *1615:A *1610:A 6.65534e-05
4 *1615:A *1709:A 1.26548e-05
5 *1615:A *128:21 0.000151219
6 *1615:A *508:14 4.8398e-05
7 *1615:A *568:16 8.40213e-05
8 *1615:A *568:18 0.000112232
9 *1615:A *570:28 4.76263e-05
10 *1615:A *570:32 0.000197365
11 *1618:A *1615:A 2.78732e-05
12 *118:12 *1615:A 4.82863e-05
*RES
1 *1168:X *1615:A 13.3725 
*END

*D_NET *127 0.00496096
*CONN
*I *1603:A I *D sky130_fd_sc_hd__nand2_2
*I *1612:A I *D sky130_fd_sc_hd__clkdlybuf4s25_1
*I *1169:X O *D sky130_fd_sc_hd__and3b_2
*CAP
1 *1603:A 0.000736144
2 *1612:A 0.000562502
3 *1169:X 0
4 *127:4 0.00129865
5 *1603:A *1204:A2 0.000172608
6 *1603:A *1610:A 0.000194997
7 *1603:A *140:20 2.53366e-05
8 *1603:A *156:10 0.000160568
9 *1603:A *170:22 2.49909e-05
10 *1603:A *544:94 2.747e-05
11 *1603:A *545:8 0
12 *1603:A *545:115 0
13 *1603:A *550:24 0.000121105
14 *1603:A *563:20 0.000194314
15 *1603:A *592:51 0.000195465
16 *1612:A *1165:A 1.46028e-05
17 *1612:A *1167:B 8.17626e-05
18 *1612:A *1169:B 7.23533e-05
19 *1612:A *1717:A 0.000122325
20 *1612:A *545:115 6.15233e-05
21 *1612:A *568:18 2.75145e-05
22 *1612:A *568:20 6.97118e-05
23 *1612:A *568:24 6.71882e-05
24 *1612:A *570:56 1.4174e-05
25 *1612:A *627:48 3.54025e-05
26 *1618:A *1603:A 0
27 *1628:A *1612:A 8.15211e-05
28 *114:22 *1603:A 0
29 *117:20 *1603:A 0.000302559
30 *117:22 *1603:A 8.7152e-06
31 *123:6 *1612:A 0.000122325
32 *124:10 *1603:A 0.00015356
33 *124:10 *1612:A 1.15688e-05
*RES
1 *1169:X *127:4 1.6 
2 *127:4 *1612:A 15.35 
3 *127:4 *1603:A 20.84 
*END

*D_NET *128 0.00520716
*CONN
*I *1575:A1 I *D sky130_fd_sc_hd__o221a_2
*I *1589:B2 I *D sky130_fd_sc_hd__o22a_2
*I *1610:A I *D sky130_fd_sc_hd__clkdlybuf4s25_1
*I *1170:Y O *D sky130_fd_sc_hd__nand3b_2
*CAP
1 *1575:A1 0.000263417
2 *1589:B2 0.00043295
3 *1610:A 0.000182875
4 *1170:Y 0
5 *128:21 0.0009389
6 *128:4 0.000425408
7 *1575:A1 *1162:B 0.000279129
8 *1575:A1 *1572:B1 0.000124007
9 *1575:A1 *1591:B1 4.97611e-05
10 *1575:A1 *1609:B1 2.05056e-05
11 *1575:A1 *510:18 0.000167084
12 *1575:A1 *556:29 9.2741e-05
13 *1589:B2 *1568:B 4.15302e-05
14 *1589:B2 *1580:B 0.000334295
15 *1589:B2 *1589:A1 0.000231781
16 *1589:B2 *1589:B1 0
17 *1589:B2 *1607:C 7.9642e-06
18 *1589:B2 *1608:B1 1.88602e-05
19 *1589:B2 *1630:A 5.37305e-05
20 *1589:B2 *628:8 1.7635e-05
21 *1610:A *1717:A 6.58423e-05
22 *1610:A *570:32 9.37731e-05
23 *128:21 *1162:B 1.88904e-05
24 *128:21 *1591:B1 0.000114888
25 *128:21 *1599:A2 3.61388e-06
26 *128:21 *1709:A 0.000295152
27 *128:21 *570:22 0.000242804
28 *128:21 *570:28 0.00011118
29 *1600:A *1589:B2 2.9643e-06
30 *1603:A *1610:A 0.000194997
31 *1615:A *1610:A 6.65534e-05
32 *1615:A *128:21 0.000151219
33 *118:50 *1589:B2 8.23655e-05
34 *121:42 *1575:A1 6.7685e-05
35 *124:10 *1610:A 1.26626e-05
*RES
1 *1170:Y *128:4 1.6 
2 *128:4 *1610:A 9.395 
3 *128:4 *128:21 8.3525 
4 *128:21 *1589:B2 7.73027 
5 *128:21 *1575:A1 10.4175 
*END

*D_NET *129 0.00682023
*CONN
*I *1172:C1 I *D sky130_fd_sc_hd__o221a_2
*I *1171:Y O *D sky130_fd_sc_hd__o21ai_2
*CAP
1 *1172:C1 0.00151157
2 *1171:Y 0.00151157
3 *1172:C1 *1182:A1 5.9377e-05
4 *1172:C1 *1183:B 8.34204e-05
5 *1172:C1 *1191:A3 0.000314402
6 *1172:C1 *1223:B1 5.16418e-05
7 *1172:C1 *1235:A1 0.000967656
8 *1172:C1 *1254:A3 0.00031707
9 *1172:C1 *1254:B1 0.000402407
10 *1172:C1 *189:10 6.66974e-05
11 *1172:C1 *189:25 0.000123175
12 *1172:C1 *545:70 9.76431e-05
13 *1172:C1 *555:71 0.000297164
14 *1172:C1 *560:24 0.000264421
15 *1172:C1 *566:30 3.92756e-05
16 *1173:A1 *1172:C1 0.000629322
17 *1176:A2 *1172:C1 0
18 *116:27 *1172:C1 8.34204e-05
*RES
1 *1171:Y *1172:C1 17.3497 
*END

*D_NET *130 0.000664859
*CONN
*I *1173:B1_N I *D sky130_fd_sc_hd__a21bo_2
*I *1172:X O *D sky130_fd_sc_hd__o221a_2
*CAP
1 *1173:B1_N 0.000140935
2 *1172:X 0.000140935
3 *1173:B1_N *1732:A 0.000137571
4 *1173:B1_N *560:18 0.000137571
5 *1657:A *1173:B1_N 4.80285e-05
6 *1695:A *1173:B1_N 5.98172e-05
*RES
1 *1172:X *1173:B1_N 10.2075 
*END

*D_NET *131 0.0087966
*CONN
*I *1181:A2 I *D sky130_fd_sc_hd__o221a_2
*I *1186:B1 I *D sky130_fd_sc_hd__o21a_2
*I *1217:A I *D sky130_fd_sc_hd__or2_2
*I *1174:Y O *D sky130_fd_sc_hd__nand2_2
*CAP
1 *1181:A2 0.00103288
2 *1186:B1 7.8027e-06
3 *1217:A 5.44687e-05
4 *1174:Y 0.000866892
5 *131:35 0.00141814
6 *131:20 0.00129882
7 *1181:A2 *1178:B1 0.000692198
8 *1181:A2 *1181:A1 3.96153e-05
9 *1181:A2 *1181:B2 3.96153e-05
10 *1181:A2 *145:18 0.000157044
11 *1181:A2 *535:16 0.000118453
12 *1186:B1 *1217:B 1.92979e-05
13 *1186:B1 *604:40 9.58678e-06
14 *1217:A *1244:A2 0.000142346
15 *1217:A *622:49 0.000143571
16 *131:20 *1149:A 1.28715e-05
17 *131:20 *1156:B 0
18 *131:20 *1174:A 4.82919e-05
19 *131:20 *1180:B1 0.000322154
20 *131:20 *1184:B 0
21 *131:20 *1191:A3 0
22 *131:20 *1193:B 4.42253e-05
23 *131:20 *1212:A2 4.0031e-05
24 *131:20 *1213:A 0
25 *131:20 *1214:B 5.62441e-05
26 *131:20 *1224:B2 0.000207197
27 *131:20 *1229:A 0.000124014
28 *131:20 *1413:A 0
29 *131:20 *153:31 3.54027e-05
30 *131:20 *545:39 0.000186078
31 *131:35 *1177:B1 5.15266e-05
32 *131:35 *1244:A2 0.000161793
33 *131:35 *145:18 0.000310257
34 *131:35 *535:16 0.000310957
35 *131:35 *622:49 5.66315e-05
36 *1176:A2 *1181:A2 1.55893e-05
37 *1176:A2 *131:20 0.000328248
38 *1241:A1 *131:20 0.0001619
39 *107:10 *131:20 6.26178e-05
40 *114:12 *131:20 0.000124311
41 *114:22 *131:20 1.93765e-05
42 *115:24 *1181:A2 7.61574e-05
*RES
1 *1174:Y *131:20 19.0916 
2 *131:20 *1217:A 5.3625 
3 *131:20 *131:35 3.61527 
4 *131:35 *1186:B1 4.3325 
5 *131:35 *1181:A2 7.86243 
*END

*D_NET *132 0.00510277
*CONN
*I *1181:B1 I *D sky130_fd_sc_hd__o221a_2
*I *1705:A I *D sky130_fd_sc_hd__buf_2
*I *1189:A3 I *D sky130_fd_sc_hd__a31o_2
*I *1175:Y O *D sky130_fd_sc_hd__xnor2_2
*CAP
1 *1181:B1 0.000158611
2 *1705:A 2.08101e-05
3 *1189:A3 0.00111548
4 *1175:Y 0
5 *132:6 0.00114234
6 *132:4 0.000164658
7 *1181:B1 *1181:B2 5.66562e-05
8 *1181:B1 *1181:C1 0.000221145
9 *1181:B1 *1721:A 4.78756e-05
10 *1181:B1 *180:20 0.000308713
11 *1181:B1 *558:14 0.00013837
12 *1181:B1 *558:20 0.000154811
13 *1189:A3 *1176:A1 9.32949e-06
14 *1189:A3 *1224:B2 0.000252807
15 *1189:A3 *1227:A 4.16445e-05
16 *1189:A3 *1230:A2 3.55338e-05
17 *1189:A3 *1246:A1 1.79104e-05
18 *1189:A3 *1246:A2 2.20732e-05
19 *1189:A3 *1248:A1 0.00030824
20 *1189:A3 *1248:A2 0
21 *1189:A3 *1248:B1 6.03947e-06
22 *1189:A3 *1248:B2 2.16628e-05
23 *1189:A3 *1252:A1 0.00016166
24 *1189:A3 *145:18 5.75488e-05
25 *1189:A3 *180:20 0.000195482
26 *1189:A3 *189:25 1.16578e-05
27 *1189:A3 *193:22 0.0001173
28 *1189:A3 *550:65 3.91137e-05
29 *1189:A3 *558:20 2.75229e-05
30 *1189:A3 *586:12 6.00201e-05
31 *1189:A3 *620:25 0
32 *132:6 *180:20 4.99619e-05
33 *132:6 *558:20 2.30292e-05
34 *1189:A1 *1189:A3 1.69273e-05
35 *1634:A *1181:B1 4.95456e-05
36 *1651:A *1189:A3 4.82919e-05
*RES
1 *1175:Y *132:4 1.6 
2 *132:4 *132:6 0.45 
3 *132:6 *1189:A3 24.635 
4 *132:6 *1705:A 1.96 
5 *132:4 *1181:B1 11.5662 
*END

*D_NET *133 0.00303327
*CONN
*I *1177:B1 I *D sky130_fd_sc_hd__a21oi_2
*I *1176:X O *D sky130_fd_sc_hd__a21o_2
*CAP
1 *1177:B1 0.000782522
2 *1176:X 0.000782522
3 *1177:B1 *1174:B 0.000150503
4 *1177:B1 *1226:A 6.10079e-05
5 *1177:B1 *1226:B 0.000596485
6 *1177:B1 *1232:A1 3.4773e-05
7 *1177:B1 *1232:A2 0.000109592
8 *1177:B1 *1244:A2 9.93404e-06
9 *1177:B1 *172:24 4.66108e-05
10 *1177:B1 *563:26 2.49909e-05
11 *1177:B1 *584:10 0.000133804
12 *1177:B1 *622:49 4.66108e-05
13 *1177:A1 *1177:B1 6.05614e-05
14 *1189:A1 *1177:B1 0.000141825
15 *131:35 *1177:B1 5.15266e-05
*RES
1 *1176:X *1177:B1 20.37 
*END

*D_NET *134 0.00544985
*CONN
*I *1178:B1 I *D sky130_fd_sc_hd__a31o_2
*I *1177:Y O *D sky130_fd_sc_hd__a21oi_2
*CAP
1 *1178:B1 0.00147542
2 *1177:Y 0.00147542
3 *1178:B1 *1181:A1 1.88602e-05
4 *1178:B1 *1194:C1 3.2267e-05
5 *1178:B1 *145:18 6.33266e-05
6 *1178:B1 *156:14 3.33302e-05
7 *1178:B1 *560:24 7.61574e-05
8 *1178:B1 *584:10 0.000240436
9 *1178:B1 *592:55 0.000426507
10 *1173:A2 *1178:B1 0.00088231
11 *1181:A2 *1178:B1 0.000692198
12 *115:24 *1178:B1 3.3616e-05
*RES
1 *1177:Y *1178:B1 15.5024 
*END

*D_NET *135 0.000940747
*CONN
*I *1179:B I *D sky130_fd_sc_hd__xnor2_2
*I *1178:X O *D sky130_fd_sc_hd__a31o_2
*CAP
1 *1179:B 0.000181562
2 *1178:X 0.000181562
3 *1179:B *1178:A3 2.84757e-05
4 *1179:B *1191:A2 0.000212309
5 *1179:B *1201:B1 4.23612e-05
6 *1179:B *592:51 0.000129114
7 *1173:A2 *1179:B 0.000119756
8 *1178:A2 *1179:B 4.56073e-05
*RES
1 *1178:X *1179:B 11.76 
*END

*D_NET *136 0.00405894
*CONN
*I *1182:A2 I *D sky130_fd_sc_hd__o21ai_2
*I *1179:Y O *D sky130_fd_sc_hd__xnor2_2
*CAP
1 *1182:A2 0.000813921
2 *1179:Y 0.000813921
3 *1182:A2 *1171:A1 3.1835e-05
4 *1182:A2 *1182:B1 1.72142e-05
5 *1182:A2 *1217:B 5.91029e-05
6 *1182:A2 *1218:A3 0.000415929
7 *1182:A2 *1235:B2 4.42354e-05
8 *1182:A2 *1236:B1 1.7824e-05
9 *1182:A2 *1244:A1 0.0002581
10 *1182:A2 *1244:A2 0.000163568
11 *1182:A2 *1245:B1_N 2.8531e-05
12 *1182:A2 *1249:A2 4.76303e-05
13 *1182:A2 *1253:B 0.000228848
14 *1182:A2 *1254:C1 0.000118081
15 *1182:A2 *1721:A 2.09708e-05
16 *1182:A2 *1737:A 0.000120655
17 *1182:A2 *179:35 0.000314602
18 *1182:A2 *180:20 3.66286e-05
19 *1182:A2 *181:47 8.49205e-05
20 *1182:A2 *190:20 4.82863e-05
21 *1182:A2 *195:10 0.000130908
22 *1182:A2 *196:12 4.66108e-05
23 *1182:A2 *550:65 0.000110019
24 *1182:A2 *550:163 8.65961e-05
*RES
1 *1179:Y *1182:A2 26.175 
*END

*D_NET *137 0.00157219
*CONN
*I *1181:C1 I *D sky130_fd_sc_hd__o221a_2
*I *1180:Y O *D sky130_fd_sc_hd__o21ai_2
*CAP
1 *1181:C1 0.00031065
2 *1180:Y 0.00031065
3 *1181:C1 *1179:A 9.14314e-05
4 *1181:C1 *1180:B1 3.96263e-05
5 *1181:C1 *1181:A1 0
6 *1181:C1 *1181:B2 2.45773e-05
7 *1181:C1 *1191:A3 5.42336e-05
8 *1181:C1 *1737:A 7.60391e-05
9 *1181:C1 *550:163 0
10 *1181:C1 *604:21 2.54603e-05
11 *1173:A2 *1181:C1 7.16174e-05
12 *1181:B1 *1181:C1 0.000221145
13 *1669:A *1181:C1 0.000346755
*RES
1 *1180:Y *1181:C1 15.21 
*END

*D_NET *138 0.00532458
*CONN
*I *1182:B1 I *D sky130_fd_sc_hd__o21ai_2
*I *1181:X O *D sky130_fd_sc_hd__o221a_2
*CAP
1 *1182:B1 0.000956062
2 *1181:X 0.000956062
3 *1182:B1 *1245:B1_N 1.08732e-05
4 *1182:B1 *1248:C1 0.000163204
5 *1182:B1 *1249:A2 6.79508e-05
6 *1182:B1 *1249:B1 2.1506e-05
7 *1182:B1 *1252:B1 6.83488e-05
8 *1182:B1 *1721:A 0.000633786
9 *1182:B1 *1738:A 0.00123849
10 *1182:B1 *179:14 0.000132448
11 *1182:B1 *550:65 8.80752e-05
12 *1182:B1 *558:14 0.000233266
13 *1182:B1 *584:10 0.0001249
14 *1182:B1 *622:12 0.000394699
15 y[6] *1182:B1 9.80032e-06
16 *1182:A2 *1182:B1 1.72142e-05
17 *1687:A *1182:B1 0.000207896
*RES
1 *1181:X *1182:B1 31.71 
*END

*D_NET *139 0.00802312
*CONN
*I *1199:B1 I *D sky130_fd_sc_hd__o31a_2
*I *1193:B I *D sky130_fd_sc_hd__or2_2
*I *1183:Y O *D sky130_fd_sc_hd__nand2_2
*CAP
1 *1199:B1 0
2 *1193:B 0.000804256
3 *1183:Y 0.000794929
4 *139:16 0.00159918
5 *1193:B *1191:A3 4.78669e-05
6 *1193:B *1194:A1 0.000260725
7 *1193:B *1194:C1 0.00167074
8 *1193:B *1214:B 7.91413e-05
9 *1193:B *153:27 0.000379274
10 *1193:B *157:12 1.62834e-05
11 *1193:B *581:38 5.92482e-05
12 *139:16 *1157:A 0
13 *139:16 *1183:B 1.65371e-05
14 *139:16 *1194:A1 0.000226452
15 *139:16 *1194:A2 4.7798e-05
16 *139:16 *1194:B2 4.66108e-05
17 *139:16 *1199:A2 1.67131e-05
18 *139:16 *141:14 1.82559e-05
19 *139:16 *141:24 0.000163063
20 *139:16 *519:21 0.000401873
21 *139:16 *521:10 0.000550541
22 *139:16 *555:63 0
23 *139:16 *555:71 2.71495e-05
24 *139:16 *592:14 0.000163199
25 *139:16 *616:8 7.57835e-05
26 *1172:B2 *139:16 7.30547e-05
27 *116:8 *139:16 6.72143e-05
28 *116:27 *139:16 0.000372998
29 *131:20 *1193:B 4.42253e-05
*RES
1 *1183:Y *139:16 24.8 
2 *139:16 *1193:B 11 
3 *139:16 *1199:B1 1.6 
*END

*D_NET *140 0.00568149
*CONN
*I *1199:A3 I *D sky130_fd_sc_hd__o31a_2
*I *1194:A2 I *D sky130_fd_sc_hd__o221a_2
*I *1203:A1 I *D sky130_fd_sc_hd__o211ai_2
*I *1184:Y O *D sky130_fd_sc_hd__nor2_2
*CAP
1 *1199:A3 0
2 *1194:A2 0.000235536
3 *1203:A1 0
4 *1184:Y 0.00104476
5 *140:31 0.000312385
6 *140:20 0.00112161
7 *1194:A2 *1194:B2 3.40584e-05
8 *1194:A2 *141:14 4.56565e-06
9 *1194:A2 *141:24 0.000250756
10 *140:20 *1174:A 0.00053598
11 *140:20 *1174:B 3.79325e-05
12 *140:20 *1196:A 2.39856e-05
13 *140:20 *1196:B 8.49205e-05
14 *140:20 *1207:A2 0.0001249
15 *140:20 *1208:A1 1.51848e-05
16 *140:20 *1208:B1 4.29016e-05
17 *140:20 *1605:B1 7.99093e-05
18 *140:20 *1735:A 1.56428e-05
19 *140:20 *151:6 8.73389e-06
20 *140:20 *151:33 4.72251e-05
21 *140:20 *157:12 0
22 *140:20 *508:14 0.000124895
23 *140:20 *545:8 0
24 *140:20 *550:24 0.000158965
25 *140:31 *1199:A2 1.42674e-05
26 *140:31 *154:8 0.00012398
27 *1199:A1 *140:31 0.000189564
28 *1603:A *140:20 2.53366e-05
29 *1618:A *140:20 0
30 *1622:A *140:20 0.00028012
31 *1625:A *140:20 0
32 *106:14 *1194:A2 0.000265765
33 *106:14 *140:31 7.41442e-05
34 *114:22 *140:20 0.000287414
35 *114:28 *140:20 2.8531e-05
36 *117:20 *140:20 3.97171e-05
37 *139:16 *1194:A2 4.7798e-05
*RES
1 *1184:Y *140:20 29.475 
2 *140:20 *1203:A1 1.6 
3 *140:20 *140:31 2.985 
4 *140:31 *1194:A2 6.91 
5 *140:31 *1199:A3 1.6 
*END

*D_NET *141 0.00771274
*CONN
*I *1194:B1 I *D sky130_fd_sc_hd__o221a_2
*I *1192:A I *D sky130_fd_sc_hd__xnor2_2
*I *1202:D I *D sky130_fd_sc_hd__and4_2
*I *1201:A1 I *D sky130_fd_sc_hd__a21o_2
*I *1216:C I *D sky130_fd_sc_hd__or4_2
*I *1217:B I *D sky130_fd_sc_hd__or2_2
*I *1185:Y O *D sky130_fd_sc_hd__xnor2_2
*CAP
1 *1194:B1 0
2 *1192:A 0.000272717
3 *1202:D 0.000104535
4 *1201:A1 0
5 *1216:C 2.0944e-05
6 *1217:B 0.00067899
7 *1185:Y 8.20556e-05
8 *141:44 0.000966305
9 *141:32 0.000518889
10 *141:30 0.000523301
11 *141:24 0.000617211
12 *141:14 0.000260302
13 *1192:A *1192:B 0.000298531
14 *1192:A *1604:C1 3.2172e-05
15 *1202:D *1191:A2 0.000154807
16 *1202:D *157:12 4.05867e-05
17 *1202:D *581:16 0.000222173
18 *1216:C *592:51 2.85364e-05
19 *1216:C *604:40 4.27883e-06
20 *1217:B *1235:B2 0.000209816
21 *1217:B *1235:C1 0.000162851
22 *1217:B *1244:A1 2.37607e-05
23 *1217:B *544:16 0
24 *1217:B *558:20 0
25 *1217:B *604:21 0.000113416
26 *1217:B *604:40 7.83993e-05
27 *141:14 *1593:B 4.66108e-05
28 *141:14 *519:21 0.000109489
29 *141:24 *1594:B 3.44708e-05
30 *141:24 *520:12 7.5213e-05
31 *141:24 *563:128 0.000205985
32 *141:30 *1594:B 3.54721e-05
33 *141:30 *563:128 7.03276e-05
34 *141:30 *630:27 3.81944e-05
35 *141:32 *1190:A3 1.43253e-05
36 *141:32 *1190:B1 0.000300341
37 *141:44 *1190:A3 5.21426e-05
38 *141:44 *1203:A2 6.75183e-05
39 *141:44 *592:51 0.000264606
40 *1173:A2 *1217:B 0
41 *1173:A2 *141:44 5.75434e-05
42 *1182:A2 *1217:B 5.91029e-05
43 *1186:B1 *1217:B 1.92979e-05
44 *1194:A2 *141:14 4.56565e-06
45 *1194:A2 *141:24 0.000250756
46 *1646:A *141:14 0.000110791
47 *117:22 *1216:C 4.7878e-05
48 *117:22 *1217:B 9.9732e-05
49 *117:38 *1217:B 0.000152485
50 *139:16 *141:14 1.82559e-05
51 *139:16 *141:24 0.000163063
*RES
1 *1185:Y *141:14 7.60625 
2 *141:14 *141:24 7.56875 
3 *141:24 *141:30 4.355 
4 *141:30 *141:32 3.21 
5 *141:32 *141:44 9.84 
6 *141:44 *1217:B 14.19 
7 *141:44 *1216:C 4.215 
8 *141:32 *1201:A1 1.6 
9 *141:30 *1202:D 8.51 
10 *141:24 *1192:A 7.53 
11 *141:14 *1194:B1 1.6 
*END

*D_NET *142 0.0035697
*CONN
*I *1191:A2 I *D sky130_fd_sc_hd__a31o_2
*I *1203:A2 I *D sky130_fd_sc_hd__o211ai_2
*I *1186:X O *D sky130_fd_sc_hd__o21a_2
*CAP
1 *1191:A2 0.000340033
2 *1203:A2 0.0001835
3 *1186:X 5.45384e-05
4 *142:6 0.000578071
5 *1191:A2 *1178:A3 8.7152e-06
6 *1191:A2 *1191:B1 4.99911e-05
7 *1191:A2 *1227:B 3.50959e-05
8 *1191:A2 *157:12 9.05535e-05
9 *1191:A2 *581:16 8.07785e-05
10 *1191:A2 *592:51 0.000122754
11 *1191:A2 *619:24 0.00029007
12 *1191:A2 *630:27 7.14699e-05
13 *1191:A2 *630:35 0.000228863
14 *1203:A2 *1190:A3 3.44813e-05
15 *1203:A2 *1199:A2 5.04197e-05
16 *1203:A2 *1201:B1 4.72867e-05
17 *1203:A2 *145:18 3.76132e-05
18 *142:6 *619:24 0.000269334
19 *142:6 *630:35 0.000241502
20 *1173:A2 *1203:A2 1.67201e-05
21 *1179:B *1191:A2 0.000212309
22 *1186:A1 *142:6 5.83121e-06
23 *1202:D *1191:A2 0.000154807
24 *114:28 *1203:A2 0.000297448
25 *141:44 *1203:A2 6.75183e-05
*RES
1 *1186:X *142:6 4.12 
2 *142:6 *1203:A2 10.295 
3 *142:6 *1191:A2 14.945 
*END

*D_NET *143 0.00703287
*CONN
*I *1191:A3 I *D sky130_fd_sc_hd__a31o_2
*I *1187:X O *D sky130_fd_sc_hd__or2_2
*CAP
1 *1191:A3 0.00211154
2 *1187:X 0.00211154
3 *1191:A3 *1156:B 6.24871e-05
4 *1191:A3 *1172:B1 0.000233004
5 *1191:A3 *1180:B1 0.000123834
6 *1191:A3 *1194:C1 2.09951e-05
7 *1191:A3 *1227:B 0.000306259
8 *1191:A3 *1235:A1 0.000526142
9 *1191:A3 *1236:A1 0.000721905
10 *1191:A3 *1613:A 0
11 *1191:A3 *153:27 1.81196e-05
12 *1191:A3 *550:163 8.45182e-05
13 *1191:A3 *555:90 5.83121e-06
14 *1191:A3 *566:30 8.98337e-05
15 *1172:C1 *1191:A3 0.000314402
16 *1173:A2 *1191:A3 1.79536e-05
17 *1176:A2 *1191:A3 8.9328e-06
18 *1181:C1 *1191:A3 5.42336e-05
19 *1193:B *1191:A3 4.78669e-05
20 *114:22 *1191:A3 8.72865e-05
21 *115:24 *1191:A3 8.61866e-05
22 *131:20 *1191:A3 0
*RES
1 *1187:X *1191:A3 19.1063 
*END

*D_NET *144 0.00108917
*CONN
*I *1189:B1 I *D sky130_fd_sc_hd__a31o_2
*I *1188:X O *D sky130_fd_sc_hd__and2b_2
*CAP
1 *1189:B1 0.000230305
2 *1188:X 0.000230305
3 *1189:B1 *1174:B 5.47091e-05
4 *1189:B1 *1189:A2 0.000191343
5 *1189:B1 *1229:A 0.000180284
6 *1189:B1 *1230:A2 4.66108e-05
7 *1189:B1 *1232:A2 0.000155608
*RES
1 *1188:X *1189:B1 8.495 
*END

*D_NET *145 0.00447782
*CONN
*I *1190:B1 I *D sky130_fd_sc_hd__a311oi_2
*I *1201:A2 I *D sky130_fd_sc_hd__a21o_2
*I *1189:X O *D sky130_fd_sc_hd__a31o_2
*CAP
1 *1190:B1 0.000109542
2 *1201:A2 0
3 *1189:X 0.000739847
4 *145:18 0.000849389
5 *1190:B1 *1190:A1 3.21081e-06
6 *1190:B1 *1190:A3 4.77719e-05
7 *1190:B1 *630:27 6.62684e-05
8 *1190:B1 *630:35 7.95969e-05
9 *145:18 *1171:A2 9.24136e-05
10 *145:18 *1224:B2 0.000206174
11 *145:18 *1230:A2 5.86304e-05
12 *145:18 *535:16 3.15419e-05
13 *145:18 *563:45 0.000458809
14 *145:18 *592:55 1.42325e-05
15 *1173:A2 *145:18 0.000649033
16 *1176:A2 *145:18 1.34936e-05
17 *1178:B1 *145:18 6.33266e-05
18 *1181:A2 *145:18 0.000157044
19 *1189:A1 *145:18 9.41235e-05
20 *1189:A3 *145:18 5.75488e-05
21 *1203:A2 *145:18 3.76132e-05
22 *114:28 *145:18 3.76132e-05
23 *131:35 *145:18 0.000310257
24 *141:32 *1190:B1 0.000300341
*RES
1 *1189:X *145:18 10.1987 
2 *145:18 *1201:A2 1.6 
3 *145:18 *1190:B1 4.825 
*END

*D_NET *146 0.00130719
*CONN
*I *1191:B1 I *D sky130_fd_sc_hd__a31o_2
*I *1190:Y O *D sky130_fd_sc_hd__a311oi_2
*CAP
1 *1191:B1 0.000193304
2 *1190:Y 0.000193304
3 *1191:B1 *1227:B 3.09164e-05
4 *1191:B1 *563:136 0.000516535
5 *1191:B1 *581:16 0.000323137
6 *1191:A2 *1191:B1 4.99911e-05
*RES
1 *1190:Y *1191:B1 13.425 
*END

*D_NET *147 0.00273944
*CONN
*I *1192:B I *D sky130_fd_sc_hd__xnor2_2
*I *1191:X O *D sky130_fd_sc_hd__a31o_2
*CAP
1 *1192:B 0.000509977
2 *1191:X 0.000509977
3 *1192:B *1603:B 0.000212198
4 *1192:B *1604:C1 4.90123e-05
5 *1192:B *157:12 1.0397e-05
6 *1192:B *592:51 0.000636461
7 y[0] *1192:B 5.12581e-05
8 *1178:A2 *1192:B 7.86172e-05
9 *1190:A2 *1192:B 0.00016185
10 *1192:A *1192:B 0.000298531
11 *1646:A *1192:B 4.89395e-05
12 *114:28 *1192:B 5.77377e-07
13 *116:33 *1192:B 6.27968e-05
14 *117:38 *1192:B 0.000108844
*RES
1 *1191:X *1192:B 20.34 
*END

*D_NET *148 0.00157564
*CONN
*I *1195:A2 I *D sky130_fd_sc_hd__o21ai_2
*I *1192:Y O *D sky130_fd_sc_hd__xnor2_2
*CAP
1 *1195:A2 0.000288855
2 *1192:Y 0.000288855
3 *1195:A2 *1195:B1 0.000266759
4 *1195:A2 *1710:A 0.000460968
5 *1631:A *1195:A2 0.000173916
6 *1657:A *1195:A2 9.62841e-05
*RES
1 *1192:Y *1195:A2 15.75 
*END

*D_NET *149 0.00586799
*CONN
*I *1194:C1 I *D sky130_fd_sc_hd__o221a_2
*I *1193:X O *D sky130_fd_sc_hd__or2_2
*CAP
1 *1194:C1 0.00127226
2 *1193:X 0.00127226
3 *1194:C1 *1156:B 7.63573e-05
4 *1194:C1 *1194:A1 5.39046e-05
5 *1194:C1 *1215:A2 0.000297618
6 *1194:C1 *1592:A 1.88602e-05
7 *1194:C1 *1710:A 4.78497e-05
8 *1194:C1 *1735:A 1.00558e-05
9 *1194:C1 *156:14 0.00107596
10 *1178:B1 *1194:C1 3.2267e-05
11 *1191:A3 *1194:C1 2.09951e-05
12 *1193:B *1194:C1 0.00167074
13 *1646:A *1194:C1 1.88602e-05
*RES
1 *1193:X *1194:C1 13.2992 
*END

*D_NET *150 0.00236169
*CONN
*I *1195:B1 I *D sky130_fd_sc_hd__o21ai_2
*I *1194:X O *D sky130_fd_sc_hd__o221a_2
*CAP
1 *1195:B1 0.000493706
2 *1194:X 0.000493706
3 *1195:B1 *1194:B2 4.66108e-05
4 *1195:B1 *1195:A1 2.75229e-05
5 *1195:B1 *1710:A 1.07069e-05
6 *1195:B1 *1732:A 0.000293726
7 *1195:B1 *560:18 6.18095e-05
8 *1195:B1 *618:8 1.08105e-05
9 y[2] *1195:B1 0.000431821
10 y[3] *1195:B1 0
11 *1195:A2 *1195:B1 0.000266759
12 *1631:A *1195:B1 0.000176219
13 *1657:A *1195:B1 4.82919e-05
*RES
1 *1194:X *1195:B1 19.98 
*END

*D_NET *151 0.00374234
*CONN
*I *1198:A_N I *D sky130_fd_sc_hd__nand2b_2
*I *1218:B1 I *D sky130_fd_sc_hd__a31o_2
*I *1206:B I *D sky130_fd_sc_hd__or2_2
*I *1196:Y O *D sky130_fd_sc_hd__nor2_2
*CAP
1 *1198:A_N 5.77042e-05
2 *1218:B1 0.000197459
3 *1206:B 0.000226951
4 *1196:Y 6.86473e-05
5 *151:33 0.000527682
6 *151:6 0.000568117
7 *1198:A_N *1207:C1 0.000120655
8 *1206:B *1184:B 0.000337302
9 *1206:B *1196:A 1.7635e-05
10 *1206:B *1207:C1 1.12643e-05
11 *1206:B *1208:A2 7.96104e-06
12 *1206:B *1213:B 2.97004e-06
13 *1206:B *1613:A 0.000429454
14 *1218:B1 *1174:A 0.000173724
15 *1218:B1 *1177:A2 0.000122817
16 *1218:B1 *1187:B 1.07628e-05
17 *1218:B1 *1194:A1 0.000163412
18 *1218:B1 *1218:A1 6.95532e-05
19 *1218:B1 *1218:A2 0.000121659
20 *1218:B1 *1218:A3 8.7152e-06
21 *1218:B1 *152:21 9.51151e-07
22 *151:6 *1196:A 4.66108e-05
23 *151:33 *1174:A 4.36573e-05
24 *151:33 *1194:A1 0.000104672
25 *151:33 *1208:B1 4.82863e-05
26 *151:33 *1735:A 4.66108e-05
27 *114:12 *1206:B 0.000103431
28 *114:22 *1206:B 4.77148e-05
29 *140:20 *151:6 8.73389e-06
30 *140:20 *151:33 4.72251e-05
*RES
1 *1196:Y *151:6 2.395 
2 *151:6 *1206:B 8.87268 
3 *151:6 *151:33 5.9 
4 *151:33 *1218:B1 8.925 
5 *151:33 *1198:A_N 4.74 
*END

*D_NET *152 0.00195428
*CONN
*I *1207:A2 I *D sky130_fd_sc_hd__o221a_2
*I *1198:B I *D sky130_fd_sc_hd__nand2b_2
*I *1218:A1 I *D sky130_fd_sc_hd__a31o_2
*I *1197:Y O *D sky130_fd_sc_hd__nand2_2
*CAP
1 *1207:A2 0.000146924
2 *1198:B 0
3 *1218:A1 8.919e-05
4 *1197:Y 5.31794e-05
5 *152:21 0.000227015
6 *152:8 0.00022246
7 *1207:A2 *1194:A1 0.000159966
8 *1207:A2 *1207:B1 5.36673e-05
9 *1207:A2 *1207:B2 4.82919e-05
10 *1207:A2 *1207:C1 0.000126949
11 *1207:A2 *1208:B1 5.32441e-05
12 *1207:A2 *153:12 4.55864e-06
13 *1218:A1 *1187:B 0.000131263
14 *1218:A1 *1218:A2 4.89395e-05
15 *152:8 *157:25 0.000122331
16 *152:21 *1187:B 4.66474e-05
17 *152:21 *1194:A1 0.000161151
18 *152:21 *153:12 6.3096e-05
19 *1218:B1 *1218:A1 6.95532e-05
20 *1218:B1 *152:21 9.51151e-07
21 *117:20 *1207:A2 0
22 *140:20 *1207:A2 0.0001249
*RES
1 *1197:Y *152:8 4.74 
2 *152:8 *1218:A1 5.685 
3 *152:8 *152:21 2.145 
4 *152:21 *1198:B 3.6 
5 *152:21 *1207:A2 7.575 
*END

*D_NET *153 0.00520156
*CONN
*I *1205:A I *D sky130_fd_sc_hd__xor2_2
*I *1207:B1 I *D sky130_fd_sc_hd__o221a_2
*I *1213:A I *D sky130_fd_sc_hd__and2_2
*I *1215:A1 I *D sky130_fd_sc_hd__a211o_2
*I *1212:A1 I *D sky130_fd_sc_hd__a21oi_2
*I *1214:A I *D sky130_fd_sc_hd__nand2_2
*I *1216:D I *D sky130_fd_sc_hd__or4_2
*I *1198:Y O *D sky130_fd_sc_hd__nand2b_2
*CAP
1 *1205:A 0
2 *1207:B1 9.13228e-05
3 *1213:A 0.000130036
4 *1215:A1 0
5 *1212:A1 2.76793e-05
6 *1214:A 0.000195975
7 *1216:D 0.000149396
8 *1198:Y 8.94525e-05
9 *153:59 0.000137689
10 *153:31 0.000289221
11 *153:27 0.000574043
12 *153:12 0.000753636
13 *153:10 0.000194738
14 *153:8 8.94525e-05
15 *1207:B1 *1205:B 8.7152e-06
16 *1207:B1 *1207:C1 0.000126949
17 *1207:B1 *1208:B1 4.78756e-05
18 *1212:A1 *1149:A 1.40867e-05
19 *1212:A1 *1323:A1 4.31915e-05
20 *1213:A *1207:C1 2.75145e-05
21 *1213:A *1213:B 0.000111567
22 *1213:A *630:62 5.3661e-05
23 *1214:A *1323:A1 6.78328e-05
24 *1216:D *1177:A2 0.0001293
25 *1216:D *1187:B 0.000250492
26 *1216:D *1216:B 1.84465e-05
27 *1216:D *544:29 1.51074e-05
28 *1216:D *592:51 4.00257e-05
29 *1216:D *604:40 2.8531e-05
30 *153:8 *1207:C1 4.66826e-05
31 *153:8 *1208:A2 1.34503e-05
32 *153:12 *1187:B 7.09057e-05
33 *153:12 *1205:B 0.000194918
34 *153:27 *1194:A1 0.000132993
35 *153:27 *1735:A 7.57564e-05
36 *153:31 *630:62 0.000120047
37 *153:59 *630:62 1.92979e-05
38 *1191:A3 *153:27 1.81196e-05
39 *1193:B *153:27 0.000379274
40 *1207:A2 *1207:B1 5.36673e-05
41 *1207:A2 *153:12 4.55864e-06
42 *114:12 *1213:A 2.0851e-06
43 *114:22 *1213:A 5.05066e-06
44 *114:22 *153:27 7.35057e-05
45 *115:24 *153:27 3.61873e-05
46 *117:20 *1207:B1 6.63966e-05
47 *117:20 *1216:D 7.86882e-05
48 *117:20 *153:12 5.53549e-06
49 *131:20 *1213:A 0
50 *131:20 *153:31 3.54027e-05
51 *152:21 *153:12 6.3096e-05
*RES
1 *1198:Y *153:8 3.1 
2 *153:8 *153:10 2 
3 *153:10 *153:12 2.5275 
4 *153:12 *1216:D 7.6575 
5 *153:12 *153:27 2.20333 
6 *153:27 *153:31 3.5075 
7 *153:31 *1214:A 5.41 
8 *153:31 *1212:A1 2.755 
9 *153:27 *153:59 0.2325 
10 *153:59 *1215:A1 3.6 
11 *153:59 *1213:A 6.195 
12 *153:10 *1207:B1 5.93625 
13 *153:8 *1205:A 1.6 
*END

*D_NET *154 0.00143911
*CONN
*I *1203:B1 I *D sky130_fd_sc_hd__o211ai_2
*I *1218:A2 I *D sky130_fd_sc_hd__a31o_2
*I *1199:X O *D sky130_fd_sc_hd__o31a_2
*CAP
1 *1203:B1 0
2 *1218:A2 0.000244851
3 *1199:X 0.000114364
4 *154:8 0.000359215
5 *1218:A2 *1177:A2 3.83194e-05
6 *1218:A2 *1203:C1 1.77461e-05
7 *1218:A2 *1204:B1 4.77807e-05
8 *1218:A2 *563:26 2.39856e-05
9 *154:8 *1199:A2 3.94628e-05
10 *154:8 *1204:B1 2.0187e-05
11 *1199:A1 *154:8 2.01934e-05
12 *1218:A1 *1218:A2 4.89395e-05
13 *1218:B1 *1218:A2 0.000121659
14 *106:14 *1218:A2 2.1553e-05
15 *106:14 *154:8 0.000196873
16 *140:31 *154:8 0.00012398
*RES
1 *1199:X *154:8 5.17 
2 *154:8 *1218:A2 5.98 
3 *154:8 *1203:B1 1.6 
*END

*D_NET *155 0.00154094
*CONN
*I *1201:B1 I *D sky130_fd_sc_hd__a21o_2
*I *1200:X O *D sky130_fd_sc_hd__and2b_2
*CAP
1 *1201:B1 0.000426538
2 *1200:X 0.000426538
3 *1201:B1 *1179:A 8.64421e-05
4 *1201:B1 *1190:A3 4.66108e-05
5 *1201:B1 *630:35 4.66108e-05
6 *1173:A2 *1201:B1 0.000331104
7 *1179:B *1201:B1 4.23612e-05
8 *1203:A2 *1201:B1 4.72867e-05
9 *114:28 *1201:B1 8.74464e-05
*RES
1 *1200:X *1201:B1 14.535 
*END

*D_NET *156 0.00519682
*CONN
*I *1204:A2 I *D sky130_fd_sc_hd__o31a_2
*I *1212:A2 I *D sky130_fd_sc_hd__a21oi_2
*I *1215:A2 I *D sky130_fd_sc_hd__a211o_2
*I *1201:X O *D sky130_fd_sc_hd__a21o_2
*CAP
1 *1204:A2 9.14036e-05
2 *1212:A2 1.5346e-05
3 *1215:A2 0.000207798
4 *1201:X 0.000178216
5 *156:14 0.000834172
6 *156:10 0.000880648
7 *1204:A2 *1199:A2 1.87653e-05
8 *1204:A2 *1204:B1 6.86215e-05
9 *1212:A2 *1214:B 4.55864e-06
10 *1215:A2 *1156:B 7.98307e-05
11 *1215:A2 *1193:A 4.77757e-05
12 *1215:A2 *1214:B 7.02844e-05
13 *1215:A2 *1229:B 7.50406e-05
14 *1215:A2 *169:14 0.000134462
15 *1215:A2 *172:24 0.000188667
16 *156:10 *1190:A3 9.26553e-05
17 *156:10 *1199:A2 4.76082e-05
18 *156:10 *630:35 2.88357e-05
19 *156:14 *1156:B 5.68759e-05
20 *156:14 *592:55 0.000239147
21 *1178:B1 *156:14 3.33302e-05
22 *1194:C1 *1215:A2 0.000297618
23 *1194:C1 *156:14 0.00107596
24 *1603:A *1204:A2 0.000172608
25 *1603:A *156:10 0.000160568
26 *117:22 *156:10 5.5995e-05
27 *131:20 *1212:A2 4.0031e-05
*RES
1 *1201:X *156:10 7.5975 
2 *156:10 *156:14 2.22773 
3 *156:14 *1215:A2 9.37357 
4 *156:14 *1212:A2 4.5875 
5 *156:10 *1204:A2 5.8725 
*END

*D_NET *157 0.00538079
*CONN
*I *1213:B I *D sky130_fd_sc_hd__and2_2
*I *1214:B I *D sky130_fd_sc_hd__nand2_2
*I *1204:A3 I *D sky130_fd_sc_hd__o31a_2
*I *1202:X O *D sky130_fd_sc_hd__and4_2
*CAP
1 *1213:B 5.23981e-05
2 *1214:B 0.000348984
3 *1204:A3 0
4 *1202:X 0.000652764
5 *157:25 0.000987773
6 *157:12 0.00123915
7 *1213:B *630:62 0.000135439
8 *1214:B *1156:B 0
9 *1214:B *1229:B 9.27326e-05
10 *1214:B *169:14 6.97202e-05
11 *157:12 *1710:A 7.77167e-06
12 *157:12 *563:8 7.01132e-05
13 *157:12 *563:128 0.000180988
14 *157:12 *581:38 0
15 *157:12 *592:51 0.000232176
16 *157:25 *1187:B 0.000336741
17 *157:25 *1197:A 1.19928e-05
18 *157:25 *1204:A1 6.03947e-06
19 *157:25 *1229:B 6.07575e-06
20 *157:25 *165:8 0.000119762
21 *157:25 *563:8 2.14226e-05
22 *157:25 *563:20 2.31166e-05
23 *157:25 *619:30 0.000119425
24 *1191:A2 *157:12 9.05535e-05
25 *1192:B *157:12 1.0397e-05
26 *1193:B *1214:B 7.91413e-05
27 *1193:B *157:12 1.62834e-05
28 *1202:D *157:12 4.05867e-05
29 *1206:B *1213:B 2.97004e-06
30 *1212:A2 *1214:B 4.55864e-06
31 *1213:A *1213:B 0.000111567
32 *1215:A2 *1214:B 7.02844e-05
33 *1625:A *157:12 6.12882e-05
34 *114:12 *1213:B 0
35 *114:28 *157:12 0
36 *131:20 *1214:B 5.62441e-05
37 *140:20 *157:12 0
38 *152:8 *157:25 0.000122331
*RES
1 *1202:X *157:12 17.255 
2 *157:12 *1204:A3 1.6 
3 *157:12 *157:25 9.555 
4 *157:25 *1214:B 10.775 
5 *157:25 *1213:B 7.235 
*END

*D_NET *158 0.000424787
*CONN
*I *1204:B1 I *D sky130_fd_sc_hd__o31a_2
*I *1203:Y O *D sky130_fd_sc_hd__o211ai_2
*CAP
1 *1204:B1 0.000129831
2 *1203:Y 0.000129831
3 *1204:B1 *1199:A2 2.85364e-05
4 *1204:A2 *1204:B1 6.86215e-05
5 *1218:A2 *1204:B1 4.77807e-05
6 *114:22 *1204:B1 0
7 *154:8 *1204:B1 2.0187e-05
*RES
1 *1203:Y *1204:B1 9.63 
*END

*D_NET *159 0.000543373
*CONN
*I *1205:B I *D sky130_fd_sc_hd__xor2_2
*I *1204:X O *D sky130_fd_sc_hd__o31a_2
*CAP
1 *1205:B 7.1087e-05
2 *1204:X 7.1087e-05
3 *1207:B1 *1205:B 8.7152e-06
4 *117:20 *1205:B 0.000197566
5 *153:12 *1205:B 0.000194918
*RES
1 *1204:X *1205:B 8 
*END

*D_NET *160 0.00166264
*CONN
*I *1208:A2 I *D sky130_fd_sc_hd__o21ai_2
*I *1205:X O *D sky130_fd_sc_hd__xor2_2
*CAP
1 *1208:A2 0.000614744
2 *1205:X 0.000614744
3 *1208:A2 *1187:B 7.9642e-06
4 *1208:A2 *1196:A 1.56383e-05
5 *1208:A2 *1207:C1 0.000303575
6 *1208:A2 *1208:A1 6.10968e-05
7 *1208:A2 *1735:A 2.34691e-05
8 *1206:B *1208:A2 7.96104e-06
9 *153:8 *1208:A2 1.34503e-05
*RES
1 *1205:X *1208:A2 14.91 
*END

*D_NET *161 0.00242717
*CONN
*I *1207:C1 I *D sky130_fd_sc_hd__o221a_2
*I *1206:X O *D sky130_fd_sc_hd__or2_2
*CAP
1 *1207:C1 0.000359525
2 *1206:X 0.000359525
3 *1207:C1 *1164:A1 0.000120655
4 *1207:C1 *1187:B 0.000594598
5 *1207:C1 *1206:A 4.66108e-05
6 *1207:C1 *1233:B1 9.02259e-05
7 *1207:C1 *545:51 4.82863e-05
8 *1207:C1 *557:21 2.49909e-05
9 *1187:A *1207:C1 1.91597e-05
10 *1198:A_N *1207:C1 0.000120655
11 *1206:B *1207:C1 1.12643e-05
12 *1207:A2 *1207:C1 0.000126949
13 *1207:B1 *1207:C1 0.000126949
14 *1208:A2 *1207:C1 0.000303575
15 *1213:A *1207:C1 2.75145e-05
16 *153:8 *1207:C1 4.66826e-05
*RES
1 *1206:X *1207:C1 17.565 
*END

*D_NET *162 0.000826568
*CONN
*I *1208:B1 I *D sky130_fd_sc_hd__o21ai_2
*I *1207:X O *D sky130_fd_sc_hd__o221a_2
*CAP
1 *1208:B1 0.000243103
2 *1207:X 0.000243103
3 *1208:B1 *1207:B2 9.4988e-05
4 *1208:B1 *550:10 5.30673e-05
5 *1207:A2 *1208:B1 5.32441e-05
6 *1207:B1 *1208:B1 4.78756e-05
7 *140:20 *1208:B1 4.29016e-05
8 *151:33 *1208:B1 4.82863e-05
*RES
1 *1207:X *1208:B1 7.445 
*END

*D_NET *163 0.00275051
*CONN
*I *1224:A2 I *D sky130_fd_sc_hd__o221a_2
*I *1231:B1 I *D sky130_fd_sc_hd__o21a_2
*I *1262:A1 I *D sky130_fd_sc_hd__o21a_2
*I *1209:Y O *D sky130_fd_sc_hd__nand2_2
*CAP
1 *1224:A2 0
2 *1231:B1 8.16758e-05
3 *1262:A1 0.000241236
4 *1209:Y 5.81745e-05
5 *163:29 0.000188744
6 *163:8 0.000406479
7 *1231:B1 *1224:B1 4.0032e-05
8 *1231:B1 *170:22 0.000215216
9 *1231:B1 *173:22 4.77807e-05
10 *1231:B1 *543:14 4.39123e-05
11 *1231:B1 *543:18 8.25446e-05
12 *1231:B1 *543:20 1.19928e-05
13 *1262:A1 *1182:A1 9.93482e-05
14 *1262:A1 *1223:A1 6.81919e-05
15 *1262:A1 *1225:A1 8.89497e-05
16 *1262:A1 *1249:A1 5.83121e-06
17 *1262:A1 *1263:A 7.58604e-05
18 *1262:A1 *1721:A 0.000195311
19 *1262:A1 *190:20 3.7445e-05
20 *1262:A1 *193:22 1.89738e-05
21 *163:8 *1223:A2 0.000191343
22 *163:8 *585:24 0.000119873
23 *163:8 *585:35 3.57349e-05
24 *163:29 *1223:A1 6.60907e-06
25 *163:29 *1224:B2 6.04678e-05
26 *163:29 *1225:A1 0.000218366
27 *163:29 *1254:A3 0
28 *163:29 *170:22 4.66108e-05
29 *163:29 *184:16 1.32026e-05
30 *163:29 *543:14 5.05981e-05
*RES
1 *1209:Y *163:8 5.43 
2 *163:8 *1262:A1 8.97 
3 *163:8 *163:29 5.105 
4 *163:29 *1231:B1 4.465 
5 *163:29 *1224:A2 1.6 
*END

*D_NET *164 0.00261094
*CONN
*I *1229:A I *D sky130_fd_sc_hd__nand2_2
*I *1704:A I *D sky130_fd_sc_hd__buf_2
*I *1210:Y O *D sky130_fd_sc_hd__xnor2_2
*CAP
1 *1229:A 0.000433829
2 *1704:A 0.000144847
3 *1210:Y 0
4 *164:4 0.000578676
5 *1229:A *1174:B 1.14192e-05
6 *1229:A *1230:A2 4.66108e-05
7 *1229:A *170:22 0.000195589
8 *1229:A *184:16 0.000257295
9 *1704:A *1156:A 4.58262e-06
10 *1704:A *1156:B 0.000165937
11 *1704:A *1226:A 0.000115945
12 *1704:A *1226:B 0.000114649
13 *1704:A *1322:B2 4.77719e-05
14 *1704:A *1323:A1 2.68464e-05
15 *1704:A *184:16 4.77719e-05
16 *1704:A *550:46 9.65637e-05
17 *1189:A1 *1229:A 1.83114e-05
18 *1189:B1 *1229:A 0.000180284
19 *131:20 *1229:A 0.000124014
*RES
1 *1210:Y *164:4 1.6 
2 *164:4 *1704:A 10.175 
3 *164:4 *1229:A 13.67 
*END

*D_NET *165 0.000705659
*CONN
*I *1215:B1 I *D sky130_fd_sc_hd__a211o_2
*I *1212:B1 I *D sky130_fd_sc_hd__a21oi_2
*I *1211:X O *D sky130_fd_sc_hd__and2b_2
*CAP
1 *1215:B1 0
2 *1212:B1 7.70434e-05
3 *1211:X 6.79372e-05
4 *165:8 0.000144981
5 *1212:B1 *1215:C1 8.7152e-06
6 *1212:B1 *1229:B 1.27837e-05
7 *1212:B1 *172:24 4.53346e-05
8 *1212:B1 *630:62 0.000151258
9 *165:8 *1229:B 7.78444e-05
10 *157:25 *165:8 0.000119762
*RES
1 *1211:X *165:8 3.355 
2 *165:8 *1212:B1 7.49 
3 *165:8 *1215:B1 1.6 
*END

*D_NET *166 0.00306812
*CONN
*I *1323:A1 I *D sky130_fd_sc_hd__o21ai_2
*I *1212:Y O *D sky130_fd_sc_hd__a21oi_2
*CAP
1 *1323:A1 0.000921462
2 *1212:Y 0.000921462
3 *1323:A1 *1149:A 4.66108e-05
4 *1323:A1 *1270:A 0.000269339
5 *1323:A1 *1270:B 6.14645e-05
6 *1323:A1 *1322:B2 0.000352095
7 *1323:A1 *173:22 8.23457e-05
8 *1323:A1 *543:14 0.000193129
9 *1212:A1 *1323:A1 4.31915e-05
10 *1214:A *1323:A1 6.78328e-05
11 *1704:A *1323:A1 2.68464e-05
12 *107:10 *1323:A1 8.23457e-05
*RES
1 *1212:Y *1323:A1 19.88 
*END

*D_NET *167 0.000341974
*CONN
*I *1215:C1 I *D sky130_fd_sc_hd__a211o_2
*I *1213:X O *D sky130_fd_sc_hd__and2_2
*CAP
1 *1215:C1 5.35009e-05
2 *1213:X 5.35009e-05
3 *1215:C1 *1196:B 9.30787e-05
4 *1215:C1 *619:30 1.74306e-05
5 *1215:C1 *630:62 0.000115748
6 *1212:B1 *1215:C1 8.7152e-06
*RES
1 *1213:X *1215:C1 8.835 
*END

*D_NET *168 0.00368126
*CONN
*I *1322:B2 I *D sky130_fd_sc_hd__o221a_2
*I *1214:Y O *D sky130_fd_sc_hd__nand2_2
*CAP
1 *1322:B2 0.00063529
2 *1214:Y 0.00063529
3 *1322:B2 *1225:A2 0.000154981
4 *1322:B2 *1270:A 0.000105675
5 *1322:B2 *1270:B 0.000194302
6 *1322:B2 *1319:A_N 1.48851e-05
7 *1322:B2 *1322:B1 0.000201232
8 *1322:B2 *1323:A2 0.000126425
9 *1322:B2 *1377:A 1.10951e-05
10 *1322:B2 *215:8 2.3228e-05
11 *1322:B2 *269:10 1.56428e-05
12 *1322:B2 *561:25 0.000325822
13 *1322:B2 *561:39 0.000837527
14 *1323:A1 *1322:B2 0.000352095
15 *1704:A *1322:B2 4.77719e-05
*RES
1 *1214:Y *1322:B2 25.8 
*END

*D_NET *169 0.00484451
*CONN
*I *1229:B I *D sky130_fd_sc_hd__nand2_2
*I *1221:A2 I *D sky130_fd_sc_hd__o21ai_2
*I *1242:A2 I *D sky130_fd_sc_hd__a31o_2
*I *1215:X O *D sky130_fd_sc_hd__a211o_2
*CAP
1 *1229:B 0.00031979
2 *1221:A2 1.65033e-05
3 *1242:A2 0.000185852
4 *1215:X 0
5 *169:14 0.000625532
6 *169:4 0.000742967
7 *1221:A2 *172:24 2.49909e-05
8 *1221:A2 *173:8 4.66108e-05
9 *1229:B *1174:B 0.000178736
10 *1229:B *1232:A1 4.91032e-05
11 *1229:B *172:24 0.000229983
12 *1229:B *563:26 0.000149922
13 *1229:B *563:28 8.7152e-06
14 *1229:B *630:62 2.53191e-06
15 *1242:A2 *1271:A1 4.77769e-05
16 *1242:A2 *545:70 4.90592e-05
17 *1242:A2 *548:107 0.000446198
18 *1242:A2 *565:20 0.000350626
19 *169:14 *1193:A 0.000196066
20 *169:14 *1221:B1 2.42043e-05
21 *169:14 *1225:A1 4.66108e-05
22 *169:14 *172:24 0.000162533
23 *169:14 *173:8 0.00015896
24 *169:14 *548:107 0.000230284
25 *169:14 *550:46 3.93162e-05
26 *169:14 *565:20 4.29758e-05
27 *1212:B1 *1229:B 1.27837e-05
28 *1214:B *1229:B 9.27326e-05
29 *1214:B *169:14 6.97202e-05
30 *1215:A2 *1229:B 7.50406e-05
31 *1215:A2 *169:14 0.000134462
32 *157:25 *1229:B 6.07575e-06
33 *165:8 *1229:B 7.78444e-05
*RES
1 *1215:X *169:4 1.6 
2 *169:4 *169:14 12.155 
3 *169:14 *1242:A2 9.51 
4 *169:14 *1221:A2 4.05 
5 *169:4 *1229:B 13.67 
*END

*D_NET *170 0.00610886
*CONN
*I *1379:B2 I *D sky130_fd_sc_hd__o221a_2
*I *1219:A I *D sky130_fd_sc_hd__and2_2
*I *1216:X O *D sky130_fd_sc_hd__or4_2
*CAP
1 *1379:B2 0.000170631
2 *1219:A 0
3 *1216:X 0.00185799
4 *170:22 0.00202862
5 *1379:B2 *1379:A1 9.75038e-05
6 *1379:B2 *322:10 6.54766e-05
7 *1379:B2 *545:51 9.05377e-05
8 *1379:B2 *565:20 0
9 *170:22 *1174:B 0.00018955
10 *170:22 *1216:B 4.77769e-05
11 *170:22 *1230:A2 8.54124e-05
12 *170:22 *1266:A1 6.23512e-05
13 *170:22 *1266:A2 4.90227e-05
14 *170:22 *1270:B 7.15312e-05
15 *170:22 *1379:A1 0.000147775
16 *170:22 *173:22 0.000118081
17 *170:22 *184:16 6.07575e-06
18 *170:22 *543:24 5.79099e-06
19 *170:22 *544:94 8.35118e-05
20 *170:22 *550:46 0.000124648
21 *170:22 *592:51 3.71957e-05
22 *170:22 *604:40 0.000286962
23 *1229:A *170:22 0.000195589
24 *1231:B1 *170:22 0.000215216
25 *1603:A *170:22 2.49909e-05
26 *163:29 *170:22 4.66108e-05
*RES
1 *1216:X *170:22 29.91 
2 *170:22 *1219:A 3.6 
3 *170:22 *1379:B2 7.575 
*END

*D_NET *171 0.00270478
*CONN
*I *1218:A3 I *D sky130_fd_sc_hd__a31o_2
*I *1217:X O *D sky130_fd_sc_hd__or2_2
*CAP
1 *1218:A3 0.000682929
2 *1217:X 0.000682929
3 *1218:A3 *1174:A 0.000188712
4 *1218:A3 *1187:B 0
5 *1218:A3 *1233:B1 8.87268e-05
6 *1218:A3 *1234:B1_N 0.000129439
7 *1218:A3 *1235:A1 6.90435e-05
8 *1218:A3 *1235:C1 5.2177e-05
9 *1218:A3 *544:12 0.000171207
10 *1218:A3 *544:29 2.20809e-05
11 *1218:A3 *558:20 2.61834e-05
12 *1218:A3 *558:35 0.000166706
13 *1182:A2 *1218:A3 0.000415929
14 *1218:B1 *1218:A3 8.7152e-06
*RES
1 *1217:X *1218:A3 20.13 
*END

*D_NET *172 0.00542344
*CONN
*I *1219:B I *D sky130_fd_sc_hd__and2_2
*I *1380:B2 I *D sky130_fd_sc_hd__o22a_2
*I *1218:X O *D sky130_fd_sc_hd__a31o_2
*CAP
1 *1219:B 1.29147e-05
2 *1380:B2 0.000407277
3 *1218:X 0.00134694
4 *172:24 0.00176713
5 *1219:B *545:70 3.12916e-05
6 *1380:B2 *1313:A1 0.000220014
7 *1380:B2 *1376:A 4.49498e-05
8 *1380:B2 *1377:A 3.12855e-05
9 *1380:B2 *1377:C 0
10 *1380:B2 *1379:A1 0
11 *1380:B2 *1380:B1 8.0592e-05
12 *1380:B2 *319:16 4.70343e-05
13 *172:24 *1177:A2 2.49909e-05
14 *172:24 *1193:A 7.47563e-05
15 *172:24 *1221:B1 8.46818e-05
16 *172:24 *1225:A1 2.49909e-05
17 *172:24 *1313:A1 1.07593e-05
18 *172:24 *173:8 4.18886e-05
19 *172:24 *545:70 0.000167679
20 *172:24 *550:46 8.35106e-05
21 *172:24 *561:10 8.41384e-05
22 *172:24 *563:26 5.61484e-05
23 *1177:A1 *172:24 8.23457e-05
24 *1177:B1 *172:24 4.66108e-05
25 *1212:B1 *172:24 4.53346e-05
26 *1215:A2 *172:24 0.000188667
27 *1221:A2 *172:24 2.49909e-05
28 *1229:B *172:24 0.000229983
29 *169:14 *172:24 0.000162533
*RES
1 *1218:X *172:24 25.13 
2 *172:24 *1380:B2 13.4 
3 *172:24 *1219:B 1.96 
*END

*D_NET *173 0.0024399
*CONN
*I *1220:B I *D sky130_fd_sc_hd__nand2_2
*I *1231:A2 I *D sky130_fd_sc_hd__o21a_2
*I *1266:A1 I *D sky130_fd_sc_hd__o21ai_2
*I *1219:X O *D sky130_fd_sc_hd__and2_2
*CAP
1 *1220:B 8.54679e-05
2 *1231:A2 0
3 *1266:A1 5.7273e-05
4 *1219:X 0.000137627
5 *173:22 0.000314446
6 *173:8 0.000480268
7 *1220:B *1221:B1 0.000113797
8 *1220:B *548:107 5.47341e-05
9 *1220:B *565:20 0
10 *1266:A1 *543:20 1.79174e-05
11 *1266:A1 *543:24 3.33763e-05
12 *173:8 *1221:B1 4.77769e-05
13 *173:8 *545:70 6.81824e-05
14 *173:22 *1221:B1 2.89143e-05
15 *173:22 *1222:A 0.000161514
16 *173:22 *1222:B 6.4816e-05
17 *173:22 *1254:A3 6.12027e-05
18 *173:22 *543:20 1.5915e-05
19 *173:22 *548:107 0.000107467
20 *173:22 *561:10 3.1191e-05
21 *1221:A2 *173:8 4.66108e-05
22 *1231:B1 *173:22 4.77807e-05
23 *1323:A1 *173:22 8.23457e-05
24 *169:14 *173:8 0.00015896
25 *170:22 *1266:A1 6.23512e-05
26 *170:22 *173:22 0.000118081
27 *172:24 *173:8 4.18886e-05
*RES
1 *1219:X *173:8 6.81 
2 *173:8 *173:22 11.97 
3 *173:22 *1266:A1 3.1 
4 *173:22 *1231:A2 1.6 
5 *173:8 *1220:B 5.745 
*END

*D_NET *174 0.000571729
*CONN
*I *1221:B1 I *D sky130_fd_sc_hd__o21ai_2
*I *1220:Y O *D sky130_fd_sc_hd__nand2_2
*CAP
1 *1221:B1 9.99973e-05
2 *1220:Y 9.99973e-05
3 *1221:B1 *548:107 7.23602e-05
4 *1220:B *1221:B1 0.000113797
5 *1623:A *1221:B1 0
6 *169:14 *1221:B1 2.42043e-05
7 *172:24 *1221:B1 8.46818e-05
8 *173:8 *1221:B1 4.77769e-05
9 *173:22 *1221:B1 2.89143e-05
*RES
1 *1220:Y *1221:B1 9.63 
*END

*D_NET *175 0.000364835
*CONN
*I *1222:B I *D sky130_fd_sc_hd__xnor2_2
*I *1221:Y O *D sky130_fd_sc_hd__o21ai_2
*CAP
1 *1222:B 5.71272e-05
2 *1221:Y 5.71272e-05
3 *1222:B *1222:A 3.12855e-05
4 *1222:B *548:107 0.000154479
5 *173:22 *1222:B 6.4816e-05
*RES
1 *1221:Y *1222:B 9.09 
*END

*D_NET *176 0.000665906
*CONN
*I *1225:A2 I *D sky130_fd_sc_hd__o21ai_2
*I *1222:Y O *D sky130_fd_sc_hd__xnor2_2
*CAP
1 *1225:A2 0.000174379
2 *1222:Y 0.000174379
3 *1225:A2 *1156:A 1.10951e-05
4 *1225:A2 *1156:B 5.26905e-05
5 *1225:A2 *550:32 9.12494e-06
6 *1225:A2 *550:46 8.9257e-05
7 *1322:B2 *1225:A2 0.000154981
*RES
1 *1222:Y *1225:A2 10.065 
*END

*D_NET *177 0.000394833
*CONN
*I *1224:C1 I *D sky130_fd_sc_hd__o221a_2
*I *1223:Y O *D sky130_fd_sc_hd__o21ai_2
*CAP
1 *1224:C1 0.000110118
2 *1223:Y 0.000110118
3 *1224:C1 *1222:A 2.1031e-05
4 *1224:C1 *1242:A1 2.41231e-05
5 *1224:C1 *1254:A3 0.000110791
6 *1224:C1 *1271:A1 5.19006e-06
7 *1224:C1 *193:22 1.34618e-05
*RES
1 *1223:Y *1224:C1 9.39 
*END

*D_NET *178 0.000594204
*CONN
*I *1225:B1 I *D sky130_fd_sc_hd__o21ai_2
*I *1224:X O *D sky130_fd_sc_hd__o221a_2
*CAP
1 *1225:B1 0.00015632
2 *1224:X 0.00015632
3 *1225:B1 *1225:A1 0.000257442
4 *1225:B1 *543:14 2.41231e-05
*RES
1 *1224:X *1225:B1 10.365 
*END

*D_NET *179 0.0059768
*CONN
*I *1244:B1 I *D sky130_fd_sc_hd__o21a_2
*I *1236:A2 I *D sky130_fd_sc_hd__o21ai_2
*I *1263:A I *D sky130_fd_sc_hd__or3_2
*I *1226:Y O *D sky130_fd_sc_hd__nand2_2
*CAP
1 *1244:B1 0
2 *1236:A2 0.000615133
3 *1263:A 0.00026845
4 *1226:Y 0.00027409
5 *179:35 0.000791781
6 *179:14 0.000719188
7 *1236:A2 *1175:B 1.54318e-05
8 *1236:A2 *1182:A1 0.000128459
9 *1236:A2 *1224:B2 1.80732e-05
10 *1236:A2 *1227:B 0.000270415
11 *1236:A2 *1228:B 4.66108e-05
12 *1236:A2 *1235:B2 4.63072e-05
13 *1236:A2 *1236:A1 4.55864e-06
14 *1236:A2 *1254:B1 2.49909e-05
15 *1236:A2 *181:10 0.000270415
16 *1236:A2 *196:12 9.20907e-05
17 *1236:A2 *555:98 8.69748e-05
18 *1236:A2 *604:21 6.31535e-05
19 *1263:A *1223:A1 0.000217227
20 *1263:A *1249:A1 3.12907e-05
21 *1263:A *1249:A2 4.66108e-05
22 *1263:A *1253:B 5.93408e-05
23 *1263:A *1254:B1 4.82863e-05
24 *1263:A *1254:C1 0.000119762
25 *1263:A *1263:C 4.21973e-05
26 *1263:A *1721:A 8.34458e-05
27 *1263:A *190:20 6.07575e-06
28 *1263:A *550:65 8.40213e-05
29 *179:14 *1156:A 0.000249636
30 *179:14 *1226:A 0.000296457
31 *179:14 *1249:B1 9.50342e-06
32 *179:14 *1253:B 4.00541e-06
33 *179:14 *550:46 2.49909e-05
34 *179:14 *550:65 4.38881e-05
35 *179:14 *620:10 3.05228e-05
36 *179:14 *620:25 2.30512e-05
37 *179:35 *1253:B 9.41844e-05
38 *179:35 *550:65 0.000203273
39 *1182:A2 *179:35 0.000314602
40 *1182:B1 *179:14 0.000132448
41 *1262:A1 *1263:A 7.58604e-05
*RES
1 *1226:Y *179:14 12.125 
2 *179:14 *1263:A 11.915 
3 *179:14 *179:35 4.965 
4 *179:35 *1236:A2 21.165 
5 *179:35 *1244:B1 1.6 
*END

*D_NET *180 0.00389832
*CONN
*I *1235:A2 I *D sky130_fd_sc_hd__o221a_2
*I *1244:A1 I *D sky130_fd_sc_hd__o21a_2
*I *1227:Y O *D sky130_fd_sc_hd__nor2_2
*CAP
1 *1235:A2 0
2 *1244:A1 0.000196239
3 *1227:Y 0.000815086
4 *180:20 0.00101133
5 *1244:A1 *1235:B1 1.20741e-05
6 *1244:A1 *1235:B2 4.82919e-05
7 *1244:A1 *1235:C1 6.59363e-05
8 *1244:A1 *1244:A2 0.00012438
9 *180:20 *1178:A3 8.8266e-05
10 *180:20 *1227:A 0.000130903
11 *180:20 *1227:B 1.08758e-05
12 *180:20 *1235:A1 5.63183e-05
13 *180:20 *1235:B2 4.82863e-05
14 *180:20 *181:10 7.05244e-05
15 *180:20 *544:12 2.56808e-05
16 *180:20 *558:14 1.42519e-05
17 *180:20 *584:10 0
18 *180:20 *586:12 1.65192e-05
19 *180:20 *622:12 0.000132872
20 y[5] *180:20 6.95739e-05
21 *1178:A1 *180:20 8.8266e-05
22 *1181:B1 *180:20 0.000308713
23 *1182:A2 *1244:A1 0.0002581
24 *1182:A2 *180:20 3.66286e-05
25 *1189:A3 *180:20 0.000195482
26 *1217:B *1244:A1 2.37607e-05
27 *132:6 *180:20 4.99619e-05
*RES
1 *1227:Y *180:20 19.715 
2 *180:20 *1244:A1 6.685 
3 *180:20 *1235:A2 1.6 
*END

*D_NET *181 0.0085146
*CONN
*I *1234:A1 I *D sky130_fd_sc_hd__a21bo_2
*I *1233:A1 I *D sky130_fd_sc_hd__o21a_2
*I *1241:A3 I *D sky130_fd_sc_hd__a31o_2
*I *1242:A3 I *D sky130_fd_sc_hd__a31o_2
*I *1262:A2 I *D sky130_fd_sc_hd__o21a_2
*I *1319:B I *D sky130_fd_sc_hd__nand4b_2
*I *1265:B I *D sky130_fd_sc_hd__or4_2
*I *1235:B1 I *D sky130_fd_sc_hd__o221a_2
*I *1228:Y O *D sky130_fd_sc_hd__xnor2_2
*CAP
1 *1234:A1 6.31057e-05
2 *1233:A1 0
3 *1241:A3 0
4 *1242:A3 6.56938e-05
5 *1262:A2 0.000197705
6 *1319:B 0.000233995
7 *1265:B 3.1743e-05
8 *1235:B1 4.63573e-05
9 *1228:Y 0.000182354
10 *181:73 0.000263399
11 *181:49 0.000601016
12 *181:47 0.000878059
13 *181:33 0.000754062
14 *181:29 0.000267316
15 *181:25 0.000183946
16 *181:10 0.000293516
17 *1234:A1 *1233:A2 0.000132488
18 *1234:A1 *1233:B1 1.81227e-05
19 *1234:A1 *1235:C1 0.000133233
20 *1234:A1 *584:10 1.75055e-05
21 *1234:A1 *619:24 8.7152e-06
22 *1235:B1 *1235:C1 1.12643e-05
23 *1235:B1 *584:10 1.88602e-05
24 *1242:A3 *1271:A1 4.77807e-05
25 *1242:A3 *545:70 0.000126425
26 *1242:A3 *548:107 7.41023e-05
27 *1262:A2 *1180:B1 3.32709e-05
28 *1262:A2 *1264:A3 8.8266e-05
29 *1262:A2 *189:10 0
30 *1262:A2 *189:25 0
31 *1262:A2 *190:20 8.57237e-05
32 *1262:A2 *545:70 0.000252954
33 *1262:A2 *548:107 3.81629e-05
34 *1265:B *1269:B1 4.99619e-05
35 *1319:B *1266:A2 9.87566e-05
36 *1319:B *1271:B1 4.57506e-05
37 *1319:B *1319:C 4.66108e-05
38 *1319:B *214:8 0.000138918
39 *1319:B *220:12 0.000173792
40 *1319:B *265:8 2.65814e-06
41 *1319:B *543:24 0.000191343
42 *181:10 *1235:A1 5.06382e-06
43 *181:10 *1240:A_N 4.41506e-05
44 *181:10 *555:98 6.01127e-05
45 *181:10 *584:10 7.6323e-05
46 *181:10 *622:49 4.82919e-05
47 *181:25 *1235:C1 0.000133268
48 *181:25 *584:10 6.93439e-05
49 *181:33 *1226:A 0.000492116
50 *181:33 *1241:A2 2.05056e-05
51 *181:33 *1241:B1 0.000161623
52 *181:47 *1171:A1 9.73969e-05
53 *181:47 *1171:A2 9.98772e-05
54 *181:47 *1176:B1 4.82919e-05
55 *181:47 *1223:B1 1.34594e-05
56 *181:47 *1226:A 0.000146267
57 *181:47 *1241:A2 0.000235668
58 *181:47 *189:10 1.9415e-05
59 *181:47 *195:10 0.000191746
60 *181:49 *1243:B 1.83847e-05
61 *181:49 *1265:D 9.57985e-05
62 *181:49 *1269:B1 3.66286e-05
63 *181:49 *189:10 3.84812e-05
64 *1182:A2 *181:47 8.49205e-05
65 *1236:A2 *181:10 0.000270415
66 *1241:A1 *181:33 2.75145e-05
67 *1244:A1 *1235:B1 1.20741e-05
68 *180:20 *181:10 7.05244e-05
*RES
1 *1228:Y *181:10 8.3925 
2 *181:10 *1235:B1 4.39125 
3 *181:10 *181:25 1.7625 
4 *181:25 *181:29 2.795 
5 *181:29 *181:33 5.295 
6 *181:33 *181:47 10.89 
7 *181:47 *181:49 3.9 
8 *181:49 *1265:B 2.05 
9 *181:49 *1319:B 11.645 
10 *181:47 *181:73 2 
11 *181:73 *1262:A2 8.685 
12 *181:73 *1242:A3 5.685 
13 *181:33 *1241:A3 1.6 
14 *181:29 *1233:A1 1.6 
15 *181:25 *1234:A1 5.745 
*END

*D_NET *182 0.000443361
*CONN
*I *1232:A1 I *D sky130_fd_sc_hd__a22o_2
*I *1229:Y O *D sky130_fd_sc_hd__nand2_2
*CAP
1 *1232:A1 0.000102043
2 *1229:Y 0.000102043
3 *1232:A1 *1174:B 8.7152e-06
4 *1232:A1 *1232:A2 8.88524e-05
5 *1232:A1 *1232:B2 3.53401e-05
6 *1232:A1 *563:28 2.24911e-05
7 *1177:B1 *1232:A1 3.4773e-05
8 *1229:B *1232:A1 4.91032e-05
*RES
1 *1229:Y *1232:A1 9.345 
*END

*D_NET *183 0.000709498
*CONN
*I *1232:A2 I *D sky130_fd_sc_hd__a22o_2
*I *1230:Y O *D sky130_fd_sc_hd__a21oi_2
*CAP
1 *1232:A2 0.000169706
2 *1230:Y 0.000169706
3 *1232:A2 *1232:B2 3.84918e-06
4 *1232:A2 *1244:A2 5.31158e-06
5 *1232:A2 *630:35 6.8725e-06
6 *1177:B1 *1232:A2 0.000109592
7 *1189:B1 *1232:A2 0.000155608
8 *1232:A1 *1232:A2 8.88524e-05
*RES
1 *1230:Y *1232:A2 10.1888 
*END

*D_NET *184 0.00399486
*CONN
*I *1232:B1 I *D sky130_fd_sc_hd__a22o_2
*I *1244:A2 I *D sky130_fd_sc_hd__o21a_2
*I *1231:X O *D sky130_fd_sc_hd__o21a_2
*CAP
1 *1232:B1 0
2 *1244:A2 0.000293069
3 *1231:X 0.000648921
4 *184:16 0.00094199
5 *1244:A2 *1176:A1 2.3228e-05
6 *1244:A2 *1232:B2 8.33066e-06
7 *1244:A2 *622:49 8.73147e-06
8 *184:16 *1149:A 0.000155608
9 *184:16 *1176:A1 2.47079e-05
10 *184:16 *1209:B 4.66108e-05
11 *184:16 *1210:B 0.000121038
12 *184:16 *1225:A1 9.17857e-05
13 *184:16 *1232:B2 4.66108e-05
14 *184:16 *543:14 0.000110167
15 *184:16 *543:18 0.000121032
16 *184:16 *550:65 0.000115495
17 *184:16 *585:24 4.6075e-05
18 *184:16 *585:35 9.3916e-05
19 *184:16 *620:49 8.23457e-05
20 *184:16 *630:35 8.35157e-05
21 *1177:B1 *1244:A2 9.93404e-06
22 *1182:A2 *1244:A2 0.000163568
23 *1217:A *1244:A2 0.000142346
24 *1229:A *184:16 0.000257295
25 *1232:A2 *1244:A2 5.31158e-06
26 *1241:A1 *1244:A2 0
27 *1244:A1 *1244:A2 0.00012438
28 *1704:A *184:16 4.77719e-05
29 *131:35 *1244:A2 0.000161793
30 *163:29 *184:16 1.32026e-05
31 *170:22 *184:16 6.07575e-06
*RES
1 *1231:X *184:16 17.645 
2 *184:16 *1244:A2 11.525 
3 *184:16 *1232:B1 1.6 
*END

*D_NET *185 0.000534758
*CONN
*I *1234:A2 I *D sky130_fd_sc_hd__a21bo_2
*I *1233:A2 I *D sky130_fd_sc_hd__o21a_2
*I *1232:X O *D sky130_fd_sc_hd__a22o_2
*CAP
1 *1234:A2 0
2 *1233:A2 4.80683e-05
3 *1232:X 7.1947e-05
4 *185:8 0.000120015
5 *1233:A2 *584:10 0.000132488
6 *185:8 *630:35 2.97522e-05
7 *1234:A1 *1233:A2 0.000132488
*RES
1 *1232:X *185:8 2.755 
2 *185:8 *1233:A2 7.235 
3 *185:8 *1234:A2 1.6 
*END

*D_NET *186 0.000420319
*CONN
*I *1234:B1_N I *D sky130_fd_sc_hd__a21bo_2
*I *1233:X O *D sky130_fd_sc_hd__o21a_2
*CAP
1 *1234:B1_N 6.15425e-05
2 *1233:X 6.15425e-05
3 *1234:B1_N *1233:B1 0.000130801
4 *1234:B1_N *619:24 2.40822e-05
5 *1234:B1_N *630:35 1.2912e-05
6 *1218:A3 *1234:B1_N 0.000129439
*RES
1 *1233:X *1234:B1_N 9.0675 
*END

*D_NET *187 0.00140526
*CONN
*I *1235:C1 I *D sky130_fd_sc_hd__o221a_2
*I *1234:X O *D sky130_fd_sc_hd__a21bo_2
*CAP
1 *1235:C1 0.000302053
2 *1234:X 0.000302053
3 *1235:C1 *1233:B1 0.00010973
4 *1235:C1 *1235:B2 4.82919e-05
5 *1235:C1 *619:24 8.44008e-05
6 *1217:B *1235:C1 0.000162851
7 *1218:A3 *1235:C1 5.2177e-05
8 *1234:A1 *1235:C1 0.000133233
9 *1235:B1 *1235:C1 1.12643e-05
10 *1244:A1 *1235:C1 6.59363e-05
11 *181:25 *1235:C1 0.000133268
*RES
1 *1234:X *1235:C1 13.695 
*END

*D_NET *188 0.000100201
*CONN
*I *1236:B1 I *D sky130_fd_sc_hd__o21ai_2
*I *1235:X O *D sky130_fd_sc_hd__o221a_2
*CAP
1 *1236:B1 1.78829e-05
2 *1235:X 1.78829e-05
3 *1236:B1 *1235:B2 4.66108e-05
4 *1182:A2 *1236:B1 1.7824e-05
*RES
1 *1235:X *1236:B1 3.65 
*END

*D_NET *189 0.0035252
*CONN
*I *1252:A1 I *D sky130_fd_sc_hd__a211o_2
*I *1248:A2 I *D sky130_fd_sc_hd__o221a_2
*I *1262:B1 I *D sky130_fd_sc_hd__o21a_2
*I *1237:Y O *D sky130_fd_sc_hd__nand2_2
*CAP
1 *1252:A1 9.25741e-05
2 *1248:A2 2.08101e-05
3 *1262:B1 0
4 *1237:Y 0.000230905
5 *189:25 0.000662411
6 *189:10 0.000779932
7 *1248:A2 *1246:A1 0
8 *1252:A1 *1224:B2 4.92861e-05
9 *1252:A1 *1245:A2 4.66108e-05
10 *1252:A1 *1246:A2 1.12578e-05
11 *1252:A1 *1248:A1 1.15688e-05
12 *1252:A1 *1248:B2 5.09168e-05
13 *189:10 *1180:B1 1.81522e-05
14 *189:10 *1223:B1 8.49205e-05
15 *189:10 *1243:B 4.82919e-05
16 *189:10 *1265:D 5.83121e-06
17 *189:10 *195:10 0.000158965
18 *189:25 *1223:A1 8.09021e-06
19 *189:25 *1246:A2 2.96426e-05
20 *189:25 *1248:A1 4.82863e-05
21 *189:25 *1249:B1 0.000121437
22 *189:25 *1254:A3 1.17309e-05
23 *189:25 *191:8 0.000169074
24 *189:25 *191:12 7.67415e-06
25 *189:25 *191:75 0.000209918
26 *189:25 *620:10 8.49205e-05
27 *1172:C1 *189:10 6.66974e-05
28 *1172:C1 *189:25 0.000123175
29 *1189:A3 *1248:A2 0
30 *1189:A3 *1252:A1 0.00016166
31 *1189:A3 *189:25 1.16578e-05
32 *1254:A2 *189:25 0.000140905
33 *1262:A2 *189:10 0
34 *1262:A2 *189:25 0
35 *181:47 *189:10 1.9415e-05
36 *181:49 *189:10 3.84812e-05
*RES
1 *1237:Y *189:10 8.445 
2 *189:10 *1262:B1 3.6 
3 *189:10 *189:25 13.04 
4 *189:25 *1248:A2 1.96 
5 *189:25 *1252:A1 8.135 
*END

*D_NET *190 0.00434583
*CONN
*I *1264:A1 I *D sky130_fd_sc_hd__o311a_2
*I *1249:A2 I *D sky130_fd_sc_hd__o21ai_2
*I *1252:B1 I *D sky130_fd_sc_hd__a211o_2
*I *1238:Y O *D sky130_fd_sc_hd__nor2_2
*CAP
1 *1264:A1 0
2 *1249:A2 4.49392e-05
3 *1252:B1 0.000387169
4 *1238:Y 0.00017398
5 *190:20 0.00104685
6 *190:12 0.000788725
7 *1249:A2 *1245:B1_N 6.43449e-06
8 *1249:A2 *1253:B 4.66108e-05
9 *1252:B1 *1245:A2 3.56163e-05
10 *1252:B1 *1245:B1_N 0.000199688
11 *1252:B1 *1252:C1 5.59683e-05
12 *190:12 *1238:A 0.000147211
13 *190:12 *1238:B 0.000141368
14 *190:12 *1271:A2 1.60659e-05
15 *190:12 *587:53 0.000163992
16 *190:12 *623:40 0.000154488
17 *190:20 *1249:A1 4.82863e-05
18 *190:20 *1253:B 2.0514e-05
19 *190:20 *1264:A3 0.000270409
20 *190:20 *219:18 3.83194e-05
21 *190:20 *587:53 7.47284e-05
22 *190:20 *623:40 7.63883e-05
23 *1182:A2 *1249:A2 4.76303e-05
24 *1182:A2 *190:20 4.82863e-05
25 *1182:B1 *1249:A2 6.79508e-05
26 *1182:B1 *1252:B1 6.83488e-05
27 *1262:A1 *190:20 3.7445e-05
28 *1262:A2 *190:20 8.57237e-05
29 *1263:A *1249:A2 4.66108e-05
30 *1263:A *190:20 6.07575e-06
*RES
1 *1238:Y *190:12 8.175 
2 *190:12 *190:20 12.22 
3 *190:20 *1252:B1 8.895 
4 *190:20 *1249:A2 4.92 
5 *190:12 *1264:A1 3.6 
*END

*D_NET *191 0.00884974
*CONN
*I *1263:B I *D sky130_fd_sc_hd__or3_2
*I *1270:A I *D sky130_fd_sc_hd__and2_2
*I *1265:C I *D sky130_fd_sc_hd__or4_2
*I *1253:A I *D sky130_fd_sc_hd__nand2_2
*I *1246:A1 I *D sky130_fd_sc_hd__a21oi_2
*I *1248:B1 I *D sky130_fd_sc_hd__o221a_2
*I *1247:A1 I *D sky130_fd_sc_hd__o21ai_2
*I *1239:Y O *D sky130_fd_sc_hd__xnor2_2
*CAP
1 *1263:B 0.000100834
2 *1270:A 0.000274191
3 *1265:C 0
4 *1253:A 0.000235588
5 *1246:A1 0.00018021
6 *1248:B1 3.44127e-05
7 *1247:A1 0.000100696
8 *1239:Y 0.000430053
9 *191:85 0.000762607
10 *191:75 0.000693597
11 *191:27 0.000267025
12 *191:12 0.000285607
13 *191:8 0.000693804
14 *1246:A1 *1246:A2 0.000140904
15 *1247:A1 *1246:A2 9.54657e-06
16 *1247:A1 *1247:A2 4.47176e-05
17 *1247:A1 *1721:A 4.99619e-05
18 *1247:A1 *1738:A 4.82863e-05
19 *1248:B1 *1248:A1 2.97004e-06
20 *1248:B1 *1248:B2 4.05138e-05
21 *1248:B1 *1248:C1 2.15594e-05
22 *1253:A *1246:A2 8.53113e-06
23 *1253:A *1248:A1 0.000111493
24 *1253:A *197:10 1.73877e-05
25 *1253:A *566:30 1.22505e-05
26 *1253:A *620:10 0.000344205
27 *1263:B *1245:B1_N 0
28 *1263:B *1254:A3 3.57349e-05
29 *1263:B *1254:B1 9.80032e-06
30 *1263:B *1254:C1 0.000158072
31 *1263:B *1264:B1 0.000155497
32 *1270:A *1265:A 0.000157939
33 *1270:A *1270:B 8.46818e-05
34 *1270:A *1271:B1 0.000150009
35 *1270:A *1272:A2 0.000103657
36 *1270:A *1319:C 4.87939e-05
37 *1270:A *1323:B1 0.000298407
38 *1270:A *1377:A 8.87378e-05
39 *1270:A *215:8 1.10951e-05
40 *1270:A *220:12 1.18673e-05
41 *191:8 *620:10 5.05521e-05
42 *191:12 *1246:A2 0.000123225
43 *191:27 *1246:A2 8.49205e-05
44 *191:75 *1223:A1 6.73424e-05
45 *191:75 *1254:A3 2.92496e-05
46 *191:85 *1150:A 0.0001947
47 *191:85 *1254:A1 4.60584e-05
48 *191:85 *1254:A3 4.66108e-05
49 *191:85 *1255:B 0.000311889
50 *191:85 *1258:B1 0
51 *191:85 *1263:C 1.6408e-05
52 *191:85 *1264:B1 0.000383646
53 *191:85 *1269:B1 0
54 *191:85 *1271:B1 0.0002088
55 *191:85 *1272:A2 0.000204779
56 *191:85 *1739:A 7.06865e-05
57 *1189:A3 *1246:A1 1.79104e-05
58 *1189:A3 *1248:B1 6.03947e-06
59 *1248:A2 *1246:A1 0
60 *1322:B2 *1270:A 0.000105675
61 *1323:A1 *1270:A 0.000269339
62 *189:25 *191:8 0.000169074
63 *189:25 *191:12 7.67415e-06
64 *189:25 *191:75 0.000209918
*RES
1 *1239:Y *191:8 6.895 
2 *191:8 *191:12 1.845 
3 *191:12 *1247:A1 7.685 
4 *191:12 *191:27 0.795 
5 *191:27 *1248:B1 6.57875 
6 *191:27 *1246:A1 4.3 
7 *191:8 *1253:A 10.745 
8 *1239:Y *191:75 7.94 
9 *191:75 *191:85 13.145 
10 *191:85 *1265:C 3.6 
11 *191:85 *1270:A 12.645 
12 *191:75 *1263:B 4.135 
*END

*D_NET *192 0.000360048
*CONN
*I *1241:B1 I *D sky130_fd_sc_hd__a31o_2
*I *1240:X O *D sky130_fd_sc_hd__and2b_2
*CAP
1 *1241:B1 9.92127e-05
2 *1240:X 9.92127e-05
3 *181:33 *1241:B1 0.000161623
*RES
1 *1240:X *1241:B1 5.045 
*END

*D_NET *193 0.00322756
*CONN
*I *1271:A1 I *D sky130_fd_sc_hd__a21oi_2
*I *1242:B1 I *D sky130_fd_sc_hd__a31o_2
*I *1241:X O *D sky130_fd_sc_hd__a31o_2
*CAP
1 *1271:A1 0.00033579
2 *1242:B1 0
3 *1241:X 0.000528186
4 *193:22 0.000863976
5 *1271:A1 *1238:A 4.02502e-05
6 *1271:A1 *1238:B 0.000121659
7 *1271:A1 *1271:A2 1.19928e-05
8 *1271:A1 *194:10 2.747e-05
9 *1271:A1 *216:16 4.77807e-05
10 *193:22 *1171:A2 0.000520339
11 *193:22 *1176:A1 3.70162e-05
12 *193:22 *1180:B1 5.82026e-05
13 *193:22 *1223:A1 3.9922e-05
14 *193:22 *1223:A2 0
15 *193:22 *535:16 0.000304875
16 *1176:A2 *193:22 3.96153e-05
17 *1189:A3 *193:22 0.0001173
18 *1224:C1 *1271:A1 5.19006e-06
19 *1224:C1 *193:22 1.34618e-05
20 *1242:A2 *1271:A1 4.77769e-05
21 *1242:A3 *1271:A1 4.77807e-05
22 *1262:A1 *193:22 1.89738e-05
*RES
1 *1241:X *193:22 11.5487 
2 *193:22 *1242:B1 1.6 
3 *193:22 *1271:A1 7.255 
*END

*D_NET *194 0.0018596
*CONN
*I *1243:B I *D sky130_fd_sc_hd__and2_2
*I *1272:A1 I *D sky130_fd_sc_hd__a21oi_2
*I *1242:X O *D sky130_fd_sc_hd__a31o_2
*CAP
1 *1243:B 1.30736e-05
2 *1272:A1 0.000364655
3 *1242:X 0.000107239
4 *194:10 0.000484967
5 *1272:A1 *1264:A2 4.66108e-05
6 *1272:A1 *1272:A2 8.65905e-05
7 *1272:A1 *1739:A 2.17931e-05
8 *1272:A1 *202:71 7.63282e-05
9 *1272:A1 *219:18 0.00023623
10 *1272:A1 *222:10 7.00889e-06
11 *1272:A1 *545:70 7.44453e-05
12 *194:10 *1238:A 1.08758e-05
13 *194:10 *1243:A 1.92979e-05
14 *194:10 *202:71 6.51986e-06
15 *194:10 *545:70 8.58502e-05
16 *194:10 *565:20 0.000123967
17 *1271:A1 *194:10 2.747e-05
18 *181:49 *1243:B 1.83847e-05
19 *189:10 *1243:B 4.82919e-05
*RES
1 *1242:X *194:10 6.285 
2 *194:10 *1272:A1 10.635 
3 *194:10 *1243:B 4.05 
*END

*D_NET *195 0.00312059
*CONN
*I *1253:B I *D sky130_fd_sc_hd__nand2_2
*I *1245:B1_N I *D sky130_fd_sc_hd__o21ba_2
*I *1243:X O *D sky130_fd_sc_hd__and2_2
*CAP
1 *1253:B 8.92916e-05
2 *1245:B1_N 0.000244499
3 *1243:X 0.000393654
4 *195:10 0.000727445
5 *1245:B1_N *1245:A2 4.87465e-06
6 *1245:B1_N *1252:C1 0
7 *1245:B1_N *1254:C1 0.000205836
8 *1245:B1_N *1721:A 0.000115726
9 *195:10 *1171:A2 1.34503e-05
10 *195:10 *1223:B1 2.16917e-05
11 *195:10 *1721:A 0.000123475
12 *1182:A2 *1245:B1_N 2.8531e-05
13 *1182:A2 *1253:B 0.000228848
14 *1182:A2 *195:10 0.000130908
15 *1182:B1 *1245:B1_N 1.08732e-05
16 *1249:A2 *1245:B1_N 6.43449e-06
17 *1249:A2 *1253:B 4.66108e-05
18 *1252:B1 *1245:B1_N 0.000199688
19 *1263:A *1253:B 5.93408e-05
20 *1263:B *1245:B1_N 0
21 *179:14 *1253:B 4.00541e-06
22 *179:35 *1253:B 9.41844e-05
23 *181:47 *195:10 0.000191746
24 *189:10 *195:10 0.000158965
25 *190:20 *1253:B 2.0514e-05
*RES
1 *1243:X *195:10 9.48 
2 *195:10 *1245:B1_N 9.03 
3 *195:10 *1253:B 6.48 
*END

*D_NET *196 0.00100133
*CONN
*I *1252:A2 I *D sky130_fd_sc_hd__a211o_2
*I *1245:A2 I *D sky130_fd_sc_hd__o21ba_2
*I *1244:X O *D sky130_fd_sc_hd__o21a_2
*CAP
1 *1252:A2 0
2 *1245:A2 0.00020196
3 *1244:X 8.45864e-05
4 *196:12 0.000286546
5 *1245:A2 *1252:C1 3.07253e-05
6 *1245:A2 *555:98 1.08758e-05
7 *196:12 *1182:A1 2.52096e-05
8 *196:12 *1224:B2 0.000135622
9 *1182:A2 *196:12 4.66108e-05
10 *1236:A2 *196:12 9.20907e-05
11 *1245:B1_N *1245:A2 4.87465e-06
12 *1252:A1 *1245:A2 4.66108e-05
13 *1252:B1 *1245:A2 3.56163e-05
*RES
1 *1244:X *196:12 7.685 
2 *196:12 *1245:A2 4.84 
3 *196:12 *1252:A2 1.6 
*END

*D_NET *197 0.00170555
*CONN
*I *1246:A2 I *D sky130_fd_sc_hd__a21oi_2
*I *1247:A2 I *D sky130_fd_sc_hd__o21ai_2
*I *1245:X O *D sky130_fd_sc_hd__o21ba_2
*CAP
1 *1246:A2 0.000116934
2 *1247:A2 7.51368e-05
3 *1245:X 0.000206388
4 *197:10 0.000398459
5 *1246:A2 *1248:A1 3.00381e-05
6 *1246:A2 *1248:B2 8.57024e-05
7 *1247:A2 *1736:A 0
8 *197:10 *1249:B1 7.4027e-05
9 *197:10 *1738:A 0.000204309
10 *197:10 *620:10 2.23485e-05
11 *1189:A3 *1246:A2 2.20732e-05
12 *1246:A1 *1246:A2 0.000140904
13 *1247:A1 *1246:A2 9.54657e-06
14 *1247:A1 *1247:A2 4.47176e-05
15 *1252:A1 *1246:A2 1.12578e-05
16 *1253:A *1246:A2 8.53113e-06
17 *1253:A *197:10 1.73877e-05
18 *189:25 *1246:A2 2.96426e-05
19 *191:12 *1246:A2 0.000123225
20 *191:27 *1246:A2 8.49205e-05
*RES
1 *1245:X *197:10 7.4625 
2 *197:10 *1247:A2 5.0025 
3 *197:10 *1246:A2 7.4175 
*END

*D_NET *198 0.000990101
*CONN
*I *1247:B1 I *D sky130_fd_sc_hd__o21ai_2
*I *1246:Y O *D sky130_fd_sc_hd__a21oi_2
*CAP
1 *1247:B1 0.000263583
2 *1246:Y 0.000263583
3 *1247:B1 *1246:B1 0
4 *1247:B1 *1248:B2 0
5 *1247:B1 *1248:C1 5.12942e-05
6 *1247:B1 *1721:A 0.000238919
7 *1247:B1 *1738:A 0.000111277
8 y[6] *1247:B1 2.97004e-06
9 *1649:A *1247:B1 5.84749e-05
10 *1651:A *1247:B1 0
*RES
1 *1246:Y *1247:B1 12.54 
*END

*D_NET *199 0.000655825
*CONN
*I *1248:C1 I *D sky130_fd_sc_hd__o221a_2
*I *1247:Y O *D sky130_fd_sc_hd__o21ai_2
*CAP
1 *1248:C1 0.000194422
2 *1247:Y 0.000194422
3 *1248:C1 *1248:B2 3.09233e-05
4 *1182:B1 *1248:C1 0.000163204
5 *1247:B1 *1248:C1 5.12942e-05
6 *1248:B1 *1248:C1 2.15594e-05
*RES
1 *1247:Y *1248:C1 10.32 
*END

*D_NET *200 0.00120308
*CONN
*I *1249:B1 I *D sky130_fd_sc_hd__o21ai_2
*I *1248:X O *D sky130_fd_sc_hd__o221a_2
*CAP
1 *1249:B1 0.000278504
2 *1248:X 0.000278504
3 *1249:B1 *1254:C1 0.000109388
4 *1249:B1 *1738:A 2.6906e-05
5 *1249:B1 *620:10 0.000283303
6 *1249:B1 *620:25 0
7 *1182:B1 *1249:B1 2.1506e-05
8 *179:14 *1249:B1 9.50342e-06
9 *189:25 *1249:B1 0.000121437
10 *197:10 *1249:B1 7.4027e-05
*RES
1 *1248:X *1249:B1 12.57 
*END

*D_NET *201 0.0041204
*CONN
*I *1257:A2 I *D sky130_fd_sc_hd__o221a_2
*I *1264:C1 I *D sky130_fd_sc_hd__o311a_2
*I *1250:Y O *D sky130_fd_sc_hd__nand2_2
*CAP
1 *1257:A2 0
2 *1264:C1 0.000822508
3 *1250:Y 0.000153107
4 *201:8 0.000975615
5 *1264:C1 *1255:A 7.06865e-05
6 *1264:C1 *1257:B1 9.05377e-05
7 *1264:C1 *1257:C1 0
8 *1264:C1 *1258:B1 4.40643e-05
9 *1264:C1 *1264:B1 1.26626e-05
10 *1264:C1 *1268:B 1.71013e-05
11 *1264:C1 *202:40 0.000121903
12 *1264:C1 *219:18 0.00017015
13 *1264:C1 *545:70 4.36438e-05
14 *1264:C1 *587:25 0.000160635
15 *1264:C1 *623:27 4.35432e-05
16 *1264:C1 *624:6 0.000349592
17 *201:8 *1250:A 0.000159747
18 *201:8 *1257:A1 0.000630273
19 *201:8 *1257:B1 1.20741e-05
20 *201:8 *1257:B2 0.000234479
21 *1254:A2 *1264:C1 0
22 *1689:A *1264:C1 8.08153e-06
*RES
1 *1250:Y *201:8 7.84 
2 *201:8 *1264:C1 23.28 
3 *201:8 *1257:A2 1.6 
*END

*D_NET *202 0.00739475
*CONN
*I *1270:B I *D sky130_fd_sc_hd__and2_2
*I *1265:D I *D sky130_fd_sc_hd__or4_2
*I *1264:A2 I *D sky130_fd_sc_hd__o311a_2
*I *1269:A3 I *D sky130_fd_sc_hd__a31o_2
*I *1263:C I *D sky130_fd_sc_hd__or3_2
*I *1255:A I *D sky130_fd_sc_hd__xnor2_2
*I *1257:B1 I *D sky130_fd_sc_hd__o221a_2
*I *1251:Y O *D sky130_fd_sc_hd__xnor2_2
*CAP
1 *1270:B 0.000335407
2 *1265:D 0.000161347
3 *1264:A2 1.36534e-05
4 *1269:A3 0
5 *1263:C 0.000562258
6 *1255:A 0.000132814
7 *1257:B1 0.000106764
8 *1251:Y 0
9 *202:71 0.000558954
10 *202:60 0.000171901
11 *202:42 0.000562258
12 *202:40 0.000402645
13 *202:21 0.000459141
14 *202:4 0.000126494
15 *1255:A *1258:B1 9.59969e-05
16 *1255:A *1268:B 4.49328e-05
17 *1257:B1 *1257:B2 1.12643e-05
18 *1263:C *1254:A1 0.000154828
19 *1263:C *1254:A3 1.19928e-05
20 *1263:C *1254:B1 0.000160641
21 *1263:C *1254:C1 3.23663e-05
22 *1263:C *1269:A2 3.26889e-05
23 *1263:C *219:18 4.99619e-05
24 *1264:A2 *219:18 4.66108e-05
25 *1265:D *1269:B1 8.65905e-05
26 *1270:B *1238:A 0.000144046
27 *1270:B *1238:B 7.27704e-06
28 *1270:B *1243:A 1.79536e-05
29 *1270:B *216:16 3.06743e-05
30 *1270:B *565:20 0.000289865
31 *202:40 *219:18 9.50342e-06
32 *202:40 *587:25 0.000114492
33 *202:40 *623:21 2.92496e-05
34 *202:40 *623:27 0.000132985
35 *202:40 *624:6 0.000157343
36 *202:60 *1264:B1 0.000132842
37 *202:60 *219:18 7.37249e-05
38 *202:60 *587:25 2.07184e-05
39 *202:60 *587:36 4.9968e-05
40 *202:60 *587:53 0.000155928
41 *202:71 *1238:A 2.99445e-05
42 *202:71 *1243:A 7.9642e-06
43 *202:71 *1264:B1 8.53113e-06
44 *202:71 *587:53 0.000153794
45 y[7] *202:40 0.000142669
46 *1263:A *1263:C 4.21973e-05
47 *1264:C1 *1255:A 7.06865e-05
48 *1264:C1 *1257:B1 9.05377e-05
49 *1264:C1 *202:40 0.000121903
50 *1270:A *1270:B 8.46818e-05
51 *1272:A1 *1264:A2 4.66108e-05
52 *1272:A1 *202:71 7.63282e-05
53 *1322:B2 *1270:B 0.000194302
54 *1323:A1 *1270:B 6.14645e-05
55 *1689:A *1257:B1 0.000271992
56 *1689:A *202:21 4.66108e-05
57 *1689:A *202:40 4.82919e-05
58 *170:22 *1270:B 7.15312e-05
59 *181:49 *1265:D 9.57985e-05
60 *189:10 *1265:D 5.83121e-06
61 *191:85 *1263:C 1.6408e-05
62 *194:10 *202:71 6.51986e-06
63 *201:8 *1257:B1 1.20741e-05
*RES
1 *1251:Y *202:4 1.6 
2 *202:4 *1257:B1 8.64875 
3 *202:4 *202:21 0.45 
4 *202:21 *1255:A 8.54 
5 *202:21 *202:40 9.86 
6 *202:40 *202:42 2 
7 *202:42 *1263:C 9.235 
8 *202:42 *1269:A3 1.6 
9 *202:40 *202:60 2.655 
10 *202:60 *1264:A2 4.05 
11 *202:60 *202:71 2.145 
12 *202:71 *1265:D 6.48 
13 *202:71 *1270:B 11.655 
*END

*D_NET *203 0.0021121
*CONN
*I *1254:B1 I *D sky130_fd_sc_hd__o311a_2
*I *1252:X O *D sky130_fd_sc_hd__a211o_2
*CAP
1 *1254:B1 0.000629792
2 *1252:X 0.000629792
3 *1254:B1 *1182:A1 5.24732e-05
4 *1254:B1 *1223:A1 1.03833e-05
5 *1254:B1 *1254:A3 2.75229e-05
6 *1254:B1 *1254:C1 2.59295e-05
7 *1254:B1 *1721:A 1.7635e-05
8 *1254:B1 *555:98 2.75229e-05
9 *1254:B1 *566:30 4.49232e-05
10 *1172:C1 *1254:B1 0.000402407
11 *1236:A2 *1254:B1 2.49909e-05
12 *1263:A *1254:B1 4.82863e-05
13 *1263:B *1254:B1 9.80032e-06
14 *1263:C *1254:B1 0.000160641
*RES
1 *1252:X *1254:B1 12.1633 
*END

*D_NET *204 0.00140857
*CONN
*I *1254:C1 I *D sky130_fd_sc_hd__o311a_2
*I *1253:Y O *D sky130_fd_sc_hd__nand2_2
*CAP
1 *1254:C1 0.000264038
2 *1253:Y 0.000264038
3 *1254:C1 *1738:A 0.000111061
4 *1182:A2 *1254:C1 0.000118081
5 *1245:B1_N *1254:C1 0.000205836
6 *1249:B1 *1254:C1 0.000109388
7 *1254:B1 *1254:C1 2.59295e-05
8 *1263:A *1254:C1 0.000119762
9 *1263:B *1254:C1 0.000158072
10 *1263:C *1254:C1 3.23663e-05
*RES
1 *1253:Y *1254:C1 13.29 
*END

*D_NET *205 0.00133458
*CONN
*I *1255:B I *D sky130_fd_sc_hd__xnor2_2
*I *1254:X O *D sky130_fd_sc_hd__o311a_2
*CAP
1 *1255:B 0.000212459
2 *1254:X 0.000212459
3 *1255:B *1150:A 0.0001947
4 *1255:B *1254:A1 0.000270415
5 *1255:B *1269:A2 4.21973e-05
6 *1255:B *1269:B1 4.82919e-05
7 *1269:A1 *1255:B 4.21666e-05
8 *191:85 *1255:B 0.000311889
*RES
1 *1254:X *1255:B 9.515 
*END

*D_NET *206 0.00048001
*CONN
*I *1258:A2 I *D sky130_fd_sc_hd__o21ai_2
*I *1255:Y O *D sky130_fd_sc_hd__xnor2_2
*CAP
1 *1258:A2 0.000146122
2 *1255:Y 0.000146122
3 *1258:A2 *1258:B1 0
4 *1258:A2 *1268:B 0.000187766
*RES
1 *1255:Y *1258:A2 10.14 
*END

*D_NET *207 0.00150332
*CONN
*I *1257:C1 I *D sky130_fd_sc_hd__o221a_2
*I *1256:Y O *D sky130_fd_sc_hd__o21ai_2
*CAP
1 *1257:C1 0.000515528
2 *1256:Y 0.000515528
3 *1257:C1 *1256:A1 1.28458e-05
4 *1257:C1 *1268:A_N 0.00011741
5 *1257:C1 *1268:B 0.000103974
6 *1264:C1 *1257:C1 0
7 *1654:A *1257:C1 9.50342e-06
8 *1659:A *1257:C1 1.83756e-05
9 *1689:A *1257:C1 0.000210151
*RES
1 *1256:Y *1257:C1 15.915 
*END

*D_NET *208 0.000765008
*CONN
*I *1258:B1 I *D sky130_fd_sc_hd__o21ai_2
*I *1257:X O *D sky130_fd_sc_hd__o221a_2
*CAP
1 *1258:B1 0.000312474
2 *1257:X 0.000312474
3 *1258:B1 *1268:B 0
4 *1258:B1 *1272:A2 0
5 *1258:B1 *1739:A 0
6 y[7] *1258:B1 0
7 *1255:A *1258:B1 9.59969e-05
8 *1258:A2 *1258:B1 0
9 *1264:C1 *1258:B1 4.40643e-05
10 *191:85 *1258:B1 0
*RES
1 *1257:X *1258:B1 12.915 
*END

*D_NET *209 0.00508522
*CONN
*I *1276:A2 I *D sky130_fd_sc_hd__o221a_2
*I *1293:A1 I *D sky130_fd_sc_hd__o2111ai_2
*I *1306:A1 I *D sky130_fd_sc_hd__o311a_2
*I *1259:Y O *D sky130_fd_sc_hd__nand2_2
*CAP
1 *1276:A2 0.000175147
2 *1293:A1 7.83104e-05
3 *1306:A1 0.000374334
4 *1259:Y 0.000737101
5 *209:16 0.0010146
6 *1276:A2 *1257:A1 1.85674e-05
7 *1276:A2 *1276:B1 1.18246e-05
8 *1276:A2 *1276:C1 8.8439e-05
9 *1276:A2 *553:73 4.13985e-05
10 *1276:A2 *590:25 8.77398e-05
11 *1276:A2 *625:8 0.00030934
12 *1293:A1 *1286:A2 2.51225e-05
13 *1293:A1 *1293:B1 9.18707e-05
14 *1293:A1 *1294:A 0.000159156
15 *1293:A1 *1297:A3 1.43253e-05
16 *1293:A1 *1318:B 3.5678e-06
17 *1293:A1 *542:35 4.77757e-05
18 *1306:A1 *1286:A2 3.59784e-05
19 *1306:A1 *1287:A2 5.23362e-05
20 *1306:A1 *1293:D1 4.66108e-05
21 *1306:A1 *1296:B1 0.000119246
22 *1306:A1 *1297:A1 3.93531e-05
23 *1306:A1 *1297:A2 1.56428e-05
24 *1306:A1 *1297:A3 0.000195886
25 *1306:A1 *1297:B1 3.83194e-05
26 *1306:A1 *1299:A1 0.000156875
27 *1306:A1 *1301:B1 5.45394e-05
28 *1306:A1 *1306:A2 8.65905e-05
29 *1306:A1 *1308:A1 2.16833e-05
30 *1306:A1 *227:8 3.83194e-05
31 *1306:A1 *593:22 5.69024e-05
32 *1306:A1 *593:35 6.09299e-05
33 *209:16 *1284:B1 6.28765e-05
34 *209:16 *1294:A 2.97746e-05
35 *209:16 *1296:A2 0.000110323
36 *209:16 *1299:B1 0.000133791
37 *209:16 *1308:A2 3.23284e-05
38 *209:16 *232:10 6.19312e-05
39 *209:16 *255:16 0.000174712
40 *209:16 *542:20 4.75576e-05
41 *209:16 *553:73 4.99619e-05
42 *1690:A *1276:A2 8.41307e-05
*RES
1 *1259:Y *209:16 16.145 
2 *209:16 *1306:A1 14.375 
3 *209:16 *1293:A1 4.135 
4 *1259:Y *1276:A2 8.15 
*END

*D_NET *210 0.00286929
*CONN
*I *1261:A I *D sky130_fd_sc_hd__inv_2
*I *1318:A I *D sky130_fd_sc_hd__nand4_2
*I *1291:A I *D sky130_fd_sc_hd__or2_2
*I *1276:B1 I *D sky130_fd_sc_hd__o221a_2
*I *1260:Y O *D sky130_fd_sc_hd__xnor2_2
*CAP
1 *1261:A 6.55564e-05
2 *1318:A 1.65033e-05
3 *1291:A 2.4637e-05
4 *1276:B1 0.000177003
5 *1260:Y 0.000237922
6 *210:43 0.00029818
7 *210:28 0.000301676
8 *1261:A *1286:A2 0.000114649
9 *1261:A *1321:A2 4.66108e-05
10 *1261:A *211:6 2.49909e-05
11 *1261:A *240:10 5.0096e-05
12 *1261:A *240:27 0.000103464
13 *1261:A *546:43 1.7211e-05
14 *1276:B1 *1276:B2 4.86642e-05
15 *1276:B1 *1276:C1 1.12643e-05
16 *1276:B1 *549:140 4.95266e-05
17 *1276:B1 *590:25 0
18 *1276:B1 *625:31 4.22574e-05
19 *1276:B1 *625:44 3.60024e-06
20 *1291:A *1287:C1 4.66108e-05
21 *1318:A *1293:B1 4.66108e-05
22 *1318:A *264:6 2.49909e-05
23 *210:28 *1276:C1 9.30717e-05
24 *210:43 *1273:B1 9.25306e-06
25 *210:43 *1276:C1 0.000399416
26 *210:43 *1291:B 0.000314438
27 *210:43 *240:10 0.000129995
28 *210:43 *542:33 0
29 *210:43 *546:43 0.000101278
30 *210:43 *546:51 5.79855e-05
31 *1276:A2 *1276:B1 1.18246e-05
*RES
1 *1260:Y *1276:B1 10.2487 
2 *1260:Y *210:28 4.725 
3 *210:28 *1291:A 4.05 
4 *210:28 *210:43 7.29 
5 *210:43 *1318:A 4.05 
6 *210:43 *1261:A 5.94 
*END

*D_NET *211 0.00270537
*CONN
*I *1282:A I *D sky130_fd_sc_hd__nor2_2
*I *1274:A I *D sky130_fd_sc_hd__xnor2_2
*I *1261:Y O *D sky130_fd_sc_hd__inv_2
*CAP
1 *1282:A 0.00024373
2 *1274:A 0.000263366
3 *1261:Y 9.77022e-05
4 *211:6 0.000604799
5 *1274:A *1273:B1 0.000172229
6 *1274:A *1274:B 0.000158666
7 *1274:A *1276:C1 4.24292e-06
8 *1274:A *1280:B1 7.02628e-05
9 *1274:A *1287:C1 0.000452102
10 *1274:A *240:10 3.3625e-05
11 *1274:A *240:27 3.72007e-05
12 *1282:A *1287:C1 5.20249e-05
13 *1282:A *1320:A_N 4.66108e-05
14 *1282:A *1320:B 2.69153e-05
15 *1282:A *1321:B1 4.90291e-05
16 *1282:A *1322:C1 0.00019009
17 *1282:A *239:25 5.05981e-05
18 *1282:A *251:14 9.43385e-05
19 *1282:A *251:27 8.73389e-06
20 *211:6 *1321:A2 1.42674e-05
21 *211:6 *251:27 9.83921e-06
22 *1261:A *211:6 2.49909e-05
*RES
1 *1261:Y *211:6 2.74 
2 *211:6 *1274:A 12.89 
3 *211:6 *1282:A 10.91 
*END

*D_NET *212 0.000594165
*CONN
*I *1264:A3 I *D sky130_fd_sc_hd__o311a_2
*I *1262:X O *D sky130_fd_sc_hd__o21a_2
*CAP
1 *1264:A3 7.65719e-05
2 *1262:X 7.65719e-05
3 *1264:A3 *219:18 8.23457e-05
4 *1262:A2 *1264:A3 8.8266e-05
5 *190:20 *1264:A3 0.000270409
*RES
1 *1262:X *1264:A3 5.72 
*END

*D_NET *213 0.001655
*CONN
*I *1264:B1 I *D sky130_fd_sc_hd__o311a_2
*I *1263:X O *D sky130_fd_sc_hd__or3_2
*CAP
1 *1264:B1 0.000424851
2 *1263:X 0.000424851
3 *1264:B1 *219:18 0.000112123
4 *1263:B *1264:B1 0.000155497
5 *1264:C1 *1264:B1 1.26626e-05
6 *191:85 *1264:B1 0.000383646
7 *202:60 *1264:B1 0.000132842
8 *202:71 *1264:B1 8.53113e-06
*RES
1 *1263:X *1264:B1 13.77 
*END

*D_NET *214 0.00210696
*CONN
*I *1379:A1 I *D sky130_fd_sc_hd__o221a_2
*I *1266:B1 I *D sky130_fd_sc_hd__o21ai_2
*I *1264:X O *D sky130_fd_sc_hd__o311a_2
*CAP
1 *1379:A1 0.000307662
2 *1266:B1 0
3 *1264:X 0.000199133
4 *214:8 0.000506795
5 *1379:A1 *1379:A2 5.53249e-06
6 *1379:A1 *220:8 4.69244e-05
7 *1379:A1 *319:16 0
8 *1379:A1 *545:51 0
9 *214:8 *1238:B 0.00018795
10 *214:8 *1269:B1 0.000202107
11 *214:8 *1271:B1 0
12 *214:8 *216:16 9.05592e-05
13 *214:8 *220:8 3.75882e-06
14 *214:8 *220:12 8.34904e-06
15 *214:8 *623:40 0.000163992
16 *1319:B *214:8 0.000138918
17 *1379:B2 *1379:A1 9.75038e-05
18 *1380:B2 *1379:A1 0
19 *170:22 *1379:A1 0.000147775
*RES
1 *1264:X *214:8 9.57 
2 *214:8 *1266:B1 3.6 
3 *214:8 *1379:A1 10.08 
*END

*D_NET *215 0.00215711
*CONN
*I *1377:A I *D sky130_fd_sc_hd__or4_2
*I *1266:A2 I *D sky130_fd_sc_hd__o21ai_2
*I *1265:X O *D sky130_fd_sc_hd__or4_2
*CAP
1 *1377:A 0.000165079
2 *1266:A2 0.000240847
3 *1265:X 0.000136005
4 *215:8 0.000541931
5 *1266:A2 *1319:C 4.66108e-05
6 *1266:A2 *543:24 8.23993e-05
7 *1377:A *1322:B1 4.28943e-05
8 *1377:A *1323:A2 0.000134756
9 *1377:A *1323:B1 9.12857e-06
10 *1377:A *1377:C 2.69443e-06
11 *215:8 *1265:A 0.000242997
12 *215:8 *1319:C 4.22675e-05
13 *215:8 *1322:B1 0.000156284
14 *1270:A *1377:A 8.87378e-05
15 *1270:A *215:8 1.10951e-05
16 *1319:B *1266:A2 9.87566e-05
17 *1322:B2 *1377:A 1.10951e-05
18 *1322:B2 *215:8 2.3228e-05
19 *1380:B2 *1377:A 3.12855e-05
20 *170:22 *1266:A2 4.90227e-05
*RES
1 *1265:X *215:8 7.275 
2 *215:8 *1266:A2 8.205 
3 *215:8 *1377:A 7.53 
*END

*D_NET *216 0.00506416
*CONN
*I *1267:B I *D sky130_fd_sc_hd__nand2_2
*I *1292:B I *D sky130_fd_sc_hd__nand2b_2
*I *1280:B1 I *D sky130_fd_sc_hd__o21a_2
*I *1266:Y O *D sky130_fd_sc_hd__o21ai_2
*CAP
1 *1267:B 0
2 *1292:B 0
3 *1280:B1 0.000345213
4 *1266:Y 0.000880035
5 *216:22 0.000453974
6 *216:16 0.000988797
7 *1280:B1 *1274:B 8.40269e-05
8 *1280:B1 *1275:A1 0.000122184
9 *1280:B1 *1280:A2 4.77757e-05
10 *1280:B1 *1287:C1 0.000208484
11 *1280:B1 *239:10 0.000208484
12 *1280:B1 *590:54 0.00011138
13 *216:16 *1267:A 3.63576e-05
14 *216:16 *1271:A2 2.67255e-05
15 *216:16 *1322:A1 8.83758e-05
16 *216:16 *1322:A2 8.1508e-06
17 *216:16 *1322:B1 4.82461e-05
18 *216:16 *251:14 4.80058e-05
19 *216:16 *561:39 0.000649837
20 *216:22 *1267:A 8.35157e-05
21 *216:22 *1287:C1 0.00018426
22 *216:22 *239:10 9.50342e-06
23 *216:22 *239:25 0.000184821
24 *216:22 *251:14 6.72833e-06
25 *1270:B *216:16 3.06743e-05
26 *1271:A1 *216:16 4.77807e-05
27 *1274:A *1280:B1 7.02628e-05
28 *214:8 *216:16 9.05592e-05
*RES
1 *1266:Y *216:16 18.245 
2 *216:16 *216:22 5.195 
3 *216:22 *1280:B1 11.4 
4 *216:22 *1292:B 3.6 
5 *216:16 *1267:B 1.6 
*END

*D_NET *217 0.00056961
*CONN
*I *1273:B1 I *D sky130_fd_sc_hd__o21ai_2
*I *1267:Y O *D sky130_fd_sc_hd__nand2_2
*CAP
1 *1273:B1 0.000107571
2 *1267:Y 0.000107571
3 *1273:B1 *1276:C1 1.37804e-05
4 *1273:B1 *240:10 0.000112595
5 *1273:B1 *264:6 4.66108e-05
6 *1274:A *1273:B1 0.000172229
7 *210:43 *1273:B1 9.25306e-06
*RES
1 *1267:Y *1273:B1 9.795 
*END

*D_NET *218 0.00172778
*CONN
*I *1269:B1 I *D sky130_fd_sc_hd__a31o_2
*I *1268:X O *D sky130_fd_sc_hd__and2b_2
*CAP
1 *1269:B1 0.000488539
2 *1268:X 0.000488539
3 *1269:B1 *1150:A 5.16348e-05
4 *1269:B1 *1265:A 2.49909e-05
5 *1269:B1 *1271:B1 8.84052e-05
6 *1269:B1 *1739:A 2.97204e-05
7 *1269:B1 *623:40 0.000102338
8 *1255:B *1269:B1 4.82919e-05
9 *1265:B *1269:B1 4.99619e-05
10 *1265:D *1269:B1 8.65905e-05
11 *1269:A1 *1269:B1 3.00381e-05
12 *181:49 *1269:B1 3.66286e-05
13 *191:85 *1269:B1 0
14 *214:8 *1269:B1 0.000202107
*RES
1 *1268:X *1269:B1 16.935 
*END

*D_NET *219 0.00225218
*CONN
*I *1272:B1 I *D sky130_fd_sc_hd__a21oi_2
*I *1271:B1 I *D sky130_fd_sc_hd__a21oi_2
*I *1269:X O *D sky130_fd_sc_hd__a31o_2
*CAP
1 *1272:B1 0
2 *1271:B1 0.000135468
3 *1269:X 0.000292658
4 *219:18 0.000428127
5 *1271:B1 *220:12 2.98644e-05
6 *219:18 *1254:A1 4.82919e-05
7 *219:18 *1739:A 5.83121e-06
8 *1263:C *219:18 4.99619e-05
9 *1264:A2 *219:18 4.66108e-05
10 *1264:A3 *219:18 8.23457e-05
11 *1264:B1 *219:18 0.000112123
12 *1264:C1 *219:18 0.00017015
13 *1269:B1 *1271:B1 8.84052e-05
14 *1270:A *1271:B1 0.000150009
15 *1272:A1 *219:18 0.00023623
16 *1319:B *1271:B1 4.57506e-05
17 *190:20 *219:18 3.83194e-05
18 *191:85 *1271:B1 0.0002088
19 *202:40 *219:18 9.50342e-06
20 *202:60 *219:18 7.37249e-05
21 *214:8 *1271:B1 0
*RES
1 *1269:X *219:18 12.56 
2 *219:18 *1271:B1 9.785 
3 *219:18 *1272:B1 1.6 
*END

*D_NET *220 0.00228064
*CONN
*I *1319:D I *D sky130_fd_sc_hd__nand4b_2
*I *1271:A2 I *D sky130_fd_sc_hd__a21oi_2
*I *1272:A2 I *D sky130_fd_sc_hd__a21oi_2
*I *1270:X O *D sky130_fd_sc_hd__and2_2
*CAP
1 *1319:D 0
2 *1271:A2 0.000135449
3 *1272:A2 0.000258846
4 *1270:X 5.39517e-05
5 *220:12 0.000471105
6 *220:8 0.000130762
7 *1271:A2 *1238:B 2.69217e-05
8 *1271:A2 *1322:A1 5.83121e-06
9 *1272:A2 *1265:A 0.000133229
10 *1272:A2 *1268:B 0
11 *1272:A2 *1322:A1 6.52347e-05
12 *1272:A2 *1322:A2 3.5678e-06
13 *1272:A2 *1739:A 9.91257e-05
14 *1272:A2 *222:10 3.23663e-05
15 *220:8 *1323:B1 6.97526e-05
16 *220:12 *1323:B1 7.01276e-05
17 *1258:B1 *1272:A2 0
18 *1270:A *1272:A2 0.000103657
19 *1270:A *220:12 1.18673e-05
20 *1271:A1 *1271:A2 1.19928e-05
21 *1271:B1 *220:12 2.98644e-05
22 *1272:A1 *1272:A2 8.65905e-05
23 *1319:B *220:12 0.000173792
24 *1379:A1 *220:8 4.69244e-05
25 *190:12 *1271:A2 1.60659e-05
26 *191:85 *1272:A2 0.000204779
27 *214:8 *220:8 3.75882e-06
28 *214:8 *220:12 8.34904e-06
29 *216:16 *1271:A2 2.67255e-05
*RES
1 *1270:X *220:8 5.235 
2 *220:8 *220:12 4.4 
3 *220:12 *1272:A2 12.26 
4 *220:12 *1271:A2 3.79 
5 *220:8 *1319:D 3.6 
*END

*D_NET *221 0.000283235
*CONN
*I *1322:A1 I *D sky130_fd_sc_hd__o221a_2
*I *1271:Y O *D sky130_fd_sc_hd__a21oi_2
*CAP
1 *1322:A1 6.18969e-05
2 *1271:Y 6.18969e-05
3 *1271:A2 *1322:A1 5.83121e-06
4 *1272:A2 *1322:A1 6.52347e-05
5 *216:16 *1322:A1 8.83758e-05
*RES
1 *1271:Y *1322:A1 4.685 
*END

*D_NET *222 0.0032942
*CONN
*I *1282:B I *D sky130_fd_sc_hd__nor2_2
*I *1273:A2 I *D sky130_fd_sc_hd__o21ai_2
*I *1272:Y O *D sky130_fd_sc_hd__a21oi_2
*CAP
1 *1282:B 0.000172832
2 *1273:A2 0.000352457
3 *1272:Y 0.000354941
4 *222:10 0.000880229
5 *1273:A2 *1256:B1 0.000353998
6 *1273:A2 *1268:A_N 2.49909e-05
7 *1273:A2 *1276:C1 8.23457e-05
8 *1273:A2 *1277:A1 4.82919e-05
9 *1273:A2 *1277:B1 4.21973e-05
10 *1273:A2 *1292:A_N 8.49205e-05
11 *1273:A2 *1707:A 8.40213e-05
12 *1273:A2 *561:62 0.000163694
13 *1282:B *1268:B 1.39525e-05
14 *1282:B *594:8 0.000147212
15 *1282:B *594:17 0.00017664
16 *222:10 *1258:A1 4.99619e-05
17 *222:10 *1268:B 7.5648e-05
18 *222:10 *1739:A 8.22234e-06
19 *222:10 *594:8 0.000138273
20 *1272:A1 *222:10 7.00889e-06
21 *1272:A2 *222:10 3.23663e-05
*RES
1 *1272:Y *222:10 8.79 
2 *222:10 *1273:A2 11.415 
3 *222:10 *1282:B 7.53 
*END

*D_NET *223 0.00056561
*CONN
*I *1274:B I *D sky130_fd_sc_hd__xnor2_2
*I *1273:Y O *D sky130_fd_sc_hd__o21ai_2
*CAP
1 *1274:B 7.87073e-05
2 *1273:Y 7.87073e-05
3 *1274:B *1276:C1 0.00015829
4 *1274:B *1287:C1 7.21296e-06
5 *1274:A *1274:B 0.000158666
6 *1280:B1 *1274:B 8.40269e-05
*RES
1 *1273:Y *1274:B 9.885 
*END

*D_NET *224 0.000820849
*CONN
*I *1277:A2 I *D sky130_fd_sc_hd__o21ai_2
*I *1274:Y O *D sky130_fd_sc_hd__xnor2_2
*CAP
1 *1277:A2 0.000262073
2 *1274:Y 0.000262073
3 *1277:A2 *1258:A1 0.00016985
4 *1277:A2 *559:98 2.97004e-06
5 *1277:A2 *588:10 0.00011852
6 y[8] *1277:A2 5.36384e-06
*RES
1 *1274:Y *1277:A2 11.1 
*END

*D_NET *225 0.00251125
*CONN
*I *1276:C1 I *D sky130_fd_sc_hd__o221a_2
*I *1275:Y O *D sky130_fd_sc_hd__o21ai_2
*CAP
1 *1276:C1 0.000498198
2 *1275:Y 0.000498198
3 *1276:C1 *1256:B1 8.23457e-05
4 *1276:C1 *1257:B2 0.000103941
5 *1276:C1 *1276:B2 2.56752e-06
6 *1276:C1 *1287:C1 3.47383e-05
7 *1276:C1 *549:140 0.000197055
8 *1276:C1 *553:73 0.000121019
9 *1276:C1 *561:62 3.76665e-05
10 *1276:C1 *561:68 8.46717e-05
11 *1276:C1 *625:44 0
12 *1273:A2 *1276:C1 8.23457e-05
13 *1273:B1 *1276:C1 1.37804e-05
14 *1274:A *1276:C1 4.24292e-06
15 *1274:B *1276:C1 0.00015829
16 *1276:A2 *1276:C1 8.8439e-05
17 *1276:B1 *1276:C1 1.12643e-05
18 *210:28 *1276:C1 9.30717e-05
19 *210:43 *1276:C1 0.000399416
*RES
1 *1275:Y *1276:C1 20.28 
*END

*D_NET *226 0.00202316
*CONN
*I *1277:B1 I *D sky130_fd_sc_hd__o21ai_2
*I *1276:X O *D sky130_fd_sc_hd__o221a_2
*CAP
1 *1277:B1 0.000357161
2 *1276:X 0.000357161
3 *1277:B1 *1250:B 5.51245e-05
4 *1277:B1 *1256:A2 7.25036e-05
5 *1277:B1 *1256:B1 6.74147e-05
6 *1277:B1 *1257:B2 0.000200615
7 *1277:B1 *1287:C1 4.21447e-06
8 *1277:B1 *1292:A_N 4.66108e-05
9 *1277:B1 *239:10 0.000296088
10 *1277:B1 *561:62 7.58604e-05
11 y[8] *1277:B1 0.000448214
12 *1273:A2 *1277:B1 4.21973e-05
*RES
1 *1276:X *1277:B1 17.67 
*END

*D_NET *227 0.00311407
*CONN
*I *1293:C1 I *D sky130_fd_sc_hd__o2111ai_2
*I *1287:A2 I *D sky130_fd_sc_hd__o221a_2
*I *1278:Y O *D sky130_fd_sc_hd__nand2_2
*CAP
1 *1293:C1 0.000176528
2 *1287:A2 0.000171138
3 *1278:Y 0.000241269
4 *227:8 0.000588935
5 *1287:A2 *1287:A1 4.82919e-05
6 *1287:A2 *1287:B1 4.94474e-05
7 *1287:A2 *1299:A1 7.81221e-05
8 *1287:A2 *1301:B1 0.000245199
9 *1287:A2 *542:10 7.24866e-05
10 *1287:A2 *549:126 3.98869e-05
11 *1287:A2 *549:140 1.0183e-05
12 *1293:C1 *1284:A2 1.0675e-05
13 *1293:C1 *1296:B1 0.000405048
14 *1293:C1 *253:16 0.000193801
15 *1293:C1 *255:16 0.000153409
16 *1293:C1 *561:68 3.66286e-05
17 *1293:C1 *561:72 8.40269e-05
18 *1293:C1 *561:113 0.000132827
19 *227:8 *1296:B1 2.03485e-05
20 *227:8 *1306:A2 0.000124895
21 *227:8 *1308:A1 2.0514e-05
22 *227:8 *253:16 0.000119756
23 *1306:A1 *1287:A2 5.23362e-05
24 *1306:A1 *227:8 3.83194e-05
*RES
1 *1278:Y *227:8 5.86 
2 *227:8 *1287:A2 10.49 
3 *227:8 *1293:C1 11.39 
*END

*D_NET *228 0.00113077
*CONN
*I *1285:A I *D sky130_fd_sc_hd__xor2_2
*I *1703:A I *D sky130_fd_sc_hd__clkbuf_2
*I *1287:B1 I *D sky130_fd_sc_hd__o221a_2
*I *1279:Y O *D sky130_fd_sc_hd__xnor2_2
*CAP
1 *1285:A 0
2 *1703:A 0.000167053
3 *1287:B1 5.86934e-05
4 *1279:Y 8.07321e-05
5 *228:21 0.000281725
6 *228:6 0.000254098
7 *1287:B1 *1287:A1 2.55546e-05
8 *1287:B1 *1287:B2 4.86748e-05
9 *1703:A *542:10 0
10 *1703:A *553:73 0
11 *228:6 *1287:A1 1.52352e-05
12 *228:6 *1288:B1 8.40269e-05
13 *228:21 *542:10 0
14 *228:21 *549:140 6.55328e-05
15 *228:21 *553:73 0
16 *1287:A2 *1287:B1 4.94474e-05
*RES
1 *1279:Y *228:6 3.085 
2 *228:6 *1287:B1 3.10375 
3 *228:6 *228:21 4.34 
4 *228:21 *1703:A 6.195 
5 *228:21 *1285:A 3.6 
*END

*D_NET *229 0.00043055
*CONN
*I *1281:C1 I *D sky130_fd_sc_hd__a211o_2
*I *1280:X O *D sky130_fd_sc_hd__o21a_2
*CAP
1 *1281:C1 0.000148721
2 *1280:X 0.000148721
3 *1281:C1 *1275:A1 3.64998e-06
4 *1281:C1 *1281:A1 4.07027e-05
5 *1281:C1 *1281:A2 2.68464e-05
6 *1281:C1 *590:19 2.95708e-05
7 *1281:C1 *625:57 3.23391e-05
*RES
1 *1280:X *1281:C1 9.945 
*END

*D_NET *230 0.000369653
*CONN
*I *1284:B1 I *D sky130_fd_sc_hd__o31a_2
*I *1281:X O *D sky130_fd_sc_hd__a211o_2
*CAP
1 *1284:B1 7.59588e-05
2 *1281:X 7.59588e-05
3 *1284:B1 *1287:C1 2.75229e-05
4 *1284:B1 *1296:A2 0.000117832
5 *1284:B1 *232:10 9.50342e-06
6 *209:16 *1284:B1 6.28765e-05
*RES
1 *1281:X *1284:B1 9.03 
*END

*D_NET *231 0.00620695
*CONN
*I *1294:B I *D sky130_fd_sc_hd__and2_2
*I *1284:A2 I *D sky130_fd_sc_hd__o31a_2
*I *1282:Y O *D sky130_fd_sc_hd__nor2_2
*CAP
1 *1294:B 0
2 *1284:A2 0.000367638
3 *1282:Y 0.00155071
4 *231:16 0.00191835
5 *1284:A2 *1284:A1 0.000568853
6 *1284:A2 *1286:A2 1.83311e-05
7 *1284:A2 *1293:D1 6.90254e-05
8 *1284:A2 *1296:A2 0.000478109
9 *1284:A2 *232:10 9.50342e-06
10 *1284:A2 *242:10 6.29387e-05
11 *1284:A2 *255:16 1.29239e-05
12 *1284:A2 *553:67 6.67084e-05
13 *1284:A2 *561:83 6.90254e-05
14 *1284:A2 *561:113 0.00046722
15 *231:16 *1303:B 1.92979e-05
16 *231:16 *1315:A1 0.000315458
17 *231:16 *1337:B1 1.0145e-05
18 *231:16 *1338:A2 0
19 *231:16 *269:10 2.17427e-05
20 *231:16 *553:67 4.00524e-06
21 *231:16 *561:113 8.7152e-06
22 *231:16 *594:17 0.000157578
23 *1293:C1 *1284:A2 1.0675e-05
*RES
1 *1282:Y *231:16 9.1604 
2 *231:16 *1284:A2 15.945 
3 *231:16 *1294:B 3.6 
*END

*D_NET *232 0.00188425
*CONN
*I *1296:A2 I *D sky130_fd_sc_hd__a21o_2
*I *1284:A3 I *D sky130_fd_sc_hd__o31a_2
*I *1283:X O *D sky130_fd_sc_hd__and2b_2
*CAP
1 *1296:A2 0.00015072
2 *1284:A3 0
3 *1283:X 0.000246122
4 *232:10 0.000396842
5 *1296:A2 *542:20 9.30787e-05
6 *232:10 *1283:B 3.23663e-05
7 *232:10 *553:73 0.000177915
8 *1284:A2 *1296:A2 0.000478109
9 *1284:A2 *232:10 9.50342e-06
10 *1284:B1 *1296:A2 0.000117832
11 *1284:B1 *232:10 9.50342e-06
12 *209:16 *1296:A2 0.000110323
13 *209:16 *232:10 6.19312e-05
*RES
1 *1283:X *232:10 7.755 
2 *232:10 *1284:A3 3.6 
3 *232:10 *1296:A2 9.315 
*END

*D_NET *233 0.000187955
*CONN
*I *1285:B I *D sky130_fd_sc_hd__xor2_2
*I *1284:X O *D sky130_fd_sc_hd__o31a_2
*CAP
1 *1285:B 4.98442e-05
2 *1284:X 4.98442e-05
3 *1285:B *549:140 8.8266e-05
*RES
1 *1284:X *1285:B 2.6875 
*END

*D_NET *234 0.000592209
*CONN
*I *1288:A2 I *D sky130_fd_sc_hd__o21ai_2
*I *1285:X O *D sky130_fd_sc_hd__xor2_2
*CAP
1 *1288:A2 0.000203402
2 *1285:X 0.000203402
3 *1288:A2 *1288:B1 0
4 *1288:A2 *1295:A_N 0.000185405
*RES
1 *1285:X *1288:A2 10.83 
*END

*D_NET *235 0.00482314
*CONN
*I *1287:C1 I *D sky130_fd_sc_hd__o221a_2
*I *1286:Y O *D sky130_fd_sc_hd__o21ai_2
*CAP
1 *1287:C1 0.0013737
2 *1286:Y 0.0013737
3 *1287:C1 *1256:A2 5.4003e-05
4 *1287:C1 *1281:A2 0.000300628
5 *1287:C1 *1287:B2 8.65905e-05
6 *1287:C1 *1327:A2 0.000149803
7 *1287:C1 *239:10 7.36159e-05
8 *1287:C1 *239:25 0.000260907
9 *1287:C1 *240:27 7.64773e-05
10 *1287:C1 *273:10 2.25075e-05
11 *1287:C1 *546:32 1.4389e-05
12 *1287:C1 *590:6 1.9657e-05
13 *1274:A *1287:C1 0.000452102
14 *1274:B *1287:C1 7.21296e-06
15 *1276:C1 *1287:C1 3.47383e-05
16 *1277:B1 *1287:C1 4.21447e-06
17 *1280:B1 *1287:C1 0.000208484
18 *1282:A *1287:C1 5.20249e-05
19 *1284:B1 *1287:C1 2.75229e-05
20 *1291:A *1287:C1 4.66108e-05
21 *216:22 *1287:C1 0.00018426
*RES
1 *1286:Y *1287:C1 32.73 
*END

*D_NET *236 0.00149989
*CONN
*I *1288:B1 I *D sky130_fd_sc_hd__o21ai_2
*I *1287:X O *D sky130_fd_sc_hd__o221a_2
*CAP
1 *1288:B1 0.000653163
2 *1287:X 0.000653163
3 *1288:B1 *1295:A_N 0
4 *1288:B1 *1295:B 5.05437e-05
5 y[9] *1288:B1 5.89925e-05
6 *1288:A2 *1288:B1 0
7 *228:6 *1288:B1 8.40269e-05
*RES
1 *1287:X *1288:B1 15.81 
*END

*D_NET *237 0.00191615
*CONN
*I *1301:A2 I *D sky130_fd_sc_hd__o211ai_2
*I *1306:C1 I *D sky130_fd_sc_hd__o311a_2
*I *1289:Y O *D sky130_fd_sc_hd__nand2_2
*CAP
1 *1301:A2 0.000206893
2 *1306:C1 6.9708e-05
3 *1289:Y 0.000132667
4 *237:8 0.000409268
5 *1301:A2 *1286:A1 0.000190178
6 *1301:A2 *1290:B 2.04875e-05
7 *1301:A2 *1713:A 0.000343781
8 *1301:A2 *593:16 5.00391e-05
9 *1306:C1 *1286:A1 3.12855e-05
10 *1306:C1 *1306:B1 8.68355e-05
11 *1306:C1 *238:14 1.44983e-05
12 *1306:C1 *591:30 9.50342e-06
13 *1306:C1 *591:41 0.000202791
14 *1306:C1 *593:16 1.64067e-05
15 *237:8 *1286:A2 2.06497e-05
16 *237:8 *1305:A1 4.77769e-05
17 *237:8 *593:22 6.33849e-05
18 y[12] *1301:A2 0
19 *1642:A *1301:A2 0
*RES
1 *1289:Y *237:8 5.775 
2 *237:8 *1306:C1 6.255 
3 *237:8 *1301:A2 9.315 
*END

*D_NET *238 0.00370893
*CONN
*I *1702:A I *D sky130_fd_sc_hd__buf_2
*I *1308:A1 I *D sky130_fd_sc_hd__a21o_2
*I *1306:A3 I *D sky130_fd_sc_hd__o311a_2
*I *1290:Y O *D sky130_fd_sc_hd__xnor2_2
*CAP
1 *1702:A 0.000156574
2 *1308:A1 0.0003045
3 *1306:A3 0
4 *1290:Y 0.00018173
5 *238:14 0.000544003
6 *238:10 0.000577807
7 *1308:A1 *1296:B1 0.000278978
8 *1308:A1 *1306:A2 2.29156e-05
9 *1308:A1 *1308:A2 4.66108e-05
10 *1702:A *1290:B 2.15337e-05
11 *1702:A *1711:A 7.46628e-05
12 *1702:A *1713:A 0.000358508
13 *1702:A *549:34 7.1624e-05
14 *1702:A *549:47 0.000239993
15 *1702:A *598:18 2.49909e-05
16 *238:14 *1286:A2 3.06748e-05
17 *238:14 *1290:B 0.000194024
18 *238:14 *1299:A1 0
19 *238:14 *1306:A2 0
20 *238:14 *1306:B1 0.00015847
21 *238:14 *1711:A 0.000151756
22 *238:14 *593:16 0.000112589
23 *1306:A1 *1308:A1 2.16833e-05
24 *1306:C1 *238:14 1.44983e-05
25 *1642:A *238:10 0.000100288
26 *227:8 *1308:A1 2.0514e-05
*RES
1 *1290:Y *238:10 6.48 
2 *238:10 *238:14 7.97 
3 *238:14 *1306:A3 1.6 
4 *238:14 *1308:A1 6.595 
5 *238:10 *1702:A 9.3 
*END

*D_NET *239 0.00523312
*CONN
*I *1376:A I *D sky130_fd_sc_hd__or3_2
*I *1377:B I *D sky130_fd_sc_hd__or4_2
*I *1292:A_N I *D sky130_fd_sc_hd__nand2b_2
*I *1291:X O *D sky130_fd_sc_hd__or2_2
*CAP
1 *1376:A 0.000180044
2 *1377:B 0
3 *1292:A_N 2.32929e-05
4 *1291:X 0.000181934
5 *239:25 0.0010551
6 *239:10 0.00108028
7 *1292:A_N *561:62 1.91597e-05
8 *1376:A *1313:A1 2.16917e-05
9 *1376:A *1377:C 0.000291472
10 *1376:A *1379:C1 0
11 *1376:A *319:16 0
12 *239:10 *1256:A2 5.05521e-05
13 *239:10 *561:62 1.1561e-05
14 *239:25 *1313:A1 0.000295356
15 *239:25 *1314:A2 0.000230429
16 *239:25 *1328:S 0.000136176
17 *239:25 *251:14 0.00013475
18 *239:25 *273:10 0.000171509
19 *239:25 *561:62 8.93165e-05
20 *1273:A2 *1292:A_N 8.49205e-05
21 *1277:B1 *1292:A_N 4.66108e-05
22 *1277:B1 *239:10 0.000296088
23 *1280:B1 *239:10 0.000208484
24 *1282:A *239:25 5.05981e-05
25 *1287:C1 *239:10 7.36159e-05
26 *1287:C1 *239:25 0.000260907
27 *1380:B2 *1376:A 4.49498e-05
28 *216:22 *239:10 9.50342e-06
29 *216:22 *239:25 0.000184821
*RES
1 *1291:X *239:10 8.76 
2 *239:10 *1292:A_N 4.395 
3 *239:10 *239:25 18.035 
4 *239:25 *1377:B 1.6 
5 *239:25 *1376:A 9.47 
*END

*D_NET *240 0.00399397
*CONN
*I *1327:A1 I *D sky130_fd_sc_hd__o21a_2
*I *1309:A2 I *D sky130_fd_sc_hd__o211a_2
*I *1293:B1 I *D sky130_fd_sc_hd__o2111ai_2
*I *1292:Y O *D sky130_fd_sc_hd__nand2b_2
*CAP
1 *1327:A1 0
2 *1309:A2 0.000208459
3 *1293:B1 0.000188776
4 *1292:Y 0.000166556
5 *240:27 0.000336546
6 *240:10 0.000483418
7 *1293:B1 *1286:A2 0.000493767
8 *1293:B1 *1318:B 6.41532e-05
9 *1293:B1 *1318:C 8.52845e-05
10 *1293:B1 *264:6 2.382e-05
11 *1293:B1 *542:35 3.99431e-05
12 *1309:A2 *1325:A2 4.53618e-05
13 *1309:A2 *1712:A 0.000355077
14 *1309:A2 *253:16 3.09774e-05
15 *1309:A2 *541:62 1.12643e-05
16 *1309:A2 *541:79 0.000245845
17 *1309:A2 *559:98 0.000230002
18 *240:10 *1256:B1 0.000119756
19 *240:27 *1286:A2 0.000175069
20 *240:27 *1327:A2 7.9642e-06
21 *1261:A *240:10 5.0096e-05
22 *1261:A *240:27 0.000103464
23 *1273:B1 *240:10 0.000112595
24 *1274:A *240:10 3.3625e-05
25 *1274:A *240:27 3.72007e-05
26 *1287:C1 *240:27 7.64773e-05
27 *1293:A1 *1293:B1 9.18707e-05
28 *1318:A *1293:B1 4.66108e-05
29 *210:43 *240:10 0.000129995
*RES
1 *1292:Y *240:10 6.885 
2 *240:10 *1293:B1 9.6 
3 *240:10 *240:27 5.675 
4 *240:27 *1309:A2 7.705 
5 *240:27 *1327:A1 1.6 
*END

*D_NET *241 0.000326265
*CONN
*I *1297:B1 I *D sky130_fd_sc_hd__o31a_2
*I *1293:Y O *D sky130_fd_sc_hd__o2111ai_2
*CAP
1 *1297:B1 5.23742e-05
2 *1293:Y 5.23742e-05
3 *1297:B1 *1286:A2 0.000119873
4 *1297:B1 *1293:D1 4.66108e-05
5 *1297:B1 *1297:A2 1.67131e-05
6 *1306:A1 *1297:B1 3.83194e-05
*RES
1 *1293:Y *1297:B1 4.7 
*END

*D_NET *242 0.00194333
*CONN
*I *1310:A2 I *D sky130_fd_sc_hd__a21oi_2
*I *1297:A2 I *D sky130_fd_sc_hd__o31a_2
*I *1294:X O *D sky130_fd_sc_hd__and2_2
*CAP
1 *1310:A2 0.000240063
2 *1297:A2 0.000180722
3 *1294:X 3.76268e-05
4 *242:10 0.000458412
5 *1297:A2 *1286:A1 5.83121e-06
6 *1297:A2 *253:16 0.000133329
7 *1297:A2 *549:126 0.000136052
8 *1297:A2 *593:12 6.52411e-05
9 *1310:A2 *1311:A2 4.77719e-05
10 *1310:A2 *1311:B1 8.52845e-05
11 *1310:A2 *255:16 0.000343178
12 *242:10 *553:67 0.000114524
13 *1284:A2 *242:10 6.29387e-05
14 *1297:B1 *1297:A2 1.67131e-05
15 *1306:A1 *1297:A2 1.56428e-05
*RES
1 *1294:X *242:10 6.98 
2 *242:10 *1297:A2 9.44 
3 *242:10 *1310:A2 6.535 
*END

*D_NET *243 0.00298692
*CONN
*I *1296:B1 I *D sky130_fd_sc_hd__a21o_2
*I *1295:X O *D sky130_fd_sc_hd__and2b_2
*CAP
1 *1296:B1 0.000500491
2 *1295:X 0.000500491
3 *1296:B1 *1288:A1 0.000111044
4 *1296:B1 *1295:B 0.000161324
5 *1296:B1 *1306:A2 0.000106648
6 *1296:B1 *1308:A2 1.91597e-05
7 *1296:B1 *255:16 0.000194694
8 *1296:B1 *542:10 0.000516334
9 *1296:B1 *542:27 1.34503e-05
10 *1296:B1 *561:68 3.96653e-05
11 *1296:B1 *591:10 0
12 *1296:B1 *591:30 0
13 *1293:C1 *1296:B1 0.000405048
14 *1306:A1 *1296:B1 0.000119246
15 *1308:A1 *1296:B1 0.000278978
16 *227:8 *1296:B1 2.03485e-05
*RES
1 *1295:X *1296:B1 21.495 
*END

*D_NET *244 0.00299011
*CONN
*I *1297:A3 I *D sky130_fd_sc_hd__o31a_2
*I *1308:A2 I *D sky130_fd_sc_hd__a21o_2
*I *1296:X O *D sky130_fd_sc_hd__a21o_2
*CAP
1 *1297:A3 0.000482563
2 *1308:A2 0.00050681
3 *1296:X 0
4 *244:4 0.000989372
5 *1297:A3 *1275:A2 6.69608e-06
6 *1297:A3 *1294:A 0.000160412
7 *1297:A3 *1297:A1 8.35118e-05
8 *1297:A3 *1299:B1 7.29448e-05
9 *1297:A3 *542:33 4.47073e-05
10 *1297:A3 *542:35 7.38676e-05
11 *1297:A3 *561:68 0.000196669
12 *1308:A2 *1275:A1 0
13 *1308:A2 *1286:A2 2.74082e-05
14 *1308:A2 *1308:B1 1.79536e-05
15 *1308:A2 *549:126 1.88904e-05
16 *1293:A1 *1297:A3 1.43253e-05
17 *1296:B1 *1308:A2 1.91597e-05
18 *1306:A1 *1297:A3 0.000195886
19 *1308:A1 *1308:A2 4.66108e-05
20 *209:16 *1308:A2 3.23284e-05
*RES
1 *1296:X *244:4 1.6 
2 *244:4 *1308:A2 9.04893 
3 *244:4 *1297:A3 13.955 
*END

*D_NET *245 0.00111932
*CONN
*I *1298:B I *D sky130_fd_sc_hd__xor2_2
*I *1297:X O *D sky130_fd_sc_hd__o31a_2
*CAP
1 *1298:B 0.00014246
2 *1297:X 0.00014246
3 *1298:B *1286:A1 5.87261e-05
4 *1298:B *1301:B1 0.000429204
5 *1298:B *549:126 0.000346474
*RES
1 *1297:X *1298:B 11.06 
*END

*D_NET *246 0.00059614
*CONN
*I *1300:B1 I *D sky130_fd_sc_hd__o22a_2
*I *1298:X O *D sky130_fd_sc_hd__xor2_2
*CAP
1 *1300:B1 0.000127753
2 *1298:X 0.000127753
3 *1300:B1 *1301:B1 5.55669e-05
4 *1300:B1 *1301:C1 0.000142624
5 *1300:B1 *541:12 4.82919e-05
6 *1300:B1 *549:47 0
7 *1300:B1 *559:28 9.41518e-05
*RES
1 *1298:X *1300:B1 10.59 
*END

*D_NET *247 0.00262741
*CONN
*I *1301:B1 I *D sky130_fd_sc_hd__o211ai_2
*I *1299:Y O *D sky130_fd_sc_hd__o21ai_2
*CAP
1 *1301:B1 0.000636326
2 *1299:Y 0.000636326
3 *1301:B1 *1299:A1 1.27868e-05
4 *1301:B1 *1301:A1 1.08758e-05
5 *1301:B1 *1301:C1 4.42148e-05
6 *1301:B1 *1307:B 7.00889e-06
7 *1301:B1 *542:20 1.34594e-05
8 *1301:B1 *549:126 4.24192e-05
9 *1301:B1 *577:10 9.51228e-05
10 *1301:B1 *593:35 0.000344356
11 *1287:A2 *1301:B1 0.000245199
12 *1298:B *1301:B1 0.000429204
13 *1300:B1 *1301:B1 5.55669e-05
14 *1306:A1 *1301:B1 5.45394e-05
*RES
1 *1299:Y *1301:B1 21.285 
*END

*D_NET *248 0.000414369
*CONN
*I *1301:C1 I *D sky130_fd_sc_hd__o211ai_2
*I *1300:X O *D sky130_fd_sc_hd__o22a_2
*CAP
1 *1301:C1 0.000113765
2 *1300:X 0.000113765
3 *1301:C1 *549:47 0
4 *1300:B1 *1301:C1 0.000142624
5 *1301:B1 *1301:C1 4.42148e-05
*RES
1 *1300:X *1301:C1 9.465 
*END

*D_NET *249 0.00107899
*CONN
*I *1313:A2 I *D sky130_fd_sc_hd__o22a_2
*I *1325:A1 I *D sky130_fd_sc_hd__o21a_2
*I *1302:Y O *D sky130_fd_sc_hd__nor2_2
*CAP
1 *1313:A2 7.93735e-05
2 *1325:A1 8.02182e-06
3 *1302:Y 0.000176435
4 *249:10 0.00026383
5 *1313:A2 *1325:B1 9.41851e-05
6 *1313:A2 *1328:S 6.36381e-05
7 *1313:A2 *553:45 4.91459e-05
8 *1325:A1 *1327:B1 4.77769e-05
9 *1325:A1 *559:98 4.89395e-05
10 *249:10 *1327:B1 0.000143151
11 *249:10 *1380:A1 6.81319e-05
12 *249:10 *559:98 3.63576e-05
*RES
1 *1302:Y *249:10 5.275 
2 *249:10 *1325:A1 2.05 
3 *249:10 *1313:A2 7.745 
*END

*D_NET *250 0.00142013
*CONN
*I *1314:A2 I *D sky130_fd_sc_hd__o21a_2
*I *1325:B1 I *D sky130_fd_sc_hd__o21a_2
*I *1303:Y O *D sky130_fd_sc_hd__nand2_2
*CAP
1 *1314:A2 0.000139628
2 *1325:B1 0.000155048
3 *1303:Y 6.15482e-05
4 *250:8 0.000356224
5 *1314:A2 *1313:A1 4.82863e-05
6 *1314:A2 *1314:B1 0.000122337
7 *1314:A2 *549:14 0.000165958
8 *1325:B1 *1303:A 0
9 *1325:B1 *1328:S 0
10 *1325:B1 *553:45 7.21296e-06
11 *1325:B1 *559:98 8.33066e-06
12 *1325:B1 *588:25 0
13 *250:8 *1303:A 0
14 *250:8 *553:45 3.09451e-05
15 *1313:A2 *1325:B1 9.41851e-05
16 *239:25 *1314:A2 0.000230429
*RES
1 *1303:Y *250:8 4.725 
2 *250:8 *1325:B1 6.255 
3 *250:8 *1314:A2 7.155 
*END

*D_NET *251 0.0057934
*CONN
*I *1313:B1 I *D sky130_fd_sc_hd__o22a_2
*I *1326:B I *D sky130_fd_sc_hd__or2_2
*I *1312:A I *D sky130_fd_sc_hd__xnor2_2
*I *1318:D I *D sky130_fd_sc_hd__nand4_2
*I *1321:A1 I *D sky130_fd_sc_hd__a21oi_2
*I *1304:Y O *D sky130_fd_sc_hd__xnor2_2
*CAP
1 *1313:B1 0.000105818
2 *1326:B 0.00034772
3 *1312:A 3.24931e-05
4 *1318:D 0.000360404
5 *1321:A1 2.0132e-05
6 *1304:Y 0.000171059
7 *251:50 0.000529122
8 *251:46 0.000349059
9 *251:27 0.000597206
10 *251:14 0.000333661
11 *1312:A *549:28 8.52845e-05
12 *1313:B1 *1313:B2 2.21649e-05
13 *1313:B1 *549:14 0.000137907
14 *1313:B1 *549:28 0.000154986
15 *1313:B1 *553:61 0.000237997
16 *1318:D *1293:A2 3.60024e-06
17 *1318:D *1311:A1 9.58678e-06
18 *1318:D *1311:B1 3.1191e-05
19 *1318:D *1312:B 8.33066e-06
20 *1318:D *1321:A2 1.33285e-05
21 *1318:D *255:16 0.000232411
22 *1318:D *541:79 3.45117e-05
23 *1326:B *1312:B 8.33066e-06
24 *1326:B *1337:A1 1.7635e-05
25 *1326:B *1337:A2 2.29541e-05
26 *1326:B *1337:B1 2.36046e-05
27 *1326:B *1338:A1 2.70428e-05
28 *1326:B *1338:A2 0.000288564
29 *1326:B *1338:B1 2.98447e-05
30 *1326:B *1339:B 0
31 *1326:B *1712:A 0
32 *1326:B *541:62 2.56752e-06
33 *1326:B *546:43 0
34 *251:14 *1328:S 0.000131525
35 *251:27 *1321:A2 0.000121043
36 *251:27 *255:16 9.12671e-06
37 *251:46 *1286:A2 0.000256583
38 *251:46 *546:43 0.000254779
39 *251:50 *1315:A2 0.000122083
40 *251:50 *1315:B1 4.66108e-05
41 *251:50 *549:28 0.000310736
42 *1282:A *251:14 9.43385e-05
43 *1282:A *251:27 8.73389e-06
44 *211:6 *251:27 9.83921e-06
45 *216:16 *251:14 4.80058e-05
46 *216:22 *251:14 6.72833e-06
47 *239:25 *251:14 0.00013475
*RES
1 *1304:Y *251:14 9.17 
2 *251:14 *1321:A1 1.96 
3 *251:14 *251:27 2.55 
4 *251:27 *1318:D 10.775 
5 *251:27 *251:46 7.165 
6 *251:46 *251:50 3.57 
7 *251:50 *1312:A 2.395 
8 *251:50 *1326:B 12.08 
9 *251:46 *1313:B1 4.825 
*END

*D_NET *252 0.000349303
*CONN
*I *1306:B1 I *D sky130_fd_sc_hd__o311a_2
*I *1305:Y O *D sky130_fd_sc_hd__o211ai_2
*CAP
1 *1306:B1 5.19989e-05
2 *1305:Y 5.19989e-05
3 *1306:C1 *1306:B1 8.68355e-05
4 *238:14 *1306:B1 0.00015847
*RES
1 *1305:Y *1306:B1 9.09 
*END

*D_NET *253 0.00475836
*CONN
*I *1309:B1 I *D sky130_fd_sc_hd__o211a_2
*I *1325:A2 I *D sky130_fd_sc_hd__o21a_2
*I *1306:X O *D sky130_fd_sc_hd__o311a_2
*CAP
1 *1309:B1 0
2 *1325:A2 0.00059426
3 *1306:X 0.000560039
4 *253:16 0.0011543
5 *1325:A2 *1315:A1 7.23242e-05
6 *1325:A2 *1712:A 1.05984e-05
7 *1325:A2 *541:62 1.15727e-05
8 *1325:A2 *541:79 0.000109429
9 *1325:A2 *559:98 0.000561735
10 *253:16 *1286:A1 0.000155124
11 *253:16 *1294:A 2.0187e-05
12 *253:16 *1297:A1 7.14973e-05
13 *253:16 *1309:C1 8.53011e-05
14 *253:16 *1712:A 8.64488e-05
15 *253:16 *549:28 0.000230033
16 *253:16 *549:126 6.97381e-05
17 *253:16 *553:67 0.000439888
18 *253:16 *577:6 2.65814e-06
19 *1293:C1 *253:16 0.000193801
20 *1297:A2 *253:16 0.000133329
21 *1309:A2 *1325:A2 4.53618e-05
22 *1309:A2 *253:16 3.09774e-05
23 *227:8 *253:16 0.000119756
*RES
1 *1306:X *253:16 18.005 
2 *253:16 *1325:A2 11.875 
3 *253:16 *1309:B1 1.6 
*END

*D_NET *254 0.000874637
*CONN
*I *1308:B1 I *D sky130_fd_sc_hd__a21o_2
*I *1307:X O *D sky130_fd_sc_hd__and2b_2
*CAP
1 *1308:B1 0.000244789
2 *1307:X 0.000244789
3 *1308:B1 *1299:B1 2.30292e-05
4 *1308:B1 *542:20 0.00022953
5 *1308:B1 *549:126 5.30479e-05
6 *1308:B1 *553:67 6.14983e-05
7 *1308:A2 *1308:B1 1.79536e-05
*RES
1 *1307:X *1308:B1 11.1 
*END

*D_NET *255 0.00282066
*CONN
*I *1321:A2 I *D sky130_fd_sc_hd__a21oi_2
*I *1310:B1 I *D sky130_fd_sc_hd__a21oi_2
*I *1308:X O *D sky130_fd_sc_hd__a21o_2
*CAP
1 *1321:A2 5.91815e-05
2 *1310:B1 0
3 *1308:X 0.000420724
4 *255:16 0.000479905
5 *255:16 *1294:A 0.000116346
6 *255:16 *1311:A2 3.16198e-05
7 *255:16 *1312:B 0.00019721
8 *255:16 *1318:C 6.90044e-05
9 *255:16 *542:27 2.75229e-05
10 *255:16 *561:113 0.000103446
11 *1261:A *1321:A2 4.66108e-05
12 *1284:A2 *255:16 1.29239e-05
13 *1293:C1 *255:16 0.000153409
14 *1296:B1 *255:16 0.000194694
15 *1310:A2 *255:16 0.000343178
16 *1318:D *1321:A2 1.33285e-05
17 *1318:D *255:16 0.000232411
18 *209:16 *255:16 0.000174712
19 *211:6 *1321:A2 1.42674e-05
20 *251:27 *1321:A2 0.000121043
21 *251:27 *255:16 9.12671e-06
*RES
1 *1308:X *255:16 17.765 
2 *255:16 *1310:B1 1.6 
3 *255:16 *1321:A2 3.085 
*END

*D_NET *256 0.000486471
*CONN
*I *1311:B1 I *D sky130_fd_sc_hd__a21o_2
*I *1309:X O *D sky130_fd_sc_hd__o211a_2
*CAP
1 *1311:B1 0.000139718
2 *1309:X 0.000139718
3 *1311:B1 *1294:A 0
4 *1311:B1 *1312:B 9.05592e-05
5 *1310:A2 *1311:B1 8.52845e-05
6 *1318:D *1311:B1 3.1191e-05
*RES
1 *1309:X *1311:B1 9.885 
*END

*D_NET *257 0.000295336
*CONN
*I *1311:A2 I *D sky130_fd_sc_hd__a21o_2
*I *1310:Y O *D sky130_fd_sc_hd__a21oi_2
*CAP
1 *1311:A2 0.000102264
2 *1310:Y 0.000102264
3 *1311:A2 *1318:C 1.14169e-05
4 *1310:A2 *1311:A2 4.77719e-05
5 *255:16 *1311:A2 3.16198e-05
*RES
1 *1310:Y *1311:A2 5.165 
*END

*D_NET *258 0.00111228
*CONN
*I *1312:B I *D sky130_fd_sc_hd__xnor2_2
*I *1311:X O *D sky130_fd_sc_hd__a21o_2
*CAP
1 *1312:B 0.000330399
2 *1311:X 0.000330399
3 *1312:B *1315:A1 5.05066e-06
4 *1312:B *1315:A2 0.000109284
5 *1312:B *541:62 0
6 *1312:B *541:79 3.27181e-05
7 *1312:B *546:43 0
8 *1311:B1 *1312:B 9.05592e-05
9 *1318:D *1312:B 8.33066e-06
10 *1326:B *1312:B 8.33066e-06
11 *255:16 *1312:B 0.00019721
*RES
1 *1311:X *1312:B 12.45 
*END

*D_NET *259 0.000673274
*CONN
*I *1315:A2 I *D sky130_fd_sc_hd__o21ai_2
*I *1312:Y O *D sky130_fd_sc_hd__xnor2_2
*CAP
1 *1315:A2 0.000220954
2 *1312:Y 0.000220954
3 *1315:A2 *1315:B1 0
4 *1312:B *1315:A2 0.000109284
5 *251:50 *1315:A2 0.000122083
*RES
1 *1312:Y *1315:A2 10.17 
*END

*D_NET *260 0.000479165
*CONN
*I *1314:B1 I *D sky130_fd_sc_hd__o21a_2
*I *1313:X O *D sky130_fd_sc_hd__o22a_2
*CAP
1 *1314:B1 5.31429e-05
2 *1313:X 5.31429e-05
3 *1314:B1 *549:14 8.46818e-05
4 *1314:B1 *549:28 0.000119251
5 *1314:B1 *553:61 4.66108e-05
6 *1314:A2 *1314:B1 0.000122337
*RES
1 *1313:X *1314:B1 5.03 
*END

*D_NET *261 0.000343431
*CONN
*I *1315:B1 I *D sky130_fd_sc_hd__o21ai_2
*I *1314:X O *D sky130_fd_sc_hd__o21a_2
*CAP
1 *1315:B1 0.000102623
2 *1314:X 0.000102623
3 *1315:B1 *546:43 9.15747e-05
4 *1315:A2 *1315:B1 0
5 *251:50 *1315:B1 4.66108e-05
*RES
1 *1314:X *1315:B1 8.775 
*END

*D_NET *262 0.00471661
*CONN
*I *1332:A2 I *D sky130_fd_sc_hd__o211ai_2
*I *1337:C1 I *D sky130_fd_sc_hd__o211a_2
*I *1346:A1 I *D sky130_fd_sc_hd__o211a_2
*I *1364:A1 I *D sky130_fd_sc_hd__o311ai_2
*I *1316:Y O *D sky130_fd_sc_hd__nand2_2
*CAP
1 *1332:A2 0.000231996
2 *1337:C1 2.60213e-05
3 *1346:A1 0.000107581
4 *1364:A1 0.0002119
5 *1316:Y 0.000374681
6 *262:18 0.000639739
7 *262:12 0.000488964
8 *1332:A2 *1332:B1 9.95898e-05
9 *1332:A2 *1348:A 4.80069e-05
10 *1332:A2 *595:18 8.49205e-05
11 *1337:C1 *1332:C1 2.97593e-05
12 *1337:C1 *1336:A_N 1.14169e-05
13 *1337:C1 *599:53 7.35284e-05
14 *1346:A1 *1346:A2 0.000107665
15 *1346:A1 *1346:C1 2.02512e-05
16 *1364:A1 *1341:B1 2.92496e-05
17 *1364:A1 *1346:A2 0.00010978
18 *1364:A1 *1361:B 5.16418e-05
19 *1364:A1 *1363:C1 5.73518e-05
20 *1364:A1 *1364:A2 0.000215956
21 *1364:A1 *279:28 4.66108e-05
22 *1364:A1 *540:8 9.50342e-06
23 *1364:A1 *610:16 0
24 *262:12 *1332:C1 3.45588e-05
25 *262:12 *1714:A 0.000193806
26 *262:12 *553:127 9.41364e-05
27 *262:12 *599:42 0.000178333
28 *262:12 *599:53 0.00030782
29 *262:18 *1326:A 0
30 *262:18 *1332:C1 3.67779e-05
31 *262:18 *1338:A2 0
32 *262:18 *1339:B 0.000201813
33 *262:18 *1342:B1 0.00013521
34 *262:18 *1346:B1 9.14049e-05
35 *262:18 *1354:B2 0.000141552
36 *262:18 *1714:A 3.67241e-05
37 *262:18 *553:127 0
38 *262:18 *559:12 0.000114492
39 *262:18 *565:100 0
40 *1660:A *262:18 7.38718e-05
*RES
1 *1316:Y *262:12 10.61 
2 *262:12 *262:18 11.755 
3 *262:18 *1364:A1 9.995 
4 *262:18 *1346:A1 3.38125 
5 *262:12 *1337:C1 2.395 
6 *1316:Y *1332:A2 7.115 
*END

*D_NET *263 0.00641499
*CONN
*I *1335:A I *D sky130_fd_sc_hd__nand2_2
*I *1382:A I *D sky130_fd_sc_hd__and4_2
*I *1345:A I *D sky130_fd_sc_hd__or3_2
*I *1375:A I *D sky130_fd_sc_hd__or4_2
*I *1329:A I *D sky130_fd_sc_hd__xor2_2
*I *1331:B1 I *D sky130_fd_sc_hd__o2bb2a_2
*I *1337:A1 I *D sky130_fd_sc_hd__o211a_2
*I *1317:Y O *D sky130_fd_sc_hd__xnor2_2
*CAP
1 *1335:A 0
2 *1382:A 1.79042e-05
3 *1345:A 0.000117672
4 *1375:A 0.000161623
5 *1329:A 0
6 *1331:B1 0.00019771
7 *1337:A1 1.23588e-05
8 *1317:Y 0.000398005
9 *263:65 0.000279295
10 *263:63 0.000282737
11 *263:59 0.000411244
12 *263:44 0.000251967
13 *263:31 0.000612627
14 *263:12 0.000719725
15 *1331:B1 *1328:A0 4.60584e-05
16 *1331:B1 *1331:A1_N 0.000154592
17 *1331:B1 *1332:C1 1.34594e-05
18 *1331:B1 *1337:A2 0.000267851
19 *1331:B1 *1338:A3 4.36422e-06
20 *1331:B1 *269:16 0.000153057
21 *1331:B1 *553:35 3.57349e-05
22 *1331:B1 *553:45 4.66108e-05
23 *1337:A1 *1336:A_N 1.18246e-05
24 *1337:A1 *1337:A2 1.47547e-05
25 *1337:A1 *1337:B1 5.02814e-06
26 *1345:A *1331:A1_N 0.000201508
27 *1345:A *1345:B 6.33103e-05
28 *1345:A *1345:C 3.74161e-05
29 *1345:A *539:59 0.000192977
30 *1345:A *540:36 0.000118081
31 *1375:A *1328:S 8.51337e-05
32 *1375:A *1331:A1_N 0.000137571
33 *1375:A *1375:C 4.82919e-05
34 *1375:A *1375:D 8.65961e-05
35 *1375:A *272:23 0.000124052
36 *1375:A *539:59 2.92496e-05
37 *1382:A *539:59 3.57349e-05
38 *1382:A *632:6 1.1392e-05
39 *263:12 *1338:A1 5.74263e-05
40 *263:12 *1338:A2 8.18398e-05
41 *263:12 *553:127 3.96153e-05
42 *263:12 *559:18 0
43 *263:12 *598:18 0.000105993
44 *263:12 *599:42 1.03833e-05
45 *263:31 *1330:A2 1.92979e-05
46 *263:31 *1338:A1 5.13038e-05
47 *263:31 *1338:A2 9.54817e-06
48 *263:31 *595:55 2.0474e-05
49 *263:31 *598:18 5.49498e-05
50 *263:44 *1338:A2 0
51 *263:44 *595:55 0.000173045
52 *263:59 *1335:B 7.63282e-05
53 *263:59 *1347:A_N 1.0555e-05
54 *263:59 *272:6 3.03775e-05
55 *263:59 *595:55 9.08126e-05
56 *263:63 *539:59 4.66108e-05
57 *263:63 *632:6 0.000126323
58 y[11] *263:12 4.95285e-06
59 *1326:B *1337:A1 1.7635e-05
*RES
1 *1317:Y *263:12 5.38297 
2 *263:12 *1337:A1 4.44125 
3 *263:12 *263:31 1.43337 
4 *263:31 *1331:B1 8.88 
5 *263:31 *263:44 4.145 
6 *263:44 *1329:A 1.6 
7 *263:44 *263:59 6.79 
8 *263:59 *263:63 4.26 
9 *263:63 *263:65 2 
10 *263:65 *1375:A 7.755 
11 *263:65 *1345:A 7.485 
12 *263:63 *1382:A 2.05 
13 *263:59 *1335:A 1.6 
*END

*D_NET *264 0.00245406
*CONN
*I *1322:A2 I *D sky130_fd_sc_hd__o221a_2
*I *1319:A_N I *D sky130_fd_sc_hd__nand4b_2
*I *1318:Y O *D sky130_fd_sc_hd__nand4_2
*CAP
1 *1322:A2 9.49863e-05
2 *1319:A_N 0.000117389
3 *1318:Y 0.000570427
4 *264:6 0.000782802
5 *1319:A_N *561:39 0.00013488
6 *1322:A2 *1322:B1 5.11834e-05
7 *1322:A2 *1322:C1 5.83121e-06
8 *1322:A2 *561:39 1.42674e-05
9 *264:6 *1267:A 0.000155608
10 *264:6 *1304:A 2.69217e-05
11 *264:6 *1318:B 4.77719e-05
12 *264:6 *1322:C1 0.000153675
13 *264:6 *561:39 0.000176295
14 *1272:A2 *1322:A2 3.5678e-06
15 *1273:B1 *264:6 4.66108e-05
16 *1293:B1 *264:6 2.382e-05
17 *1318:A *264:6 2.49909e-05
18 *1322:B2 *1319:A_N 1.48851e-05
19 *216:16 *1322:A2 8.1508e-06
*RES
1 *1318:Y *264:6 11.02 
2 *264:6 *1319:A_N 8 
3 *264:6 *1322:A2 3.445 
*END

*D_NET *265 0.00115721
*CONN
*I *1323:A2 I *D sky130_fd_sc_hd__o21ai_2
*I *1322:B1 I *D sky130_fd_sc_hd__o221a_2
*I *1319:Y O *D sky130_fd_sc_hd__nand4b_2
*CAP
1 *1323:A2 3.80394e-05
2 *1322:B1 0.000112089
3 *1319:Y 4.66388e-05
4 *265:8 0.000196767
5 *1319:B *265:8 2.65814e-06
6 *1322:A2 *1322:B1 5.11834e-05
7 *1322:B2 *1322:B1 0.000201232
8 *1322:B2 *1323:A2 0.000126425
9 *1377:A *1322:B1 4.28943e-05
10 *1377:A *1323:A2 0.000134756
11 *215:8 *1322:B1 0.000156284
12 *216:16 *1322:B1 4.82461e-05
*RES
1 *1319:Y *265:8 4.05 
2 *265:8 *1322:B1 7.15875 
3 *265:8 *1323:A2 5.235 
*END

*D_NET *266 0.00018543
*CONN
*I *1321:B1 I *D sky130_fd_sc_hd__a21oi_2
*I *1320:X O *D sky130_fd_sc_hd__and2b_2
*CAP
1 *1321:B1 6.82006e-05
2 *1320:X 6.82006e-05
3 *1282:A *1321:B1 4.90291e-05
*RES
1 *1320:X *1321:B1 4.355 
*END

*D_NET *267 0.00161754
*CONN
*I *1322:C1 I *D sky130_fd_sc_hd__o221a_2
*I *1321:Y O *D sky130_fd_sc_hd__a21oi_2
*CAP
1 *1322:C1 0.000412264
2 *1321:Y 0.000412264
3 *1322:C1 *561:39 0.000269335
4 *1322:C1 *588:10 8.33066e-06
5 *1322:C1 *588:23 0.000109489
6 *1322:C1 *594:17 5.62661e-05
7 *1282:A *1322:C1 0.00019009
8 *1322:A2 *1322:C1 5.83121e-06
9 *264:6 *1322:C1 0.000153675
*RES
1 *1321:Y *1322:C1 14.76 
*END

*D_NET *268 0.00071425
*CONN
*I *1323:B1 I *D sky130_fd_sc_hd__o21ai_2
*I *1322:X O *D sky130_fd_sc_hd__o221a_2
*CAP
1 *1323:B1 0.000133417
2 *1322:X 0.000133417
3 *1270:A *1323:B1 0.000298407
4 *1377:A *1323:B1 9.12857e-06
5 *220:8 *1323:B1 6.97526e-05
6 *220:12 *1323:B1 7.01276e-05
*RES
1 *1322:X *1323:B1 11.13 
*END

*D_NET *269 0.00403389
*CONN
*I *1384:B1 I *D sky130_fd_sc_hd__a221o_2
*I *1324:A I *D sky130_fd_sc_hd__inv_2
*I *1335:B I *D sky130_fd_sc_hd__nand2_2
*I *1323:Y O *D sky130_fd_sc_hd__o21ai_2
*CAP
1 *1384:B1 0.000188174
2 *1324:A 0
3 *1335:B 0.000157321
4 *1323:Y 0.000362875
5 *269:16 0.00057162
6 *269:10 0.000965348
7 *1335:B *1327:A2 8.56542e-05
8 *1335:B *1328:A0 0
9 *1335:B *1329:B 0.000120186
10 *1335:B *1332:C1 7.23533e-05
11 *1335:B *273:39 0
12 *1335:B *595:55 4.59172e-05
13 *1384:B1 *1377:C 0
14 *1384:B1 *1384:C1 5.53249e-06
15 *1384:B1 *1613:A 2.53191e-06
16 *1384:B1 *272:23 2.75229e-05
17 *1384:B1 *317:12 0
18 *1384:B1 *317:16 1.23268e-05
19 *1384:B1 *553:35 0
20 *1384:B1 *598:18 1.34017e-05
21 *269:10 *1303:B 0
22 *269:10 *1380:A1 0.000303056
23 *269:10 *1613:A 0.000134654
24 *269:10 *317:16 8.54266e-05
25 *269:10 *561:39 5.4533e-05
26 *269:16 *1331:A1_N 0.000156274
27 *269:16 *1332:C1 0.000162311
28 *269:16 *317:12 0.000160635
29 *269:16 *553:35 7.94673e-05
30 *1322:B2 *269:10 1.56428e-05
31 *1331:B1 *269:16 0.000153057
32 *231:16 *269:10 2.17427e-05
33 *263:59 *1335:B 7.63282e-05
*RES
1 *1323:Y *269:10 12 
2 *269:10 *269:16 10.055 
3 *269:16 *1335:B 9.785 
4 *269:16 *1324:A 1.6 
5 *269:10 *1384:B1 6.705 
*END

*D_NET *270 0.000871994
*CONN
*I *1328:A0 I *D sky130_fd_sc_hd__mux2_1
*I *1324:Y O *D sky130_fd_sc_hd__inv_2
*CAP
1 *1328:A0 0.00023249
2 *1324:Y 0.00023249
3 *1328:A0 *1327:A2 6.56448e-06
4 *1328:A0 *1329:B 0
5 *1328:A0 *1331:A2_N 0.000111012
6 *1328:A0 *1337:A2 0.000120799
7 *1328:A0 *273:39 0.00012258
8 *1331:B1 *1328:A0 4.60584e-05
9 *1335:B *1328:A0 0
*RES
1 *1324:Y *1328:A0 11.595 
*END

*D_NET *271 0.00211489
*CONN
*I *1380:A1 I *D sky130_fd_sc_hd__o22a_2
*I *1327:B1 I *D sky130_fd_sc_hd__o21a_2
*I *1325:X O *D sky130_fd_sc_hd__o21a_2
*CAP
1 *1380:A1 0.000374751
2 *1327:B1 0.000232198
3 *1325:X 0
4 *271:4 0.000606949
5 *1327:B1 *273:10 4.77807e-05
6 *1327:B1 *559:98 0.000102748
7 *1380:A1 *1377:D 0.000184064
8 *1380:A1 *561:39 4.28112e-06
9 *1325:A1 *1327:B1 4.77769e-05
10 *249:10 *1327:B1 0.000143151
11 *249:10 *1380:A1 6.81319e-05
12 *269:10 *1380:A1 0.000303056
*RES
1 *1325:X *271:4 1.6 
2 *271:4 *1327:B1 5.875 
3 *271:4 *1380:A1 12.23 
*END

*D_NET *272 0.00438703
*CONN
*I *1376:B I *D sky130_fd_sc_hd__or3_2
*I *1377:C I *D sky130_fd_sc_hd__or4_2
*I *1327:A2 I *D sky130_fd_sc_hd__o21a_2
*I *1326:X O *D sky130_fd_sc_hd__or2_2
*CAP
1 *1376:B 0
2 *1377:C 0.000237575
3 *1327:A2 0.00033492
4 *1326:X 0.000215538
5 *272:23 0.000816693
6 *272:6 0.00112958
7 *1327:A2 *1286:A2 0.000139013
8 *1327:A2 *1331:A2_N 0
9 *1327:A2 *1332:C1 1.82563e-05
10 *1327:A2 *1337:A2 9.30787e-05
11 *1327:A2 *273:10 0
12 *1327:A2 *546:43 0
13 *1327:A2 *553:61 9.00959e-05
14 *1377:C *1313:A1 4.89395e-05
15 *1377:C *1377:D 0.000100275
16 *1377:C *1379:C1 0
17 *1377:C *317:16 0.000101998
18 *272:23 *1337:A2 0.00015639
19 *272:23 *1375:B 4.82919e-05
20 *272:23 *1375:C 4.99619e-05
21 *272:23 *1379:C1 0
22 *272:23 *1384:A2 8.26048e-06
23 *272:23 *1384:B2 7.20662e-05
24 *1287:C1 *1327:A2 0.000149803
25 *1328:A0 *1327:A2 6.56448e-06
26 *1335:B *1327:A2 8.56542e-05
27 *1375:A *272:23 0.000124052
28 *1376:A *1377:C 0.000291472
29 *1377:A *1377:C 2.69443e-06
30 *1380:B2 *1377:C 0
31 *1384:B1 *1377:C 0
32 *1384:B1 *272:23 2.75229e-05
33 *240:27 *1327:A2 7.9642e-06
34 *263:59 *272:6 3.03775e-05
*RES
1 *1326:X *272:6 4.465 
2 *272:6 *1327:A2 13.355 
3 *272:6 *272:23 11.51 
4 *272:23 *1377:C 9.45 
5 *272:23 *1376:B 3.6 
*END

*D_NET *273 0.00479266
*CONN
*I *1345:B I *D sky130_fd_sc_hd__or3_2
*I *1328:A1 I *D sky130_fd_sc_hd__mux2_1
*I *1337:A2 I *D sky130_fd_sc_hd__o211a_2
*I *1327:X O *D sky130_fd_sc_hd__o21a_2
*CAP
1 *1345:B 0.000257142
2 *1328:A1 0
3 *1337:A2 0.000340782
4 *1327:X 0.000274467
5 *273:39 0.000362182
6 *273:10 0.000720289
7 *1337:A2 *1331:A2_N 7.21296e-06
8 *1337:A2 *1332:C1 0.000415438
9 *1337:A2 *1336:A_N 0.000107391
10 *1337:A2 *1337:B1 8.7152e-06
11 *1337:A2 *1338:A3 1.81918e-05
12 *1337:A2 *1339:B 0
13 *1345:B *1328:S 9.50342e-06
14 *1345:B *539:59 0.000105365
15 *1345:B *540:36 8.34281e-06
16 *273:10 *1328:S 0.000585935
17 *273:10 *1331:A2_N 0.000180675
18 *273:39 *1328:S 0.00024719
19 *273:39 *1331:A2_N 4.03257e-05
20 *1287:C1 *273:10 2.25075e-05
21 *1326:B *1337:A2 2.29541e-05
22 *1327:A2 *1337:A2 9.30787e-05
23 *1327:A2 *273:10 0
24 *1327:B1 *273:10 4.77807e-05
25 *1328:A0 *1337:A2 0.000120799
26 *1328:A0 *273:39 0.00012258
27 *1331:B1 *1337:A2 0.000267851
28 *1335:B *273:39 0
29 *1337:A1 *1337:A2 1.47547e-05
30 *1345:A *1345:B 6.33103e-05
31 *239:25 *273:10 0.000171509
32 *272:23 *1337:A2 0.00015639
*RES
1 *1327:X *273:10 11.04 
2 *273:10 *1337:A2 20.105 
3 *273:10 *273:39 3.465 
4 *273:39 *1328:A1 3.6 
5 *273:39 *1345:B 7.155 
*END

*D_NET *274 0.000232567
*CONN
*I *1329:B I *D sky130_fd_sc_hd__xor2_2
*I *1328:X O *D sky130_fd_sc_hd__mux2_1
*CAP
1 *1329:B 5.61903e-05
2 *1328:X 5.61903e-05
3 *1328:A0 *1329:B 0
4 *1335:B *1329:B 0.000120186
*RES
1 *1328:X *1329:B 6.98 
*END

*D_NET *275 0.000537613
*CONN
*I *1331:A2_N I *D sky130_fd_sc_hd__o2bb2a_2
*I *1329:X O *D sky130_fd_sc_hd__xor2_2
*CAP
1 *1331:A2_N 9.91936e-05
2 *1329:X 9.91936e-05
3 *1327:A2 *1331:A2_N 0
4 *1328:A0 *1331:A2_N 0.000111012
5 *1337:A2 *1331:A2_N 7.21296e-06
6 *273:10 *1331:A2_N 0.000180675
7 *273:39 *1331:A2_N 4.03257e-05
*RES
1 *1329:X *1331:A2_N 9.855 
*END

*D_NET *276 0.00305913
*CONN
*I *1332:B1 I *D sky130_fd_sc_hd__o211ai_2
*I *1330:Y O *D sky130_fd_sc_hd__o21ai_2
*CAP
1 *1332:B1 0.000644214
2 *1330:Y 0.000644214
3 *1332:B1 *1286:A1 0.000528875
4 *1332:B1 *1326:A 0.000373587
5 *1332:B1 *1332:C1 0.0002433
6 *1332:B1 *1339:A 5.83121e-06
7 *1332:B1 *1348:A 5.14972e-05
8 *1332:B1 *553:108 5.16348e-05
9 *1332:B1 *553:127 0.000329789
10 *1332:B1 *595:18 8.65961e-05
11 *1332:A2 *1332:B1 9.95898e-05
*RES
1 *1330:Y *1332:B1 20.955 
*END

*D_NET *277 0.00335108
*CONN
*I *1332:C1 I *D sky130_fd_sc_hd__o211ai_2
*I *1331:X O *D sky130_fd_sc_hd__o2bb2a_2
*CAP
1 *1332:C1 0.00105424
2 *1331:X 0.00105424
3 *1332:C1 *1326:A 4.41506e-05
4 *1332:C1 *1330:A2 2.77737e-05
5 *1332:C1 *1336:A_N 2.85618e-05
6 *1332:C1 *1339:A 8.34281e-06
7 *1332:C1 *1714:A 7.23533e-05
8 *1332:C1 *595:55 3.51931e-05
9 *1327:A2 *1332:C1 1.82563e-05
10 *1331:B1 *1332:C1 1.34594e-05
11 *1332:B1 *1332:C1 0.0002433
12 *1335:B *1332:C1 7.23533e-05
13 *1337:A2 *1332:C1 0.000415438
14 *1337:C1 *1332:C1 2.97593e-05
15 *262:12 *1332:C1 3.45588e-05
16 *262:18 *1332:C1 3.67779e-05
17 *269:16 *1332:C1 0.000162311
*RES
1 *1331:X *1332:C1 25.855 
*END

*D_NET *278 0.00125303
*CONN
*I *1346:B1 I *D sky130_fd_sc_hd__o211a_2
*I *1341:A2 I *D sky130_fd_sc_hd__o221a_2
*I *1333:Y O *D sky130_fd_sc_hd__nand2_2
*CAP
1 *1346:B1 0.000140494
2 *1341:A2 1.88809e-05
3 *1333:Y 3.36971e-05
4 *278:6 0.000193072
5 *1341:A2 *1333:A 0
6 *1341:A2 *1341:A1 5.4155e-06
7 *1346:B1 *1340:A1 0.000230435
8 *1346:B1 *1341:B1 1.12643e-05
9 *1346:B1 *1341:C1 0.000117255
10 *1346:B1 *1354:B2 2.34423e-05
11 *1346:B1 *1362:A2 7.12958e-05
12 *278:6 *1340:A1 0.000113237
13 *278:6 *1341:A1 7.60965e-05
14 *278:6 *1362:A2 3.87723e-05
15 *278:6 *610:18 8.8266e-05
16 *262:18 *1346:B1 9.14049e-05
*RES
1 *1333:Y *278:6 3.43 
2 *278:6 *1341:A2 1.96 
3 *278:6 *1346:B1 9.41 
*END

*D_NET *279 0.00372063
*CONN
*I *1346:A2 I *D sky130_fd_sc_hd__o211a_2
*I *1364:A2 I *D sky130_fd_sc_hd__o311ai_2
*I *1341:B1 I *D sky130_fd_sc_hd__o221a_2
*I *1701:A I *D sky130_fd_sc_hd__clkbuf_2
*I *1348:B I *D sky130_fd_sc_hd__nand2_2
*I *1334:Y O *D sky130_fd_sc_hd__xnor2_2
*CAP
1 *1346:A2 6.70872e-05
2 *1364:A2 8.88181e-05
3 *1341:B1 6.51331e-05
4 *1701:A 0
5 *1348:B 0.000269897
6 *1334:Y 3.53529e-05
7 *279:30 0.000153951
8 *279:28 0.00012194
9 *279:21 0.000512571
10 *279:6 0.000762968
11 *1341:B1 *1341:B2 9.50342e-06
12 *1341:B1 *1354:B2 6.9117e-05
13 *1341:B1 *1362:A2 1.20741e-05
14 *1341:B1 *540:8 5.10302e-05
15 *1346:A2 *1340:A2 2.8185e-05
16 *1346:A2 *1346:C1 7.30553e-05
17 *1348:B *1349:B1 0
18 *1348:B *1716:A 0
19 *1348:B *292:10 0
20 *1364:A2 *1354:B2 0.00012022
21 *1364:A2 *1361:A_N 2.75229e-05
22 *1364:A2 *1364:B1 4.82919e-05
23 *279:21 *596:8 0.00010492
24 *279:21 *596:52 3.09179e-05
25 *279:28 *1340:A2 4.16262e-05
26 *279:28 *596:52 4.9253e-06
27 y[13] *1348:B 0.00014654
28 y[15] *1348:B 7.8226e-05
29 *1346:A1 *1346:A2 0.000107665
30 *1346:B1 *1341:B1 1.12643e-05
31 *1349:A1_N *1348:B 0
32 *1364:A1 *1341:B1 2.92496e-05
33 *1364:A1 *1346:A2 0.00010978
34 *1364:A1 *1364:A2 0.000215956
35 *1364:A1 *279:28 4.66108e-05
36 *1661:A *279:6 1.47256e-05
37 *1661:A *279:21 0.000261505
*RES
1 *1334:Y *279:6 2.05 
2 *279:6 *1348:B 11.06 
3 *279:6 *279:21 7.71 
4 *279:21 *1701:A 1.6 
5 *279:21 *279:28 1.14 
6 *279:28 *279:30 2 
7 *279:30 *1341:B1 5.34375 
8 *279:30 *1364:A2 6.705 
9 *279:28 *1346:A2 3.79 
*END

*D_NET *280 0.00293655
*CONN
*I *1347:A_N I *D sky130_fd_sc_hd__nand2b_2
*I *1338:A2 I *D sky130_fd_sc_hd__a31o_2
*I *1335:Y O *D sky130_fd_sc_hd__nand2_2
*CAP
1 *1347:A_N 0.0001861
2 *1338:A2 0.000736748
3 *1335:Y 1.2685e-05
4 *280:6 0.000935533
5 *1338:A2 *1326:A 0
6 *1338:A2 *1337:B1 8.11479e-05
7 *1338:A2 *1338:A1 0.00011049
8 *1338:A2 *1338:B1 7.59731e-05
9 *1338:A2 *1339:B 1.7635e-05
10 *1338:A2 *1342:A1 5.83121e-06
11 *1338:A2 *1342:A2 0.000139181
12 *1338:A2 *595:55 0.000157818
13 *1338:A2 *632:6 2.75252e-05
14 *1347:A_N *1342:A2 8.80293e-06
15 *1347:A_N *565:100 0
16 *280:6 *595:55 3.72418e-05
17 *280:6 *632:6 1.33269e-05
18 *1326:B *1338:A2 0.000288564
19 *231:16 *1338:A2 0
20 *262:18 *1338:A2 0
21 *263:12 *1338:A2 8.18398e-05
22 *263:31 *1338:A2 9.54817e-06
23 *263:44 *1338:A2 0
24 *263:59 *1347:A_N 1.0555e-05
*RES
1 *1335:Y *280:6 2.05 
2 *280:6 *1338:A2 15.3841 
3 *280:6 *1347:A_N 8.255 
*END

*D_NET *281 0.00115154
*CONN
*I *1338:A3 I *D sky130_fd_sc_hd__a31o_2
*I *1336:Y O *D sky130_fd_sc_hd__nand2b_2
*CAP
1 *1338:A3 0.000347978
2 *1336:Y 0.000347978
3 *1338:A3 *1330:A1 9.00084e-05
4 *1338:A3 *1336:A_N 0.000254303
5 *1338:A3 *1337:B1 8.87145e-05
6 *1331:B1 *1338:A3 4.36422e-06
7 *1337:A2 *1338:A3 1.81918e-05
*RES
1 *1336:Y *1338:A3 12.24 
*END

*D_NET *282 0.000470393
*CONN
*I *1338:B1 I *D sky130_fd_sc_hd__a31o_2
*I *1337:X O *D sky130_fd_sc_hd__o211a_2
*CAP
1 *1338:B1 0.000115757
2 *1337:X 0.000115757
3 *1338:B1 *1330:A1 8.52883e-05
4 *1338:B1 *1330:A2 0
5 *1338:B1 *1330:B1 4.77719e-05
6 *1326:B *1338:B1 2.98447e-05
7 *1338:A2 *1338:B1 7.59731e-05
*RES
1 *1337:X *1338:B1 9.63 
*END

*D_NET *283 0.000714208
*CONN
*I *1339:B I *D sky130_fd_sc_hd__xnor2_2
*I *1338:X O *D sky130_fd_sc_hd__a31o_2
*CAP
1 *1339:B 0.000196769
2 *1338:X 0.000196769
3 *1339:B *1326:A 0
4 *1339:B *1330:A1 9.00084e-05
5 *1339:B *1337:B1 1.12141e-05
6 *1326:B *1339:B 0
7 *1337:A2 *1339:B 0
8 *1338:A2 *1339:B 1.7635e-05
9 *262:18 *1339:B 0.000201813
*RES
1 *1338:X *1339:B 11.13 
*END

*D_NET *284 0.000580688
*CONN
*I *1342:A2 I *D sky130_fd_sc_hd__o21ai_2
*I *1339:Y O *D sky130_fd_sc_hd__xnor2_2
*CAP
1 *1342:A2 0.000185534
2 *1339:Y 0.000185534
3 *1342:A2 *1326:A 4.38688e-05
4 *1342:A2 *632:6 1.77665e-05
5 *1338:A2 *1342:A2 0.000139181
6 *1347:A_N *1342:A2 8.80293e-06
*RES
1 *1339:Y *1342:A2 10.17 
*END

*D_NET *285 0.0027717
*CONN
*I *1341:C1 I *D sky130_fd_sc_hd__o221a_2
*I *1340:Y O *D sky130_fd_sc_hd__o21ai_2
*CAP
1 *1341:C1 0.000503981
2 *1340:Y 0.000503981
3 *1341:C1 *1340:A1 0.000450139
4 *1341:C1 *1340:A2 9.84233e-05
5 *1341:C1 *1346:C1 0.00021716
6 *1341:C1 *1351:A1 4.75991e-05
7 *1341:C1 *1351:B1 4.16353e-05
8 *1341:C1 *1351:B2 0.000125539
9 *1341:C1 *1362:A2 0.000196048
10 *1341:C1 *1366:A1 6.98654e-05
11 *1341:C1 *1366:C1 7.63347e-05
12 *1341:C1 *1367:B1 2.6666e-05
13 *1341:C1 *546:22 4.82919e-05
14 *1341:C1 *557:76 8.40269e-05
15 *1341:C1 *565:100 0.00015857
16 *1346:B1 *1341:C1 0.000117255
17 *1621:A *1341:C1 6.18325e-06
*RES
1 *1340:Y *1341:C1 20.835 
*END

*D_NET *286 0.00157466
*CONN
*I *1342:B1 I *D sky130_fd_sc_hd__o21ai_2
*I *1341:X O *D sky130_fd_sc_hd__o221a_2
*CAP
1 *1342:B1 0.000296203
2 *1341:X 0.000296203
3 *1342:B1 *1339:A 0
4 *1342:B1 *1342:A1 0.000187563
5 *1342:B1 *1362:A2 0.00010294
6 *1342:B1 *1714:A 0.000272749
7 *1342:B1 *540:25 0.00015896
8 *1342:B1 *553:127 3.18219e-05
9 *1342:B1 *559:16 8.35106e-05
10 *1660:A *1342:B1 9.50342e-06
11 *262:18 *1342:B1 0.00013521
*RES
1 *1341:X *1342:B1 13.875 
*END

*D_NET *287 0.00220951
*CONN
*I *1354:A2 I *D sky130_fd_sc_hd__o221a_2
*I *1364:C1 I *D sky130_fd_sc_hd__o311ai_2
*I *1343:Y O *D sky130_fd_sc_hd__nand2_2
*CAP
1 *1354:A2 0
2 *1364:C1 0.000237344
3 *1343:Y 0.000361194
4 *287:10 0.000598538
5 *1364:C1 *1354:A1 4.9968e-05
6 *1364:C1 *1354:B2 1.52862e-05
7 *1364:C1 *1361:A_N 0.000202956
8 *1364:C1 *1361:B 8.32987e-05
9 *1364:C1 *1364:A3 9.47454e-05
10 *1364:C1 *1364:B1 2.86975e-05
11 *1364:C1 *288:21 4.5783e-05
12 *1364:C1 *539:21 5.16348e-05
13 *287:10 *1354:A1 4.38051e-05
14 *287:10 *1441:A2 0.00025063
15 *287:10 *1443:B1 0
16 *287:10 *1444:A2 4.82919e-05
17 *287:10 *1445:A2 2.75229e-05
18 *287:10 *547:10 6.98113e-05
*RES
1 *1343:Y *287:10 10.47 
2 *287:10 *1364:C1 9.465 
3 *287:10 *1354:A2 3.6 
*END

*D_NET *288 0.00327803
*CONN
*I *1362:A1 I *D sky130_fd_sc_hd__a21oi_2
*I *1700:A I *D sky130_fd_sc_hd__buf_2
*I *1354:B1 I *D sky130_fd_sc_hd__o221a_2
*I *1344:Y O *D sky130_fd_sc_hd__xnor2_2
*CAP
1 *1362:A1 0.000389359
2 *1700:A 5.65444e-05
3 *1354:B1 0
4 *1344:Y 0.000143815
5 *288:21 0.000512737
6 *288:8 0.00021065
7 *1362:A1 *1352:B 9.09788e-06
8 *1362:A1 *1355:A2 1.0555e-05
9 *1362:A1 *1362:A2 2.91399e-05
10 *1362:A1 *1720:A 0.000254844
11 *1362:A1 *539:21 0.000149683
12 *1362:A1 *539:40 0.000358506
13 *1700:A *1720:A 4.82863e-05
14 *288:8 *1344:A 7.86938e-05
15 *288:8 *1344:B 2.8185e-05
16 *288:8 *1353:A1 6.71882e-05
17 *288:8 *1354:A1 3.43427e-05
18 *288:8 *1354:B2 1.89514e-05
19 *288:8 *1354:C1 5.46735e-05
20 *288:8 *1715:A 0.00053467
21 *288:8 *546:105 9.80032e-06
22 *288:21 *1354:A1 7.06865e-05
23 *288:21 *1354:B2 0.000148134
24 *288:21 *1443:B1 4.18603e-06
25 *288:21 *1715:A 2.08258e-07
26 *288:21 *546:105 9.3062e-06
27 *1364:C1 *288:21 4.5783e-05
*RES
1 *1344:Y *288:8 6.89125 
2 *288:8 *1354:B1 1.6 
3 *288:8 *288:21 5.99875 
4 *288:21 *1700:A 2.665 
5 *288:21 *1362:A1 14.255 
*END

*D_NET *289 0.00151622
*CONN
*I *1351:B1 I *D sky130_fd_sc_hd__a32o_2
*I *1366:A2 I *D sky130_fd_sc_hd__o211a_2
*I *1345:X O *D sky130_fd_sc_hd__or3_2
*CAP
1 *1351:B1 0.000122451
2 *1366:A2 0
3 *1345:X 0.000272651
4 *289:12 0.000395102
5 *1351:B1 *1340:A2 0.000238519
6 *1351:B1 *1346:C1 9.07339e-05
7 *1351:B1 *1366:C1 5.55968e-05
8 *289:12 *1360:A_N 7.00889e-06
9 *289:12 *1362:A2 5.65627e-05
10 *289:12 *1366:B1 9.50342e-06
11 *289:12 *1367:A2 6.02202e-05
12 *289:12 *540:36 0.00016624
13 *1341:C1 *1351:B1 4.16353e-05
*RES
1 *1345:X *289:12 9.845 
2 *289:12 *1366:A2 1.6 
3 *289:12 *1351:B1 5.26375 
*END

*D_NET *290 0.000282767
*CONN
*I *1351:B2 I *D sky130_fd_sc_hd__a32o_2
*I *1346:X O *D sky130_fd_sc_hd__o211a_2
*CAP
1 *1351:B2 1.58439e-05
2 *1346:X 1.58439e-05
3 *1351:B2 *1346:C1 0.000125539
4 *1341:C1 *1351:B2 0.000125539
*RES
1 *1346:X *1351:B2 4.34 
*END

*D_NET *291 0.000613387
*CONN
*I *1351:A2 I *D sky130_fd_sc_hd__a32o_2
*I *1360:A_N I *D sky130_fd_sc_hd__nand2b_2
*I *1347:Y O *D sky130_fd_sc_hd__nand2b_2
*CAP
1 *1351:A2 6.32757e-05
2 *1360:A_N 9.01781e-05
3 *1347:Y 0
4 *291:4 0.000153454
5 *1351:A2 *1340:A1 7.01359e-05
6 *1351:A2 *1362:A2 6.97705e-06
7 *1351:A2 *565:100 0
8 *1351:A2 *565:108 3.59531e-06
9 *1360:A_N *1340:A1 2.937e-05
10 *1360:A_N *1362:A2 1.14169e-05
11 *1360:A_N *540:25 1.56651e-05
12 *1360:A_N *540:36 0.000162311
13 *289:12 *1360:A_N 7.00889e-06
*RES
1 *1347:Y *291:4 1.6 
2 *291:4 *1360:A_N 3.79 
3 *291:4 *1351:A2 6.725 
*END

*D_NET *292 0.00193738
*CONN
*I *1349:B1 I *D sky130_fd_sc_hd__o2bb2a_2
*I *1350:A2_N I *D sky130_fd_sc_hd__a2bb2o_2
*I *1348:Y O *D sky130_fd_sc_hd__nand2_2
*CAP
1 *1349:B1 0.000185092
2 *1350:A2_N 0
3 *1348:Y 0.000214313
4 *292:10 0.000399405
5 *1349:B1 *1334:A 0.000116165
6 *1349:B1 *1349:A2_N 5.00612e-05
7 *1349:B1 *1349:B2 0.000123225
8 *1349:B1 *596:10 1.73877e-05
9 *1349:B1 *596:14 1.94636e-05
10 *292:10 *1332:A1 4.99619e-05
11 *292:10 *1348:A 4.60584e-05
12 *292:10 *1716:A 0.000167993
13 *292:10 *549:62 0.000299128
14 *292:10 *549:75 0
15 *292:10 *596:14 4.18603e-06
16 *1348:B *1349:B1 0
17 *1348:B *292:10 0
18 *1349:A1_N *1349:B1 0.000244938
*RES
1 *1348:Y *292:10 8.67 
2 *292:10 *1350:A2_N 3.6 
3 *292:10 *1349:B1 9.015 
*END

*D_NET *293 0.00277813
*CONN
*I *1351:A3 I *D sky130_fd_sc_hd__a32o_2
*I *1349:X O *D sky130_fd_sc_hd__o2bb2a_2
*CAP
1 *1351:A3 0.0009425
2 *1349:X 0.0009425
3 *1351:A3 *1349:B2 8.23457e-05
4 *1351:A3 *1361:A_N 7.9205e-06
5 *1351:A3 *1361:B 0.000481515
6 *1351:A3 *1362:A2 6.02123e-05
7 *1351:A3 *1363:A1 9.46525e-06
8 *1351:A3 *1363:A2 4.57447e-05
9 *1351:A3 *1364:B1 4.21973e-05
10 *1351:A3 *1378:A2 5.83121e-06
11 *1351:A3 *307:12 4.87046e-05
12 *1351:A3 *562:49 0.000109198
*RES
1 *1349:X *1351:A3 19.725 
*END

*D_NET *294 0.00377104
*CONN
*I *1362:A2 I *D sky130_fd_sc_hd__a21oi_2
*I *1350:X O *D sky130_fd_sc_hd__a2bb2o_2
*CAP
1 *1362:A2 0.000788085
2 *1350:X 0.000788085
3 *1362:A2 *1333:B 1.12578e-05
4 *1362:A2 *1340:A1 0.000178979
5 *1362:A2 *1341:A1 0.000320818
6 *1362:A2 *1350:B2 1.37594e-05
7 *1362:A2 *1366:B1 0.00013687
8 *1362:A2 *1367:A2 0
9 *1362:A2 *1367:A3 0
10 *1362:A2 *1367:B1 2.66939e-05
11 *1362:A2 *1720:A 2.91399e-05
12 *1362:A2 *539:40 0
13 *1362:A2 *540:25 0.000719078
14 *1362:A2 *562:49 3.35816e-05
15 *1362:A2 *565:108 0
16 *1362:A2 *565:112 0.000139252
17 *1341:B1 *1362:A2 1.20741e-05
18 *1341:C1 *1362:A2 0.000196048
19 *1342:B1 *1362:A2 0.00010294
20 *1346:B1 *1362:A2 7.12958e-05
21 *1351:A2 *1362:A2 6.97705e-06
22 *1351:A3 *1362:A2 6.02123e-05
23 *1360:A_N *1362:A2 1.14169e-05
24 *1362:A1 *1362:A2 2.91399e-05
25 *278:6 *1362:A2 3.87723e-05
26 *289:12 *1362:A2 5.65627e-05
*RES
1 *1350:X *1362:A2 26.5725 
*END

*D_NET *295 0.000525856
*CONN
*I *1352:B I *D sky130_fd_sc_hd__xnor2_2
*I *1351:X O *D sky130_fd_sc_hd__a32o_2
*CAP
1 *1352:B 0.000218355
2 *1351:X 0.000218355
3 *1352:B *1354:B2 0
4 *1352:B *1364:A3 0
5 *1352:B *307:12 2.78732e-05
6 *1352:B *565:108 5.21761e-05
7 *1362:A1 *1352:B 9.09788e-06
*RES
1 *1351:X *1352:B 10.62 
*END

*D_NET *296 0.00050713
*CONN
*I *1355:A2 I *D sky130_fd_sc_hd__o21ai_2
*I *1352:Y O *D sky130_fd_sc_hd__xnor2_2
*CAP
1 *1355:A2 0.000161479
2 *1352:Y 0.000161479
3 *1355:A2 *1355:A1 0
4 *1355:A2 *546:105 7.08493e-05
5 *1355:A2 *562:49 0.000102768
6 *1362:A1 *1355:A2 1.0555e-05
*RES
1 *1352:Y *1355:A2 10.485 
*END

*D_NET *297 0.000202764
*CONN
*I *1354:C1 I *D sky130_fd_sc_hd__o221a_2
*I *1353:Y O *D sky130_fd_sc_hd__o21ai_2
*CAP
1 *1354:C1 3.83847e-05
2 *1353:Y 3.83847e-05
3 *1354:C1 *1354:A1 2.30292e-05
4 *1354:C1 *546:105 4.82919e-05
5 *288:8 *1354:C1 5.46735e-05
*RES
1 *1353:Y *1354:C1 4.355 
*END

*D_NET *298 7.67288e-05
*CONN
*I *1355:B1 I *D sky130_fd_sc_hd__o21ai_2
*I *1354:X O *D sky130_fd_sc_hd__o221a_2
*CAP
1 *1355:B1 9.6669e-06
2 *1354:X 9.6669e-06
3 *1355:B1 *1715:A 2.86975e-05
4 *1355:B1 *546:105 2.86975e-05
*RES
1 *1354:X *1355:B1 3.65 
*END

*D_NET *299 0.00108409
*CONN
*I *1378:B1 I *D sky130_fd_sc_hd__a21oi_2
*I *1370:A2 I *D sky130_fd_sc_hd__a221o_2
*I *1356:X O *D sky130_fd_sc_hd__and2_2
*CAP
1 *1378:B1 1.7638e-05
2 *1370:A2 0.000130109
3 *1356:X 7.25285e-05
4 *299:10 0.000220276
5 *1370:A2 *1357:B 2.82846e-05
6 *1370:A2 *1370:A1 9.50342e-06
7 *1370:A2 *1370:B1 6.39243e-05
8 *1370:A2 *1370:C1 0
9 *1370:A2 *1371:B1 1.2818e-05
10 *1370:A2 *322:23 0
11 *1370:A2 *557:72 6.8725e-06
12 *1378:B1 *1357:A 4.21973e-05
13 *1378:B1 *1357:B 8.65961e-05
14 *299:10 *1357:A 0.000221525
15 *299:10 *1357:B 4.66108e-05
16 *299:10 *1378:A2 8.65961e-05
17 *299:10 *300:14 3.861e-05
*RES
1 *1356:X *299:10 4.24 
2 *299:10 *1370:A2 7.86875 
3 *299:10 *1378:B1 2.395 
*END

*D_NET *300 0.00106333
*CONN
*I *1378:A1 I *D sky130_fd_sc_hd__a21oi_2
*I *1370:B1 I *D sky130_fd_sc_hd__a221o_2
*I *1357:X O *D sky130_fd_sc_hd__or2_2
*CAP
1 *1378:A1 0
2 *1370:B1 9.39085e-05
3 *1357:X 0.000252329
4 *300:14 0.000346238
5 *1370:B1 *1357:B 7.9642e-06
6 *1370:B1 *1370:C1 4.04859e-05
7 *300:14 *1357:A 5.92345e-05
8 *300:14 *1357:B 0.000160635
9 *1370:A2 *1370:B1 6.39243e-05
10 *299:10 *300:14 3.861e-05
*RES
1 *1357:X *300:14 6.46 
2 *300:14 *1370:B1 7.235 
3 *300:14 *1378:A1 1.6 
*END

*D_NET *301 0.00241444
*CONN
*I *1359:A I *D sky130_fd_sc_hd__inv_2
*I *1369:B I *D sky130_fd_sc_hd__nor2_2
*I *1375:D I *D sky130_fd_sc_hd__or4_2
*I *1382:D I *D sky130_fd_sc_hd__and4_2
*I *1358:Y O *D sky130_fd_sc_hd__xnor2_2
*CAP
1 *1359:A 0.000191918
2 *1369:B 0
3 *1375:D 0.000107282
4 *1382:D 4.40431e-05
5 *1358:Y 0
6 *301:32 0.000252844
7 *301:6 0.000204878
8 *301:4 0.000114479
9 *1359:A *1378:A2 0.000120655
10 *1359:A *1384:C1 0.000193372
11 *1359:A *1716:A 0.00012893
12 *1359:A *302:6 0.000198945
13 *1359:A *553:29 0.000142489
14 *1375:D *1375:B 1.94723e-05
15 *1375:D *1375:C 5.02217e-05
16 *1375:D *540:40 1.43521e-05
17 *1375:D *553:35 0.000163019
18 *1382:D *632:6 2.75145e-05
19 *1382:D *632:12 0
20 *301:6 *1384:B2 1.56428e-05
21 *301:6 *632:6 6.71882e-05
22 *301:32 *1384:C1 3.59902e-05
23 *301:32 *1716:A 4.04634e-05
24 *301:32 *553:35 7.56277e-05
25 *301:32 *632:32 0.00011852
26 *1375:A *1375:D 8.65961e-05
*RES
1 *1358:Y *301:4 1.6 
2 *301:4 *301:6 1.14 
3 *301:6 *1382:D 2.41 
4 *301:6 *1375:D 8.285 
5 *301:4 *301:32 4.145 
6 *301:32 *1369:B 3.6 
7 *301:32 *1359:A 9.615 
*END

*D_NET *302 0.0010642
*CONN
*I *1383:A I *D sky130_fd_sc_hd__nor2_2
*I *1368:A I *D sky130_fd_sc_hd__xnor2_2
*I *1359:Y O *D sky130_fd_sc_hd__inv_2
*CAP
1 *1383:A 7.50174e-05
2 *1368:A 4.55527e-05
3 *1359:Y 8.82738e-05
4 *302:6 0.000208844
5 *1368:A *1378:A2 3.00381e-05
6 *1383:A *1431:A2 5.53249e-06
7 *1383:A *546:99 0
8 *1383:A *553:29 0.000139245
9 *302:6 *1378:A2 3.38341e-05
10 *302:6 *548:54 0.000238919
11 *1359:A *302:6 0.000198945
*RES
1 *1359:Y *302:6 4.465 
2 *302:6 *1368:A 2.41 
3 *302:6 *1383:A 7.235 
*END

*D_NET *303 0.000831452
*CONN
*I *1367:A2 I *D sky130_fd_sc_hd__a31o_2
*I *1360:Y O *D sky130_fd_sc_hd__nand2b_2
*CAP
1 *1367:A2 0.000158565
2 *1360:Y 0.000158565
3 *1367:A2 *1366:B1 1.52776e-05
4 *1367:A2 *1367:A3 3.25831e-05
5 *1367:A2 *1367:B1 0.00015829
6 *1367:A2 *539:40 0.000114789
7 *1367:A2 *539:44 0.000133163
8 *1362:A2 *1367:A2 0
9 *289:12 *1367:A2 6.02202e-05
*RES
1 *1360:Y *1367:A2 11.64 
*END

*D_NET *304 0.000510704
*CONN
*I *1362:B1 I *D sky130_fd_sc_hd__a21oi_2
*I *1361:X O *D sky130_fd_sc_hd__and2b_2
*CAP
1 *1362:B1 9.91802e-05
2 *1361:X 9.91802e-05
3 *1362:B1 *562:49 0.00011099
4 *1362:B1 *565:108 8.51879e-05
5 *1362:B1 *565:112 0.000116165
*RES
1 *1361:X *1362:B1 9.375 
*END

*D_NET *305 0.00155961
*CONN
*I *1383:B I *D sky130_fd_sc_hd__nor2_2
*I *1367:A3 I *D sky130_fd_sc_hd__a31o_2
*I *1362:Y O *D sky130_fd_sc_hd__a21oi_2
*CAP
1 *1383:B 0.00035544
2 *1367:A3 4.15291e-05
3 *1362:Y 8.10885e-05
4 *305:6 0.000478057
5 *1367:A3 *539:40 9.5433e-05
6 *1383:B *1431:A1 0.000122337
7 *1383:B *1720:A 0.000160635
8 *1383:B *552:30 6.76097e-05
9 *305:6 *1720:A 0.000124895
10 *1362:A2 *1367:A3 0
11 *1367:A2 *1367:A3 3.25831e-05
*RES
1 *1362:Y *305:6 2.74 
2 *305:6 *1367:A3 6.725 
3 *305:6 *1383:B 6.46 
*END

*D_NET *306 0.000722421
*CONN
*I *1364:B1 I *D sky130_fd_sc_hd__o311ai_2
*I *1363:Y O *D sky130_fd_sc_hd__o211ai_2
*CAP
1 *1364:B1 0.000107498
2 *1363:Y 0.000107498
3 *1364:B1 *1361:A_N 5.94488e-05
4 *1364:B1 *1361:B 0.000278246
5 *1364:B1 *1363:A2 5.05437e-05
6 *1351:A3 *1364:B1 4.21973e-05
7 *1364:A2 *1364:B1 4.82919e-05
8 *1364:C1 *1364:B1 2.86975e-05
*RES
1 *1363:Y *1364:B1 6.77 
*END

*D_NET *307 0.00335498
*CONN
*I *1365:A I *D sky130_fd_sc_hd__inv_2
*I *1378:A2 I *D sky130_fd_sc_hd__a21oi_2
*I *1364:Y O *D sky130_fd_sc_hd__o311ai_2
*CAP
1 *1365:A 0
2 *1378:A2 0.000653604
3 *1364:Y 0.000143313
4 *307:12 0.000796917
5 *1378:A2 *1356:B 9.68253e-05
6 *1378:A2 *1357:A 6.77417e-05
7 *1378:A2 *1366:B1 4.66742e-05
8 *1378:A2 *1367:A1 3.51884e-05
9 *1378:A2 *1367:B1 8.65905e-05
10 *1378:A2 *1368:B 0.000162311
11 *1378:A2 *1370:C1 4.22057e-05
12 *1378:A2 *1371:A2 0.000185405
13 *1378:A2 *1384:C1 0.000353241
14 *1378:A2 *565:108 2.30292e-05
15 *307:12 *1354:B2 0
16 *307:12 *1361:A_N 2.75229e-05
17 *307:12 *1361:B 0.000159333
18 *307:12 *1364:A3 0
19 *307:12 *565:108 0.000121547
20 *1351:A3 *1378:A2 5.83121e-06
21 *1351:A3 *307:12 4.87046e-05
22 *1352:B *307:12 2.78732e-05
23 *1359:A *1378:A2 0.000120655
24 *1368:A *1378:A2 3.00381e-05
25 *299:10 *1378:A2 8.65961e-05
26 *302:6 *1378:A2 3.38341e-05
*RES
1 *1364:Y *307:12 9.08 
2 *307:12 *1378:A2 20.015 
3 *307:12 *1365:A 1.6 
*END

*D_NET *308 0.000509703
*CONN
*I *1366:B1 I *D sky130_fd_sc_hd__o211a_2
*I *1365:Y O *D sky130_fd_sc_hd__inv_2
*CAP
1 *1366:B1 0.00012691
2 *1365:Y 0.00012691
3 *1366:B1 *1367:B1 4.75576e-05
4 *1362:A2 *1366:B1 0.00013687
5 *1367:A2 *1366:B1 1.52776e-05
6 *1378:A2 *1366:B1 4.66742e-05
7 *289:12 *1366:B1 9.50342e-06
*RES
1 *1365:Y *1366:B1 9.63 
*END

*D_NET *309 0.000813908
*CONN
*I *1367:B1 I *D sky130_fd_sc_hd__a31o_2
*I *1366:X O *D sky130_fd_sc_hd__o211a_2
*CAP
1 *1367:B1 0.00011135
2 *1366:X 0.00011135
3 *1367:B1 *1340:A2 0.000120655
4 *1367:B1 *1366:A1 3.81634e-05
5 *1367:B1 *1367:A1 8.65905e-05
6 *1341:C1 *1367:B1 2.6666e-05
7 *1362:A2 *1367:B1 2.66939e-05
8 *1366:B1 *1367:B1 4.75576e-05
9 *1367:A2 *1367:B1 0.00015829
10 *1378:A2 *1367:B1 8.65905e-05
*RES
1 *1366:X *1367:B1 11.025 
*END

*D_NET *310 0.000295738
*CONN
*I *1368:B I *D sky130_fd_sc_hd__xnor2_2
*I *1367:X O *D sky130_fd_sc_hd__a31o_2
*CAP
1 *1368:B 6.67137e-05
2 *1367:X 6.67137e-05
3 *1378:A2 *1368:B 0.000162311
*RES
1 *1367:X *1368:B 4.685 
*END

*D_NET *311 0.000362854
*CONN
*I *1371:A2 I *D sky130_fd_sc_hd__a21o_2
*I *1368:Y O *D sky130_fd_sc_hd__xnor2_2
*CAP
1 *1371:A2 8.66317e-05
2 *1368:Y 8.66317e-05
3 *1371:A2 *1370:A1 0
4 *1371:A2 *1370:C1 4.18603e-06
5 *1371:A2 *546:10 0
6 *1378:A2 *1371:A2 0.000185405
*RES
1 *1368:Y *1371:A2 9.345 
*END

*D_NET *312 0.000679069
*CONN
*I *1370:C1 I *D sky130_fd_sc_hd__a221o_2
*I *1369:Y O *D sky130_fd_sc_hd__nor2_2
*CAP
1 *1370:C1 0.000231711
2 *1369:Y 0.000231711
3 *1370:C1 *1356:B 8.65905e-05
4 *1370:C1 *1357:A 7.68414e-06
5 *1370:C1 *546:10 9.50342e-06
6 *1370:C1 *632:32 2.49909e-05
7 *1370:A2 *1370:C1 0
8 *1370:B1 *1370:C1 4.04859e-05
9 *1371:A2 *1370:C1 4.18603e-06
10 *1378:A2 *1370:C1 4.22057e-05
*RES
1 *1369:Y *1370:C1 11.01 
*END

*D_NET *313 0.000827809
*CONN
*I *1371:B1 I *D sky130_fd_sc_hd__a21o_2
*I *1370:X O *D sky130_fd_sc_hd__a221o_2
*CAP
1 *1371:B1 0.000280161
2 *1370:X 0.000280161
3 *1371:B1 *1370:B2 1.12643e-05
4 *1371:B1 *546:18 0.000159147
5 *1371:B1 *557:72 8.42587e-05
6 *1370:A2 *1371:B1 1.2818e-05
*RES
1 *1370:X *1371:B1 8.51 
*END

*D_NET *314 0.00209338
*CONN
*I *1388:A2 I *D sky130_fd_sc_hd__a221o_2
*I *1374:A I *D sky130_fd_sc_hd__and2_2
*I *1392:A1 I *D sky130_fd_sc_hd__a21oi_2
*I *1372:X O *D sky130_fd_sc_hd__or2_2
*CAP
1 *1388:A2 0.000133865
2 *1374:A 0
3 *1392:A1 0.00024688
4 *1372:X 0
5 *314:10 0.000432386
6 *314:4 0.000319371
7 *1388:A2 *1388:A1 1.37395e-05
8 *1388:A2 *1395:A_N 4.9968e-05
9 *1388:A2 *1395:B 1.94805e-05
10 *1388:A2 *315:19 0
11 *1388:A2 *548:23 4.98014e-05
12 *1392:A1 *1372:A 0
13 *1392:A1 *1374:B 3.25635e-05
14 *1392:A1 *1387:A 4.43871e-06
15 *1392:A1 *1389:A2 4.99619e-05
16 *1392:A1 *1396:B1 0
17 *1392:A1 *1413:A 5.43215e-05
18 *1392:A1 *316:10 0.000135422
19 *1392:A1 *557:64 0.00017922
20 *314:10 *1372:A 9.53428e-06
21 *314:10 *1374:B 8.40213e-05
22 *314:10 *315:6 3.74161e-05
23 *314:10 *600:31 0.000146379
24 *1388:B2 *1388:A2 1.37448e-05
25 *1623:A *1392:A1 4.05358e-05
26 *1628:A *1388:A2 1.2818e-05
27 *119:14 *1392:A1 2.75145e-05
*RES
1 *1372:X *314:4 1.6 
2 *314:4 *314:10 3.585 
3 *314:10 *1392:A1 11.135 
4 *314:10 *1374:A 1.6 
5 *314:4 *1388:A2 8.12375 
*END

*D_NET *315 0.00183477
*CONN
*I *1387:B I *D sky130_fd_sc_hd__nor2_2
*I *1393:A I *D sky130_fd_sc_hd__and2_2
*I *1374:B I *D sky130_fd_sc_hd__and2_2
*I *1373:Y O *D sky130_fd_sc_hd__nand2_2
*CAP
1 *1387:B 0
2 *1393:A 0.00017732
3 *1374:B 7.59236e-05
4 *1373:Y 2.06731e-05
5 *315:19 0.000332294
6 *315:6 0.00025157
7 *1393:A *1413:A 0.000162332
8 *1393:A *566:10 0
9 *1393:A *567:10 0.000114424
10 *315:19 *1388:C1 0.000157918
11 *315:19 *1395:B 1.0183e-05
12 *315:19 *1413:A 0.000363761
13 *315:19 *566:10 0
14 *1388:A2 *315:19 0
15 *1388:B2 *315:19 1.43729e-05
16 *1392:A1 *1374:B 3.25635e-05
17 *314:10 *1374:B 8.40213e-05
18 *314:10 *315:6 3.74161e-05
*RES
1 *1373:Y *315:6 2.05 
2 *315:6 *1374:B 3.1 
3 *315:6 *315:19 6.44 
4 *315:19 *1393:A 7.32 
5 *315:19 *1387:B 3.6 
*END

*D_NET *316 0.0036285
*CONN
*I *1388:B1 I *D sky130_fd_sc_hd__a221o_2
*I *1406:A I *D sky130_fd_sc_hd__nand2_2
*I *1394:A_N I *D sky130_fd_sc_hd__nand2b_2
*I *1409:A I *D sky130_fd_sc_hd__nor2_2
*I *1386:A I *D sky130_fd_sc_hd__xor2_2
*I *1374:X O *D sky130_fd_sc_hd__and2_2
*CAP
1 *1388:B1 0.000133177
2 *1406:A 0.000125094
3 *1394:A_N 0
4 *1409:A 1.59296e-05
5 *1386:A 9.16608e-05
6 *1374:X 5.98764e-05
7 *316:29 1.59296e-05
8 *316:27 0.000402457
9 *316:16 0.000750678
10 *316:10 0.000574708
11 *1386:A *1386:B 0.000140912
12 *1386:A *321:8 0
13 *1386:A *321:17 0
14 *1386:A *565:20 8.08153e-06
15 *1388:B1 *1388:A1 3.18332e-05
16 *1388:B1 *557:64 2.76356e-05
17 *1388:B1 *566:6 0.000179577
18 *1388:B1 *566:59 1.16578e-05
19 *1406:A *1409:B 0.000161102
20 *1406:A *321:17 0
21 *1406:A *326:34 0
22 *1406:A *349:10 9.37731e-05
23 *1409:A *1409:B 4.99619e-05
24 *1409:A *349:10 2.05056e-05
25 *1409:A *548:37 8.65905e-05
26 *316:10 *1396:B1 5.05562e-05
27 *316:16 *1385:S 5.58206e-05
28 *316:16 *557:64 5.74656e-05
29 *316:16 *566:6 0.0001249
30 *316:27 *321:17 0
31 *316:27 *326:19 0
32 *316:27 *565:10 5.13037e-05
33 *316:27 *565:20 2.76749e-05
34 *1388:B2 *1388:B1 2.66464e-05
35 *1392:A1 *316:10 0.000135422
36 *1616:A *1406:A 2.16833e-05
37 *1628:A *1388:B1 9.58804e-05
*RES
1 *1374:X *316:10 7.235 
2 *316:10 *316:16 7.985 
3 *316:16 *1386:A 5.49 
4 *316:16 *316:27 4.695 
5 *316:27 *316:29 2 
6 *316:29 *1409:A 2.395 
7 *316:29 *1394:A_N 1.6 
8 *316:27 *1406:A 6.39 
9 *316:10 *1388:B1 5.17 
*END

*D_NET *317 0.0016223
*CONN
*I *1376:C I *D sky130_fd_sc_hd__or3_2
*I *1380:A2 I *D sky130_fd_sc_hd__o22a_2
*I *1377:D I *D sky130_fd_sc_hd__or4_2
*I *1375:X O *D sky130_fd_sc_hd__or4_2
*CAP
1 *1376:C 5.60354e-05
2 *1380:A2 0
3 *1377:D 9.31954e-05
4 *1375:X 0.000204039
5 *317:16 0.00016059
6 *317:12 0.00032747
7 *1377:D *1313:A1 8.41384e-05
8 *317:12 *546:30 0
9 *317:12 *553:35 5.21046e-05
10 *1377:C *1377:D 0.000100275
11 *1377:C *317:16 0.000101998
12 *1380:A1 *1377:D 0.000184064
13 *1384:B1 *317:12 0
14 *1384:B1 *317:16 1.23268e-05
15 *269:10 *317:16 8.54266e-05
16 *269:16 *317:12 0.000160635
*RES
1 *1375:X *317:12 9.41 
2 *317:12 *317:16 4.145 
3 *317:16 *1377:D 6.54 
4 *317:16 *1380:A2 3.6 
5 *317:12 *1376:C 2.395 
*END

*D_NET *318 0.00054836
*CONN
*I *1379:A2 I *D sky130_fd_sc_hd__o221a_2
*I *1376:X O *D sky130_fd_sc_hd__or3_2
*CAP
1 *1379:A2 0.00025689
2 *1376:X 0.00025689
3 *1379:A2 *1379:C1 0
4 *1379:A2 *319:16 4.43871e-06
5 *1379:A2 *321:8 0
6 *1379:A2 *322:10 2.46089e-05
7 *1379:A2 *545:51 0
8 *1379:A1 *1379:A2 5.53249e-06
*RES
1 *1376:X *1379:A2 10.41 
*END

*D_NET *319 0.000886478
*CONN
*I *1379:B1 I *D sky130_fd_sc_hd__o221a_2
*I *1380:B1 I *D sky130_fd_sc_hd__o22a_2
*I *1377:X O *D sky130_fd_sc_hd__or4_2
*CAP
1 *1379:B1 0
2 *1380:B1 0.000124046
3 *1377:X 0.000148058
4 *319:16 0.000272104
5 *1380:B1 *322:10 0.000145284
6 *319:16 *1313:A1 5.30673e-05
7 *319:16 *1379:C1 5.53249e-06
8 *319:16 *322:10 6.32038e-06
9 *1376:A *319:16 0
10 *1379:A1 *319:16 0
11 *1379:A2 *319:16 4.43871e-06
12 *1380:B2 *1380:B1 8.0592e-05
13 *1380:B2 *319:16 4.70343e-05
*RES
1 *1377:X *319:16 8.26625 
2 *319:16 *1380:B1 4.78375 
3 *319:16 *1379:B1 1.6 
*END

*D_NET *320 0.00105565
*CONN
*I *1379:C1 I *D sky130_fd_sc_hd__o221a_2
*I *1378:Y O *D sky130_fd_sc_hd__a21oi_2
*CAP
1 *1379:C1 0.000487841
2 *1378:Y 0.000487841
3 *1379:C1 *1356:B 0
4 *1379:C1 *1357:B 7.44375e-05
5 *1379:C1 *322:10 0
6 *1379:C1 *322:23 0
7 *1379:C1 *598:18 0
8 *1379:C1 *598:31 0
9 *1376:A *1379:C1 0
10 *1377:C *1379:C1 0
11 *1379:A2 *1379:C1 0
12 *272:23 *1379:C1 0
13 *319:16 *1379:C1 5.53249e-06
*RES
1 *1378:Y *1379:C1 14.955 
*END

*D_NET *321 0.00484844
*CONN
*I *1554:A1 I *D sky130_fd_sc_hd__a211o_2
*I *1407:A1 I *D sky130_fd_sc_hd__a21o_2
*I *1381:A I *D sky130_fd_sc_hd__nand2_2
*I *1379:X O *D sky130_fd_sc_hd__o221a_2
*CAP
1 *1554:A1 0.000196202
2 *1407:A1 0.000114131
3 *1381:A 0
4 *1379:X 0.000239708
5 *321:17 0.000850657
6 *321:8 0.000780032
7 *1407:A1 *322:23 0.000158072
8 *1554:A1 *1553:B 5.02217e-05
9 *1554:A1 *1553:D 3.65279e-05
10 *1554:A1 *1554:C1 1.37328e-05
11 *1554:A1 *1555:B 6.71882e-05
12 *1554:A1 *347:10 2.86817e-05
13 *1554:A1 *360:68 3.09233e-05
14 *1554:A1 *429:14 3.64998e-06
15 *321:8 *322:10 0.00047218
16 *321:8 *322:23 9.50342e-06
17 *321:8 *545:51 5.53249e-06
18 *321:8 *565:20 0
19 *321:17 *1409:B 5.72091e-05
20 *321:17 *1438:A2 0.000355882
21 *321:17 *1553:B 2.15594e-05
22 *321:17 *322:23 0.00127418
23 *321:17 *346:10 7.00066e-05
24 *321:17 *347:10 1.26626e-05
25 *321:17 *349:10 0
26 *1379:A2 *321:8 0
27 *1386:A *321:8 0
28 *1386:A *321:17 0
29 *1406:A *321:17 0
30 *316:27 *321:17 0
*RES
1 *1379:X *321:8 9.315 
2 *321:8 *1381:A 3.6 
3 *321:8 *321:17 15.15 
4 *321:17 *1407:A1 5.085 
5 *321:17 *1554:A1 7.26 
*END

*D_NET *322 0.00514145
*CONN
*I *1407:A2 I *D sky130_fd_sc_hd__a21o_2
*I *1554:A2 I *D sky130_fd_sc_hd__a211o_2
*I *1381:B I *D sky130_fd_sc_hd__nand2_2
*I *1380:X O *D sky130_fd_sc_hd__o22a_2
*CAP
1 *1407:A2 0
2 *1554:A2 4.79316e-05
3 *1381:B 0
4 *1380:X 0.000474603
5 *322:23 0.00072369
6 *322:10 0.00115036
7 *1554:A2 *562:17 7.3664e-05
8 *322:23 *1370:A1 0
9 *322:23 *1427:B1 6.55328e-05
10 *322:23 *1438:A2 8.23457e-05
11 *322:23 *1439:B 5.21706e-05
12 *322:23 *344:49 8.24995e-05
13 *322:23 *347:10 9.37731e-05
14 *1370:A2 *322:23 0
15 *1379:A2 *322:10 2.46089e-05
16 *1379:B2 *322:10 6.54766e-05
17 *1379:C1 *322:10 0
18 *1379:C1 *322:23 0
19 *1380:B1 *322:10 0.000145284
20 *1407:A1 *322:23 0.000158072
21 *1617:A *1554:A2 0.000139252
22 *319:16 *322:10 6.32038e-06
23 *321:8 *322:10 0.00047218
24 *321:8 *322:23 9.50342e-06
25 *321:17 *322:23 0.00127418
*RES
1 *1380:X *322:10 12.27 
2 *322:10 *1381:B 3.6 
3 *322:10 *322:23 19.07 
4 *322:23 *1554:A2 7.235 
5 *322:23 *1407:A2 1.6 
*END

*D_NET *323 0.00151996
*CONN
*I *1392:A2 I *D sky130_fd_sc_hd__a21oi_2
*I *1385:A0 I *D sky130_fd_sc_hd__mux2_1
*I *1381:Y O *D sky130_fd_sc_hd__nand2_2
*CAP
1 *1392:A2 0.000144944
2 *1385:A0 6.63159e-05
3 *1381:Y 0.000222422
4 *323:10 0.000433682
5 *1385:A0 *326:10 0.00015997
6 *1385:A0 *326:19 2.17285e-05
7 *1385:A0 *565:20 0.00010075
8 *1392:A2 *1389:A2 7.92917e-05
9 *1624:A *1392:A2 0.000290851
*RES
1 *1381:Y *323:10 4.84 
2 *323:10 *1385:A0 7.745 
3 *323:10 *1392:A2 4.9825 
*END

*D_NET *324 0.000584909
*CONN
*I *1384:B2 I *D sky130_fd_sc_hd__a221o_2
*I *1382:X O *D sky130_fd_sc_hd__and4_2
*CAP
1 *1384:B2 0.000183492
2 *1382:X 0.000183492
3 *1384:B2 *1384:C1 3.47837e-05
4 *1384:B2 *553:35 9.5433e-05
5 *272:23 *1384:B2 7.20662e-05
6 *301:6 *1384:B2 1.56428e-05
*RES
1 *1382:X *1384:B2 10.7288 
*END

*D_NET *325 0.00183176
*CONN
*I *1384:C1 I *D sky130_fd_sc_hd__a221o_2
*I *1383:Y O *D sky130_fd_sc_hd__nor2_2
*CAP
1 *1384:C1 0.00049959
2 *1383:Y 0.00049959
3 *1384:C1 *1356:B 0
4 *1384:C1 *1370:A1 0
5 *1384:C1 *548:54 5.20968e-05
6 *1384:C1 *552:30 2.75145e-05
7 *1384:C1 *553:29 1.32017e-05
8 *1384:C1 *553:35 0
9 *1384:C1 *598:31 0
10 *1384:C1 *632:32 0.000116853
11 *1359:A *1384:C1 0.000193372
12 *1378:A2 *1384:C1 0.000353241
13 *1384:A1 *1384:C1 0
14 *1384:B1 *1384:C1 5.53249e-06
15 *1384:B2 *1384:C1 3.47837e-05
16 *301:32 *1384:C1 3.59902e-05
*RES
1 *1383:Y *1384:C1 17.445 
*END

*D_NET *326 0.0088562
*CONN
*I *1560:A1 I *D sky130_fd_sc_hd__a21oi_2
*I *1493:A1 I *D sky130_fd_sc_hd__a21o_2
*I *1440:A1 I *D sky130_fd_sc_hd__a21o_2
*I *1410:A I *D sky130_fd_sc_hd__and2_2
*I *1394:B I *D sky130_fd_sc_hd__nand2b_2
*I *1385:A1 I *D sky130_fd_sc_hd__mux2_1
*I *1384:X O *D sky130_fd_sc_hd__a221o_2
*CAP
1 *1560:A1 0.00028463
2 *1493:A1 0
3 *1440:A1 0.0004566
4 *1410:A 3.76011e-05
5 *1394:B 2.22788e-05
6 *1385:A1 0
7 *1384:X 0.000845184
8 *326:68 0.000430321
9 *326:47 0.000985526
10 *326:34 0.000616893
11 *326:19 0.000405239
12 *326:10 0.00103209
13 *1394:B *1396:A2 4.82863e-05
14 *1410:A *1410:B 4.66108e-05
15 *1410:A *1424:A2 6.38806e-05
16 *1410:A *362:8 0.000159741
17 *1440:A1 *1440:A2 0.00015896
18 *1440:A1 *1492:A 0.000161529
19 *1440:A1 *431:10 0.00015806
20 *1440:A1 *567:59 0.000193315
21 *1560:A1 *1493:B1 0
22 *1560:A1 *1551:A 0.000232999
23 *1560:A1 *431:18 5.97954e-05
24 *1560:A1 *490:16 4.43467e-05
25 *326:10 *548:107 0
26 *326:10 *565:20 5.30144e-05
27 *326:19 *565:10 5.06607e-05
28 *326:19 *565:20 5.69248e-06
29 *326:34 *1414:B1 2.8185e-05
30 *326:34 *1424:A2 5.83121e-06
31 *326:34 *349:10 0
32 *326:34 *362:8 7.49327e-05
33 *326:47 *1554:B1 0.000220452
34 *326:47 *1555:A 3.09164e-05
35 *326:47 *1555:B 8.9691e-05
36 *326:47 *344:22 0
37 *326:47 *344:26 0
38 *326:68 *1551:A 8.23457e-05
39 *326:68 *1555:A 3.18219e-05
40 *326:68 *1555:B 4.82919e-05
41 *326:68 *1557:A 1.07797e-05
42 *326:68 *431:10 0.000229646
43 *326:68 *567:59 5.93953e-05
44 *1385:A0 *326:10 0.00015997
45 *1385:A0 *326:19 2.17285e-05
46 *1406:A *326:34 0
47 *1616:A *326:34 0
48 *1616:A *326:47 0.000120228
49 *1617:A *326:47 0.000172979
50 *1624:A *326:10 0.000140912
51 *1624:A *326:19 0.000375619
52 *1624:A *326:34 0.000333503
53 *1624:A *326:47 6.57205e-05
54 *316:27 *326:19 0
*RES
1 *1384:X *326:10 14.715 
2 *326:10 *1385:A1 3.6 
3 *326:10 *326:19 4.44 
4 *326:19 *1394:B 4.05 
5 *326:19 *326:34 6.725 
6 *326:34 *1410:A 3.085 
7 *326:34 *326:47 12.775 
8 *326:47 *1440:A1 8.725 
9 *326:47 *326:68 7.405 
10 *326:68 *1493:A1 1.6 
11 *326:68 *1560:A1 5.875 
*END

*D_NET *327 0.00030154
*CONN
*I *1386:B I *D sky130_fd_sc_hd__xor2_2
*I *1385:X O *D sky130_fd_sc_hd__mux2_1
*CAP
1 *1386:B 4.12163e-05
2 *1385:X 4.12163e-05
3 *1386:B *565:20 7.81954e-05
4 *1386:A *1386:B 0.000140912
*RES
1 *1385:X *1386:B 7.235 
*END

*D_NET *328 0.000929535
*CONN
*I *1389:A2 I *D sky130_fd_sc_hd__a21o_2
*I *1386:X O *D sky130_fd_sc_hd__xor2_2
*CAP
1 *1389:A2 0.000286259
2 *1386:X 0.000286259
3 *1389:A2 *1393:B 4.66108e-05
4 *1392:A1 *1389:A2 4.99619e-05
5 *1392:A2 *1389:A2 7.92917e-05
6 *1624:A *1389:A2 5.9964e-06
7 *119:14 *1389:A2 0.000175157
*RES
1 *1386:X *1389:A2 8.135 
*END

*D_NET *329 0.000362894
*CONN
*I *1388:C1 I *D sky130_fd_sc_hd__a221o_2
*I *1387:Y O *D sky130_fd_sc_hd__nor2_2
*CAP
1 *1388:C1 8.32553e-05
2 *1387:Y 8.32553e-05
3 *1388:C1 *566:10 3.39064e-05
4 *1388:B2 *1388:C1 4.55864e-06
5 *315:19 *1388:C1 0.000157918
*RES
1 *1387:Y *1388:C1 9.09 
*END

*D_NET *330 0.000345783
*CONN
*I *1389:B1 I *D sky130_fd_sc_hd__a21o_2
*I *1388:X O *D sky130_fd_sc_hd__a221o_2
*CAP
1 *1389:B1 0.000123098
2 *1388:X 0.000123098
3 *1389:B1 *566:10 5.12942e-05
4 *1389:B1 *566:59 4.82919e-05
*RES
1 *1388:X *1389:B1 9.285 
*END

*D_NET *331 0.00159248
*CONN
*I *1408:A1 I *D sky130_fd_sc_hd__a21oi_2
*I *1425:A1 I *D sky130_fd_sc_hd__a31o_2
*I *1398:A2 I *D sky130_fd_sc_hd__a22o_2
*I *1390:X O *D sky130_fd_sc_hd__or2_2
*CAP
1 *1408:A1 0
2 *1425:A1 9.92966e-05
3 *1398:A2 0.000104069
4 *1390:X 2.82928e-05
5 *331:10 0.000217902
6 *331:6 4.28288e-05
7 *1398:A2 *1405:B1 0.00018305
8 *1398:A2 *1425:A3 8.08153e-06
9 *1398:A2 *1561:S 3.09233e-05
10 *1398:A2 *345:10 9.3062e-06
11 *1398:A2 *548:148 1.2818e-05
12 *1398:A2 *566:59 0.000335163
13 *1398:A2 *601:53 0.000129728
14 *1425:A1 *1425:A2 5.53249e-06
15 *1425:A1 *1425:A3 8.73212e-05
16 *1425:A1 *1561:S 4.21314e-05
17 *331:6 *1399:A2 0.000124007
18 *331:6 *552:12 4.50034e-05
19 *331:10 *1399:A2 4.82919e-05
20 *331:10 *601:53 2.49909e-05
21 *1398:B2 *1398:A2 1.37395e-05
*RES
1 *1390:X *331:6 2.74 
2 *331:6 *331:10 2.45 
3 *331:10 *1398:A2 7.90875 
4 *331:10 *1425:A1 5.43 
5 *331:6 *1408:A1 1.6 
*END

*D_NET *332 0.00317346
*CONN
*I *1397:A I *D sky130_fd_sc_hd__xnor2_2
*I *1406:B I *D sky130_fd_sc_hd__nand2_2
*I *1409:B I *D sky130_fd_sc_hd__nor2_2
*I *1398:B1 I *D sky130_fd_sc_hd__a22o_2
*I *1412:A1 I *D sky130_fd_sc_hd__o21ai_2
*I *1391:X O *D sky130_fd_sc_hd__xor2_2
*CAP
1 *1397:A 0
2 *1406:B 0
3 *1409:B 0.000153275
4 *1398:B1 9.38581e-05
5 *1412:A1 0.000304528
6 *1391:X 0.000282418
7 *332:46 0.000256651
8 *332:44 0.000219344
9 *1398:B1 *1405:B1 9.14049e-05
10 *1398:B1 *1411:A_N 2.20753e-05
11 *1398:B1 *345:10 9.30717e-05
12 *1398:B1 *601:34 1.82499e-06
13 *1409:B *349:10 9.73702e-05
14 *1409:B *548:37 4.35432e-05
15 *1409:B *548:54 0
16 *1412:A1 *1411:A_N 8.65905e-05
17 *1412:A1 *1411:B 4.99619e-05
18 *1412:A1 *1412:B1 0.000277223
19 *1412:A1 *552:24 0.000111302
20 *332:44 *1397:B 0.000137589
21 *332:44 *552:24 0.000347023
22 *332:46 *552:24 0.000102922
23 *1406:A *1409:B 0.000161102
24 *1409:A *1409:B 4.99619e-05
25 *1616:A *1409:B 8.49205e-05
26 *1616:A *332:46 4.82919e-05
27 *321:17 *1409:B 5.72091e-05
*RES
1 *1391:X *1412:A1 8.255 
2 *1391:X *1398:B1 9.135 
3 *1412:A1 *332:44 5.17 
4 *332:44 *332:46 2.175 
5 *332:46 *1409:B 9.53 
6 *332:46 *1406:B 1.6 
7 *332:44 *1397:A 1.6 
*END

*D_NET *333 0.000403881
*CONN
*I *1393:B I *D sky130_fd_sc_hd__and2_2
*I *1392:Y O *D sky130_fd_sc_hd__a21oi_2
*CAP
1 *1393:B 7.09903e-05
2 *1392:Y 7.09903e-05
3 *1393:B *1396:B1 7.06865e-05
4 *1393:B *567:10 2.60908e-05
5 *1389:A2 *1393:B 4.66108e-05
6 *1623:A *1393:B 0.000118513
*RES
1 *1392:Y *1393:B 9.03 
*END

*D_NET *334 0.00154542
*CONN
*I *1396:B1 I *D sky130_fd_sc_hd__a31o_2
*I *1393:X O *D sky130_fd_sc_hd__and2_2
*CAP
1 *1396:B1 0.000338488
2 *1393:X 0.000338488
3 *1396:B1 *1397:B 0
4 *1396:B1 *1413:A 0
5 *1396:B1 *567:10 0.000130564
6 *1396:B1 *567:19 0.000354427
7 *1396:B1 *567:32 0.000203762
8 *1392:A1 *1396:B1 0
9 *1393:B *1396:B1 7.06865e-05
10 *1623:A *1396:B1 5.84456e-05
11 *316:10 *1396:B1 5.05562e-05
*RES
1 *1393:X *1396:B1 15.405 
*END

*D_NET *335 0.00108164
*CONN
*I *1396:A2 I *D sky130_fd_sc_hd__a31o_2
*I *1394:Y O *D sky130_fd_sc_hd__nand2b_2
*CAP
1 *1396:A2 0.000215722
2 *1394:Y 0.000215722
3 *1396:A2 *1396:A1 1.61831e-05
4 *1396:A2 *1400:A2 4.66826e-05
5 *1396:A2 *1400:B1 0.000315342
6 *1396:A2 *1718:A 0.000123034
7 *1396:A2 *548:37 0.000100668
8 *1394:B *1396:A2 4.82863e-05
*RES
1 *1394:Y *1396:A2 9.755 
*END

*D_NET *336 0.000781043
*CONN
*I *1412:A2 I *D sky130_fd_sc_hd__o21ai_2
*I *1396:A3 I *D sky130_fd_sc_hd__a31o_2
*I *1395:Y O *D sky130_fd_sc_hd__nand2b_2
*CAP
1 *1412:A2 8.38049e-05
2 *1396:A3 2.56186e-05
3 *1395:Y 0.000154694
4 *336:6 0.000264117
5 *1396:A3 *1400:B1 2.11084e-05
6 *1412:A2 *1397:B 0.00011686
7 *1412:A2 *1400:A2 0
8 *1412:A2 *1413:A 1.26626e-05
9 *1412:A2 *567:59 0
10 *336:6 *1400:B1 0.000102178
*RES
1 *1395:Y *336:6 4.12 
2 *336:6 *1396:A3 2.05 
3 *336:6 *1412:A2 7.235 
*END

*D_NET *337 0.000996427
*CONN
*I *1397:B I *D sky130_fd_sc_hd__xnor2_2
*I *1396:X O *D sky130_fd_sc_hd__a31o_2
*CAP
1 *1397:B 0.000242002
2 *1396:X 0.000242002
3 *1397:B *1413:A 0.000139245
4 *1397:B *352:10 1.83756e-05
5 *1397:B *552:24 1.80064e-05
6 *1397:B *557:131 8.23457e-05
7 *1397:B *567:32 0
8 *1396:B1 *1397:B 0
9 *1412:A2 *1397:B 0.00011686
10 *332:44 *1397:B 0.000137589
*RES
1 *1396:X *1397:B 12.405 
*END

*D_NET *338 0.000360895
*CONN
*I *1400:A2 I *D sky130_fd_sc_hd__a21o_2
*I *1397:Y O *D sky130_fd_sc_hd__xnor2_2
*CAP
1 *1400:A2 9.09984e-05
2 *1397:Y 9.09984e-05
3 *1400:A2 *1396:A1 4.82863e-05
4 *1400:A2 *567:32 1.15688e-05
5 *1400:A2 *567:59 7.23602e-05
6 *1396:A2 *1400:A2 4.66826e-05
7 *1412:A2 *1400:A2 0
*RES
1 *1397:Y *1400:A2 9.12 
*END

*D_NET *339 0.00102104
*CONN
*I *1399:B1 I *D sky130_fd_sc_hd__a31o_2
*I *1398:X O *D sky130_fd_sc_hd__a22o_2
*CAP
1 *1399:B1 0.000215234
2 *1398:X 0.000215234
3 *1399:B1 *1399:A1 0
4 *1399:B1 *1399:A2 8.65905e-05
5 *1399:B1 *1400:B1 0
6 *1399:B1 *1408:B1 4.82863e-05
7 *1399:B1 *1411:B 0
8 *1399:B1 *1561:S 2.07184e-05
9 *1399:B1 *548:23 1.82476e-05
10 *1399:B1 *566:59 0.000376607
11 *1399:B1 *601:53 2.30292e-05
12 *1398:B2 *1399:B1 1.70935e-05
*RES
1 *1398:X *1399:B1 12.69 
*END

*D_NET *340 0.00199894
*CONN
*I *1400:B1 I *D sky130_fd_sc_hd__a21o_2
*I *1399:X O *D sky130_fd_sc_hd__a31o_2
*CAP
1 *1400:B1 0.000417422
2 *1399:X 0.000417422
3 *1400:B1 *1395:A_N 2.24423e-05
4 *1400:B1 *1395:B 3.09233e-05
5 *1400:B1 *1399:A3 1.34361e-05
6 *1400:B1 *1411:B 0
7 *1400:B1 *1413:A 0
8 *1400:B1 *548:23 0
9 *1400:B1 *548:29 0.000571715
10 *1400:B1 *548:37 4.82863e-05
11 *1400:B1 *552:24 3.86607e-05
12 *1396:A2 *1400:B1 0.000315342
13 *1396:A3 *1400:B1 2.11084e-05
14 *1399:B1 *1400:B1 0
15 *336:6 *1400:B1 0.000102178
*RES
1 *1399:X *1400:B1 17.625 
*END

*D_NET *341 0.00151654
*CONN
*I *1404:A I *D sky130_fd_sc_hd__or2_2
*I *1416:B I *D sky130_fd_sc_hd__nand2_2
*I *1425:B1 I *D sky130_fd_sc_hd__a31o_2
*I *1401:X O *D sky130_fd_sc_hd__and2_2
*CAP
1 *1404:A 5.80671e-05
2 *1416:B 0
3 *1425:B1 0.000123797
4 *1401:X 0.000210149
5 *341:28 0.00014442
6 *1404:A *1417:C1 2.16917e-05
7 *1404:A *1501:A 0.000137894
8 *1404:A *536:18 4.66108e-05
9 *1404:A *560:151 0.000114492
10 *1404:A *560:172 2.82846e-05
11 *1425:B1 *1425:A2 0.000126474
12 *1425:B1 *1425:A3 4.99619e-05
13 *1425:B1 *560:151 0
14 *341:28 *1417:C1 8.49205e-05
15 *341:28 *1425:A2 8.8266e-05
16 *341:28 *536:18 1.46744e-05
17 *341:28 *536:22 0.000248453
18 *124:33 *1425:B1 1.83847e-05
*RES
1 *1401:X *1425:B1 9.735 
2 *1401:X *341:28 4.48 
3 *341:28 *1416:B 1.6 
4 *341:28 *1404:A 7.685 
*END

*D_NET *342 0.000806596
*CONN
*I *1404:B I *D sky130_fd_sc_hd__or2_2
*I *1417:A2 I *D sky130_fd_sc_hd__o221a_2
*I *1402:Y O *D sky130_fd_sc_hd__nor2_2
*CAP
1 *1404:B 4.82486e-05
2 *1417:A2 0
3 *1402:Y 0.000109543
4 *342:12 0.000157791
5 *1404:B *1417:A1 0.000203178
6 *1404:B *1417:B1 4.73423e-05
7 *1404:B *344:10 5.12324e-05
8 *1404:B *344:18 4.35552e-05
9 *342:12 *1417:A1 4.82919e-05
10 *342:12 *1501:A 0
11 *342:12 *344:18 3.00381e-05
12 *342:12 *560:172 0
13 *342:12 *602:12 6.73751e-05
*RES
1 *1402:Y *342:12 7.94 
2 *342:12 *1417:A2 1.6 
3 *342:12 *1404:B 3.79 
*END

*D_NET *343 0.000608478
*CONN
*I *1425:A2 I *D sky130_fd_sc_hd__a31o_2
*I *1403:X O *D sky130_fd_sc_hd__or2_2
*CAP
1 *1425:A2 0.000182361
2 *1403:X 0.000182361
3 *1425:A2 *1414:A2_N 2.97004e-06
4 *1425:A2 *1423:B1 0
5 *1425:A2 *1425:A3 0
6 *1425:A2 *536:22 2.0514e-05
7 *1425:A2 *560:151 0
8 *1425:A1 *1425:A2 5.53249e-06
9 *1425:B1 *1425:A2 0.000126474
10 *341:28 *1425:A2 8.8266e-05
*RES
1 *1403:X *1425:A2 10.74 
*END

*D_NET *344 0.00816006
*CONN
*I *1417:B1 I *D sky130_fd_sc_hd__o221a_2
*I *1553:A I *D sky130_fd_sc_hd__or4_2
*I *1415:A I *D sky130_fd_sc_hd__xor2_2
*I *1423:A1 I *D sky130_fd_sc_hd__a21o_2
*I *1424:A1 I *D sky130_fd_sc_hd__a211o_2
*I *1497:A1 I *D sky130_fd_sc_hd__o41a_2
*I *1435:A1 I *D sky130_fd_sc_hd__o31a_2
*I *1439:A I *D sky130_fd_sc_hd__and3_2
*I *1426:A I *D sky130_fd_sc_hd__nor2_2
*I *1404:X O *D sky130_fd_sc_hd__or2_2
*CAP
1 *1417:B1 9.29268e-06
2 *1553:A 0
3 *1415:A 0
4 *1423:A1 0.000246343
5 *1424:A1 4.58461e-06
6 *1497:A1 8.74524e-05
7 *1435:A1 0.00025198
8 *1439:A 2.89988e-05
9 *1426:A 7.139e-05
10 *1404:X 0.000103148
11 *344:60 0.000382794
12 *344:49 0.00032886
13 *344:32 0.000400993
14 *344:30 0.000450397
15 *344:26 0.000802751
16 *344:22 0.000268819
17 *344:18 0.000649421
18 *344:10 0.00067674
19 *1417:B1 *1417:A1 0
20 *1423:A1 *1414:B1 6.01884e-06
21 *1423:A1 *1423:B1 3.61308e-05
22 *1423:A1 *362:8 0.000120655
23 *1424:A1 *1424:A2 9.53428e-06
24 *1424:A1 *362:8 1.85674e-05
25 *1426:A *1424:A2 0
26 *1426:A *1426:B 7.89884e-05
27 *1435:A1 *1435:A2 0.000205197
28 *1435:A1 *1496:A1 8.65961e-05
29 *1435:A1 *360:68 4.66108e-05
30 *1435:A1 *423:12 1.03423e-05
31 *1439:A *1438:A2 4.66108e-05
32 *1497:A1 *1497:A2 0.000107634
33 *1497:A1 *1497:A4 1.73877e-05
34 *1497:A1 *1497:B1 0
35 *1497:A1 *347:10 5.23362e-05
36 *1497:A1 *377:10 8.69212e-05
37 *1497:A1 *562:17 0
38 *344:10 *1417:A1 7.95206e-05
39 *344:10 *1418:A1 0.000110673
40 *344:18 *1417:A1 4.88721e-05
41 *344:18 *1418:A1 0.000283658
42 *344:18 *1418:B1 2.75145e-05
43 *344:18 *1553:D 3.26889e-05
44 *344:18 *1554:C1 3.1835e-05
45 *344:18 *1719:A 0.00012657
46 *344:22 *1415:B 9.50342e-06
47 *344:22 *1718:A 8.60912e-05
48 *344:26 *1415:B 0.000143266
49 *344:26 *1718:A 0.000154223
50 *344:30 *1424:A2 7.68414e-06
51 *344:30 *1438:A2 1.47256e-05
52 *344:30 *362:8 0.000437959
53 *344:32 *1424:A2 2.49909e-05
54 *344:32 *1426:B 6.03525e-05
55 *344:49 *1427:A3 0
56 *344:49 *1427:B1 0.00011852
57 *344:49 *1428:B 0
58 *344:49 *347:10 9.54399e-05
59 *344:49 *372:12 0
60 *344:60 *347:10 0.000114492
61 *344:60 *360:68 7.23533e-05
62 *344:60 *372:12 0
63 *344:60 *377:10 8.08153e-06
64 *1404:B *1417:B1 4.73423e-05
65 *1404:B *344:10 5.12324e-05
66 *1404:B *344:18 4.35552e-05
67 *1624:A *344:26 0.000122877
68 *322:23 *344:49 8.24995e-05
69 *326:47 *344:22 0
70 *326:47 *344:26 0
71 *342:12 *344:18 3.00381e-05
*RES
1 *1404:X *344:10 4.24 
2 *344:10 *344:18 11.19 
3 *344:18 *344:22 3.89 
4 *344:22 *344:26 6.95 
5 *344:26 *344:30 5.205 
6 *344:30 *344:32 1.485 
7 *344:32 *1426:A 3.1 
8 *344:32 *344:49 7.25 
9 *344:49 *1439:A 4.05 
10 *344:49 *344:60 1.38 
11 *344:60 *1435:A1 8.205 
12 *344:60 *1497:A1 6.255 
13 *344:30 *1424:A1 1.96 
14 *344:26 *1423:A1 4.99 
15 *344:22 *1415:A 3.6 
16 *344:18 *1553:A 1.6 
17 *344:10 *1417:B1 2.3425 
*END

*D_NET *345 0.00207115
*CONN
*I *1425:A3 I *D sky130_fd_sc_hd__a31o_2
*I *1408:A2 I *D sky130_fd_sc_hd__a21oi_2
*I *1405:X O *D sky130_fd_sc_hd__a22o_2
*CAP
1 *1425:A3 0.000194985
2 *1408:A2 0
3 *1405:X 0.000304278
4 *345:10 0.000499263
5 *1425:A3 *560:151 8.44359e-05
6 *345:10 *1405:B1 0.000118446
7 *345:10 *1405:B2 0.000293726
8 *345:10 *560:151 9.68787e-05
9 *345:10 *600:20 2.8185e-05
10 *345:10 *600:31 6.97118e-05
11 *345:10 *601:53 7.44375e-05
12 *1398:A2 *1425:A3 8.08153e-06
13 *1398:A2 *345:10 9.3062e-06
14 *1398:B1 *345:10 9.30717e-05
15 *1425:A1 *1425:A3 8.73212e-05
16 *1425:A2 *1425:A3 0
17 *1425:B1 *1425:A3 4.99619e-05
18 *124:33 *1425:A3 5.9064e-05
*RES
1 *1405:X *345:10 10.89 
2 *345:10 *1408:A2 3.6 
3 *345:10 *1425:A3 7.665 
*END

*D_NET *346 0.00260961
*CONN
*I *1553:B I *D sky130_fd_sc_hd__or4_2
*I *1407:B1 I *D sky130_fd_sc_hd__a21o_2
*I *1406:Y O *D sky130_fd_sc_hd__nand2_2
*CAP
1 *1553:B 0.000297964
2 *1407:B1 0
3 *1406:Y 0.000227895
4 *346:10 0.000525859
5 *1553:B *1497:A4 1.71013e-05
6 *1553:B *1553:D 0.000304474
7 *1553:B *360:68 2.54436e-05
8 *1553:B *562:17 0.00022448
9 *346:10 *1424:C1 0.000226841
10 *346:10 *1438:A2 0.000354215
11 *346:10 *349:10 4.62396e-05
12 *346:10 *552:24 8.8266e-05
13 *346:10 *562:17 0.00012904
14 *1554:A1 *1553:B 5.02217e-05
15 *321:17 *1553:B 2.15594e-05
16 *321:17 *346:10 7.00066e-05
*RES
1 *1406:Y *346:10 10.11 
2 *346:10 *1407:B1 3.6 
3 *346:10 *1553:B 9.12 
*END

*D_NET *347 0.00504817
*CONN
*I *1414:A1_N I *D sky130_fd_sc_hd__o2bb2a_2
*I *1426:B I *D sky130_fd_sc_hd__nor2_2
*I *1497:A2 I *D sky130_fd_sc_hd__o41a_2
*I *1435:A2 I *D sky130_fd_sc_hd__o31a_2
*I *1407:X O *D sky130_fd_sc_hd__a21o_2
*CAP
1 *1414:A1_N 0.000278172
2 *1426:B 0.000386863
3 *1497:A2 3.32057e-05
4 *1435:A2 0.000152728
5 *1407:X 0
6 *347:36 0.000823146
7 *347:10 0.000329799
8 *347:4 0.000301976
9 *1414:A1_N *364:6 0.000352096
10 *1426:B *1424:A2 0.000200766
11 *1426:B *1424:C1 9.54399e-05
12 *1426:B *1439:B 9.37731e-05
13 *1435:A2 *1496:A1 8.49205e-05
14 *1435:A2 *360:68 1.19928e-05
15 *1435:A2 *423:12 3.00381e-05
16 *1435:A2 *429:14 0.000272978
17 *1497:A2 *360:68 0.000116165
18 *347:10 *1439:B 8.23457e-05
19 *347:10 *360:68 7.5416e-05
20 *347:36 *1424:C1 8.99646e-05
21 *347:36 *1439:B 0.000314474
22 *347:36 *562:17 7.23533e-05
23 *1426:A *1426:B 7.89884e-05
24 *1435:A1 *1435:A2 0.000205197
25 *1497:A1 *1497:A2 0.000107634
26 *1497:A1 *347:10 5.23362e-05
27 *1554:A1 *347:10 2.86817e-05
28 *321:17 *347:10 1.26626e-05
29 *322:23 *347:10 9.37731e-05
30 *344:32 *1426:B 6.03525e-05
31 *344:49 *347:10 9.54399e-05
32 *344:60 *347:10 0.000114492
*RES
1 *1407:X *347:4 1.6 
2 *347:4 *347:10 5.705 
3 *347:10 *1435:A2 8.205 
4 *347:10 *1497:A2 4.98 
5 *347:4 *347:36 5.375 
6 *347:36 *1426:B 10.14 
7 *347:36 *1414:A1_N 8.4225 
*END

*D_NET *348 0.00167789
*CONN
*I *1414:A2_N I *D sky130_fd_sc_hd__o2bb2a_2
*I *1408:Y O *D sky130_fd_sc_hd__a21oi_2
*CAP
1 *1414:A2_N 0.000598719
2 *1408:Y 0.000598719
3 *1414:A2_N *1399:A1 9.50342e-06
4 *1414:A2_N *1399:A2 0.00012657
5 *1414:A2_N *1413:A 4.82919e-05
6 *1414:A2_N *1413:B 8.40269e-05
7 *1414:A2_N *1423:B1 0
8 *1414:A2_N *364:6 0.000209086
9 *1425:A2 *1414:A2_N 2.97004e-06
*RES
1 *1408:Y *1414:A2_N 15.18 
*END

*D_NET *349 0.00264131
*CONN
*I *1439:B I *D sky130_fd_sc_hd__and3_2
*I *1410:B I *D sky130_fd_sc_hd__and2_2
*I *1409:Y O *D sky130_fd_sc_hd__nor2_2
*CAP
1 *1439:B 0.000264204
2 *1410:B 1.36534e-05
3 *1409:Y 0.00027459
4 *349:10 0.000552448
5 *1410:B *1424:A2 4.66108e-05
6 *1439:B *1424:C1 1.7902e-05
7 *1439:B *1438:A2 0.000104153
8 *1439:B *562:17 1.07797e-05
9 *349:10 *1424:C1 5.53249e-06
10 *349:10 *548:37 1.47347e-05
11 *1406:A *349:10 9.37731e-05
12 *1409:A *349:10 2.05056e-05
13 *1409:B *349:10 9.73702e-05
14 *1410:A *1410:B 4.66108e-05
15 *1426:B *1439:B 9.37731e-05
16 *1616:A *1439:B 0.000203776
17 *1616:A *349:10 0.000176647
18 *1617:A *1439:B 0.000109016
19 *321:17 *349:10 0
20 *322:23 *1439:B 5.21706e-05
21 *326:34 *349:10 0
22 *346:10 *349:10 4.62396e-05
23 *347:10 *1439:B 8.23457e-05
24 *347:36 *1439:B 0.000314474
*RES
1 *1409:Y *349:10 8.76 
2 *349:10 *1410:B 4.05 
3 *349:10 *1439:B 10.845 
*END

*D_NET *350 0.00211577
*CONN
*I *1414:B1 I *D sky130_fd_sc_hd__o2bb2a_2
*I *1424:A2 I *D sky130_fd_sc_hd__a211o_2
*I *1410:X O *D sky130_fd_sc_hd__and2_2
*CAP
1 *1414:B1 0.000466173
2 *1424:A2 0.000177216
3 *1410:X 0
4 *350:4 0.000643388
5 *1414:B1 *1413:A 4.75576e-05
6 *1414:B1 *1413:B 9.14049e-05
7 *1414:B1 *1423:B1 0.000162311
8 *1414:B1 *362:8 6.16141e-05
9 *1414:B1 *567:59 0
10 *1424:A2 *1438:A2 4.66108e-05
11 *1424:A2 *362:8 2.59926e-05
12 *1410:A *1424:A2 6.38806e-05
13 *1410:B *1424:A2 4.66108e-05
14 *1423:A1 *1414:B1 6.01884e-06
15 *1424:A1 *1424:A2 9.53428e-06
16 *1426:A *1424:A2 0
17 *1426:B *1424:A2 0.000200766
18 *326:34 *1414:B1 2.8185e-05
19 *326:34 *1424:A2 5.83121e-06
20 *344:30 *1424:A2 7.68414e-06
21 *344:32 *1424:A2 2.49909e-05
*RES
1 *1410:X *350:4 1.6 
2 *350:4 *1424:A2 5.53 
3 *350:4 *1414:B1 11.915 
*END

*D_NET *351 0.000534547
*CONN
*I *1412:B1 I *D sky130_fd_sc_hd__o21ai_2
*I *1411:Y O *D sky130_fd_sc_hd__nand2b_2
*CAP
1 *1412:B1 0.000128662
2 *1411:Y 0.000128662
3 *1412:A1 *1412:B1 0.000277223
*RES
1 *1411:Y *1412:B1 5.72 
*END

*D_NET *352 0.000870804
*CONN
*I *1413:B I *D sky130_fd_sc_hd__or2_2
*I *1423:A2 I *D sky130_fd_sc_hd__a21o_2
*I *1412:Y O *D sky130_fd_sc_hd__o21ai_2
*CAP
1 *1413:B 0.000102807
2 *1423:A2 0
3 *1412:Y 0.000147743
4 *352:10 0.000250549
5 *1413:B *1413:A 1.65105e-05
6 *1413:B *364:6 4.66826e-05
7 *1413:B *567:59 0
8 *352:10 *1413:A 6.44134e-05
9 *352:10 *552:24 4.82919e-05
10 *352:10 *567:59 0
11 *1397:B *352:10 1.83756e-05
12 *1414:A2_N *1413:B 8.40269e-05
13 *1414:B1 *1413:B 9.14049e-05
*RES
1 *1412:Y *352:10 5.94 
2 *352:10 *1423:A2 3.6 
3 *352:10 *1413:B 6.03 
*END

*D_NET *353 0.000453615
*CONN
*I *1414:B2 I *D sky130_fd_sc_hd__o2bb2a_2
*I *1413:X O *D sky130_fd_sc_hd__or2_2
*CAP
1 *1414:B2 0.000125218
2 *1413:X 0.000125218
3 *124:33 *1414:B2 0.000203178
*RES
1 *1413:X *1414:B2 5.03 
*END

*D_NET *354 0.000478441
*CONN
*I *1415:B I *D sky130_fd_sc_hd__xor2_2
*I *1414:X O *D sky130_fd_sc_hd__o2bb2a_2
*CAP
1 *1415:B 6.78929e-05
2 *1414:X 6.78929e-05
3 *1415:B *1718:A 0.000141599
4 *124:33 *1415:B 4.82863e-05
5 *344:22 *1415:B 9.50342e-06
6 *344:26 *1415:B 0.000143266
*RES
1 *1414:X *1415:B 7.685 
*END

*D_NET *355 0.000563262
*CONN
*I *1418:A2 I *D sky130_fd_sc_hd__o21ai_2
*I *1415:X O *D sky130_fd_sc_hd__xor2_2
*CAP
1 *1418:A2 0.000278127
2 *1415:X 0.000278127
3 *1418:A2 *1422:B 7.00889e-06
4 *1418:A2 *602:12 0
*RES
1 *1415:X *1418:A2 11.01 
*END

*D_NET *356 0.000622767
*CONN
*I *1417:C1 I *D sky130_fd_sc_hd__o221a_2
*I *1416:Y O *D sky130_fd_sc_hd__nand2_2
*CAP
1 *1417:C1 0.000202538
2 *1416:Y 0.000202538
3 *1417:C1 *1417:B2 6.16226e-06
4 *1417:C1 *560:151 8.52172e-05
5 *1417:C1 *560:172 1.96989e-05
6 *1417:C1 *602:12 0
7 *1404:A *1417:C1 2.16917e-05
8 *341:28 *1417:C1 8.49205e-05
*RES
1 *1416:Y *1417:C1 10.74 
*END

*D_NET *357 9.93074e-05
*CONN
*I *1418:B1 I *D sky130_fd_sc_hd__o21ai_2
*I *1417:X O *D sky130_fd_sc_hd__o221a_2
*CAP
1 *1418:B1 1.17533e-05
2 *1417:X 1.17533e-05
3 *1418:B1 *1418:A1 4.82863e-05
4 *344:18 *1418:B1 2.75145e-05
*RES
1 *1417:X *1418:B1 3.65 
*END

*D_NET *358 0.00151763
*CONN
*I *1434:A1 I *D sky130_fd_sc_hd__o21ai_2
*I *1421:A_N I *D sky130_fd_sc_hd__nand2b_2
*I *1430:A2 I *D sky130_fd_sc_hd__a221o_2
*I *1419:X O *D sky130_fd_sc_hd__and2_2
*CAP
1 *1434:A1 0
2 *1421:A_N 0.000180525
3 *1430:A2 0
4 *1419:X 0.000200318
5 *358:27 0.000297419
6 *358:14 0.000317212
7 *1421:A_N *1429:A 0
8 *1421:A_N *548:54 0
9 *358:14 *1429:A 6.36578e-05
10 *358:14 *1434:B1 1.2818e-05
11 *358:14 *1470:A1 9.50342e-06
12 *358:14 *546:99 4.98015e-05
13 *358:14 *546:105 1.4389e-05
14 *358:14 *552:30 0.00011852
15 *358:27 *1427:A1 6.50552e-05
16 *358:27 *1431:B1 3.00355e-05
17 *358:27 *1434:B1 0.000158373
*RES
1 *1419:X *358:14 8.93375 
2 *358:14 *1430:A2 1.6 
3 *358:14 *358:27 2.98125 
4 *358:27 *1421:A_N 8 
5 *358:27 *1434:A1 1.6 
*END

*D_NET *359 0.00159255
*CONN
*I *1421:B I *D sky130_fd_sc_hd__nand2b_2
*I *1434:B1 I *D sky130_fd_sc_hd__o21ai_2
*I *1430:B1 I *D sky130_fd_sc_hd__a221o_2
*I *1420:X O *D sky130_fd_sc_hd__or2_2
*CAP
1 *1421:B 0.000129867
2 *1434:B1 8.88746e-05
3 *1430:B1 0
4 *1420:X 0.000109211
5 *359:12 0.000176892
6 *359:6 0.000327095
7 *1421:B *1429:A 7.10578e-05
8 *1421:B *1429:B 2.67275e-05
9 *1434:B1 *1427:A1 0.000253941
10 *359:6 *1429:B 1.83756e-05
11 *359:12 *1430:B2 4.43871e-06
12 *359:12 *1430:C1 5.72829e-05
13 *359:12 *1470:A1 0.000148092
14 *359:12 *552:30 9.50342e-06
15 *358:14 *1434:B1 1.2818e-05
16 *358:27 *1434:B1 0.000158373
*RES
1 *1420:X *359:6 3.085 
2 *359:6 *359:12 5.89 
3 *359:12 *1430:B1 1.6 
4 *359:12 *1434:B1 4.495 
5 *359:6 *1421:B 3.79 
*END

*D_NET *360 0.00509074
*CONN
*I *1439:C I *D sky130_fd_sc_hd__and3_2
*I *1553:C I *D sky130_fd_sc_hd__or4_2
*I *1497:A3 I *D sky130_fd_sc_hd__o41a_2
*I *1438:A1 I *D sky130_fd_sc_hd__a21o_2
*I *1435:A3 I *D sky130_fd_sc_hd__o31a_2
*I *1428:A I *D sky130_fd_sc_hd__xnor2_2
*I *1429:B I *D sky130_fd_sc_hd__nor2_2
*I *1421:Y O *D sky130_fd_sc_hd__nand2b_2
*CAP
1 *1439:C 0
2 *1553:C 0.000421658
3 *1497:A3 0
4 *1438:A1 0
5 *1435:A3 4.09406e-05
6 *1428:A 0.000263033
7 *1429:B 0.000174231
8 *1421:Y 0
9 *360:68 0.000603368
10 *360:54 0.000319624
11 *360:45 0.000222149
12 *360:30 0.000234067
13 *360:17 0.000679199
14 *360:4 0.000481507
15 *1428:A *1427:A3 0
16 *1428:A *1428:B 4.91189e-05
17 *1428:A *1438:B1 5.72004e-05
18 *1428:A *372:12 0
19 *1428:A *376:8 2.92496e-05
20 *1428:A *548:54 0
21 *1429:B *1429:A 0.000123225
22 *1435:A3 *372:12 0.000116165
23 *1435:A3 *376:8 6.28843e-05
24 *1553:C *1555:B 0.000112123
25 *1553:C *1718:A 0
26 *1553:C *567:59 0.000292465
27 *360:54 *1438:A2 0.000241483
28 *360:68 *1497:A4 9.37731e-05
29 *360:68 *377:10 4.05358e-05
30 *360:68 *429:14 8.73389e-06
31 *1421:B *1429:B 2.67275e-05
32 *1435:A1 *360:68 4.66108e-05
33 *1435:A2 *360:68 1.19928e-05
34 *1497:A2 *360:68 0.000116165
35 *1553:B *360:68 2.54436e-05
36 *1554:A1 *360:68 3.09233e-05
37 *344:60 *360:68 7.23533e-05
38 *347:10 *360:68 7.5416e-05
39 *359:6 *1429:B 1.83756e-05
*RES
1 *1421:Y *360:4 1.6 
2 *360:4 *1429:B 4.48 
3 *360:4 *360:17 4.26 
4 *360:17 *1428:A 10.295 
5 *360:17 *360:30 1.14 
6 *360:30 *1435:A3 6.98 
7 *360:30 *360:45 1.155 
8 *360:45 *1438:A1 1.6 
9 *360:45 *360:54 2.88 
10 *360:54 *360:68 12.155 
11 *360:68 *1497:A3 1.6 
12 *360:68 *1553:C 11.225 
13 *360:54 *1439:C 1.6 
*END

*D_NET *361 0.00106541
*CONN
*I *1423:B1 I *D sky130_fd_sc_hd__a21o_2
*I *1422:X O *D sky130_fd_sc_hd__and2b_2
*CAP
1 *1423:B1 0.000433482
2 *1422:X 0.000433482
3 *1423:B1 *1399:A1 0
4 *1423:B1 *1413:A 0
5 *1414:A2_N *1423:B1 0
6 *1414:B1 *1423:B1 0.000162311
7 *1423:A1 *1423:B1 3.61308e-05
8 *1425:A2 *1423:B1 0
*RES
1 *1422:X *1423:B1 14.28 
*END

*D_NET *362 0.00300227
*CONN
*I *1424:B1 I *D sky130_fd_sc_hd__a211o_2
*I *1438:A2 I *D sky130_fd_sc_hd__a21o_2
*I *1423:X O *D sky130_fd_sc_hd__a21o_2
*CAP
1 *1424:B1 0
2 *1438:A2 0.00026885
3 *1423:X 0.000159539
4 *362:8 0.000428389
5 *1410:A *362:8 0.000159741
6 *1414:B1 *362:8 6.16141e-05
7 *1423:A1 *362:8 0.000120655
8 *1424:A1 *362:8 1.85674e-05
9 *1424:A2 *1438:A2 4.66108e-05
10 *1424:A2 *362:8 2.59926e-05
11 *1439:A *1438:A2 4.66108e-05
12 *1439:B *1438:A2 0.000104153
13 *321:17 *1438:A2 0.000355882
14 *322:23 *1438:A2 8.23457e-05
15 *326:34 *362:8 7.49327e-05
16 *344:30 *1438:A2 1.47256e-05
17 *344:30 *362:8 0.000437959
18 *346:10 *1438:A2 0.000354215
19 *360:54 *1438:A2 0.000241483
*RES
1 *1423:X *362:8 7.15 
2 *362:8 *1438:A2 14.135 
3 *362:8 *1424:B1 1.6 
*END

*D_NET *363 0.000690384
*CONN
*I *1427:B1 I *D sky130_fd_sc_hd__o31a_2
*I *1424:X O *D sky130_fd_sc_hd__a211o_2
*CAP
1 *1427:B1 0.000134547
2 *1424:X 0.000134547
3 *1427:B1 *364:6 0.000237238
4 *322:23 *1427:B1 6.55328e-05
5 *344:49 *1427:B1 0.00011852
*RES
1 *1424:X *1427:B1 10.755 
*END

*D_NET *364 0.00411702
*CONN
*I *1427:A2 I *D sky130_fd_sc_hd__o31a_2
*I *1434:A2 I *D sky130_fd_sc_hd__o21ai_2
*I *1425:X O *D sky130_fd_sc_hd__a31o_2
*CAP
1 *1427:A2 1.85694e-05
2 *1434:A2 0.000111245
3 *1425:X 0.000597473
4 *364:6 0.000727288
5 *1427:A2 *1427:A1 9.53428e-06
6 *1434:A2 *1427:A1 0.000285297
7 *1434:A2 *372:12 0.000427876
8 *364:6 *1413:A 2.75229e-05
9 *1413:B *364:6 4.66826e-05
10 *1414:A1_N *364:6 0.000352096
11 *1414:A2_N *364:6 0.000209086
12 *1427:B1 *364:6 0.000237238
13 *124:33 *364:6 0.00106711
*RES
1 *1425:X *364:6 17.23 
2 *364:6 *1434:A2 6.205 
3 *364:6 *1427:A2 1.96 
*END

*D_NET *365 0.000204176
*CONN
*I *1427:A3 I *D sky130_fd_sc_hd__o31a_2
*I *1426:Y O *D sky130_fd_sc_hd__nor2_2
*CAP
1 *1427:A3 8.87414e-05
2 *1426:Y 8.87414e-05
3 *1427:A3 *1428:B 2.66935e-05
4 *1428:A *1427:A3 0
5 *344:49 *1427:A3 0
*RES
1 *1426:Y *1427:A3 8.58 
*END

*D_NET *366 0.000299831
*CONN
*I *1428:B I *D sky130_fd_sc_hd__xnor2_2
*I *1427:X O *D sky130_fd_sc_hd__o31a_2
*CAP
1 *1428:B 8.78661e-05
2 *1427:X 8.78661e-05
3 *1428:B *1427:A1 4.82863e-05
4 *1427:A3 *1428:B 2.66935e-05
5 *1428:A *1428:B 4.91189e-05
6 *344:49 *1428:B 0
*RES
1 *1427:X *1428:B 9.03 
*END

*D_NET *367 0.000376709
*CONN
*I *1431:A2 I *D sky130_fd_sc_hd__a21o_2
*I *1428:Y O *D sky130_fd_sc_hd__xnor2_2
*CAP
1 *1431:A2 0.000129738
2 *1428:Y 0.000129738
3 *1431:A2 *1431:B1 9.3062e-06
4 *1431:A2 *546:99 8.71001e-05
5 *1431:A2 *548:54 0
6 *1431:A2 *553:29 1.52945e-05
7 *1383:A *1431:A2 5.53249e-06
*RES
1 *1428:Y *1431:A2 9.795 
*END

*D_NET *368 0.000302596
*CONN
*I *1430:C1 I *D sky130_fd_sc_hd__a221o_2
*I *1429:Y O *D sky130_fd_sc_hd__nor2_2
*CAP
1 *1430:C1 7.74754e-05
2 *1429:Y 7.74754e-05
3 *1430:C1 *1419:A 2.15738e-05
4 *1430:C1 *1430:B2 9.50342e-06
5 *1430:C1 *1470:A1 0
6 *1430:C1 *603:26 5.92849e-05
7 *359:12 *1430:C1 5.72829e-05
*RES
1 *1429:Y *1430:C1 9.345 
*END

*D_NET *369 0.000800913
*CONN
*I *1431:B1 I *D sky130_fd_sc_hd__a21o_2
*I *1430:X O *D sky130_fd_sc_hd__a221o_2
*CAP
1 *1431:B1 0.000165134
2 *1430:X 0.000165134
3 *1431:B1 *1429:A 0.000271341
4 *1431:B1 *539:40 0
5 *1431:B1 *546:99 0.000159964
6 *1431:B1 *548:54 0
7 *1431:B1 *552:30 0
8 *1431:A2 *1431:B1 9.3062e-06
9 *358:27 *1431:B1 3.00355e-05
*RES
1 *1430:X *1431:B1 11.325 
*END

*D_NET *370 0.00223826
*CONN
*I *1449:C1 I *D sky130_fd_sc_hd__o211a_2
*I *1444:A2 I *D sky130_fd_sc_hd__o221a_2
*I *1432:Y O *D sky130_fd_sc_hd__nand2_2
*CAP
1 *1449:C1 0
2 *1444:A2 0.000362941
3 *1432:Y 0.000268027
4 *370:8 0.000630968
5 *1444:A2 *1443:B1 9.044e-05
6 *1444:A2 *1444:B2 0.000227389
7 *1444:A2 *1445:A2 3.65279e-05
8 *1444:A2 *1449:B1 1.00941e-05
9 *1444:A2 *547:10 1.17309e-05
10 *1444:A2 *559:135 5.64768e-05
11 *370:8 *1444:B2 0
12 *370:8 *1452:A1 4.19797e-05
13 *370:8 *1462:A2 0.000155928
14 *370:8 *385:38 0.00010412
15 *370:8 *559:135 0.000193343
16 *287:10 *1444:A2 4.82919e-05
*RES
1 *1432:Y *370:8 9.825 
2 *370:8 *1444:A2 9.15 
3 *370:8 *1449:C1 3.6 
*END

*D_NET *371 0.00424002
*CONN
*I *1451:A1 I *D sky130_fd_sc_hd__a21oi_2
*I *1460:A I *D sky130_fd_sc_hd__and2_2
*I *1478:A I *D sky130_fd_sc_hd__or3_2
*I *1466:A1 I *D sky130_fd_sc_hd__o311a_2
*I *1442:A I *D sky130_fd_sc_hd__xor2_2
*I *1449:A1 I *D sky130_fd_sc_hd__o211a_2
*I *1444:B1 I *D sky130_fd_sc_hd__o221a_2
*I *1433:Y O *D sky130_fd_sc_hd__xnor2_2
*CAP
1 *1451:A1 4.44247e-05
2 *1460:A 0
3 *1478:A 0.000123089
4 *1466:A1 3.44038e-06
5 *1442:A 0.000101519
6 *1449:A1 0
7 *1444:B1 6.78909e-05
8 *1433:Y 0.000113386
9 *371:67 0.000245044
10 *371:59 0.000283042
11 *371:44 0.000428308
12 *371:36 0.000374231
13 *371:23 0.000235667
14 *371:6 0.0002494
15 *1442:A *1436:A 0
16 *1442:A *1441:A2 0
17 *1442:A *1441:B1 3.86571e-05
18 *1442:A *1442:B 1.77709e-05
19 *1444:B1 *1444:B2 1.12643e-05
20 *1444:B1 *1444:C1 6.02202e-05
21 *1444:B1 *1722:A 0.000159957
22 *1444:B1 *547:10 7.25921e-06
23 *1451:A1 *1441:A2 0.000116165
24 *1451:A1 *378:43 4.38051e-05
25 *1451:A1 *559:135 0.000151439
26 *1466:A1 *385:50 4.30176e-06
27 *1466:A1 *603:24 1.94212e-06
28 *1478:A *1466:C1 4.66108e-05
29 *1478:A *1478:B 6.58423e-05
30 *1478:A *1478:C 3.50496e-05
31 *1478:A *385:50 3.3131e-05
32 *1478:A *385:59 2.49909e-05
33 *1478:A *603:24 0.000114203
34 *371:23 *1444:C1 4.78203e-05
35 *371:23 *1449:A2 3.3825e-06
36 *371:23 *1452:B1 5.30673e-05
37 *371:36 *1444:C1 7.87922e-06
38 *371:36 *1449:A2 0.000263958
39 *371:44 *1441:A2 6.30264e-05
40 *371:44 *1449:A2 0.000149126
41 *371:44 *559:135 7.01104e-05
42 *371:59 *1449:A2 4.77757e-05
43 *371:59 *373:14 0.000161864
44 *371:67 *1436:A 2.99518e-06
45 *371:67 *1443:A1 0
46 *371:67 *1443:A2 0
47 *371:67 *1460:B 6.97705e-06
48 *371:67 *1466:A2 0.000134379
49 *371:67 *385:50 2.21606e-06
50 *371:67 *396:10 2.33933e-05
*RES
1 *1433:Y *371:6 3.085 
2 *371:6 *1444:B1 7.59875 
3 *371:6 *371:23 1.62375 
4 *371:23 *1449:A1 1.6 
5 *371:23 *371:36 5.20625 
6 *371:36 *371:44 5.15 
7 *371:44 *1442:A 7.49 
8 *371:44 *371:59 2.88 
9 *371:59 *371:67 6.56875 
10 *371:67 *1466:A1 1.72375 
11 *371:67 *1478:A 4.79875 
12 *371:59 *1460:A 1.6 
13 *371:36 *1451:A1 5.49 
*END

*D_NET *372 0.00298299
*CONN
*I *1496:A1 I *D sky130_fd_sc_hd__o211a_2
*I *1435:B1 I *D sky130_fd_sc_hd__o31a_2
*I *1434:Y O *D sky130_fd_sc_hd__o21ai_2
*CAP
1 *1496:A1 0.000299047
2 *1435:B1 0
3 *1434:Y 0.000250159
4 *372:12 0.000549206
5 *1496:A1 *1491:A1 9.52234e-05
6 *1496:A1 *1491:B2 0
7 *1496:A1 *1491:C1 0
8 *1496:A1 *1496:A2 0.000356941
9 *1496:A1 *1496:C1 2.97004e-06
10 *1496:A1 *376:8 0
11 *1496:A1 *377:10 0
12 *1496:A1 *423:12 3.18137e-05
13 *1496:A1 *429:14 0.000141599
14 *372:12 *1438:B1 0.000531171
15 *372:12 *376:8 9.29751e-06
16 *372:12 *377:10 0
17 *1428:A *372:12 0
18 *1434:A2 *372:12 0.000427876
19 *1435:A1 *1496:A1 8.65961e-05
20 *1435:A2 *1496:A1 8.49205e-05
21 *1435:A3 *372:12 0.000116165
22 *344:49 *372:12 0
23 *344:60 *372:12 0
*RES
1 *1434:Y *372:12 13.175 
2 *372:12 *1435:B1 1.6 
3 *372:12 *1496:A1 12.9838 
*END

*D_NET *373 0.00340339
*CONN
*I *1479:A I *D sky130_fd_sc_hd__nor2_2
*I *1466:A2 I *D sky130_fd_sc_hd__o311a_2
*I *1436:B I *D sky130_fd_sc_hd__nor2_2
*I *1449:A2 I *D sky130_fd_sc_hd__o211a_2
*I *1435:X O *D sky130_fd_sc_hd__o31a_2
*CAP
1 *1479:A 2.08101e-05
2 *1466:A2 4.58171e-05
3 *1436:B 0
4 *1449:A2 0.000194591
5 *1435:X 0.000172676
6 *373:14 0.000327842
7 *373:8 0.000407131
8 *373:6 0.000421549
9 *1449:A2 *1443:A1 8.64421e-05
10 *1449:A2 *1443:B1 6.71882e-05
11 *1449:A2 *1444:C1 4.56435e-05
12 *1466:A2 *1460:B 2.34005e-05
13 *1466:A2 *396:10 9.16019e-05
14 *373:6 *1479:B 4.82919e-05
15 *373:6 *1489:B 0.000160491
16 *373:6 *1489:C 6.97118e-05
17 *373:6 *423:12 7.22354e-05
18 *373:8 *1460:B 4.77719e-05
19 *373:8 *1489:B 0.000244253
20 *373:8 *396:10 4.60061e-05
21 *373:14 *1443:A1 4.94474e-05
22 *371:23 *1449:A2 3.3825e-06
23 *371:36 *1449:A2 0.000263958
24 *371:44 *1449:A2 0.000149126
25 *371:59 *1449:A2 4.77757e-05
26 *371:59 *373:14 0.000161864
27 *371:67 *1466:A2 0.000134379
*RES
1 *1435:X *373:6 5.845 
2 *373:6 *373:8 4.935 
3 *373:8 *373:14 2.985 
4 *373:14 *1449:A2 7.015 
5 *373:14 *1436:B 1.6 
6 *373:8 *1466:A2 7.235 
7 *373:6 *1479:A 1.96 
*END

*D_NET *374 0.00104209
*CONN
*I *1441:B1 I *D sky130_fd_sc_hd__a21o_2
*I *1436:Y O *D sky130_fd_sc_hd__nor2_2
*CAP
1 *1441:B1 0.00017697
2 *1436:Y 0.00017697
3 *1441:B1 *1355:A1 9.38156e-05
4 *1441:B1 *1436:A 0.0002954
5 *1441:B1 *1441:A2 0.000122701
6 *1441:B1 *1442:B 0.000137578
7 *1442:A *1441:B1 3.86571e-05
*RES
1 *1436:Y *1441:B1 12.12 
*END

*D_NET *375 0.00243303
*CONN
*I *1438:B1 I *D sky130_fd_sc_hd__a21o_2
*I *1437:X O *D sky130_fd_sc_hd__and2b_2
*CAP
1 *1438:B1 0.000681345
2 *1437:X 0.000681345
3 *1438:B1 *1427:A1 0.000481967
4 *1428:A *1438:B1 5.72004e-05
5 *372:12 *1438:B1 0.000531171
*RES
1 *1437:X *1438:B1 17.565 
*END

*D_NET *376 0.00111818
*CONN
*I *1491:B2 I *D sky130_fd_sc_hd__a221o_2
*I *1440:B1 I *D sky130_fd_sc_hd__a21o_2
*I *1438:X O *D sky130_fd_sc_hd__a21o_2
*CAP
1 *1491:B2 9.59615e-05
2 *1440:B1 1.8095e-05
3 *1438:X 0.000226296
4 *376:8 0.000340352
5 *1440:B1 *429:8 8.49205e-05
6 *1440:B1 *567:59 8.49205e-05
7 *1491:B2 *1491:A2 1.12643e-05
8 *1491:B2 *1491:C1 9.50342e-06
9 *1491:B2 *409:14 0
10 *1491:B2 *423:12 7.63204e-05
11 *376:8 *1489:C 0
12 *376:8 *409:14 0
13 *376:8 *409:16 0
14 *376:8 *423:12 6.9117e-05
15 *376:8 *548:54 0
16 *1428:A *376:8 2.92496e-05
17 *1435:A3 *376:8 6.28843e-05
18 *1496:A1 *1491:B2 0
19 *1496:A1 *376:8 0
20 *372:12 *376:8 9.29751e-06
*RES
1 *1438:X *376:8 7.53 
2 *376:8 *1440:B1 4.395 
3 *376:8 *1491:B2 5.59875 
*END

*D_NET *377 0.0014994
*CONN
*I *1492:A I *D sky130_fd_sc_hd__and2_2
*I *1440:A2 I *D sky130_fd_sc_hd__a21o_2
*I *1439:X O *D sky130_fd_sc_hd__and3_2
*CAP
1 *1492:A 0.000118914
2 *1440:A2 3.30173e-05
3 *1439:X 0.000176417
4 *377:10 0.000328348
5 *1440:A2 *567:59 0.00015896
6 *1492:A *1496:A2 0
7 *1492:A *1497:B1 5.12942e-05
8 *1492:A *567:59 0.000103905
9 *377:10 *1496:A2 1.7396e-05
10 *377:10 *429:14 5.51245e-05
11 *1440:A1 *1440:A2 0.00015896
12 *1440:A1 *1492:A 0.000161529
13 *1496:A1 *377:10 0
14 *1497:A1 *377:10 8.69212e-05
15 *344:60 *377:10 8.08153e-06
16 *360:68 *377:10 4.05358e-05
17 *372:12 *377:10 0
*RES
1 *1439:X *377:10 9.53 
2 *377:10 *1440:A2 3.085 
3 *377:10 *1492:A 8.72 
*END

*D_NET *378 0.00681378
*CONN
*I *1463:A1 I *D sky130_fd_sc_hd__a21oi_2
*I *1451:A2 I *D sky130_fd_sc_hd__a21oi_2
*I *1441:A2 I *D sky130_fd_sc_hd__a21o_2
*I *1477:A1 I *D sky130_fd_sc_hd__a311o_2
*I *1440:X O *D sky130_fd_sc_hd__a21o_2
*CAP
1 *1463:A1 0
2 *1451:A2 3.45535e-05
3 *1441:A2 0.000396361
4 *1477:A1 8.96685e-05
5 *1440:X 0.000342488
6 *378:43 0.000742299
7 *378:35 0.000778778
8 *378:10 0.000899551
9 *1441:A2 *1355:A1 0.00010532
10 *1441:A2 *1441:A1 4.82919e-05
11 *1441:A2 *1443:A2 0.000163889
12 *1441:A2 *1443:B1 0
13 *1441:A2 *559:135 0.000155247
14 *1451:A2 *387:16 3.95698e-05
15 *1451:A2 *605:51 4.66108e-05
16 *1477:A1 *395:57 4.66108e-05
17 *1477:A1 *411:6 1.19928e-05
18 *378:10 *1470:A1 0
19 *378:10 *1481:A2 3.09164e-05
20 *378:10 *1481:A3 0.000115582
21 *378:10 *1489:A 0.000178034
22 *378:10 *1491:A1 0.000161529
23 *378:10 *1495:B 9.02174e-05
24 *378:10 *567:59 1.9415e-05
25 *378:35 *1476:A2 8.23457e-05
26 *378:35 *1476:B1 0.000120652
27 *378:35 *1477:A3 0.000210203
28 *378:35 *1481:A3 0.000106655
29 *378:35 *1482:B 4.5783e-05
30 *378:35 *1489:A 2.92496e-05
31 *378:35 *395:27 3.67779e-05
32 *378:35 *411:6 0.000180988
33 *378:43 *1443:A2 7.23602e-05
34 *378:43 *1462:B1 0.000121023
35 *378:43 *1463:A2 2.90156e-05
36 *378:43 *1476:A2 6.56413e-05
37 *378:43 *1476:B1 0
38 *378:43 *385:50 0.00030822
39 *378:43 *398:10 0.000137327
40 *378:43 *559:135 6.99988e-05
41 *378:43 *569:47 0.000104287
42 *1441:B1 *1441:A2 0.000122701
43 *1442:A *1441:A2 0
44 *1451:A1 *1441:A2 0.000116165
45 *1451:A1 *378:43 4.38051e-05
46 *287:10 *1441:A2 0.00025063
47 *371:44 *1441:A2 6.30264e-05
*RES
1 *1440:X *378:10 9.3 
2 *378:10 *1477:A1 4.755 
3 *378:10 *378:35 13.98 
4 *378:35 *378:43 9.785 
5 *378:43 *1441:A2 13.8 
6 *378:43 *1451:A2 4.41 
7 *378:35 *1463:A1 1.6 
*END

*D_NET *379 0.000677323
*CONN
*I *1442:B I *D sky130_fd_sc_hd__xor2_2
*I *1441:X O *D sky130_fd_sc_hd__a21o_2
*CAP
1 *1442:B 0.000202812
2 *1441:X 0.000202812
3 *1442:B *1355:A1 9.28507e-05
4 *1442:B *547:10 2.34984e-05
5 *1441:B1 *1442:B 0.000137578
6 *1442:A *1442:B 1.77709e-05
*RES
1 *1441:X *1442:B 9.1175 
*END

*D_NET *380 0.000711647
*CONN
*I *1445:A2 I *D sky130_fd_sc_hd__o21ai_2
*I *1442:X O *D sky130_fd_sc_hd__xor2_2
*CAP
1 *1445:A2 9.67186e-05
2 *1442:X 9.67186e-05
3 *1445:A2 *1343:A 0.000103185
4 *1445:A2 *1343:B 0.000187071
5 *1445:A2 *1444:B2 5.83121e-06
6 *1445:A2 *547:10 0.000158072
7 *1444:A2 *1445:A2 3.65279e-05
8 *287:10 *1445:A2 2.75229e-05
*RES
1 *1442:X *1445:A2 10.83 
*END

*D_NET *381 0.00100745
*CONN
*I *1444:C1 I *D sky130_fd_sc_hd__o221a_2
*I *1443:Y O *D sky130_fd_sc_hd__o21ai_2
*CAP
1 *1444:C1 0.000334086
2 *1443:Y 0.000334086
3 *1444:C1 *1343:B 9.50342e-06
4 *1444:C1 *1443:B1 0.000120655
5 *1444:C1 *1444:B2 4.75576e-05
6 *1444:B1 *1444:C1 6.02202e-05
7 *1449:A2 *1444:C1 4.56435e-05
8 *371:23 *1444:C1 4.78203e-05
9 *371:36 *1444:C1 7.87922e-06
*RES
1 *1443:Y *1444:C1 12.15 
*END

*D_NET *382 0.000730222
*CONN
*I *1445:B1 I *D sky130_fd_sc_hd__o21ai_2
*I *1444:X O *D sky130_fd_sc_hd__o221a_2
*CAP
1 *1445:B1 0.000201805
2 *1444:X 0.000201805
3 *1445:B1 *1343:B 5.00526e-05
4 *1445:B1 *1445:A1 9.50342e-06
5 *1445:B1 *1722:A 7.06865e-05
6 *1445:B1 *547:10 0.00019637
7 *1445:B1 *549:96 0
*RES
1 *1444:X *1445:B1 10.665 
*END

*D_NET *383 0.0015253
*CONN
*I *1455:A2 I *D sky130_fd_sc_hd__o221a_2
*I *1446:Y O *D sky130_fd_sc_hd__nand2_2
*CAP
1 *1455:A2 0.000397586
2 *1446:Y 0.000397586
3 *1455:A2 *1432:A 4.66108e-05
4 *1455:A2 *1446:A 8.47629e-05
5 *1455:A2 *1453:B 0.000180699
6 *1455:A2 *1456:A2 0.000187071
7 *1455:A2 *1456:B1 3.47757e-05
8 *1455:A2 *385:19 4.99619e-05
9 *1455:A2 *554:42 0.000111459
10 *1455:A2 *571:10 0
11 *1455:A2 *606:50 3.47837e-05
12 *1455:A2 *607:8 0
13 *1455:A2 *607:12 0
*RES
1 *1446:Y *1455:A2 16.455 
*END

*D_NET *384 0.00300376
*CONN
*I *1454:B I *D sky130_fd_sc_hd__nand2_2
*I *1480:A1 I *D sky130_fd_sc_hd__a31o_2
*I *1465:A I *D sky130_fd_sc_hd__nand2_2
*I *1447:X O *D sky130_fd_sc_hd__or2_2
*CAP
1 *1454:B 0
2 *1480:A1 0.000103956
3 *1465:A 7.34287e-05
4 *1447:X 0.000571549
5 *384:16 0.000376301
6 *384:10 0.000770465
7 *1465:A *1476:B1 0
8 *1465:A *1480:A3 5.88561e-05
9 *1465:A *415:16 0
10 *1480:A1 *1480:A3 0.000160612
11 *384:10 *1447:A 3.64998e-06
12 *384:10 *1456:B1 0
13 *384:10 *394:14 0.00035215
14 *384:10 *554:28 1.41633e-05
15 *384:10 *559:135 5.30057e-05
16 *384:10 *607:8 7.06865e-05
17 *384:10 *607:12 0.000162311
18 *384:16 *1454:A 2.59934e-06
19 *384:16 *1480:A3 8.41307e-05
20 *384:16 *554:28 3.60024e-06
21 *384:16 *554:42 0.000122801
22 *384:16 *559:135 1.94892e-05
*RES
1 *1447:X *384:10 13.23 
2 *384:10 *384:16 4.79 
3 *384:16 *1465:A 6.98 
4 *384:16 *1480:A1 3.085 
5 *384:10 *1454:B 3.6 
*END

*D_NET *385 0.00451761
*CONN
*I *1462:A1 I *D sky130_fd_sc_hd__a21o_2
*I *1478:B I *D sky130_fd_sc_hd__or3_2
*I *1460:B I *D sky130_fd_sc_hd__and2_2
*I *1466:A3 I *D sky130_fd_sc_hd__o311a_2
*I *1455:B1 I *D sky130_fd_sc_hd__o221a_2
*I *1453:A I *D sky130_fd_sc_hd__xnor2_2
*I *1448:Y O *D sky130_fd_sc_hd__xnor2_2
*CAP
1 *1462:A1 0
2 *1478:B 8.98926e-05
3 *1460:B 7.33763e-05
4 *1466:A3 2.09808e-05
5 *1455:B1 2.47264e-05
6 *1453:A 9.03087e-05
7 *1448:Y 9.43043e-05
8 *385:59 0.000196047
9 *385:50 0.000710701
10 *385:38 0.00076984
11 *385:19 0.000201271
12 *385:6 0.00024826
13 *1453:A *1432:A 9.387e-06
14 *1453:A *1453:B 0.000177939
15 *1453:A *1455:A1 2.82846e-05
16 *1453:A *571:10 0
17 *1455:B1 *1432:A 1.12643e-05
18 *1455:B1 *400:20 0
19 *1460:B *396:10 6.88421e-05
20 *1460:B *562:37 0.000134249
21 *385:6 *1432:A 1.91597e-05
22 *385:6 *1455:A1 4.66108e-05
23 *385:19 *1432:A 4.85169e-05
24 *385:19 *1455:A1 4.66108e-05
25 *385:19 *400:20 0.000120655
26 *385:38 *1432:A 1.89514e-05
27 *385:38 *1452:A1 0.000199032
28 *385:38 *1462:B1 4.82919e-05
29 *385:38 *400:20 3.57349e-05
30 *385:50 *1443:A1 3.09164e-05
31 *385:50 *1462:A2 4.66108e-05
32 *385:50 *1462:B1 7.02002e-05
33 *385:50 *1467:B1 7.23533e-05
34 *385:50 *387:16 5.16418e-05
35 *385:50 *396:10 0
36 *385:50 *603:24 4.17151e-05
37 *1455:A2 *385:19 4.99619e-05
38 *1466:A1 *385:50 4.30176e-06
39 *1466:A2 *1460:B 2.34005e-05
40 *1478:A *1478:B 6.58423e-05
41 *1478:A *385:50 3.3131e-05
42 *1478:A *385:59 2.49909e-05
43 *370:8 *385:38 0.00010412
44 *371:67 *1460:B 6.97705e-06
45 *371:67 *385:50 2.21606e-06
46 *373:8 *1460:B 4.77719e-05
47 *378:43 *385:50 0.00030822
*RES
1 *1448:Y *385:6 3.085 
2 *385:6 *1453:A 7.745 
3 *385:6 *385:19 1.83 
4 *385:19 *1455:B1 2.06875 
5 *385:19 *385:38 7.3 
6 *385:38 *385:50 13.27 
7 *385:50 *1466:A3 1.96 
8 *385:50 *385:59 0.45 
9 *385:59 *1460:B 7.685 
10 *385:59 *1478:B 2.74 
11 *385:38 *1462:A1 1.6 
*END

*D_NET *386 0.000489276
*CONN
*I *1452:B1 I *D sky130_fd_sc_hd__a21o_2
*I *1449:X O *D sky130_fd_sc_hd__o211a_2
*CAP
1 *1452:B1 0.000123287
2 *1449:X 0.000123287
3 *1452:B1 *1444:B2 0.00015997
4 *1452:B1 *1722:A 0
5 *1452:B1 *605:51 2.9664e-05
6 *371:23 *1452:B1 5.30673e-05
*RES
1 *1449:X *1452:B1 9.885 
*END

*D_NET *387 0.00153953
*CONN
*I *1462:A2 I *D sky130_fd_sc_hd__a21o_2
*I *1451:B1 I *D sky130_fd_sc_hd__a21oi_2
*I *1450:X O *D sky130_fd_sc_hd__and2b_2
*CAP
1 *1462:A2 6.50898e-05
2 *1451:B1 2.51718e-05
3 *1450:X 0.00018596
4 *387:16 0.000276221
5 *1451:B1 *1452:A2 4.82863e-05
6 *1451:B1 *603:24 1.19928e-05
7 *1451:B1 *605:51 4.92062e-05
8 *1462:A2 *1462:B1 4.66108e-05
9 *1462:A2 *559:135 0.00015829
10 *387:16 *1443:A1 2.68464e-05
11 *387:16 *1450:A_N 4.77757e-05
12 *387:16 *603:24 0.000184219
13 *387:16 *605:51 0.000120107
14 *1451:A2 *387:16 3.95698e-05
15 *370:8 *1462:A2 0.000155928
16 *385:50 *1462:A2 4.66108e-05
17 *385:50 *387:16 5.16418e-05
*RES
1 *1450:X *387:16 10.235 
2 *387:16 *1451:B1 2.395 
3 *387:16 *1462:A2 7.94 
*END

*D_NET *388 0.00015243
*CONN
*I *1452:A2 I *D sky130_fd_sc_hd__a21o_2
*I *1451:Y O *D sky130_fd_sc_hd__a21oi_2
*CAP
1 *1452:A2 1.87085e-05
2 *1451:Y 1.87085e-05
3 *1452:A2 *603:24 5.05437e-05
4 *1452:A2 *605:51 1.61831e-05
5 *1451:B1 *1452:A2 4.82863e-05
*RES
1 *1451:Y *1452:A2 3.995 
*END

*D_NET *389 0.00111423
*CONN
*I *1453:B I *D sky130_fd_sc_hd__xnor2_2
*I *1452:X O *D sky130_fd_sc_hd__a21o_2
*CAP
1 *1453:B 0.000181428
2 *1452:X 0.000181428
3 *1453:B *1444:B2 9.05234e-05
4 *1453:B *1455:A1 0.000111343
5 *1453:B *400:20 9.54399e-05
6 *1453:B *571:10 0
7 *1453:B *605:51 9.5433e-05
8 *1453:A *1453:B 0.000177939
9 *1455:A2 *1453:B 0.000180699
*RES
1 *1452:X *1453:B 13.17 
*END

*D_NET *390 0.000688457
*CONN
*I *1456:A2 I *D sky130_fd_sc_hd__o21ai_2
*I *1453:Y O *D sky130_fd_sc_hd__xnor2_2
*CAP
1 *1456:A2 0.000126891
2 *1453:Y 0.000126891
3 *1456:A2 *1455:C1 5.83121e-06
4 *1456:A2 *1456:B1 0.000185411
5 *1456:A2 *554:42 5.6361e-05
6 *1455:A2 *1456:A2 0.000187071
*RES
1 *1453:Y *1456:A2 10.83 
*END

*D_NET *391 0.00048126
*CONN
*I *1455:C1 I *D sky130_fd_sc_hd__o221a_2
*I *1454:Y O *D sky130_fd_sc_hd__nand2_2
*CAP
1 *1455:C1 0.000127303
2 *1454:Y 0.000127303
3 *1455:C1 *1452:A1 2.25179e-05
4 *1455:C1 *1456:B1 3.09451e-05
5 *1455:C1 *554:42 0.000123225
6 *1455:C1 *559:135 4.41354e-05
7 *1456:A2 *1455:C1 5.83121e-06
*RES
1 *1454:Y *1455:C1 9.975 
*END

*D_NET *392 0.00122116
*CONN
*I *1456:B1 I *D sky130_fd_sc_hd__o21ai_2
*I *1455:X O *D sky130_fd_sc_hd__o221a_2
*CAP
1 *1456:B1 0.000323522
2 *1455:X 0.000323522
3 *1456:B1 *1432:A 0.000155497
4 *1456:B1 *1452:A1 8.53113e-06
5 *1456:B1 *1456:A1 8.8266e-05
6 *1456:B1 *554:42 7.06865e-05
7 *1456:B1 *559:135 0
8 *1456:B1 *607:12 0
9 *1455:A2 *1456:B1 3.47757e-05
10 *1455:C1 *1456:B1 3.09451e-05
11 *1456:A2 *1456:B1 0.000185411
12 *384:10 *1456:B1 0
*RES
1 *1455:X *1456:B1 13.5 
*END

*D_NET *393 0.00174316
*CONN
*I *1470:A2 I *D sky130_fd_sc_hd__a221o_2
*I *1480:B1 I *D sky130_fd_sc_hd__a31o_2
*I *1457:X O *D sky130_fd_sc_hd__and2_2
*CAP
1 *1470:A2 0.000105303
2 *1480:B1 0.000132286
3 *1457:X 4.34018e-05
4 *393:6 0.000280991
5 *1470:A2 *1470:A1 4.85529e-05
6 *1470:A2 *1470:B1 5.23222e-05
7 *1470:A2 *1470:B2 2.48591e-05
8 *1470:A2 *1470:C1 0.000121031
9 *1470:A2 *1485:A1 0.000260367
10 *1480:B1 *1469:B 4.77719e-05
11 *1480:B1 *1470:C1 4.62994e-05
12 *1480:B1 *1480:A2 8.46516e-05
13 *1480:B1 *1480:A3 4.89295e-05
14 *1480:B1 *554:28 0
15 *393:6 *1457:B 8.64421e-05
16 *393:6 *1470:C1 0.000122435
17 *393:6 *1475:B 0.000198001
18 *393:6 *1485:A1 2.5195e-05
19 *393:6 *572:18 1.43191e-05
*RES
1 *1457:X *393:6 3.775 
2 *393:6 *1480:B1 8.195 
3 *393:6 *1470:A2 4.94875 
*END

*D_NET *394 0.00256515
*CONN
*I *1470:B1 I *D sky130_fd_sc_hd__a221o_2
*I *1480:A2 I *D sky130_fd_sc_hd__a31o_2
*I *1458:X O *D sky130_fd_sc_hd__or2_2
*CAP
1 *1470:B1 8.69104e-05
2 *1480:A2 0.000161945
3 *1458:X 0.00036668
4 *394:14 0.000615536
5 *1470:B1 *1470:B2 2.48591e-05
6 *1470:B1 *1470:C1 3.68999e-05
7 *1480:A2 *1476:B1 0
8 *1480:A2 *395:12 9.51644e-05
9 *1480:A2 *415:16 9.54457e-06
10 *394:14 *1458:A 0.000239807
11 *394:14 *1458:B 7.50114e-05
12 *394:14 *1459:A 6.21825e-05
13 *394:14 *1470:C1 0.000122797
14 *394:14 *572:10 3.09164e-05
15 *394:14 *572:12 5.4003e-05
16 *394:14 *572:18 9.37731e-05
17 *1470:A2 *1470:B1 5.23222e-05
18 *1480:B1 *1480:A2 8.46516e-05
19 *384:10 *394:14 0.00035215
*RES
1 *1458:X *394:14 14.6 
2 *394:14 *1480:A2 8.765 
3 *394:14 *1470:B1 3.085 
*END

*D_NET *395 0.00468495
*CONN
*I *1468:A I *D sky130_fd_sc_hd__xnor2_2
*I *1477:A2 I *D sky130_fd_sc_hd__a311o_2
*I *1489:A I *D sky130_fd_sc_hd__and3_2
*I *1476:A1 I *D sky130_fd_sc_hd__a21o_2
*I *1478:C I *D sky130_fd_sc_hd__or3_2
*I *1469:B I *D sky130_fd_sc_hd__nor2_2
*I *1459:Y O *D sky130_fd_sc_hd__xnor2_2
*CAP
1 *1468:A 8.71136e-05
2 *1477:A2 0
3 *1489:A 0.000153592
4 *1476:A1 0
5 *1478:C 0.000118893
6 *1469:B 9.41976e-05
7 *1459:Y 7.64301e-05
8 *395:57 0.000417129
9 *395:46 0.000263537
10 *395:27 0.000470514
11 *395:12 0.000606264
12 *395:6 0.00032399
13 *1469:B *1454:A 0.000154891
14 *1469:B *1480:A3 0.000108874
15 *1469:B *554:42 3.50152e-06
16 *1478:C *1466:B1 0
17 *1478:C *1470:A1 0
18 *1478:C *603:24 2.42321e-05
19 *1489:A *1470:A1 0
20 *1489:A *1479:B 0
21 *1489:A *1481:A2 4.5783e-05
22 *1489:A *1482:B 9.30717e-05
23 *1489:A *548:54 0.000103635
24 *395:12 *1468:B 3.4353e-05
25 *395:12 *1470:B2 0.00015155
26 *395:12 *1476:B1 9.39388e-06
27 *395:27 *1454:A 2.0514e-05
28 *395:27 *1466:B1 0
29 *395:27 *1468:B 7.5648e-05
30 *395:27 *1470:A1 0
31 *395:27 *1471:B1 2.99445e-05
32 *395:27 *1476:B1 6.87301e-05
33 *395:27 *548:67 0.000158066
34 *395:57 *1476:B1 9.61303e-05
35 *395:57 *1477:A3 0.000358859
36 *395:57 *1481:B1 4.82919e-05
37 *395:57 *411:6 1.91597e-05
38 *1477:A1 *395:57 4.66108e-05
39 *1478:A *1478:C 3.50496e-05
40 *1480:A2 *395:12 9.51644e-05
41 *1480:B1 *1469:B 4.77719e-05
42 *378:10 *1489:A 0.000178034
43 *378:35 *1489:A 2.92496e-05
44 *378:35 *395:27 3.67779e-05
*RES
1 *1459:Y *395:6 2.395 
2 *395:6 *395:12 7.42 
3 *395:12 *1469:B 4.48 
4 *395:12 *395:27 8.78 
5 *395:27 *1478:C 5.745 
6 *395:27 *395:46 2 
7 *395:46 *1476:A1 1.6 
8 *395:46 *395:57 5.055 
9 *395:57 *1489:A 9.785 
10 *395:57 *1477:A2 1.6 
11 *395:6 *1468:A 3.01 
*END

*D_NET *396 0.00389009
*CONN
*I *1489:B I *D sky130_fd_sc_hd__and3_2
*I *1477:A3 I *D sky130_fd_sc_hd__a311o_2
*I *1463:A2 I *D sky130_fd_sc_hd__a21oi_2
*I *1460:X O *D sky130_fd_sc_hd__and2_2
*CAP
1 *1489:B 0.000477117
2 *1477:A3 0.000225257
3 *1463:A2 7.63408e-06
4 *1460:X 0
5 *396:10 0.000457968
6 *396:4 0.000702194
7 *1463:A2 *1476:A2 2.90156e-05
8 *1477:A3 *1466:B1 4.86642e-05
9 *1477:A3 *1467:A2 5.18317e-06
10 *1477:A3 *1476:A2 0.000155497
11 *1477:A3 *1476:B1 5.39025e-05
12 *1477:A3 *411:6 0.000311282
13 *396:10 *1466:B1 0.000154427
14 *396:10 *562:37 2.92841e-05
15 *1460:B *396:10 6.88421e-05
16 *1466:A2 *396:10 9.16019e-05
17 *371:67 *396:10 2.33933e-05
18 *373:6 *1489:B 0.000160491
19 *373:8 *1489:B 0.000244253
20 *373:8 *396:10 4.60061e-05
21 *378:35 *1477:A3 0.000210203
22 *378:43 *1463:A2 2.90156e-05
23 *385:50 *396:10 0
24 *395:57 *1477:A3 0.000358859
*RES
1 *1460:X *396:4 1.6 
2 *396:4 *396:10 6.215 
3 *396:10 *1463:A2 3.8775 
4 *396:10 *1477:A3 10.905 
5 *396:4 *1489:B 7.915 
*END

*D_NET *397 0.000854771
*CONN
*I *1462:B1 I *D sky130_fd_sc_hd__a21o_2
*I *1461:X O *D sky130_fd_sc_hd__and2b_2
*CAP
1 *1462:B1 0.000139683
2 *1461:X 0.000139683
3 *1462:B1 *1461:A_N 0.0001947
4 *1462:B1 *1461:B 6.52265e-05
5 *1462:B1 *398:10 2.93517e-05
6 *1462:A2 *1462:B1 4.66108e-05
7 *378:43 *1462:B1 0.000121023
8 *385:38 *1462:B1 4.82919e-05
9 *385:50 *1462:B1 7.02002e-05
*RES
1 *1461:X *1462:B1 7.37 
*END

*D_NET *398 0.00219225
*CONN
*I *1476:A2 I *D sky130_fd_sc_hd__a21o_2
*I *1463:B1 I *D sky130_fd_sc_hd__a21oi_2
*I *1462:X O *D sky130_fd_sc_hd__a21o_2
*CAP
1 *1476:A2 0.000107611
2 *1463:B1 0
3 *1462:X 0.000535311
4 *398:10 0.000642922
5 *1476:A2 *1476:B1 2.70346e-05
6 *398:10 *1461:B 0.000380194
7 *1462:B1 *398:10 2.93517e-05
8 *1463:A2 *1476:A2 2.90156e-05
9 *1477:A3 *1476:A2 0.000155497
10 *378:35 *1476:A2 8.23457e-05
11 *378:43 *1476:A2 6.56413e-05
12 *378:43 *398:10 0.000137327
*RES
1 *1462:X *398:10 9.325 
2 *398:10 *1463:B1 1.6 
3 *398:10 *1476:A2 4.48 
*END

*D_NET *399 0.000528269
*CONN
*I *1467:A2 I *D sky130_fd_sc_hd__a21oi_2
*I *1463:Y O *D sky130_fd_sc_hd__a21oi_2
*CAP
1 *1467:A2 0.000125494
2 *1463:Y 0.000125494
3 *1467:A2 *1452:A1 4.21579e-05
4 *1467:A2 *1466:B1 9.7166e-05
5 *1467:A2 *1467:B1 4.66967e-05
6 *1467:A2 *567:84 8.6076e-05
7 *1477:A3 *1467:A2 5.18317e-06
*RES
1 *1463:Y *1467:A2 10.32 
*END

*D_NET *400 0.00313704
*CONN
*I *1465:B I *D sky130_fd_sc_hd__nand2_2
*I *1480:A3 I *D sky130_fd_sc_hd__a31o_2
*I *1464:X O *D sky130_fd_sc_hd__a22o_2
*CAP
1 *1465:B 0
2 *1480:A3 0.000197838
3 *1464:X 0.000660999
4 *400:20 0.000858837
5 *1480:A3 *1454:A 2.20312e-05
6 *1480:A3 *559:135 0
7 *400:20 *1432:A 4.4929e-05
8 *400:20 *1444:B2 5.02217e-05
9 *400:20 *1452:A1 0.000167884
10 *400:20 *1461:B 0.000421068
11 *1453:B *400:20 9.54399e-05
12 *1455:B1 *400:20 0
13 *1465:A *1480:A3 5.88561e-05
14 *1469:B *1480:A3 0.000108874
15 *1480:A1 *1480:A3 0.000160612
16 *1480:B1 *1480:A3 4.89295e-05
17 *384:16 *1480:A3 8.41307e-05
18 *385:19 *400:20 0.000120655
19 *385:38 *400:20 3.57349e-05
*RES
1 *1464:X *400:20 16.73 
2 *400:20 *1480:A3 10.1 
3 *400:20 *1465:B 1.6 
*END

*D_NET *401 0.00136522
*CONN
*I *1466:B1 I *D sky130_fd_sc_hd__o311a_2
*I *1465:Y O *D sky130_fd_sc_hd__nand2_2
*CAP
1 *1466:B1 0.000393829
2 *1465:Y 0.000393829
3 *1466:B1 *1452:A1 5.59099e-05
4 *1466:B1 *1467:B1 2.68526e-05
5 *1466:B1 *1476:B1 0.000155928
6 *1466:B1 *562:35 1.10537e-05
7 *1466:B1 *562:37 9.50342e-06
8 *1466:B1 *603:24 1.80524e-05
9 *1467:A2 *1466:B1 9.7166e-05
10 *1477:A3 *1466:B1 4.86642e-05
11 *1478:C *1466:B1 0
12 *395:27 *1466:B1 0
13 *396:10 *1466:B1 0.000154427
*RES
1 *1465:Y *1466:B1 13.83 
*END

*D_NET *402 0.000734017
*CONN
*I *1467:B1 I *D sky130_fd_sc_hd__a21oi_2
*I *1466:X O *D sky130_fd_sc_hd__o311a_2
*CAP
1 *1467:B1 0.000256166
2 *1466:X 0.000256166
3 *1467:B1 *1452:A1 2.68526e-05
4 *1467:B1 *603:24 4.89295e-05
5 *1466:B1 *1467:B1 2.68526e-05
6 *1467:A2 *1467:B1 4.66967e-05
7 *385:50 *1467:B1 7.23533e-05
*RES
1 *1466:X *1467:B1 11.52 
*END

*D_NET *403 0.00137221
*CONN
*I *1468:B I *D sky130_fd_sc_hd__xnor2_2
*I *1467:Y O *D sky130_fd_sc_hd__a21oi_2
*CAP
1 *1468:B 0.00027497
2 *1467:Y 0.00027497
3 *1468:B *1452:A1 1.14169e-05
4 *1468:B *1470:B2 3.23391e-05
5 *1468:B *1471:B1 9.55821e-06
6 *1468:B *1476:B1 0.000243143
7 *1468:B *1724:A 0.000316118
8 *1468:B *415:16 8.40269e-05
9 *1468:B *567:84 1.56651e-05
10 *395:12 *1468:B 3.4353e-05
11 *395:27 *1468:B 7.5648e-05
*RES
1 *1467:Y *1468:B 14.055 
*END

*D_NET *404 0.000827148
*CONN
*I *1471:A2 I *D sky130_fd_sc_hd__a21o_2
*I *1468:Y O *D sky130_fd_sc_hd__xnor2_2
*CAP
1 *1471:A2 0.000233884
2 *1468:Y 0.000233884
3 *1471:A2 *1470:A1 0.000223492
4 *1471:A2 *1471:A1 0.000135889
5 *1471:A2 *1724:A 0
6 *1471:A2 *608:14 0
*RES
1 *1468:Y *1471:A2 11.67 
*END

*D_NET *405 0.000836386
*CONN
*I *1470:C1 I *D sky130_fd_sc_hd__a221o_2
*I *1469:Y O *D sky130_fd_sc_hd__nor2_2
*CAP
1 *1470:C1 0.000169316
2 *1469:Y 0.000169316
3 *1470:C1 *572:18 4.82919e-05
4 *1470:A2 *1470:C1 0.000121031
5 *1470:B1 *1470:C1 3.68999e-05
6 *1480:B1 *1470:C1 4.62994e-05
7 *393:6 *1470:C1 0.000122435
8 *394:14 *1470:C1 0.000122797
*RES
1 *1469:Y *1470:C1 11.265 
*END

*D_NET *406 0.000271364
*CONN
*I *1471:B1 I *D sky130_fd_sc_hd__a21o_2
*I *1470:X O *D sky130_fd_sc_hd__a221o_2
*CAP
1 *1471:B1 5.87852e-05
2 *1470:X 5.87852e-05
3 *1471:B1 *1471:A1 7.37556e-05
4 *1471:B1 *1724:A 4.05358e-05
5 *1468:B *1471:B1 9.55821e-06
6 *395:27 *1471:B1 2.99445e-05
*RES
1 *1470:X *1471:B1 8.835 
*END

*D_NET *407 0.00230842
*CONN
*I *1474:A I *D sky130_fd_sc_hd__nand2_2
*I *1496:C1 I *D sky130_fd_sc_hd__o211a_2
*I *1484:A2 I *D sky130_fd_sc_hd__o221a_2
*I *1472:Y O *D sky130_fd_sc_hd__nand2_2
*CAP
1 *1474:A 0
2 *1496:C1 0.000137893
3 *1484:A2 2.08101e-05
4 *1472:Y 0.000255047
5 *407:27 0.000254506
6 *407:14 0.000392471
7 *1496:C1 *1474:B 2.86623e-05
8 *1496:C1 *1494:A 6.36578e-05
9 *1496:C1 *1496:B1 4.99619e-05
10 *407:14 *1471:A1 0.000307043
11 *407:14 *1472:B 4.82863e-05
12 *407:14 *1473:B 6.58955e-06
13 *407:14 *1482:B 8.53113e-06
14 *407:14 *1484:B1 2.72726e-05
15 *407:14 *1484:C1 0
16 *407:14 *1485:A2 0.000184501
17 *407:14 *1485:B1 5.23374e-05
18 *407:14 *1725:A 1.33293e-05
19 *407:14 *408:16 5.83121e-06
20 *407:14 *548:67 5.55686e-05
21 *407:27 *1471:A1 0.000150653
22 *407:27 *1484:A1 5.05437e-05
23 *407:27 *1485:B1 2.96426e-05
24 *407:27 *1491:C1 0
25 *407:27 *578:16 0.000162311
26 *1496:A1 *1496:C1 2.97004e-06
*RES
1 *1472:Y *407:14 11.84 
2 *407:14 *1484:A2 1.96 
3 *407:14 *407:27 5.375 
4 *407:27 *1496:C1 6.39 
5 *407:27 *1474:A 3.6 
*END

*D_NET *408 0.00164341
*CONN
*I *1483:B I *D sky130_fd_sc_hd__nand2_2
*I *1474:B I *D sky130_fd_sc_hd__nand2_2
*I *1494:A I *D sky130_fd_sc_hd__nand2_2
*I *1473:X O *D sky130_fd_sc_hd__or2_2
*CAP
1 *1483:B 0
2 *1474:B 3.26914e-05
3 *1494:A 8.85403e-05
4 *1473:X 2.48368e-05
5 *408:16 0.000456682
6 *408:6 0.000360287
7 *1474:B *1491:C1 4.54719e-05
8 *1474:B *409:8 4.82919e-05
9 *1494:A *1491:C1 0.000116853
10 *1494:A *1496:B1 4.82919e-05
11 *408:6 *1494:B 4.21973e-05
12 *408:6 *415:16 5.83121e-06
13 *408:6 *567:84 3.45679e-05
14 *408:16 *1473:B 2.37321e-05
15 *408:16 *1481:A3 2.86623e-05
16 *408:16 *1482:B 0.000114492
17 *408:16 *409:8 3.79763e-05
18 *408:16 *409:12 1.83847e-05
19 *408:16 *548:67 1.74678e-05
20 *1496:C1 *1474:B 2.86623e-05
21 *1496:C1 *1494:A 6.36578e-05
22 *407:14 *408:16 5.83121e-06
*RES
1 *1473:X *408:6 2.395 
2 *408:6 *408:16 10.59 
3 *408:16 *1494:A 5.775 
4 *408:16 *1474:B 4.665 
5 *408:6 *1483:B 1.6 
*END

*D_NET *409 0.00355123
*CONN
*I *1482:A I *D sky130_fd_sc_hd__xor2_2
*I *1484:B1 I *D sky130_fd_sc_hd__o221a_2
*I *1495:A I *D sky130_fd_sc_hd__or2_2
*I *1491:A1 I *D sky130_fd_sc_hd__a221o_2
*I *1489:C I *D sky130_fd_sc_hd__and3_2
*I *1474:Y O *D sky130_fd_sc_hd__nand2_2
*CAP
1 *1482:A 0
2 *1484:B1 7.61311e-05
3 *1495:A 0
4 *1491:A1 0.000174958
5 *1489:C 0.00017532
6 *1474:Y 0.000121703
7 *409:16 0.000378061
8 *409:14 0.00023538
9 *409:12 0.000309349
10 *409:8 0.000147323
11 *1484:B1 *1484:C1 0.000172728
12 *1484:B1 *1485:B1 4.78756e-05
13 *1484:B1 *1491:C1 2.53191e-06
14 *1484:B1 *554:28 9.04579e-05
15 *1489:C *548:54 0.000100544
16 *1491:A1 *423:12 0.000178321
17 *1491:A1 *429:8 0.00019637
18 *1491:A1 *567:59 2.96426e-05
19 *409:14 *1484:C1 0.000206439
20 *409:14 *1491:C1 0.000152762
21 *409:14 *548:54 1.59281e-05
22 *409:14 *562:25 7.47215e-05
23 *409:14 *562:35 0.000150623
24 *409:14 *567:84 3.31204e-05
25 *409:16 *548:54 2.25541e-05
26 *1474:B *409:8 4.82919e-05
27 *1491:B2 *409:14 0
28 *1496:A1 *1491:A1 9.52234e-05
29 *373:6 *1489:C 6.97118e-05
30 *376:8 *1489:C 0
31 *376:8 *409:14 0
32 *376:8 *409:16 0
33 *378:10 *1491:A1 0.000161529
34 *407:14 *1484:B1 2.72726e-05
35 *408:16 *409:8 3.79763e-05
36 *408:16 *409:12 1.83847e-05
*RES
1 *1474:Y *409:8 3.79 
2 *409:8 *409:12 2.45 
3 *409:12 *409:14 6.225 
4 *409:14 *409:16 0.615 
5 *409:16 *1489:C 6.885 
6 *409:16 *1491:A1 12.265 
7 *409:14 *1495:A 3.6 
8 *409:12 *1484:B1 6.19125 
9 *409:8 *1482:A 1.6 
*END

*D_NET *410 0.002058
*CONN
*I *1476:B1 I *D sky130_fd_sc_hd__a21o_2
*I *1475:X O *D sky130_fd_sc_hd__and2b_2
*CAP
1 *1476:B1 0.000441995
2 *1475:X 0.000441995
3 *1476:B1 *1470:B2 9.0444e-05
4 *1476:B1 *1485:A1 0.000192497
5 *1476:B1 *415:16 0.000116158
6 *1465:A *1476:B1 0
7 *1466:B1 *1476:B1 0.000155928
8 *1468:B *1476:B1 0.000243143
9 *1476:A2 *1476:B1 2.70346e-05
10 *1477:A3 *1476:B1 5.39025e-05
11 *1480:A2 *1476:B1 0
12 *378:35 *1476:B1 0.000120652
13 *378:43 *1476:B1 0
14 *395:12 *1476:B1 9.39388e-06
15 *395:27 *1476:B1 6.87301e-05
16 *395:57 *1476:B1 9.61303e-05
*RES
1 *1475:X *1476:B1 17.19 
*END

*D_NET *411 0.0015166
*CONN
*I *1491:A2 I *D sky130_fd_sc_hd__a221o_2
*I *1477:B1 I *D sky130_fd_sc_hd__a311o_2
*I *1476:X O *D sky130_fd_sc_hd__a21o_2
*CAP
1 *1491:A2 0.000214899
2 *1477:B1 2.08101e-05
3 *1476:X 0.000135675
4 *411:6 0.000371384
5 *1491:A2 *1492:B 4.79342e-05
6 *1491:A2 *425:8 0
7 *1491:A2 *562:25 0.000191213
8 *1477:A1 *411:6 1.19928e-05
9 *1477:A3 *411:6 0.000311282
10 *1491:B2 *1491:A2 1.12643e-05
11 *378:35 *411:6 0.000180988
12 *395:57 *411:6 1.91597e-05
*RES
1 *1476:X *411:6 5.5 
2 *411:6 *1477:B1 1.96 
3 *411:6 *1491:A2 5.98375 
*END

*D_NET *412 0.000317249
*CONN
*I *1481:B1 I *D sky130_fd_sc_hd__o31a_2
*I *1477:X O *D sky130_fd_sc_hd__a311o_2
*CAP
1 *1481:B1 0.00010373
2 *1477:X 0.00010373
3 *1481:B1 *1470:A1 0
4 *1481:B1 *1481:A3 6.14974e-05
5 *395:57 *1481:B1 4.82919e-05
*RES
1 *1477:X *1481:B1 9.03 
*END

*D_NET *413 0.00135476
*CONN
*I *1495:B I *D sky130_fd_sc_hd__or2_2
*I *1479:B I *D sky130_fd_sc_hd__nor2_2
*I *1478:X O *D sky130_fd_sc_hd__or3_2
*CAP
1 *1495:B 0.000152354
2 *1479:B 0.000130243
3 *1478:X 0.000203398
4 *413:6 0.000485995
5 *1479:B *1470:A1 0
6 *1479:B *1481:A2 4.94326e-05
7 *1495:B *1481:A1 0.000132436
8 *1495:B *1481:A2 1.24295e-05
9 *1495:B *1481:A3 4.99619e-05
10 *1489:A *1479:B 0
11 *373:6 *1479:B 4.82919e-05
12 *378:10 *1495:B 9.02174e-05
*RES
1 *1478:X *413:6 3.775 
2 *413:6 *1479:B 7.685 
3 *413:6 *1495:B 5.095 
*END

*D_NET *414 0.000262956
*CONN
*I *1481:A2 I *D sky130_fd_sc_hd__o31a_2
*I *1479:Y O *D sky130_fd_sc_hd__nor2_2
*CAP
1 *1481:A2 6.21971e-05
2 *1479:Y 6.21971e-05
3 *1481:A2 *1470:A1 0
4 *1479:B *1481:A2 4.94326e-05
5 *1489:A *1481:A2 4.5783e-05
6 *1495:B *1481:A2 1.24295e-05
7 *378:10 *1481:A2 3.09164e-05
*RES
1 *1479:Y *1481:A2 8.7 
*END

*D_NET *415 0.00289712
*CONN
*I *1494:B I *D sky130_fd_sc_hd__nand2_2
*I *1481:A3 I *D sky130_fd_sc_hd__o31a_2
*I *1480:X O *D sky130_fd_sc_hd__a31o_2
*CAP
1 *1494:B 0.00021952
2 *1481:A3 0.000216975
3 *1480:X 0.000386939
4 *415:16 0.000823434
5 *1481:A3 *1470:A1 0
6 *1481:A3 *1473:A 7.21296e-06
7 *1481:A3 *1473:B 2.92496e-05
8 *1481:A3 *1482:B 4.62226e-05
9 *1494:B *567:84 1.83986e-05
10 *415:16 *1473:B 0.000122331
11 *415:16 *567:84 0.000406717
12 *1465:A *415:16 0
13 *1468:B *415:16 8.40269e-05
14 *1476:B1 *415:16 0.000116158
15 *1480:A2 *415:16 9.54457e-06
16 *1481:B1 *1481:A3 6.14974e-05
17 *1495:B *1481:A3 4.99619e-05
18 *378:10 *1481:A3 0.000115582
19 *378:35 *1481:A3 0.000106655
20 *408:6 *1494:B 4.21973e-05
21 *408:6 *415:16 5.83121e-06
22 *408:16 *1481:A3 2.86623e-05
*RES
1 *1480:X *415:16 12.725 
2 *415:16 *1481:A3 10.745 
3 *415:16 *1494:B 4.705 
*END

*D_NET *416 0.00111545
*CONN
*I *1482:B I *D sky130_fd_sc_hd__xor2_2
*I *1481:X O *D sky130_fd_sc_hd__o31a_2
*CAP
1 *1482:B 0.00016956
2 *1481:X 0.00016956
3 *1482:B *1473:B 0
4 *1482:B *548:54 0.000316112
5 *1482:B *548:67 0.00015212
6 *1481:A3 *1482:B 4.62226e-05
7 *1489:A *1482:B 9.30717e-05
8 *378:35 *1482:B 4.5783e-05
9 *407:14 *1482:B 8.53113e-06
10 *408:16 *1482:B 0.000114492
*RES
1 *1481:X *1482:B 11.06 
*END

*D_NET *417 0.000508453
*CONN
*I *1485:A2 I *D sky130_fd_sc_hd__o21ai_2
*I *1482:X O *D sky130_fd_sc_hd__xor2_2
*CAP
1 *1485:A2 8.88393e-05
2 *1482:X 8.88393e-05
3 *1485:A2 *1473:B 3.59531e-06
4 *1485:A2 *1484:C1 0
5 *1485:A2 *548:67 4.82863e-05
6 *1485:A2 *573:10 9.43917e-05
7 *407:14 *1485:A2 0.000184501
*RES
1 *1482:X *1485:A2 9.795 
*END

*D_NET *418 0.000898485
*CONN
*I *1484:C1 I *D sky130_fd_sc_hd__o221a_2
*I *1483:Y O *D sky130_fd_sc_hd__nand2_2
*CAP
1 *1484:C1 0.000196443
2 *1483:Y 0.000196443
3 *1484:C1 *548:54 1.89685e-05
4 *1484:C1 *548:67 0.000107465
5 *1484:B1 *1484:C1 0.000172728
6 *1485:A2 *1484:C1 0
7 *407:14 *1484:C1 0
8 *409:14 *1484:C1 0.000206439
*RES
1 *1483:Y *1484:C1 12.09 
*END

*D_NET *419 0.000702646
*CONN
*I *1485:B1 I *D sky130_fd_sc_hd__o21ai_2
*I *1484:X O *D sky130_fd_sc_hd__o221a_2
*CAP
1 *1485:B1 9.86593e-05
2 *1484:X 9.86593e-05
3 *1485:B1 *1484:A1 8.8266e-05
4 *1485:B1 *1725:A 8.8266e-05
5 *1485:B1 *554:16 0.000198939
6 *1484:B1 *1485:B1 4.78756e-05
7 *407:14 *1485:B1 5.23374e-05
8 *407:27 *1485:B1 2.96426e-05
*RES
1 *1484:X *1485:B1 6.41 
*END

*D_NET *420 0.00305247
*CONN
*I *1501:B I *D sky130_fd_sc_hd__nand2_2
*I *1488:A I *D sky130_fd_sc_hd__nand2_2
*I *1486:X O *D sky130_fd_sc_hd__or2_2
*CAP
1 *1501:B 0
2 *1488:A 0.000109865
3 *1486:X 0.000677494
4 *420:16 0.000787359
5 *1488:A *1488:B 0.000134509
6 *1488:A *1502:A1 0.000155227
7 *1488:A *421:29 1.56428e-05
8 *1488:A *421:48 6.68849e-05
9 *1488:A *438:10 5.83121e-06
10 *1488:A *443:16 2.0514e-05
11 *1488:A *476:12 5.83121e-06
12 *1488:A *551:79 1.73877e-05
13 *420:16 *1486:A 3.09179e-05
14 *420:16 *1486:B 6.01436e-05
15 *420:16 *1487:B 0.0001049
16 *420:16 *1501:A 1.37328e-05
17 *420:16 *1516:B1 0
18 *420:16 *1546:A 0.00023468
19 *420:16 *440:8 0
20 *420:16 *443:16 0.000344465
21 *420:16 *476:12 3.79854e-05
22 *420:16 *478:16 0.00017398
23 y[25] *420:16 0
24 *1674:A *420:16 5.51245e-05
*RES
1 *1486:X *420:16 19.73 
2 *420:16 *1488:A 8.795 
3 *420:16 *1501:B 1.6 
*END

*D_NET *421 0.00488499
*CONN
*I *1509:B I *D sky130_fd_sc_hd__and3_2
*I *1523:A1 I *D sky130_fd_sc_hd__o21a_2
*I *1488:B I *D sky130_fd_sc_hd__nand2_2
*I *1502:A2 I *D sky130_fd_sc_hd__o221a_2
*I *1487:Y O *D sky130_fd_sc_hd__nand2_2
*CAP
1 *1509:B 0.000266379
2 *1523:A1 0
3 *1488:B 4.71433e-05
4 *1502:A2 1.99974e-05
5 *1487:Y 0.000546726
6 *421:48 0.000481122
7 *421:29 0.000489493
8 *421:14 0.00079433
9 *1488:B *476:12 0.000134509
10 *1502:A2 *1501:A 3.05373e-05
11 *1502:A2 *1502:B2 5.16418e-05
12 *1509:B *1507:A 0
13 *1509:B *1513:A2 4.55864e-06
14 *1509:B *1515:B1 0.000143272
15 *1509:B *1516:C1 0.00011964
16 *1509:B *437:23 0
17 *1509:B *551:79 0
18 *1509:B *564:85 4.18569e-05
19 *421:14 *1502:A1 6.17458e-05
20 *421:14 *1503:A2 4.31921e-05
21 *421:14 *1504:B 6.81971e-05
22 *421:14 *1511:A2 8.40213e-05
23 *421:14 *422:28 0.000207839
24 *421:14 *440:69 0
25 *421:14 *611:20 7.87799e-05
26 *421:29 *1502:A1 0.000230435
27 *421:29 *438:10 2.19562e-06
28 *421:48 *1513:A2 0.000131303
29 *421:48 *1515:B1 5.43116e-05
30 *421:48 *438:10 0.000151396
31 *421:48 *443:16 9.14049e-05
32 *421:48 *476:12 3.09233e-05
33 *421:48 *564:66 0.000144833
34 *1488:A *1488:B 0.000134509
35 *1488:A *421:29 1.56428e-05
36 *1488:A *421:48 6.68849e-05
37 *1527:A *421:14 0.000116167
*RES
1 *1487:Y *421:14 14.06 
2 *421:14 *1502:A2 6.215 
3 *421:14 *421:29 4.865 
4 *421:29 *1488:B 5.235 
5 *421:29 *421:48 6.06 
6 *421:48 *1523:A1 3.6 
7 *421:48 *1509:B 8.085 
*END

*D_NET *422 0.00427292
*CONN
*I *1511:A1 I *D sky130_fd_sc_hd__a211oi_2
*I *1502:B1 I *D sky130_fd_sc_hd__o221a_2
*I *1508:A I *D sky130_fd_sc_hd__or2_2
*I *1538:A I *D sky130_fd_sc_hd__or3_2
*I *1522:A1 I *D sky130_fd_sc_hd__a311oi_2
*I *1534:A I *D sky130_fd_sc_hd__and3_2
*I *1500:A I *D sky130_fd_sc_hd__xor2_2
*I *1488:Y O *D sky130_fd_sc_hd__nand2_2
*CAP
1 *1511:A1 0.000115342
2 *1502:B1 0
3 *1508:A 0
4 *1538:A 0
5 *1522:A1 7.43834e-05
6 *1534:A 0
7 *1500:A 0.000198809
8 *1488:Y 0.000100928
9 *422:40 0.000293514
10 *422:36 0.000194753
11 *422:32 0.000110831
12 *422:28 0.000427218
13 *422:14 0.00035279
14 *422:10 0.000227008
15 *1500:A *1500:B 0
16 *1500:A *1501:A 0
17 *1500:A *1508:B 0
18 *1500:A *1537:A1 0
19 *1500:A *1538:C 4.82919e-05
20 *1500:A *469:16 4.61701e-06
21 *1500:A *602:10 0
22 *1511:A1 *1487:A 2.57174e-05
23 *1511:A1 *1487:B 8.65905e-05
24 *1511:A1 *1521:A2 4.82863e-05
25 *1511:A1 *443:16 0
26 *1511:A1 *551:79 0.000132842
27 *1522:A1 *1522:B1 5.53249e-06
28 *1522:A1 *427:48 5.42646e-05
29 *1522:A1 *469:16 8.68042e-06
30 *422:10 *1501:A 0
31 *422:10 *1502:B2 9.52234e-05
32 *422:10 *1564:B1 1.91597e-05
33 *422:10 *1564:C1 8.57024e-05
34 *422:10 *1565:A2 4.82919e-05
35 *422:10 *551:79 0.000199734
36 *422:14 *1501:A 4.787e-05
37 *422:14 *1502:A1 2.02553e-05
38 *422:28 *1501:A 5.03783e-05
39 *422:28 *1502:A1 0.000133127
40 *422:28 *1503:A1 0.000120655
41 *422:28 *1503:B1 0.000109947
42 *422:28 *438:10 0.000151285
43 *422:28 *440:69 2.54431e-05
44 *422:28 *441:12 8.40213e-05
45 *422:32 *1534:B 3.00381e-05
46 *422:32 *1538:C 4.82919e-05
47 *422:32 *440:69 6.83659e-05
48 *422:36 *1508:B 1.52184e-05
49 *422:36 *427:48 7.21296e-06
50 *422:36 *469:16 4.61701e-06
51 *422:40 *1538:C 0.000189845
52 *421:14 *422:28 0.000207839
*RES
1 *1488:Y *422:10 6.795 
2 *422:10 *422:14 2.44625 
3 *422:14 *422:28 9.34875 
4 *422:28 *422:32 1.845 
5 *422:32 *422:36 2.615 
6 *422:36 *422:40 3.83 
7 *422:40 *1500:A 8.705 
8 *422:40 *1534:A 1.6 
9 *422:36 *1522:A1 5.235 
10 *422:32 *1538:A 1.6 
11 *422:28 *1508:A 1.6 
12 *422:14 *1502:B1 1.6 
13 *422:10 *1511:A1 6.39 
*END

*D_NET *423 0.00217771
*CONN
*I *1491:B1 I *D sky130_fd_sc_hd__a221o_2
*I *1492:B I *D sky130_fd_sc_hd__and2_2
*I *1489:X O *D sky130_fd_sc_hd__and3_2
*CAP
1 *1491:B1 0
2 *1492:B 0.000425488
3 *1489:X 0.0003306
4 *423:12 0.000756088
5 *1492:B *425:8 0.000143669
6 *1492:B *562:25 5.73959e-06
7 *1435:A1 *423:12 1.03423e-05
8 *1435:A2 *423:12 3.00381e-05
9 *1491:A1 *423:12 0.000178321
10 *1491:A2 *1492:B 4.79342e-05
11 *1491:B2 *423:12 7.63204e-05
12 *1496:A1 *423:12 3.18137e-05
13 *373:6 *423:12 7.22354e-05
14 *376:8 *423:12 6.9117e-05
*RES
1 *1489:X *423:12 11.285 
2 *423:12 *1492:B 7.165 
3 *423:12 *1491:B1 1.6 
*END

*D_NET *424 0.00173
*CONN
*I *1491:C1 I *D sky130_fd_sc_hd__a221o_2
*I *1490:X O *D sky130_fd_sc_hd__and2b_2
*CAP
1 *1491:C1 0.000535038
2 *1490:X 0.000535038
3 *1491:C1 *1725:A 2.16389e-05
4 *1491:C1 *554:16 5.16348e-05
5 *1491:C1 *554:28 0.000170428
6 *1491:C1 *578:16 0
7 *1491:C1 *608:6 5.9064e-05
8 *1474:B *1491:C1 4.54719e-05
9 *1484:B1 *1491:C1 2.53191e-06
10 *1491:B2 *1491:C1 9.50342e-06
11 *1494:A *1491:C1 0.000116853
12 *1496:A1 *1491:C1 0
13 *1673:A *1491:C1 3.00381e-05
14 *407:27 *1491:C1 0
15 *409:14 *1491:C1 0.000152762
*RES
1 *1490:X *1491:C1 17.13 
*END

*D_NET *425 0.00243609
*CONN
*I *1558:A1 I *D sky130_fd_sc_hd__a21o_2
*I *1493:B1 I *D sky130_fd_sc_hd__a21o_2
*I *1491:X O *D sky130_fd_sc_hd__a221o_2
*CAP
1 *1558:A1 0.000137535
2 *1493:B1 2.08101e-05
3 *1491:X 0.000341789
4 *425:8 0.000500134
5 *1558:A1 *1551:A 2.16917e-05
6 *1558:A1 *1558:A2 2.75145e-05
7 *1558:A1 *1560:B1 0.00011091
8 *1558:A1 *1718:A 1.75055e-05
9 *1558:A1 *431:18 4.66108e-05
10 *1558:A1 *471:10 8.7152e-06
11 *1558:A1 *557:131 0.000160658
12 *425:8 *1551:A 3.83194e-05
13 *425:8 *1557:A 4.66108e-05
14 *425:8 *426:6 0.000418498
15 *425:8 *431:18 0.000120655
16 *425:8 *562:25 0.00027446
17 *1491:A2 *425:8 0
18 *1492:B *425:8 0.000143669
19 *1560:A1 *1493:B1 0
*RES
1 *1491:X *425:8 10.69 
2 *425:8 *1493:B1 1.96 
3 *425:8 *1558:A1 9.245 
*END

*D_NET *426 0.00174307
*CONN
*I *1557:A I *D sky130_fd_sc_hd__and3_2
*I *1493:A2 I *D sky130_fd_sc_hd__a21o_2
*I *1492:X O *D sky130_fd_sc_hd__and2_2
*CAP
1 *1557:A 0.000163266
2 *1493:A2 0
3 *1492:X 0.000130554
4 *426:6 0.00029382
5 *1557:A *1551:A 3.57349e-05
6 *1557:A *1718:A 0.00013521
7 *1557:A *431:10 0.000112123
8 *1557:A *485:10 0.000198046
9 *426:6 *1551:A 0.000151817
10 *426:6 *481:8 4.66108e-05
11 *326:68 *1557:A 1.07797e-05
12 *425:8 *1557:A 4.66108e-05
13 *425:8 *426:6 0.000418498
*RES
1 *1492:X *426:6 5.5 
2 *426:6 *1493:A2 1.6 
3 *426:6 *1557:A 9.515 
*END

*D_NET *427 0.00623078
*CONN
*I *1511:A2 I *D sky130_fd_sc_hd__a211oi_2
*I *1522:A2 I *D sky130_fd_sc_hd__a311oi_2
*I *1499:A0 I *D sky130_fd_sc_hd__mux2_1
*I *1537:A1 I *D sky130_fd_sc_hd__a211oi_2
*I *1493:X O *D sky130_fd_sc_hd__a21o_2
*CAP
1 *1511:A2 0.000329284
2 *1522:A2 0
3 *1499:A0 8.39776e-05
4 *1537:A1 0.000247034
5 *1493:X 0.00045729
6 *427:48 0.000447046
7 *427:31 0.000470182
8 *427:6 0.000972767
9 *1499:A0 *1499:A1 7.4027e-05
10 *1499:A0 *1501:A 6.82359e-05
11 *1499:A0 *1508:B 2.92496e-05
12 *1499:A0 *536:10 4.27701e-05
13 *1511:A2 *1487:A 0.000489598
14 *1511:A2 *1522:A3 2.49909e-05
15 *1511:A2 *437:10 0.000298629
16 *1511:A2 *564:97 5.21706e-05
17 *1537:A1 *451:35 8.23457e-05
18 *1537:A1 *465:22 6.60944e-05
19 *1537:A1 *469:16 0
20 *1537:A1 *602:10 0.000176273
21 *427:6 *431:18 0.000680671
22 *427:31 *1498:A 4.66108e-05
23 *427:31 *1501:A 0.000120655
24 *427:31 *431:18 0.000452697
25 *427:48 *1508:B 0.000149071
26 *427:48 *441:12 0.000117832
27 *427:48 *536:10 0.000105783
28 *1500:A *1537:A1 0
29 *1522:A1 *427:48 5.42646e-05
30 *421:14 *1511:A2 8.40213e-05
31 *422:36 *427:48 7.21296e-06
*RES
1 *1493:X *427:6 7.915 
2 *427:6 *1537:A1 9.95 
3 *427:6 *427:31 7.4 
4 *427:31 *1499:A0 6.045 
5 *427:31 *427:48 5.675 
6 *427:48 *1522:A2 1.6 
7 *427:48 *1511:A2 9.34 
*END

*D_NET *428 0.000316215
*CONN
*I *1496:B1 I *D sky130_fd_sc_hd__o211a_2
*I *1494:Y O *D sky130_fd_sc_hd__nand2_2
*CAP
1 *1496:B1 9.2636e-05
2 *1494:Y 9.2636e-05
3 *1496:B1 *1496:A2 3.26889e-05
4 *1494:A *1496:B1 4.82919e-05
5 *1496:C1 *1496:B1 4.99619e-05
*RES
1 *1494:Y *1496:B1 5.045 
*END

*D_NET *429 0.00396185
*CONN
*I *1496:A2 I *D sky130_fd_sc_hd__o211a_2
*I *1553:D I *D sky130_fd_sc_hd__or4_2
*I *1497:A4 I *D sky130_fd_sc_hd__o41a_2
*I *1495:X O *D sky130_fd_sc_hd__or2_2
*CAP
1 *1496:A2 0.000263554
2 *1553:D 0.000196697
3 *1497:A4 5.64511e-05
4 *1495:X 9.6532e-05
5 *429:14 0.000492725
6 *429:8 0.000599663
7 *1496:A2 *1497:B1 0
8 *1497:A4 *562:17 3.90266e-05
9 *1553:D *1554:C1 8.57563e-05
10 *1553:D *1555:B 0.000280397
11 *429:8 *567:59 0.000178696
12 *1435:A2 *429:14 0.000272978
13 *1440:B1 *429:8 8.49205e-05
14 *1491:A1 *429:8 0.00019637
15 *1492:A *1496:A2 0
16 *1496:A1 *1496:A2 0.000356941
17 *1496:A1 *429:14 0.000141599
18 *1496:B1 *1496:A2 3.26889e-05
19 *1497:A1 *1497:A4 1.73877e-05
20 *1553:B *1497:A4 1.71013e-05
21 *1553:B *1553:D 0.000304474
22 *1554:A1 *1553:D 3.65279e-05
23 *1554:A1 *429:14 3.64998e-06
24 *344:18 *1553:D 3.26889e-05
25 *360:68 *1497:A4 9.37731e-05
26 *360:68 *429:14 8.73389e-06
27 *377:10 *1496:A2 1.7396e-05
28 *377:10 *429:14 5.51245e-05
*RES
1 *1495:X *429:8 6.465 
2 *429:8 *429:14 6.845 
3 *429:14 *1497:A4 7.235 
4 *429:14 *1553:D 7.615 
5 *429:8 *1496:A2 8.94 
*END

*D_NET *430 0.00118445
*CONN
*I *1552:B2 I *D sky130_fd_sc_hd__o221a_2
*I *1497:B1 I *D sky130_fd_sc_hd__o41a_2
*I *1496:X O *D sky130_fd_sc_hd__o211a_2
*CAP
1 *1552:B2 3.46913e-05
2 *1497:B1 0.000195119
3 *1496:X 0.000178143
4 *430:6 0.000407953
5 *1497:B1 *1540:C1 4.76581e-05
6 *1497:B1 *1552:A2 1.37328e-05
7 *1497:B1 *562:17 0.000127408
8 *1552:B2 *1552:A1 2.27789e-05
9 *1552:B2 *1552:B1 4.87027e-05
10 *430:6 *1552:A1 7.00889e-06
11 *430:6 *1552:C1 4.99619e-05
12 *1492:A *1497:B1 5.12942e-05
13 *1496:A2 *1497:B1 0
14 *1497:A1 *1497:B1 0
*RES
1 *1496:X *430:6 4.465 
2 *430:6 *1497:B1 9.635 
3 *430:6 *1552:B2 2.395 
*END

*D_NET *431 0.00509946
*CONN
*I *1540:A1 I *D sky130_fd_sc_hd__o211a_2
*I *1498:A I *D sky130_fd_sc_hd__inv_2
*I *1508:B I *D sky130_fd_sc_hd__or2_2
*I *1497:X O *D sky130_fd_sc_hd__o41a_2
*CAP
1 *1540:A1 5.47949e-05
2 *1498:A 6.05821e-05
3 *1508:B 8.85258e-05
4 *1497:X 0.000307771
5 *431:18 0.000516849
6 *431:10 0.000730308
7 *1498:A *1501:A 4.1015e-05
8 *1498:A *1503:A2 8.65961e-05
9 *1498:A *490:16 0.000161719
10 *1508:B *1501:A 2.59981e-05
11 *1540:A1 *1551:B 0.000155491
12 *1540:A1 *1718:A 7.34442e-05
13 *1540:A1 *469:16 8.7152e-06
14 *1540:A1 *557:131 2.99445e-05
15 *431:10 *1551:B 6.7084e-05
16 *431:10 *1555:A 0
17 *431:10 *1718:A 2.15594e-05
18 *431:10 *485:10 7.00889e-06
19 *431:10 *567:59 1.12578e-05
20 *431:18 *1551:A 2.7441e-05
21 *431:18 *1560:B1 4.66108e-05
22 *431:18 *490:16 0.000476334
23 *1440:A1 *431:10 0.00015806
24 *1499:A0 *1508:B 2.92496e-05
25 *1500:A *1508:B 0
26 *1557:A *431:10 0.000112123
27 *1558:A1 *431:18 4.66108e-05
28 *1560:A1 *431:18 5.97954e-05
29 *326:68 *431:10 0.000229646
30 *422:36 *1508:B 1.52184e-05
31 *425:8 *431:18 0.000120655
32 *427:6 *431:18 0.000680671
33 *427:31 *1498:A 4.66108e-05
34 *427:31 *431:18 0.000452697
35 *427:48 *1508:B 0.000149071
*RES
1 *1497:X *431:10 8.7 
2 *431:10 *431:18 14.99 
3 *431:18 *1508:B 7.745 
4 *431:18 *1498:A 3.895 
5 *431:10 *1540:A1 5.59875 
*END

*D_NET *432 0.000636912
*CONN
*I *1499:A1 I *D sky130_fd_sc_hd__mux2_1
*I *1498:Y O *D sky130_fd_sc_hd__inv_2
*CAP
1 *1499:A1 0.000163928
2 *1498:Y 0.000163928
3 *1499:A1 *490:16 0.000196376
4 *1499:A1 *536:10 3.86529e-05
5 *1499:A0 *1499:A1 7.4027e-05
*RES
1 *1498:Y *1499:A1 9.9 
*END

*D_NET *433 0.000197262
*CONN
*I *1500:B I *D sky130_fd_sc_hd__xor2_2
*I *1499:X O *D sky130_fd_sc_hd__mux2_1
*CAP
1 *1500:B 6.62515e-05
2 *1499:X 6.62515e-05
3 *1500:B *1501:A 6.47594e-05
4 *1500:B *602:10 0
5 *1500:A *1500:B 0
*RES
1 *1499:X *1500:B 6.98 
*END

*D_NET *434 0.000717871
*CONN
*I *1503:A2 I *D sky130_fd_sc_hd__o21ai_2
*I *1500:X O *D sky130_fd_sc_hd__xor2_2
*CAP
1 *1503:A2 0.000160843
2 *1500:X 0.000160843
3 *1503:A2 *1501:A 0.000199833
4 *1503:A2 *440:69 0
5 *1503:A2 *490:16 6.6564e-05
6 *1503:A2 *536:10 0
7 *1498:A *1503:A2 8.65961e-05
8 *1527:A *1503:A2 0
9 *421:14 *1503:A2 4.31921e-05
*RES
1 *1500:X *1503:A2 11.175 
*END

*D_NET *435 9.92898e-05
*CONN
*I *1502:C1 I *D sky130_fd_sc_hd__o221a_2
*I *1501:Y O *D sky130_fd_sc_hd__nand2_2
*CAP
1 *1502:C1 1.17375e-05
2 *1501:Y 1.17375e-05
3 *1502:C1 *1501:A 4.82919e-05
4 *1502:C1 *1502:A1 2.75229e-05
*RES
1 *1501:Y *1502:C1 3.65 
*END

*D_NET *436 0.000461918
*CONN
*I *1503:B1 I *D sky130_fd_sc_hd__o21ai_2
*I *1502:X O *D sky130_fd_sc_hd__o221a_2
*CAP
1 *1503:B1 8.52356e-05
2 *1502:X 8.52356e-05
3 *1503:B1 *1503:A1 4.66108e-05
4 *1503:B1 *1726:A 4.82919e-05
5 *1503:B1 *438:10 8.65961e-05
6 *422:28 *1503:B1 0.000109947
*RES
1 *1502:X *1503:B1 5.375 
*END

*D_NET *437 0.00380751
*CONN
*I *1507:A I *D sky130_fd_sc_hd__nand2_2
*I *1515:A2 I *D sky130_fd_sc_hd__o22a_2
*I *1523:B1 I *D sky130_fd_sc_hd__o21a_2
*I *1504:Y O *D sky130_fd_sc_hd__nand2_2
*CAP
1 *1507:A 0.000394164
2 *1515:A2 0
3 *1523:B1 6.41243e-05
4 *1504:Y 0.000444269
5 *437:23 0.000528616
6 *437:10 0.000642845
7 *1507:A *1507:B 0.000641421
8 *1507:A *575:10 0.0001249
9 *1523:B1 *440:36 4.66826e-05
10 *1523:B1 *455:6 1.08758e-05
11 *437:10 *1487:A 0.000149778
12 *437:10 *1521:A2 0.000136606
13 *437:10 *440:44 7.27402e-06
14 *437:10 *551:79 0.000157179
15 *437:23 *1507:B 0
16 *437:23 *440:44 7.23943e-06
17 *437:23 *551:79 0.000152907
18 *1509:B *1507:A 0
19 *1509:B *437:23 0
20 *1511:A2 *437:10 0.000298629
*RES
1 *1504:Y *437:10 10.425 
2 *437:10 *1523:B1 4.755 
3 *437:10 *437:23 2.4 
4 *437:23 *1515:A2 3.6 
5 *437:23 *1507:A 11.655 
*END

*D_NET *438 0.00221315
*CONN
*I *1515:B1 I *D sky130_fd_sc_hd__o22a_2
*I *1523:A2 I *D sky130_fd_sc_hd__o21a_2
*I *1505:Y O *D sky130_fd_sc_hd__nor2_2
*CAP
1 *1515:B1 0.000109962
2 *1523:A2 0
3 *1505:Y 0.000446306
4 *438:10 0.000556268
5 *1515:B1 *551:79 6.45316e-05
6 *1515:B1 *564:91 4.82863e-05
7 *438:10 *1501:A 0.000198046
8 *438:10 *443:16 9.14049e-05
9 *438:10 *551:79 0.000103457
10 *1488:A *438:10 5.83121e-06
11 *1503:B1 *438:10 8.65961e-05
12 *1509:B *1515:B1 0.000143272
13 *421:29 *438:10 2.19562e-06
14 *421:48 *1515:B1 5.43116e-05
15 *421:48 *438:10 0.000151396
16 *422:28 *438:10 0.000151285
*RES
1 *1505:Y *438:10 11.355 
2 *438:10 *1523:A2 3.6 
3 *438:10 *1515:B1 6.45 
*END

*D_NET *439 0.00262535
*CONN
*I *1507:B I *D sky130_fd_sc_hd__nand2_2
*I *1506:X O *D sky130_fd_sc_hd__or2_2
*CAP
1 *1507:B 0.000444656
2 *1506:X 0.000444656
3 *1507:B *440:44 7.3852e-05
4 *1507:B *545:149 0.000123729
5 *1507:B *545:180 4.19967e-05
6 *1507:B *575:10 0.000134314
7 *1507:B *611:10 0.000197739
8 y[24] *1507:B 4.00257e-05
9 *1507:A *1507:B 0.000641421
10 *1640:A *1507:B 4.99619e-05
11 *1676:A *1507:B 0.000433003
12 *437:23 *1507:B 0
*RES
1 *1506:X *1507:B 20.97 
*END

*D_NET *440 0.00689149
*CONN
*I *1516:A2 I *D sky130_fd_sc_hd__o211ai_2
*I *1521:A1 I *D sky130_fd_sc_hd__a21o_2
*I *1522:A3 I *D sky130_fd_sc_hd__a311oi_2
*I *1538:B I *D sky130_fd_sc_hd__or3_2
*I *1534:B I *D sky130_fd_sc_hd__and3_2
*I *1524:A1 I *D sky130_fd_sc_hd__o211a_2
*I *1513:B1 I *D sky130_fd_sc_hd__o21ai_2
*I *1512:A I *D sky130_fd_sc_hd__or3_2
*I *1507:Y O *D sky130_fd_sc_hd__nand2_2
*CAP
1 *1516:A2 0
2 *1521:A1 0
3 *1522:A3 1.65033e-05
4 *1538:B 0
5 *1534:B 0.000215026
6 *1524:A1 0.00020485
7 *1513:B1 0
8 *1512:A 0.000162874
9 *1507:Y 0.00010003
10 *440:69 0.000475877
11 *440:63 0.000292809
12 *440:44 0.000764381
13 *440:36 0.00108746
14 *440:14 0.000185102
15 *440:12 0.000659916
16 *440:8 0.000194337
17 *1512:A *1486:A 0.000153825
18 *1512:A *1487:A 0.000162311
19 *1512:A *1487:B 5.83121e-06
20 *1512:A *1510:B 2.92496e-05
21 *1512:A *1514:A 8.7152e-06
22 *1512:A *556:60 0.000202417
23 *1512:A *609:29 7.23635e-05
24 *1522:A3 *564:97 4.66108e-05
25 *1524:A1 *1514:A 3.54277e-05
26 *1524:A1 *1522:B1 0
27 *1524:A1 *1527:B 6.03947e-06
28 *1524:A1 *1539:A2 1.12643e-05
29 *1524:A1 *441:12 0.000166348
30 *1524:A1 *454:10 0
31 *1534:B *1538:C 0.000109101
32 *440:8 *1516:B1 4.18603e-06
33 *440:8 *1727:A 0
34 *440:12 *1486:A 3.86607e-05
35 *440:12 *1516:B1 0
36 *440:12 *1529:A1 1.92979e-05
37 *440:12 *556:60 8.55576e-05
38 *440:14 *1486:A 1.45569e-05
39 *440:14 *1514:A 1.88602e-05
40 *440:14 *556:60 4.01403e-05
41 *440:36 *1513:A2 9.2741e-05
42 *440:36 *1514:C 4.66108e-05
43 *440:36 *1521:A2 2.75145e-05
44 *440:36 *1548:B 2.81489e-05
45 *440:36 *455:6 2.18022e-05
46 *440:44 *1514:A 0.000209894
47 *440:44 *1521:A2 8.88135e-05
48 *440:44 *611:20 0.00021012
49 *440:63 *536:10 3.11859e-05
50 *440:63 *564:97 2.04531e-05
51 *440:69 *536:10 0.000225182
52 *440:69 *564:97 1.52184e-05
53 *1503:A2 *440:69 0
54 *1507:B *440:44 7.3852e-05
55 *1511:A2 *1522:A3 2.49909e-05
56 *1523:B1 *440:36 4.66826e-05
57 *420:16 *440:8 0
58 *421:14 *440:69 0
59 *422:28 *440:69 2.54431e-05
60 *422:32 *1534:B 3.00381e-05
61 *422:32 *440:69 6.83659e-05
62 *437:10 *440:44 7.27402e-06
63 *437:23 *440:44 7.23943e-06
*RES
1 *1507:Y *440:8 5.235 
2 *440:8 *440:12 2.175 
3 *440:12 *440:14 0.615 
4 *440:14 *1512:A 8.175 
5 *440:14 *1513:B1 3.6 
6 *440:12 *440:36 8.315 
7 *440:36 *440:44 6.1143 
8 *440:44 *1524:A1 6.43905 
9 *440:44 *440:63 0.9875 
10 *440:63 *440:69 6.485 
11 *440:69 *1534:B 4.465 
12 *440:69 *1538:B 1.6 
13 *440:63 *1522:A3 4.05 
14 *440:36 *1521:A1 1.6 
15 *440:8 *1516:A2 3.6 
*END

*D_NET *441 0.00414896
*CONN
*I *1509:C I *D sky130_fd_sc_hd__and3_2
*I *1524:A2 I *D sky130_fd_sc_hd__o211a_2
*I *1508:X O *D sky130_fd_sc_hd__or2_2
*CAP
1 *1509:C 0.000932037
2 *1524:A2 0
3 *1508:X 0.000181621
4 *441:12 0.00111366
5 *1509:C *1516:C1 3.09179e-05
6 *1509:C *1529:A1 4.82919e-05
7 *1509:C *1529:B1 3.79763e-05
8 *1509:C *456:8 0
9 *1509:C *536:10 0.000112892
10 *1509:C *564:91 0.0010143
11 *441:12 *1522:B1 0
12 *441:12 *536:10 0.000309064
13 *1524:A1 *441:12 0.000166348
14 *422:28 *441:12 8.40213e-05
15 *427:48 *441:12 0.000117832
*RES
1 *1508:X *441:12 8.43 
2 *441:12 *1524:A2 3.6 
3 *441:12 *1509:C 16.47 
*END

*D_NET *442 0.000996269
*CONN
*I *1513:A1 I *D sky130_fd_sc_hd__o21ai_2
*I *1512:B I *D sky130_fd_sc_hd__or3_2
*I *1509:X O *D sky130_fd_sc_hd__and3_2
*CAP
1 *1513:A1 0
2 *1512:B 0.000166772
3 *1509:X 0.000103692
4 *442:10 0.000270464
5 *1512:B *1487:A 4.93614e-05
6 *1512:B *1514:B 8.65961e-05
7 *1512:B *1548:B 5.02217e-05
8 *1512:B *556:60 0.000137894
9 *1512:B *564:85 0
10 *442:10 *1516:C1 1.83756e-05
11 *442:10 *556:60 0.000112892
12 *442:10 *564:85 0
*RES
1 *1509:X *442:10 5.43 
2 *442:10 *1512:B 6.72 
3 *442:10 *1513:A1 3.6 
*END

*D_NET *443 0.00221595
*CONN
*I *1511:B1 I *D sky130_fd_sc_hd__a211oi_2
*I *1521:A2 I *D sky130_fd_sc_hd__a21o_2
*I *1510:X O *D sky130_fd_sc_hd__and2b_2
*CAP
1 *1511:B1 0
2 *1521:A2 0.000135957
3 *1510:X 0.00035315
4 *443:16 0.000489107
5 *1521:A2 *1487:A 6.97202e-05
6 *1521:A2 *1487:B 3.38425e-05
7 *1521:A2 *455:6 4.82863e-05
8 *1521:A2 *545:149 0
9 *1521:A2 *551:79 3.50033e-05
10 *443:16 *1487:A 1.12578e-05
11 *443:16 *1487:B 0.000122325
12 *443:16 *1511:C1 4.66108e-05
13 *443:16 *444:8 2.16833e-05
14 *1488:A *443:16 2.0514e-05
15 *1511:A1 *1521:A2 4.82863e-05
16 *1511:A1 *443:16 0
17 *420:16 *443:16 0.000344465
18 *421:48 *443:16 9.14049e-05
19 *437:10 *1521:A2 0.000136606
20 *438:10 *443:16 9.14049e-05
21 *440:36 *1521:A2 2.75145e-05
22 *440:44 *1521:A2 8.88135e-05
*RES
1 *1510:X *443:16 11.78 
2 *443:16 *1521:A2 9.59 
3 *443:16 *1511:B1 1.6 
*END

*D_NET *444 0.0011401
*CONN
*I *1512:C I *D sky130_fd_sc_hd__or3_2
*I *1513:A2 I *D sky130_fd_sc_hd__o21ai_2
*I *1511:Y O *D sky130_fd_sc_hd__a211oi_2
*CAP
1 *1512:C 0
2 *1513:A2 0.000144586
3 *1511:Y 5.02509e-05
4 *444:8 0.000194837
5 *1513:A2 *1548:B 5.83121e-06
6 *1513:A2 *564:66 9.50342e-06
7 *1513:A2 *564:85 0.000195648
8 *444:8 *1487:A 0.000163481
9 *444:8 *1511:C1 0.000125681
10 *1509:B *1513:A2 4.55864e-06
11 *421:48 *1513:A2 0.000131303
12 *440:36 *1513:A2 9.2741e-05
13 *443:16 *444:8 2.16833e-05
*RES
1 *1511:Y *444:8 3.445 
2 *444:8 *1513:A2 9.485 
3 *444:8 *1512:C 1.6 
*END

*D_NET *445 0.000925505
*CONN
*I *1514:B I *D sky130_fd_sc_hd__nand3_2
*I *1512:X O *D sky130_fd_sc_hd__or3_2
*CAP
1 *1514:B 0.000181658
2 *1512:X 0.000181658
3 *1514:B *1486:A 0.000106909
4 *1514:B *1487:A 8.65961e-05
5 *1514:B *1548:A 0.000162332
6 *1514:B *609:29 0.000119756
7 *1512:B *1514:B 8.65961e-05
*RES
1 *1512:X *1514:B 11.61 
*END

*D_NET *446 0.000533846
*CONN
*I *1514:C I *D sky130_fd_sc_hd__nand3_2
*I *1513:Y O *D sky130_fd_sc_hd__o21ai_2
*CAP
1 *1514:C 0.000154446
2 *1513:Y 0.000154446
3 *1514:C *1548:A 8.23457e-05
4 *1514:C *1548:B 9.59984e-05
5 *440:36 *1514:C 4.66108e-05
*RES
1 *1513:Y *1514:C 6.08 
*END

*D_NET *447 0.00040475
*CONN
*I *1516:B1 I *D sky130_fd_sc_hd__o211ai_2
*I *1514:Y O *D sky130_fd_sc_hd__nand3_2
*CAP
1 *1516:B1 7.20401e-05
2 *1514:Y 7.20401e-05
3 *1516:B1 *1486:A 2.25075e-05
4 *1516:B1 *1486:B 0.000159262
5 *1516:B1 *1548:A 7.47145e-05
6 *420:16 *1516:B1 0
7 *440:8 *1516:B1 4.18603e-06
8 *440:12 *1516:B1 0
*RES
1 *1514:Y *1516:B1 9.345 
*END

*D_NET *448 0.000980895
*CONN
*I *1516:C1 I *D sky130_fd_sc_hd__o211ai_2
*I *1515:X O *D sky130_fd_sc_hd__o22a_2
*CAP
1 *1516:C1 0.000301977
2 *1515:X 0.000301977
3 *1516:C1 *1486:A 5.6361e-05
4 *1516:C1 *1486:B 5.05521e-05
5 *1516:C1 *1727:A 3.00381e-05
6 *1516:C1 *564:91 7.10578e-05
7 *1509:B *1516:C1 0.00011964
8 *1509:C *1516:C1 3.09179e-05
9 *442:10 *1516:C1 1.83756e-05
*RES
1 *1515:X *1516:C1 9.515 
*END

*D_NET *449 0.0015641
*CONN
*I *1528:A2 I *D sky130_fd_sc_hd__o22a_2
*I *1539:B1 I *D sky130_fd_sc_hd__a21o_2
*I *1519:A_N I *D sky130_fd_sc_hd__nand2b_2
*I *1517:Y O *D sky130_fd_sc_hd__nor2_2
*CAP
1 *1528:A2 6.77791e-05
2 *1539:B1 0
3 *1519:A_N 3.96082e-05
4 *1517:Y 0.000185732
5 *449:12 0.000293119
6 *1519:A_N *1519:B 0.000150969
7 *1519:A_N *1544:B2 0.0001138
8 *1528:A2 *1519:B 2.8185e-05
9 *1528:A2 *1528:A1 4.99619e-05
10 *1528:A2 *1544:B2 0.000200615
11 *1528:A2 *450:14 2.54522e-05
12 *449:12 *1517:B 4.82919e-05
13 *449:12 *1541:A1 0.000141606
14 *449:12 *1541:B1 0
15 *449:12 *1718:A 0
16 *449:12 *1719:A 0.00016954
17 *449:12 *451:16 0
18 *449:12 *470:18 4.94404e-05
*RES
1 *1517:Y *449:12 10.07 
2 *449:12 *1519:A_N 3.43 
3 *449:12 *1539:B1 1.6 
4 *449:12 *1528:A2 3.79 
*END

*D_NET *450 0.00226444
*CONN
*I *1528:B1 I *D sky130_fd_sc_hd__o22a_2
*I *1539:A1 I *D sky130_fd_sc_hd__a21o_2
*I *1519:B I *D sky130_fd_sc_hd__nand2b_2
*I *1518:Y O *D sky130_fd_sc_hd__nand2_2
*CAP
1 *1528:B1 3.33099e-05
2 *1539:A1 0
3 *1519:B 0.000243866
4 *1518:Y 0.000205638
5 *450:14 0.000416879
6 *450:12 0.000411961
7 *1519:B *1544:B2 9.95239e-05
8 *1519:B *451:16 0.000112308
9 *1528:B1 *1528:B2 9.53428e-06
10 *1528:B1 *1529:A2 0
11 *450:12 *1517:A 4.66108e-05
12 *450:12 *1536:B1 5.51589e-05
13 *450:12 *1537:C1 4.82863e-05
14 *450:12 *1719:A 0
15 *450:12 *451:35 0.000203793
16 *450:12 *467:10 0
17 *450:14 *1528:A1 5.30673e-05
18 *450:14 *551:97 3.81908e-06
19 *450:14 *551:105 5.062e-06
20 *1519:A_N *1519:B 0.000150969
21 *1528:A2 *1519:B 2.8185e-05
22 *1528:A2 *450:14 2.54522e-05
23 *1667:A *450:12 0.000111011
*RES
1 *1518:Y *450:12 9.98 
2 *450:12 *450:14 2.175 
3 *450:14 *1519:B 6.34 
4 *450:14 *1539:A1 1.6 
5 *450:12 *1528:B1 2.215 
*END

*D_NET *451 0.00613045
*CONN
*I *1529:A2 I *D sky130_fd_sc_hd__o211ai_2
*I *1526:B1 I *D sky130_fd_sc_hd__o21ai_2
*I *1525:A I *D sky130_fd_sc_hd__or3_2
*I *1534:C I *D sky130_fd_sc_hd__and3_2
*I *1538:C I *D sky130_fd_sc_hd__or3_2
*I *1536:A1 I *D sky130_fd_sc_hd__a21o_2
*I *1519:Y O *D sky130_fd_sc_hd__nand2b_2
*CAP
1 *1529:A2 0.000380067
2 *1526:B1 0.000148279
3 *1525:A 5.29793e-05
4 *1534:C 0
5 *1538:C 9.94529e-05
6 *1536:A1 0
7 *1519:Y 0.000385349
8 *451:62 0.000534369
9 *451:51 0.000103606
10 *451:35 0.0003987
11 *451:25 0.000384491
12 *451:16 0.000425991
13 *1525:A *1529:C1 0.00010804
14 *1526:B1 *1728:A 0
15 *1526:B1 *545:180 0.000432775
16 *1526:B1 *576:10 5.03916e-05
17 *1529:A2 *1525:C 0.00016289
18 *1529:A2 *1529:B1 2.01502e-05
19 *1529:A2 *1529:C1 9.27255e-06
20 *1529:A2 *551:97 1.47256e-05
21 *1529:A2 *576:10 6.26955e-05
22 *451:16 *1539:A2 0.000164874
23 *451:16 *1541:A2 2.11084e-05
24 *451:16 *1559:B1 0
25 *451:16 *1718:A 0
26 *451:16 *470:18 0.000123374
27 *451:25 *1536:A2 3.03775e-05
28 *451:25 *1539:A2 0.000119756
29 *451:35 *465:6 8.40269e-05
30 *451:35 *465:22 2.16833e-05
31 *451:35 *467:10 0
32 *451:35 *576:10 4.1583e-05
33 *451:35 *602:10 0.000260234
34 *451:51 *576:10 5.5912e-05
35 *1500:A *1538:C 4.82919e-05
36 *1519:B *451:16 0.000112308
37 *1528:B1 *1529:A2 0
38 *1534:B *1538:C 0.000109101
39 *1537:A1 *451:35 8.23457e-05
40 *1632:A *1526:B1 0.000180373
41 *1667:A *1526:B1 0.000140587
42 *1667:A *451:35 2.8531e-05
43 *1667:A *451:51 0.000130313
44 *1667:A *451:62 3.46196e-05
45 *1677:A *1526:B1 0.0001249
46 *422:32 *1538:C 4.82919e-05
47 *422:40 *1538:C 0.000189845
48 *449:12 *451:16 0
49 *450:12 *451:35 0.000203793
*RES
1 *1519:Y *451:16 12.125 
2 *451:16 *1536:A1 1.6 
3 *451:16 *451:25 3.14 
4 *451:25 *451:35 8.915 
5 *451:35 *1538:C 4.825 
6 *451:35 *1534:C 1.6 
7 *451:25 *451:51 1.635 
8 *451:51 *1525:A 5.43 
9 *451:51 *451:62 0.4875 
10 *451:62 *1526:B1 9.6225 
11 *451:62 *1529:A2 10.1175 
*END

*D_NET *452 0.000445724
*CONN
*I *1521:B1 I *D sky130_fd_sc_hd__a21o_2
*I *1520:X O *D sky130_fd_sc_hd__and2b_2
*CAP
1 *1521:B1 0.000123836
2 *1520:X 0.000123836
3 *1521:B1 *455:6 0.000198051
*RES
1 *1520:X *1521:B1 5.645 
*END

*D_NET *453 0.00299806
*CONN
*I *1536:A2 I *D sky130_fd_sc_hd__a21o_2
*I *1522:B1 I *D sky130_fd_sc_hd__a311oi_2
*I *1521:X O *D sky130_fd_sc_hd__a21o_2
*CAP
1 *1536:A2 0.000223774
2 *1522:B1 8.94197e-05
3 *1521:X 0.000604625
4 *453:6 0.000917818
5 *1522:B1 *454:10 3.89528e-05
6 *1522:B1 *576:10 0
7 *1536:A2 *1539:A2 0.000332297
8 *1536:A2 *602:10 0.000234685
9 *453:6 *1520:B 0.000119756
10 *453:6 *1539:A2 0.000149604
11 *453:6 *455:6 0.000251214
12 *1522:A1 *1522:B1 5.53249e-06
13 *1524:A1 *1522:B1 0
14 *441:12 *1522:B1 0
15 *451:25 *1536:A2 3.03775e-05
*RES
1 *1521:X *453:6 9.295 
2 *453:6 *1522:B1 7.235 
3 *453:6 *1536:A2 6.82 
*END

*D_NET *454 0.00144062
*CONN
*I *1526:A1 I *D sky130_fd_sc_hd__o21ai_2
*I *1525:B I *D sky130_fd_sc_hd__or3_2
*I *1522:Y O *D sky130_fd_sc_hd__a311oi_2
*CAP
1 *1526:A1 0.000224888
2 *1525:B 0
3 *1522:Y 0.000222027
4 *454:10 0.000446915
5 *1526:A1 *1526:A2 0.000116165
6 *1526:A1 *1527:C 0
7 *1526:A1 *1529:C1 4.82919e-05
8 *1526:A1 *536:10 0
9 *1526:A1 *551:97 0.000163056
10 *454:10 *1526:A2 0
11 *454:10 *1728:A 1.52184e-05
12 *454:10 *456:8 0
13 *454:10 *551:97 4.9968e-05
14 *454:10 *612:14 0.000115135
15 y[24] *1526:A1 0
16 *1522:B1 *454:10 3.89528e-05
17 *1524:A1 *454:10 0
*RES
1 *1522:Y *454:10 10.04 
2 *454:10 *1525:B 1.6 
3 *454:10 *1526:A1 9.155 
*END

*D_NET *455 0.00357518
*CONN
*I *1524:B1 I *D sky130_fd_sc_hd__o211a_2
*I *1539:A2 I *D sky130_fd_sc_hd__a21o_2
*I *1523:X O *D sky130_fd_sc_hd__o21a_2
*CAP
1 *1524:B1 2.14552e-05
2 *1539:A2 0.000495408
3 *1523:X 0.000310527
4 *455:6 0.00082739
5 *1539:A2 *1527:B 0.000208233
6 *1539:A2 *1719:A 9.47454e-05
7 *455:6 *1520:A_N 2.49909e-05
8 *455:6 *1520:B 0.000118081
9 *455:6 *1524:C1 4.82863e-05
10 *455:6 *1527:B 6.05604e-05
11 *455:6 *575:36 5.74791e-05
12 *1521:A2 *455:6 4.82863e-05
13 *1521:B1 *455:6 0.000198051
14 *1523:B1 *455:6 1.08758e-05
15 *1524:A1 *1539:A2 1.12643e-05
16 *1536:A2 *1539:A2 0.000332297
17 *1667:A *1539:A2 0
18 *440:36 *455:6 2.18022e-05
19 *451:16 *1539:A2 0.000164874
20 *451:25 *1539:A2 0.000119756
21 *453:6 *1539:A2 0.000149604
22 *453:6 *455:6 0.000251214
*RES
1 *1523:X *455:6 9.295 
2 *455:6 *1539:A2 16.085 
3 *455:6 *1524:B1 1.96 
*END

*D_NET *456 0.00139243
*CONN
*I *1526:A2 I *D sky130_fd_sc_hd__o21ai_2
*I *1525:C I *D sky130_fd_sc_hd__or3_2
*I *1524:X O *D sky130_fd_sc_hd__o211a_2
*CAP
1 *1526:A2 0.000182567
2 *1525:C 5.32433e-05
3 *1524:X 9.81878e-05
4 *456:8 0.000333998
5 *1525:C *1529:B1 3.70488e-05
6 *1525:C *551:97 0.000136158
7 *1526:A2 *1728:A 5.76386e-05
8 *1526:A2 *536:10 0
9 *1526:A2 *545:180 8.96356e-05
10 y[24] *1526:A2 0
11 *1509:C *456:8 0
12 *1526:A1 *1526:A2 0.000116165
13 *1529:A2 *1525:C 0.00016289
14 *1632:A *1526:A2 0.0001249
15 *454:10 *1526:A2 0
16 *454:10 *456:8 0
*RES
1 *1524:X *456:8 4.98 
2 *456:8 *1525:C 5.895 
3 *456:8 *1526:A2 7.395 
*END

*D_NET *457 0.00178526
*CONN
*I *1527:B I *D sky130_fd_sc_hd__nand3_2
*I *1525:X O *D sky130_fd_sc_hd__or3_2
*CAP
1 *1527:B 0.0006163
2 *1525:X 0.0006163
3 *1527:B *1524:C1 2.75145e-05
4 *1527:B *1527:C 2.99518e-06
5 *1527:B *536:10 0
6 *1527:B *564:91 4.61196e-05
7 *1527:B *576:10 7.23602e-05
8 *1527:B *611:10 5.64768e-05
9 *1527:B *612:14 7.23602e-05
10 *1524:A1 *1527:B 6.03947e-06
11 *1539:A2 *1527:B 0.000208233
12 *455:6 *1527:B 6.05604e-05
*RES
1 *1525:X *1527:B 20.11 
*END

*D_NET *458 0.000636777
*CONN
*I *1527:C I *D sky130_fd_sc_hd__nand3_2
*I *1526:Y O *D sky130_fd_sc_hd__o21ai_2
*CAP
1 *1527:C 0.000133202
2 *1526:Y 0.000133202
3 *1527:C *536:10 0.000158577
4 *1527:C *545:180 0.000163199
5 *1527:C *611:10 0
6 y[24] *1527:C 4.56031e-05
7 *1526:A1 *1527:C 0
8 *1527:B *1527:C 2.99518e-06
*RES
1 *1526:Y *1527:C 10.575 
*END

*D_NET *459 0.000790251
*CONN
*I *1529:B1 I *D sky130_fd_sc_hd__o211ai_2
*I *1527:Y O *D sky130_fd_sc_hd__nand3_2
*CAP
1 *1529:B1 0.00012301
2 *1527:Y 0.00012301
3 *1529:B1 *1529:A1 2.49909e-05
4 *1529:B1 *551:97 0.000396543
5 *1529:B1 *564:91 2.75229e-05
6 *1509:C *1529:B1 3.79763e-05
7 *1525:C *1529:B1 3.70488e-05
8 *1529:A2 *1529:B1 2.01502e-05
*RES
1 *1527:Y *1529:B1 7.115 
*END

*D_NET *460 0.000658102
*CONN
*I *1529:C1 I *D sky130_fd_sc_hd__o211ai_2
*I *1528:X O *D sky130_fd_sc_hd__o22a_2
*CAP
1 *1529:C1 8.90179e-05
2 *1528:X 8.90179e-05
3 *1529:C1 *551:97 0.000314462
4 *1525:A *1529:C1 0.00010804
5 *1526:A1 *1529:C1 4.82919e-05
6 *1529:A2 *1529:C1 9.27255e-06
*RES
1 *1528:X *1529:C1 6.065 
*END

*D_NET *461 0.00154105
*CONN
*I *1544:A2 I *D sky130_fd_sc_hd__o22a_2
*I *1533:A I *D sky130_fd_sc_hd__nand2_2
*I *1552:C1 I *D sky130_fd_sc_hd__o221a_2
*I *1530:Y O *D sky130_fd_sc_hd__nand2_2
*CAP
1 *1544:A2 0.00015181
2 *1533:A 0
3 *1552:C1 0.000122816
4 *1530:Y 5.22864e-05
5 *461:21 0.000238954
6 *461:8 0.000262246
7 *1544:A2 *1484:A1 0
8 *1544:A2 *1556:B 0
9 *1544:A2 *1729:A 0.000199032
10 *1544:A2 *551:105 4.66108e-05
11 *1552:C1 *1540:C1 0
12 *1552:C1 *1552:A1 4.84393e-05
13 *1552:C1 *1729:A 7.47215e-05
14 *1552:C1 *613:14 0
15 *461:8 *1531:A 8.8266e-05
16 *461:8 *1531:B 2.05056e-05
17 *461:21 *1729:A 0.000185405
18 *461:21 *613:14 0
19 *430:6 *1552:C1 4.99619e-05
*RES
1 *1530:Y *461:8 4.74 
2 *461:8 *1552:C1 6.195 
3 *461:8 *461:21 2.145 
4 *461:21 *1533:A 3.6 
5 *461:21 *1544:A2 6.45 
*END

*D_NET *462 0.00164371
*CONN
*I *1544:B1 I *D sky130_fd_sc_hd__o22a_2
*I *1552:A1 I *D sky130_fd_sc_hd__o221a_2
*I *1531:Y O *D sky130_fd_sc_hd__nor2_2
*CAP
1 *1544:B1 0.000172943
2 *1552:A1 0.000163797
3 *1531:Y 0
4 *462:6 0.00033674
5 *1544:B1 *1544:B2 2.79099e-05
6 *1544:B1 *1545:C_N 0
7 *1544:B1 *1559:B1 9.44548e-05
8 *1544:B1 *1729:A 0.000278806
9 *1544:B1 *551:105 1.35154e-05
10 *1552:A1 *1540:C1 0.000154059
11 *1552:A1 *1545:C_N 0
12 *1552:A1 *1552:B1 0.000154463
13 *1552:A1 *1729:A 9.78012e-05
14 *1552:B2 *1552:A1 2.27789e-05
15 *1552:C1 *1552:A1 4.84393e-05
16 *1617:A *1552:A1 0
17 *1678:A *1544:B1 7.09921e-05
18 *430:6 *1552:A1 7.00889e-06
*RES
1 *1531:Y *462:6 3.6 
2 *462:6 *1552:A1 7.935 
3 *462:6 *1544:B1 8.175 
*END

*D_NET *463 8.68287e-05
*CONN
*I *1533:B I *D sky130_fd_sc_hd__nand2_2
*I *1532:X O *D sky130_fd_sc_hd__or2_2
*CAP
1 *1533:B 7.87918e-06
2 *1532:X 7.87918e-06
3 *1533:B *1471:A1 2.11084e-05
4 *1533:B *613:6 4.99619e-05
*RES
1 *1532:X *1533:B 3.65 
*END

*D_NET *464 0.00485889
*CONN
*I *1542:A1 I *D sky130_fd_sc_hd__o311a_2
*I *1543:B I *D sky130_fd_sc_hd__nor2_2
*I *1559:A1 I *D sky130_fd_sc_hd__a21o_2
*I *1551:A I *D sky130_fd_sc_hd__or2_2
*I *1557:B I *D sky130_fd_sc_hd__and3_2
*I *1541:B1 I *D sky130_fd_sc_hd__o21ai_2
*I *1533:Y O *D sky130_fd_sc_hd__nand2_2
*CAP
1 *1542:A1 0
2 *1543:B 0
3 *1559:A1 0
4 *1551:A 0.000205038
5 *1557:B 0.000168162
6 *1541:B1 0.000136655
7 *1533:Y 0.000150925
8 *464:37 0.000507111
9 *464:33 0.000199892
10 *464:20 0.000386548
11 *464:16 0.000281748
12 *464:8 0.000248761
13 *1541:B1 *1514:A 8.7152e-06
14 *1541:B1 *1541:A1 0
15 *1541:B1 *1560:B1 2.92496e-05
16 *1541:B1 *471:10 9.42145e-05
17 *1541:B1 *557:156 7.1009e-05
18 *1551:A *1560:B1 2.75145e-05
19 *1557:B *1557:C 4.94326e-05
20 *1557:B *1719:A 0
21 *1557:B *485:10 1.83847e-05
22 *1557:B *557:131 0
23 *1557:B *567:59 2.24336e-05
24 *464:8 *1471:A1 0.000359579
25 *464:8 *1542:A2 9.53428e-06
26 *464:8 *1542:B1 9.72742e-06
27 *464:8 *470:18 1.56428e-05
28 *464:8 *554:16 2.59926e-05
29 *464:8 *613:6 2.49909e-05
30 *464:16 *1545:B 2.49909e-05
31 *464:16 *1559:B1 3.50033e-05
32 *464:16 *470:18 0.000205435
33 *464:16 *557:131 0.000139252
34 *464:20 *1559:B1 4.0843e-05
35 *464:20 *1560:B1 8.49205e-05
36 *464:33 *1560:B1 4.66108e-05
37 *464:37 *1557:C 0.000109441
38 *464:37 *1559:A2 5.04265e-05
39 *464:37 *1560:B1 0.000283988
40 *464:37 *465:22 0
41 *464:37 *557:131 0
42 *1557:A *1551:A 3.57349e-05
43 *1558:A1 *1551:A 2.16917e-05
44 *1560:A1 *1551:A 0.000232999
45 *1678:A *464:8 0.00019637
46 *326:68 *1551:A 8.23457e-05
47 *425:8 *1551:A 3.83194e-05
48 *426:6 *1551:A 0.000151817
49 *431:18 *1551:A 2.7441e-05
50 *449:12 *1541:B1 0
*RES
1 *1533:Y *464:8 6.205 
2 *464:8 *464:16 6.85 
3 *464:16 *464:20 2.445 
4 *464:20 *1541:B1 8.51 
5 *464:20 *464:33 0.795 
6 *464:33 *464:37 5.93 
7 *464:37 *1557:B 6.45 
8 *464:37 *1551:A 8.67 
9 *464:33 *1559:A1 1.6 
10 *464:16 *1543:B 1.6 
11 *464:8 *1542:A1 1.6 
*END

*D_NET *465 0.00219566
*CONN
*I *1537:A2 I *D sky130_fd_sc_hd__a211oi_2
*I *1557:C I *D sky130_fd_sc_hd__and3_2
*I *1558:A2 I *D sky130_fd_sc_hd__a21o_2
*I *1534:X O *D sky130_fd_sc_hd__and3_2
*CAP
1 *1537:A2 0
2 *1557:C 0.000225844
3 *1558:A2 0.000114579
4 *1534:X 3.70239e-05
5 *465:22 0.000655865
6 *465:6 0.000352466
7 *1557:C *1560:A2 0
8 *1557:C *1719:A 0
9 *1557:C *485:10 3.00381e-05
10 *1558:A2 *1552:A2 0
11 *1558:A2 *1558:B1 4.82863e-05
12 *465:22 *1537:C1 4.76263e-05
13 *465:22 *1541:A1 8.23457e-05
14 *465:22 *1558:B1 0.000241305
15 *465:22 *1559:A2 2.0851e-06
16 *1537:A1 *465:22 6.60944e-05
17 *1557:B *1557:C 4.94326e-05
18 *1558:A1 *1558:A2 2.75145e-05
19 *451:35 *465:6 8.40269e-05
20 *451:35 *465:22 2.16833e-05
21 *464:37 *1557:C 0.000109441
22 *464:37 *465:22 0
*RES
1 *1534:X *465:6 2.395 
2 *465:6 *465:22 10.39 
3 *465:22 *1558:A2 3.445 
4 *465:22 *1557:C 9.47 
5 *465:6 *1537:A2 1.6 
*END

*D_NET *466 0.00041481
*CONN
*I *1536:B1 I *D sky130_fd_sc_hd__a21o_2
*I *1535:X O *D sky130_fd_sc_hd__and2b_2
*CAP
1 *1536:B1 0.000108833
2 *1535:X 0.000108833
3 *1536:B1 *1535:B 4.99619e-05
4 *1536:B1 *1719:A 2.84568e-05
5 *1536:B1 *467:10 4.05358e-05
6 *1536:B1 *576:19 2.30292e-05
7 *450:12 *1536:B1 5.51589e-05
*RES
1 *1535:X *1536:B1 9.63 
*END

*D_NET *467 0.00120336
*CONN
*I *1537:B1 I *D sky130_fd_sc_hd__a211oi_2
*I *1558:B1 I *D sky130_fd_sc_hd__a21o_2
*I *1536:X O *D sky130_fd_sc_hd__a21o_2
*CAP
1 *1537:B1 0
2 *1558:B1 9.71953e-05
3 *1536:X 0.000161448
4 *467:10 0.000258643
5 *1558:B1 *1541:A1 2.16833e-05
6 *1558:B1 *1559:A2 4.99619e-05
7 *467:10 *1719:A 0.000284305
8 *1536:B1 *467:10 4.05358e-05
9 *1558:A2 *1558:B1 4.82863e-05
10 *450:12 *467:10 0
11 *451:35 *467:10 0
12 *465:22 *1558:B1 0.000241305
*RES
1 *1536:X *467:10 9.02 
2 *467:10 *1558:B1 4.12 
3 *467:10 *1537:B1 1.6 
*END

*D_NET *468 0.00148076
*CONN
*I *1542:A2 I *D sky130_fd_sc_hd__o311a_2
*I *1541:A1 I *D sky130_fd_sc_hd__o21ai_2
*I *1537:Y O *D sky130_fd_sc_hd__a211oi_2
*CAP
1 *1542:A2 9.96871e-05
2 *1541:A1 0.000345871
3 *1537:Y 0.000246184
4 *1541:A1 *1537:C1 3.86607e-05
5 *1541:A1 *1559:A2 5.20968e-05
6 *1541:A1 *1719:A 3.26566e-05
7 *1542:A2 *1471:A1 4.9253e-06
8 *1542:A2 *1541:A2 2.10578e-05
9 *1542:A2 *1542:A3 1.19928e-05
10 *1542:A2 *1542:B1 9.42954e-05
11 *1542:A2 *470:18 0.00027209
12 *1542:A2 *557:156 6.07575e-06
13 *1541:B1 *1541:A1 0
14 *1558:B1 *1541:A1 2.16833e-05
15 *449:12 *1541:A1 0.000141606
16 *464:8 *1542:A2 9.53428e-06
17 *465:22 *1541:A1 8.23457e-05
*RES
1 *1537:Y *1541:A1 11.76 
2 *1541:A1 *1542:A2 6.44 
*END

*D_NET *469 0.00299771
*CONN
*I *1540:A2 I *D sky130_fd_sc_hd__o211a_2
*I *1551:B I *D sky130_fd_sc_hd__or2_2
*I *1538:X O *D sky130_fd_sc_hd__or3_2
*CAP
1 *1540:A2 0
2 *1551:B 0.000181941
3 *1538:X 0.00114234
4 *469:16 0.00132428
5 *1551:B *1555:A 7.33563e-05
6 *1551:B *470:18 9.50342e-06
7 *469:16 *1514:A 0
8 *469:16 *470:18 1.15399e-05
9 *469:16 *557:131 5.53549e-06
10 *1500:A *469:16 4.61701e-06
11 *1522:A1 *469:16 8.68042e-06
12 *1537:A1 *469:16 0
13 *1540:A1 *1551:B 0.000155491
14 *1540:A1 *469:16 8.7152e-06
15 *1617:A *1551:B 0
16 *422:36 *469:16 4.61701e-06
17 *431:10 *1551:B 6.7084e-05
*RES
1 *1538:X *469:16 7.22253 
2 *469:16 *1551:B 7.155 
3 *469:16 *1540:A2 3.6 
*END

*D_NET *470 0.00255861
*CONN
*I *1540:B1 I *D sky130_fd_sc_hd__o211a_2
*I *1552:A2 I *D sky130_fd_sc_hd__o221a_2
*I *1539:X O *D sky130_fd_sc_hd__a21o_2
*CAP
1 *1540:B1 0
2 *1552:A2 0.000167016
3 *1539:X 0.000549397
4 *470:18 0.000716413
5 *1552:A2 *1540:C1 3.42081e-05
6 *1552:A2 *1552:B1 0.00012059
7 *1552:A2 *1555:A 6.87975e-05
8 *470:18 *1471:A1 7.68414e-06
9 *470:18 *1541:A2 9.27255e-06
10 *470:18 *1543:A 9.32826e-05
11 *470:18 *1559:B1 1.82476e-05
12 *470:18 *1718:A 0
13 *470:18 *557:131 7.29385e-05
14 *1497:B1 *1552:A2 1.37328e-05
15 *1542:A2 *470:18 0.00027209
16 *1551:B *470:18 9.50342e-06
17 *1558:A2 *1552:A2 0
18 *1617:A *470:18 0
19 *449:12 *470:18 4.94404e-05
20 *451:16 *470:18 0.000123374
21 *464:8 *470:18 1.56428e-05
22 *464:16 *470:18 0.000205435
23 *469:16 *470:18 1.15399e-05
*RES
1 *1539:X *470:18 19.665 
2 *470:18 *1552:A2 5.305 
3 *470:18 *1540:B1 1.6 
*END

*D_NET *471 0.00133827
*CONN
*I *1541:A2 I *D sky130_fd_sc_hd__o21ai_2
*I *1542:A3 I *D sky130_fd_sc_hd__o311a_2
*I *1540:X O *D sky130_fd_sc_hd__o211a_2
*CAP
1 *1541:A2 0.000142341
2 *1542:A3 2.76856e-05
3 *1540:X 9.96374e-05
4 *471:10 0.000269664
5 *1541:A2 *1542:B1 0.000119762
6 *1541:A2 *557:156 3.57349e-05
7 *1542:A3 *1542:B1 4.66108e-05
8 *1542:A3 *557:156 8.23457e-05
9 *471:10 *1560:B1 2.88614e-05
10 *471:10 *1718:A 0.000290012
11 *471:10 *557:156 2.92496e-05
12 *1541:B1 *471:10 9.42145e-05
13 *1542:A2 *1541:A2 2.10578e-05
14 *1542:A2 *1542:A3 1.19928e-05
15 *1558:A1 *471:10 8.7152e-06
16 *451:16 *1541:A2 2.11084e-05
17 *470:18 *1541:A2 9.27255e-06
*RES
1 *1540:X *471:10 9.02 
2 *471:10 *1542:A3 2.395 
3 *471:10 *1541:A2 4.39 
*END

*D_NET *472 0.000393847
*CONN
*I *1542:B1 I *D sky130_fd_sc_hd__o311a_2
*I *1541:Y O *D sky130_fd_sc_hd__o21ai_2
*CAP
1 *1542:B1 6.17257e-05
2 *1541:Y 6.17257e-05
3 *1541:A2 *1542:B1 0.000119762
4 *1542:A2 *1542:B1 9.42954e-05
5 *1542:A3 *1542:B1 4.66108e-05
6 *464:8 *1542:B1 9.72742e-06
*RES
1 *1541:Y *1542:B1 5.045 
*END

*D_NET *473 0.000604426
*CONN
*I *1545:A I *D sky130_fd_sc_hd__or3b_2
*I *1542:X O *D sky130_fd_sc_hd__o311a_2
*CAP
1 *1545:A 0.000122535
2 *1542:X 0.000122535
3 *1545:A *1471:A1 0.000122331
4 *1545:A *1543:A 0.000118513
5 *1617:A *1545:A 0.000118513
*RES
1 *1542:X *1545:A 9.72 
*END

*D_NET *474 0.000368987
*CONN
*I *1545:B I *D sky130_fd_sc_hd__or3b_2
*I *1543:Y O *D sky130_fd_sc_hd__nor2_2
*CAP
1 *1545:B 0.000146722
2 *1543:Y 0.000146722
3 *1545:B *1543:A 5.05521e-05
4 *464:16 *1545:B 2.49909e-05
*RES
1 *1543:Y *1545:B 5.39 
*END

*D_NET *475 0.000739141
*CONN
*I *1545:C_N I *D sky130_fd_sc_hd__or3b_2
*I *1544:X O *D sky130_fd_sc_hd__o22a_2
*CAP
1 *1545:C_N 0.000175919
2 *1544:X 0.000175919
3 *1545:C_N *1729:A 3.72916e-05
4 *1544:B1 *1545:C_N 0
5 *1552:A1 *1545:C_N 0
6 *1617:A *1545:C_N 0.000289011
7 *1678:A *1545:C_N 6.10014e-05
*RES
1 *1544:X *1545:C_N 11.415 
*END

*D_NET *476 0.00324021
*CONN
*I *1549:A I *D sky130_fd_sc_hd__nor2_2
*I *1550:A I *D sky130_fd_sc_hd__or2_2
*I *1563:B I *D sky130_fd_sc_hd__or2_2
*I *1546:Y O *D sky130_fd_sc_hd__nor2_2
*CAP
1 *1549:A 0
2 *1550:A 0
3 *1563:B 8.77958e-05
4 *1546:Y 0.000209457
5 *476:20 0.000309208
6 *476:12 0.000430869
7 *1563:B *485:27 5.55968e-05
8 *1563:B *490:16 0.000225143
9 *476:12 *1487:B 4.99619e-05
10 *476:12 *1502:A1 1.32017e-05
11 *476:12 *477:12 3.31204e-05
12 *476:12 *495:10 8.7152e-06
13 *476:12 *564:66 0.000312625
14 *476:12 *579:16 0
15 *476:20 *1550:B 0.000481378
16 *476:20 *479:10 0.000121437
17 *476:20 *485:27 4.0843e-05
18 *476:20 *490:16 0.000297055
19 *476:20 *490:28 0.000287825
20 *476:20 *564:66 1.83847e-05
21 *1488:A *476:12 5.83121e-06
22 *1488:B *476:12 0.000134509
23 *1527:A *1563:B 4.83411e-05
24 *420:16 *476:12 3.79854e-05
25 *421:48 *476:12 3.09233e-05
*RES
1 *1546:Y *476:12 10.76 
2 *476:12 *476:20 7.83 
3 *476:20 *1563:B 8.03 
4 *476:20 *1550:A 1.6 
5 *476:12 *1549:A 1.6 
*END

*D_NET *477 0.00209943
*CONN
*I *1550:B I *D sky130_fd_sc_hd__or2_2
*I *1549:B I *D sky130_fd_sc_hd__nor2_2
*I *1547:X O *D sky130_fd_sc_hd__and2_2
*CAP
1 *1550:B 0.000210905
2 *1549:B 0
3 *1547:X 0.000202236
4 *477:12 0.000413141
5 *1550:B *1570:A2 0.000223016
6 *1550:B *485:27 0.000198939
7 *477:12 *1502:A1 0.000115046
8 *477:12 *1564:C1 0.00015639
9 *477:12 *1565:A2 1.47347e-05
10 *477:12 *564:66 5.05223e-05
11 *476:12 *477:12 3.31204e-05
12 *476:20 *1550:B 0.000481378
*RES
1 *1547:X *477:12 8.81 
2 *477:12 *1549:B 1.6 
3 *477:12 *1550:B 7.585 
*END

*D_NET *478 0.00410954
*CONN
*I *1564:A2 I *D sky130_fd_sc_hd__o221a_2
*I *1570:C1 I *D sky130_fd_sc_hd__o211a_2
*I *1581:A1 I *D sky130_fd_sc_hd__o21ba_2
*I *1548:Y O *D sky130_fd_sc_hd__nand2_2
*CAP
1 *1564:A2 0
2 *1570:C1 0
3 *1581:A1 0.000132435
4 *1548:Y 0.000454418
5 *478:28 0.000594103
6 *478:16 0.000916085
7 *1581:A1 *1502:A1 9.37971e-05
8 *1581:A1 *1570:A2 4.18603e-06
9 *1581:A1 *1581:A2 8.58007e-05
10 *1581:A1 *500:8 8.69583e-05
11 *1581:A1 *555:18 0
12 *478:16 *1486:B 0.000150976
13 *478:16 *1548:A 3.1835e-05
14 *478:16 *1548:B 8.49205e-05
15 *478:16 *1564:B1 0
16 *478:16 *1565:B1 1.26626e-05
17 *478:16 *1596:A_N 4.9253e-06
18 *478:16 *1597:B 8.37434e-05
19 *478:16 *1730:A 0.000141599
20 *478:16 *574:12 5.7344e-05
21 *478:16 *579:53 1.73877e-05
22 *478:16 *614:27 9.37731e-05
23 *478:28 *1499:S 0.000133162
24 *478:28 *1502:A1 8.7636e-05
25 *478:28 *1564:A1 0.000593603
26 *478:28 *1564:B1 3.59531e-06
27 *478:28 *1570:A2 5.87862e-05
28 *478:28 *556:49 6.12722e-06
29 *478:28 *556:60 5.69898e-06
30 y[28] *478:16 0
31 *1644:A *478:16 0
32 *1674:A *478:16 0
33 *420:16 *478:16 0.00017398
*RES
1 *1548:Y *478:16 16.34 
2 *478:16 *478:28 6.417 
3 *478:28 *1581:A1 6.54 
4 *478:28 *1570:C1 3.6 
5 *478:16 *1564:A2 1.6 
*END

*D_NET *479 0.00373078
*CONN
*I *1571:B1 I *D sky130_fd_sc_hd__o221a_2
*I *1598:A1 I *D sky130_fd_sc_hd__o311a_2
*I *1585:A1 I *D sky130_fd_sc_hd__o31a_2
*I *1549:Y O *D sky130_fd_sc_hd__nor2_2
*CAP
1 *1571:B1 0.000121186
2 *1598:A1 7.62127e-05
3 *1585:A1 0.000127439
4 *1549:Y 0.000139417
5 *479:16 0.000403033
6 *479:10 0.000459983
7 *1571:B1 *1567:B 4.66108e-05
8 *1571:B1 *1584:A1 0.000142597
9 *1571:B1 *580:12 4.85255e-05
10 *1585:A1 *1585:A2 7.31985e-05
11 *1585:A1 *1585:A3 8.88799e-05
12 *1585:A1 *1598:C1 1.08758e-05
13 *1598:A1 *1585:A3 6.52265e-05
14 *1598:A1 *1598:A2 4.66108e-05
15 *1598:A1 *1598:A3 4.82863e-05
16 *1598:A1 *1598:C1 0.000103482
17 *479:10 *1566:B 0.000287765
18 *479:10 *490:28 0.000193801
19 *479:10 *495:10 0.000115431
20 *479:10 *495:12 0.000195531
21 *479:10 *564:66 7.67415e-06
22 *479:16 *1566:B 1.93416e-05
23 *479:16 *1568:A 0.000411896
24 *479:16 *1585:A3 3.21081e-06
25 *479:16 *1608:B1 0.000219193
26 *479:16 *495:12 7.9642e-06
27 *479:16 *564:22 5.25754e-05
28 *479:16 *615:27 5.03747e-05
29 *1571:A2 *1571:B1 3.69837e-05
30 *112:6 *1571:B1 6.03947e-06
31 *476:20 *479:10 0.000121437
*RES
1 *1549:Y *479:10 8.85 
2 *479:10 *479:16 7.31 
3 *479:16 *1585:A1 4.135 
4 *479:16 *1598:A1 3.79 
5 *479:10 *1571:B1 6.24375 
*END

*D_NET *480 0.00543585
*CONN
*I *1564:B1 I *D sky130_fd_sc_hd__o221a_2
*I *1562:A I *D sky130_fd_sc_hd__xnor2_2
*I *1570:A1 I *D sky130_fd_sc_hd__o211a_2
*I *1582:A1 I *D sky130_fd_sc_hd__o31a_2
*I *1550:X O *D sky130_fd_sc_hd__or2_2
*CAP
1 *1564:B1 0.000331466
2 *1562:A 0
3 *1570:A1 0.000127186
4 *1582:A1 0.000211141
5 *1550:X 0
6 *480:36 0.000511042
7 *480:21 0.000533353
8 *480:4 0.000437731
9 *1564:B1 *1564:B2 1.12643e-05
10 *1564:B1 *1564:C1 0.000187521
11 *1564:B1 *1565:A1 0.000803766
12 *1564:B1 *1565:A2 0.000526597
13 *1564:B1 *1565:B1 0
14 *1564:B1 *556:60 0.000200495
15 *1564:B1 *614:27 0
16 *1570:A1 *1561:S 0.000116528
17 *1570:A1 *1573:A2 4.82863e-05
18 *1570:A1 *1573:A3 5.02892e-05
19 *1570:A1 *1576:A2 0.000120655
20 *1570:A1 *1731:A 5.72708e-05
21 *1570:A1 *495:56 1.18624e-05
22 *1582:A1 *1582:A2 0.000294612
23 *1582:A1 *545:115 0.000207016
24 *1582:A1 *545:136 9.54469e-05
25 *1582:A1 *560:172 0.00019637
26 *480:21 *490:16 0.00012982
27 *480:21 *490:28 1.08758e-05
28 *480:21 *560:172 0.000124007
29 *480:36 *1502:B2 0
30 *480:36 *1561:S 4.90071e-05
31 *480:36 *1562:B 0
32 *480:36 *545:149 1.94892e-05
33 *1527:A *1570:A1 0
34 *1527:A *480:36 0
35 *422:10 *1564:B1 1.91597e-05
36 *478:16 *1564:B1 0
37 *478:28 *1564:B1 3.59531e-06
*RES
1 *1550:X *480:4 1.6 
2 *480:4 *1582:A1 10.85 
3 *480:4 *480:21 5.21 
4 *480:21 *1570:A1 6.71625 
5 *480:21 *480:36 4.655 
6 *480:36 *1562:A 1.6 
7 *480:36 *1564:B1 16.1787 
*END

*D_NET *481 0.00196045
*CONN
*I *1552:B1 I *D sky130_fd_sc_hd__o221a_2
*I *1554:B1 I *D sky130_fd_sc_hd__a211o_2
*I *1551:X O *D sky130_fd_sc_hd__or2_2
*CAP
1 *1552:B1 0.000152214
2 *1554:B1 0.000142589
3 *1551:X 2.89988e-05
4 *481:8 0.000323802
5 *1552:B1 *1540:C1 1.19928e-05
6 *1552:B1 *1555:A 8.52172e-05
7 *1554:B1 *1555:A 5.65627e-05
8 *1554:B1 *1555:B 4.66108e-05
9 *1552:A1 *1552:B1 0.000154463
10 *1552:A2 *1552:B1 0.00012059
11 *1552:B2 *1552:B1 4.87027e-05
12 *1617:A *1552:B1 0.000193564
13 *1617:A *1554:B1 0.000328079
14 *326:47 *1554:B1 0.000220452
15 *426:6 *481:8 4.66108e-05
*RES
1 *1551:X *481:8 4.05 
2 *481:8 *1554:B1 7.98 
3 *481:8 *1552:B1 8.29875 
*END

*D_NET *482 0.000759551
*CONN
*I *1555:A I *D sky130_fd_sc_hd__and2_2
*I *1552:X O *D sky130_fd_sc_hd__o221a_2
*CAP
1 *1555:A 0.000201688
2 *1552:X 0.000201688
3 *1555:A *1555:B 9.50342e-06
4 *1555:A *1718:A 0
5 *1551:B *1555:A 7.33563e-05
6 *1552:A2 *1555:A 6.87975e-05
7 *1552:B1 *1555:A 8.52172e-05
8 *1554:B1 *1555:A 5.65627e-05
9 *326:47 *1555:A 3.09164e-05
10 *326:68 *1555:A 3.18219e-05
11 *431:10 *1555:A 0
*RES
1 *1552:X *1555:A 11.415 
*END

*D_NET *483 0.000535782
*CONN
*I *1554:C1 I *D sky130_fd_sc_hd__a211o_2
*I *1553:X O *D sky130_fd_sc_hd__or4_2
*CAP
1 *1554:C1 0.000194137
2 *1553:X 0.000194137
3 *1554:C1 *1555:B 1.61831e-05
4 *1553:D *1554:C1 8.57563e-05
5 *1554:A1 *1554:C1 1.37328e-05
6 *344:18 *1554:C1 3.1835e-05
*RES
1 *1553:X *1554:C1 5.99 
*END

*D_NET *484 0.00106615
*CONN
*I *1555:B I *D sky130_fd_sc_hd__and2_2
*I *1554:X O *D sky130_fd_sc_hd__a211o_2
*CAP
1 *1555:B 0.000173937
2 *1554:X 0.000173937
3 *1555:B *1718:A 0
4 *1555:B *567:59 4.82919e-05
5 *1553:C *1555:B 0.000112123
6 *1553:D *1555:B 0.000280397
7 *1554:A1 *1555:B 6.71882e-05
8 *1554:B1 *1555:B 4.66108e-05
9 *1554:C1 *1555:B 1.61831e-05
10 *1555:A *1555:B 9.50342e-06
11 *326:47 *1555:B 8.9691e-05
12 *326:68 *1555:B 4.82919e-05
*RES
1 *1554:X *1555:B 12.315 
*END

*D_NET *485 0.00576241
*CONN
*I *1570:A2 I *D sky130_fd_sc_hd__o211a_2
*I *1561:A0 I *D sky130_fd_sc_hd__mux2_1
*I *1582:A2 I *D sky130_fd_sc_hd__o31a_2
*I *1555:X O *D sky130_fd_sc_hd__and2_2
*CAP
1 *1570:A2 0.000270362
2 *1561:A0 0
3 *1582:A2 0.000118804
4 *1555:X 0.000814786
5 *485:27 0.000602511
6 *485:10 0.00126574
7 *1570:A2 *1502:A1 0
8 *1570:A2 *1502:B2 0.00024159
9 *1570:A2 *551:79 2.11552e-05
10 *1582:A2 *1499:S 6.03272e-05
11 *1582:A2 *490:16 2.42236e-05
12 *1582:A2 *495:56 2.03321e-05
13 *1582:A2 *498:8 0.000176099
14 *1582:A2 *498:12 9.50342e-06
15 *1582:A2 *545:136 4.65643e-05
16 *485:10 *1402:B 0.000579411
17 *485:10 *1499:S 6.27029e-05
18 *485:10 *1560:A2 0.000111295
19 *485:10 *567:59 0.00015806
20 *485:27 *1499:S 1.91597e-05
21 *485:27 *490:16 2.0514e-05
22 *485:27 *560:172 9.80943e-06
23 *1527:A *1582:A2 0
24 *1550:B *1570:A2 0.000223016
25 *1550:B *485:27 0.000198939
26 *1557:A *485:10 0.000198046
27 *1557:B *485:10 1.83847e-05
28 *1557:C *485:10 3.00381e-05
29 *1563:B *485:27 5.55968e-05
30 *1581:A1 *1570:A2 4.18603e-06
31 *1582:A1 *1582:A2 0.000294612
32 *431:10 *485:10 7.00889e-06
33 *476:20 *485:27 4.0843e-05
34 *478:28 *1570:A2 5.87862e-05
*RES
1 *1555:X *485:10 16.66 
2 *485:10 *1582:A2 10.04 
3 *485:10 *485:27 4.71 
4 *485:27 *1561:A0 1.6 
5 *485:27 *1570:A2 10.685 
*END

*D_NET *486 0.00255752
*CONN
*I *1559:B1 I *D sky130_fd_sc_hd__a21o_2
*I *1556:X O *D sky130_fd_sc_hd__and2b_2
*CAP
1 *1559:B1 0.000681221
2 *1556:X 0.000681221
3 *1559:B1 *1484:A1 9.66021e-05
4 *1559:B1 *1544:B2 3.85929e-05
5 *1559:B1 *1560:B1 8.49205e-05
6 *1559:B1 *1718:A 0.000312083
7 *1559:B1 *551:105 2.03356e-05
8 *1559:B1 *554:8 0
9 *1559:B1 *557:131 0.000137578
10 *1544:B1 *1559:B1 9.44548e-05
11 *1617:A *1559:B1 0.000316421
12 *451:16 *1559:B1 0
13 *464:16 *1559:B1 3.50033e-05
14 *464:20 *1559:B1 4.0843e-05
15 *470:18 *1559:B1 1.82476e-05
*RES
1 *1556:X *1559:B1 19.845 
*END

*D_NET *487 0.000524807
*CONN
*I *1560:A2 I *D sky130_fd_sc_hd__a21oi_2
*I *1557:X O *D sky130_fd_sc_hd__and3_2
*CAP
1 *1560:A2 0.000148673
2 *1557:X 0.000148673
3 *1560:A2 *1719:A 0.000116165
4 *1557:C *1560:A2 0
5 *485:10 *1560:A2 0.000111295
*RES
1 *1557:X *1560:A2 9.72 
*END

*D_NET *488 0.000387275
*CONN
*I *1559:A2 I *D sky130_fd_sc_hd__a21o_2
*I *1558:X O *D sky130_fd_sc_hd__a21o_2
*CAP
1 *1559:A2 0.000112746
2 *1558:X 0.000112746
3 *1559:A2 *1537:C1 0
4 *1559:A2 *1560:B1 7.21296e-06
5 *1541:A1 *1559:A2 5.20968e-05
6 *1558:B1 *1559:A2 4.99619e-05
7 *464:37 *1559:A2 5.04265e-05
8 *465:22 *1559:A2 2.0851e-06
*RES
1 *1558:X *1559:A2 9.48 
*END

*D_NET *489 0.00109897
*CONN
*I *1560:B1 I *D sky130_fd_sc_hd__a21oi_2
*I *1559:X O *D sky130_fd_sc_hd__a21o_2
*CAP
1 *1560:B1 0.000174084
2 *1559:X 0.000174084
3 *1541:B1 *1560:B1 2.92496e-05
4 *1551:A *1560:B1 2.75145e-05
5 *1558:A1 *1560:B1 0.00011091
6 *1559:A2 *1560:B1 7.21296e-06
7 *1559:B1 *1560:B1 8.49205e-05
8 *431:18 *1560:B1 4.66108e-05
9 *464:20 *1560:B1 8.49205e-05
10 *464:33 *1560:B1 4.66108e-05
11 *464:37 *1560:B1 0.000283988
12 *471:10 *1560:B1 2.88614e-05
*RES
1 *1559:X *1560:B1 12.465 
*END

*D_NET *490 0.00778287
*CONN
*I *1561:A1 I *D sky130_fd_sc_hd__mux2_1
*I *1571:B2 I *D sky130_fd_sc_hd__o221a_2
*I *1585:A2 I *D sky130_fd_sc_hd__o31a_2
*I *1598:A2 I *D sky130_fd_sc_hd__o311a_2
*I *1560:Y O *D sky130_fd_sc_hd__a21oi_2
*CAP
1 *1561:A1 0
2 *1571:B2 0
3 *1585:A2 0.000337198
4 *1598:A2 9.13947e-05
5 *1560:Y 0.000743424
6 *490:30 0.000536024
7 *490:28 0.000753935
8 *490:16 0.00138993
9 *1585:A2 *1598:C1 0.00017555
10 *1598:A2 *1577:B 7.9642e-06
11 *1598:A2 *1584:A3 4.76303e-05
12 *1598:A2 *497:10 4.66474e-05
13 *1598:A2 *523:14 3.43011e-05
14 *1598:A2 *617:43 9.67081e-06
15 *490:16 *1499:S 8.53113e-06
16 *490:16 *545:136 6.55011e-05
17 *490:16 *560:172 0.000198934
18 *490:28 *1564:C1 2.35435e-05
19 *490:28 *1566:A 0.000296876
20 *490:28 *1596:A_N 8.23457e-05
21 *490:28 *523:14 1.64181e-05
22 *490:28 *556:49 0.000208957
23 *490:30 *1566:A 5.16418e-05
24 *490:30 *1584:A3 0.000144449
25 *490:30 *523:14 6.73502e-05
26 *490:30 *615:27 3.36429e-05
27 *1498:A *490:16 0.000161719
28 *1499:A1 *490:16 0.000196376
29 *1503:A2 *490:16 6.6564e-05
30 *1527:A *490:16 0
31 *1560:A1 *490:16 4.43467e-05
32 *1563:B *490:16 0.000225143
33 *1582:A2 *490:16 2.42236e-05
34 *1584:A2 *490:30 0.000156607
35 *1585:A1 *1585:A2 7.31985e-05
36 *1598:A1 *1598:A2 4.66108e-05
37 *431:18 *490:16 0.000476334
38 *476:20 *490:16 0.000297055
39 *476:20 *490:28 0.000287825
40 *479:10 *490:28 0.000193801
41 *480:21 *490:16 0.00012982
42 *480:21 *490:28 1.08758e-05
43 *485:27 *490:16 2.0514e-05
*RES
1 *1560:Y *490:16 23.24 
2 *490:16 *490:28 13.16 
3 *490:28 *490:30 3.42 
4 *490:30 *1598:A2 5.175 
5 *490:30 *1585:A2 7.77 
6 *490:28 *1571:B2 3.6 
7 *490:16 *1561:A1 1.6 
*END

*D_NET *491 0.000562032
*CONN
*I *1562:B I *D sky130_fd_sc_hd__xnor2_2
*I *1561:X O *D sky130_fd_sc_hd__mux2_1
*CAP
1 *1562:B 0.000121389
2 *1561:X 0.000121389
3 *1562:B *1564:C1 4.82919e-05
4 *1562:B *1565:A1 4.82919e-05
5 *1562:B *545:149 2.59981e-05
6 *1562:B *560:172 0.000196671
7 *480:36 *1562:B 0
*RES
1 *1561:X *1562:B 10.05 
*END

*D_NET *492 0.00122485
*CONN
*I *1565:A2 I *D sky130_fd_sc_hd__o21ai_2
*I *1562:Y O *D sky130_fd_sc_hd__xnor2_2
*CAP
1 *1565:A2 0.000164069
2 *1562:Y 0.000164069
3 *1565:A2 *1547:A 4.00541e-06
4 *1565:A2 *1564:C1 0.000124052
5 *1565:A2 *1565:A1 3.1226e-05
6 *1565:A2 *579:10 7.80933e-05
7 *1565:A2 *579:16 6.97118e-05
8 *1564:B1 *1565:A2 0.000526597
9 *422:10 *1565:A2 4.82919e-05
10 *477:12 *1565:A2 1.47347e-05
*RES
1 *1562:Y *1565:A2 8.84 
*END

*D_NET *493 0.00210406
*CONN
*I *1564:C1 I *D sky130_fd_sc_hd__o221a_2
*I *1563:X O *D sky130_fd_sc_hd__or2_2
*CAP
1 *1564:C1 0.000522024
2 *1563:X 0.000522024
3 *1564:C1 *1565:A1 9.90606e-05
4 *1564:C1 *1566:A 4.08933e-05
5 *1564:C1 *1596:A_N 2.14017e-05
6 *1564:C1 *495:10 1.16578e-05
7 *1564:C1 *545:149 0.000120655
8 *1564:C1 *564:66 9.14049e-05
9 *1564:C1 *579:16 4.94326e-05
10 *1562:B *1564:C1 4.82919e-05
11 *1564:B1 *1564:C1 0.000187521
12 *1565:A2 *1564:C1 0.000124052
13 *422:10 *1564:C1 8.57024e-05
14 *477:12 *1564:C1 0.00015639
15 *490:28 *1564:C1 2.35435e-05
*RES
1 *1563:X *1564:C1 18.09 
*END

*D_NET *494 0.000197566
*CONN
*I *1565:B1 I *D sky130_fd_sc_hd__o21ai_2
*I *1564:X O *D sky130_fd_sc_hd__o221a_2
*CAP
1 *1565:B1 5.62748e-05
2 *1564:X 5.62748e-05
3 *1565:B1 *614:27 7.23533e-05
4 *1564:B1 *1565:B1 0
5 *478:16 *1565:B1 1.26626e-05
*RES
1 *1564:X *1565:B1 8.325 
*END

*D_NET *495 0.00633846
*CONN
*I *1569:A I *D sky130_fd_sc_hd__or2_2
*I *1575:A2 I *D sky130_fd_sc_hd__o221a_2
*I *1581:A2 I *D sky130_fd_sc_hd__o21ba_2
*I *1568:A I *D sky130_fd_sc_hd__nor2_2
*I *1566:Y O *D sky130_fd_sc_hd__nor2_2
*CAP
1 *1569:A 0
2 *1575:A2 0.000133692
3 *1581:A2 0.000153877
4 *1568:A 0.000472
5 *1566:Y 0.000103674
6 *495:56 0.00081282
7 *495:12 0.000683685
8 *495:10 0.00084061
9 *1568:A *1577:B 1.82563e-05
10 *1568:A *1584:A3 4.24292e-06
11 *1568:A *1589:A2 3.64998e-06
12 *1568:A *1598:B1 0.000109786
13 *1568:A *1608:B1 3.79213e-05
14 *1568:A *497:10 0.000149284
15 *1568:A *500:8 4.66108e-05
16 *1568:A *564:22 0.000196438
17 *1568:A *580:12 1.91597e-05
18 *1568:A *615:27 0.000115433
19 *1575:A2 *1576:B1_N 4.62914e-05
20 *1575:A2 *1731:A 4.05358e-05
21 *1575:A2 *498:8 6.6924e-05
22 *1575:A2 *556:49 0.000188781
23 *1581:A2 *1567:B 0.000120655
24 *1581:A2 *496:30 0.000160739
25 *1581:A2 *500:8 7.60175e-05
26 *495:10 *1566:B 1.97442e-05
27 *495:10 *564:35 2.44872e-05
28 *495:10 *564:66 3.70538e-05
29 *495:12 *564:22 0.000151726
30 *495:12 *564:35 2.42236e-05
31 *495:56 *1570:B1 0.000110875
32 *495:56 *1573:A1 0.00010877
33 *495:56 *1573:A3 0.000163199
34 *495:56 *1576:A2 8.05167e-05
35 *495:56 *1596:A_N 2.49909e-05
36 *495:56 *1731:A 1.77593e-05
37 *495:56 *498:8 2.19433e-05
38 *1527:A *495:56 2.46271e-05
39 *1564:C1 *495:10 1.16578e-05
40 *1570:A1 *495:56 1.18624e-05
41 *1581:A1 *1581:A2 8.58007e-05
42 *1582:A2 *495:56 2.03321e-05
43 *121:42 *1575:A2 0
44 *121:42 *495:56 6.63219e-06
45 *124:33 *1575:A2 5.16348e-05
46 *476:12 *495:10 8.7152e-06
47 *479:10 *495:10 0.000115431
48 *479:10 *495:12 0.000195531
49 *479:16 *1568:A 0.000411896
50 *479:16 *495:12 7.9642e-06
*RES
1 *1566:Y *495:10 5.685 
2 *495:10 *495:12 2.4 
3 *495:12 *1568:A 18.025 
4 *495:12 *1581:A2 7.275 
5 *495:10 *495:56 13.165 
6 *495:56 *1575:A2 7.275 
7 *495:56 *1569:A 3.6 
*END

*D_NET *496 0.00523486
*CONN
*I *1581:B1_N I *D sky130_fd_sc_hd__o21ba_2
*I *1569:B I *D sky130_fd_sc_hd__or2_2
*I *1574:B I *D sky130_fd_sc_hd__nand2_2
*I *1568:B I *D sky130_fd_sc_hd__nor2_2
*I *1567:X O *D sky130_fd_sc_hd__and2_2
*CAP
1 *1581:B1_N 0
2 *1569:B 0.000140012
3 *1574:B 0.000258493
4 *1568:B 0.000412046
5 *1567:X 0.000587828
6 *496:32 0.000444967
7 *496:30 0.000222244
8 *1568:B *1502:A1 0.000659927
9 *1568:B *1589:A1 4.82919e-05
10 *1568:B *1589:A2 0.000193806
11 *1568:B *500:8 4.66108e-05
12 *1568:B *555:18 0.000665829
13 *1569:B *1573:A1 4.21889e-05
14 *1569:B *1573:A3 0
15 *1569:B *1731:A 0.000120655
16 *1574:B *1576:A1 5.4155e-06
17 *1574:B *1576:B1_N 1.12643e-05
18 *1574:B *1582:B1 0.00011802
19 *1574:B *510:18 0.000234615
20 *1574:B *545:115 0.000149908
21 *496:30 *1576:A2 5.74791e-05
22 *496:30 *1582:B1 5.73214e-05
23 *496:30 *500:8 9.80032e-06
24 *496:32 *1576:A1 1.61831e-05
25 *496:32 *1576:A2 8.40213e-05
26 *496:32 *1582:B1 0.000176212
27 *496:32 *510:18 1.34503e-05
28 *1416:A *1574:B 7.45881e-05
29 *1573:B1 *1569:B 4.82863e-05
30 *1581:A2 *496:30 0.000160739
31 *1589:B2 *1568:B 4.15302e-05
32 *121:42 *1569:B 0.000133126
*RES
1 *1567:X *1568:B 18.45 
2 *1567:X *496:30 4.825 
3 *496:30 *496:32 1.83 
4 *496:32 *1574:B 12.005 
5 *496:32 *1569:B 8.735 
6 *496:30 *1581:B1_N 1.6 
*END

*D_NET *497 0.00214567
*CONN
*I *1585:A3 I *D sky130_fd_sc_hd__o31a_2
*I *1584:A3 I *D sky130_fd_sc_hd__o31a_2
*I *1598:A3 I *D sky130_fd_sc_hd__o311a_2
*I *1568:Y O *D sky130_fd_sc_hd__nor2_2
*CAP
1 *1585:A3 0.000235023
2 *1584:A3 0.000117491
3 *1598:A3 0.000244755
4 *1568:Y 0.000194044
5 *497:10 0.000321267
6 *1584:A3 *1584:B1 5.83121e-06
7 *1584:A3 *1598:B1 5.19173e-05
8 *1584:A3 *615:6 1.19928e-05
9 *1584:A3 *615:27 7.1456e-05
10 *1598:A3 *1598:C1 4.82863e-05
11 *497:10 *1577:B 0.000241193
12 *497:10 *1598:B1 4.55864e-06
13 *1568:A *1584:A3 4.24292e-06
14 *1568:A *497:10 0.000149284
15 *1585:A1 *1585:A3 8.88799e-05
16 *1598:A1 *1585:A3 6.52265e-05
17 *1598:A1 *1598:A3 4.82863e-05
18 *1598:A2 *1584:A3 4.76303e-05
19 *1598:A2 *497:10 4.66474e-05
20 *479:16 *1585:A3 3.21081e-06
21 *490:30 *1584:A3 0.000144449
*RES
1 *1568:Y *497:10 7.725 
2 *497:10 *1598:A3 4.05 
3 *497:10 *1584:A3 6.45 
4 *1598:A3 *1585:A3 6.44 
*END

*D_NET *498 0.0020797
*CONN
*I *1573:A1 I *D sky130_fd_sc_hd__o31a_2
*I *1582:A3 I *D sky130_fd_sc_hd__o31a_2
*I *1572:B1 I *D sky130_fd_sc_hd__o21ai_2
*I *1575:B1 I *D sky130_fd_sc_hd__o221a_2
*I *1569:X O *D sky130_fd_sc_hd__or2_2
*CAP
1 *1573:A1 0.000143644
2 *1582:A3 0
3 *1572:B1 7.16055e-05
4 *1575:B1 2.80755e-06
5 *1569:X 0
6 *498:12 0.000150415
7 *498:8 0.000128767
8 *498:4 0.000196409
9 *1572:B1 *1575:C1 5.4155e-06
10 *1572:B1 *1609:B1 0.000274659
11 *1572:B1 *556:29 4.43682e-05
12 *1573:A1 *1573:A2 3.90732e-05
13 *1573:A1 *1573:A3 8.8266e-05
14 *1573:A1 *1576:A2 1.76441e-05
15 *1573:A1 *1731:A 9.80943e-06
16 *1575:B1 *1609:B1 2.50318e-07
17 *498:8 *556:49 2.10433e-05
18 *498:12 *545:115 8.59884e-05
19 *498:12 *556:49 0.000182349
20 *1569:B *1573:A1 4.21889e-05
21 *1573:B1 *1573:A1 4.66108e-05
22 *1575:A1 *1572:B1 0.000124007
23 *1575:A2 *498:8 6.6924e-05
24 *1582:A2 *498:8 0.000176099
25 *1582:A2 *498:12 9.50342e-06
26 *124:33 *1572:B1 9.27255e-06
27 *124:33 *1575:B1 3.78034e-06
28 *124:33 *498:12 8.09021e-06
29 *125:25 *1572:B1 0
30 *495:56 *1573:A1 0.00010877
31 *495:56 *498:8 2.19433e-05
*RES
1 *1569:X *498:4 1.6 
2 *498:4 *498:8 4.145 
3 *498:8 *498:12 4.4 
4 *498:12 *1575:B1 1.70875 
5 *498:12 *1572:B1 4.48 
6 *498:8 *1582:A3 3.6 
7 *498:4 *1573:A1 5.17 
*END

*D_NET *499 0.00123635
*CONN
*I *1572:A1 I *D sky130_fd_sc_hd__o21ai_2
*I *1573:A2 I *D sky130_fd_sc_hd__o31a_2
*I *1570:X O *D sky130_fd_sc_hd__o211a_2
*CAP
1 *1572:A1 0.000127983
2 *1573:A2 5.98047e-05
3 *1570:X 0
4 *499:4 0.000187788
5 *1572:A1 *1561:S 0.000303047
6 *1572:A1 *1572:A2 0.000149597
7 *1572:A1 *1573:A3 7.5335e-05
8 *1573:A2 *1573:A3 2.59835e-05
9 *1573:A2 *1576:A2 2.0514e-05
10 *1573:A2 *1731:A 0.000198939
11 *1570:A1 *1573:A2 4.82863e-05
12 *1573:A1 *1573:A2 3.90732e-05
*RES
1 *1570:X *499:4 1.6 
2 *499:4 *1573:A2 3.79 
3 *499:4 *1572:A1 9.275 
*END

*D_NET *500 0.00245153
*CONN
*I *1572:A2 I *D sky130_fd_sc_hd__o21ai_2
*I *1573:A3 I *D sky130_fd_sc_hd__o31a_2
*I *1571:X O *D sky130_fd_sc_hd__o221a_2
*CAP
1 *1572:A2 6.76979e-05
2 *1573:A3 0.00025638
3 *1571:X 0.000267037
4 *500:8 0.000591114
5 *1572:A2 *1561:S 1.15688e-05
6 *1572:A2 *1576:A1 9.30717e-05
7 *1572:A2 *1609:B1 3.00381e-05
8 *1572:A2 *510:18 2.60908e-05
9 *1572:A2 *556:29 1.83756e-05
10 *1573:A3 *1561:S 3.61388e-06
11 *1573:A3 *1576:A2 1.08758e-05
12 *500:8 *1567:B 1.91597e-05
13 *500:8 *1576:A2 0.000119762
14 *500:8 *1583:A_N 4.66108e-05
15 *500:8 *580:12 7.14699e-05
16 *1527:A *1573:A3 0
17 *1568:A *500:8 4.66108e-05
18 *1568:B *500:8 4.66108e-05
19 *1569:B *1573:A3 0
20 *1570:A1 *1573:A3 5.02892e-05
21 *1572:A1 *1572:A2 0.000149597
22 *1572:A1 *1573:A3 7.5335e-05
23 *1573:A1 *1573:A3 8.8266e-05
24 *1573:A2 *1573:A3 2.59835e-05
25 *1581:A1 *500:8 8.69583e-05
26 *1581:A2 *500:8 7.60175e-05
27 *121:42 *1572:A2 0
28 *121:42 *1573:A3 0
29 *495:56 *1573:A3 0.000163199
30 *496:30 *500:8 9.80032e-06
*RES
1 *1571:X *500:8 8.535 
2 *500:8 *1573:A3 8.3175 
3 *500:8 *1572:A2 6.0675 
*END

*D_NET *501 0.000487974
*CONN
*I *1576:A1 I *D sky130_fd_sc_hd__a21bo_2
*I *1572:Y O *D sky130_fd_sc_hd__o21ai_2
*CAP
1 *1576:A1 0.000130568
2 *1572:Y 0.000130568
3 *1576:A1 *1576:A2 2.75145e-05
4 *1576:A1 *510:18 8.46522e-05
5 *1572:A2 *1576:A1 9.30717e-05
6 *1574:B *1576:A1 5.4155e-06
7 *496:32 *1576:A1 1.61831e-05
*RES
1 *1572:Y *1576:A1 9.735 
*END

*D_NET *502 0.00133002
*CONN
*I *1576:A2 I *D sky130_fd_sc_hd__a21bo_2
*I *1573:X O *D sky130_fd_sc_hd__o31a_2
*CAP
1 *1576:A2 0.000200107
2 *1573:X 0.000200107
3 *1576:A2 *1502:B2 2.99953e-05
4 *1576:A2 *1561:S 0.00019541
5 *1576:A2 *1570:B1 0
6 *1576:A2 *555:18 0.000165415
7 *1570:A1 *1576:A2 0.000120655
8 *1573:A1 *1576:A2 1.76441e-05
9 *1573:A2 *1576:A2 2.0514e-05
10 *1573:A3 *1576:A2 1.08758e-05
11 *1576:A1 *1576:A2 2.75145e-05
12 *495:56 *1576:A2 8.05167e-05
13 *496:30 *1576:A2 5.74791e-05
14 *496:32 *1576:A2 8.40213e-05
15 *500:8 *1576:A2 0.000119762
*RES
1 *1573:X *1576:A2 13.275 
*END

*D_NET *503 0.000280391
*CONN
*I *1575:C1 I *D sky130_fd_sc_hd__o221a_2
*I *1574:Y O *D sky130_fd_sc_hd__nand2_2
*CAP
1 *1575:C1 6.38424e-05
2 *1574:Y 6.38424e-05
3 *1575:C1 *556:29 4.00541e-06
4 *1572:B1 *1575:C1 5.4155e-06
5 *124:33 *1575:C1 6.97118e-05
6 *125:25 *1575:C1 7.35729e-05
*RES
1 *1574:Y *1575:C1 5.06 
*END

*D_NET *504 0.000330684
*CONN
*I *1576:B1_N I *D sky130_fd_sc_hd__a21bo_2
*I *1575:X O *D sky130_fd_sc_hd__o221a_2
*CAP
1 *1576:B1_N 6.07569e-05
2 *1575:X 6.07569e-05
3 *1576:B1_N *1582:B1 1.12643e-05
4 *1574:B *1576:B1_N 1.12643e-05
5 *1575:A2 *1576:B1_N 4.62914e-05
6 *121:42 *1576:B1_N 0.000135912
7 *124:33 *1576:B1_N 4.43871e-06
*RES
1 *1575:X *1576:B1_N 8.94375 
*END

*D_NET *505 0.00379497
*CONN
*I *1589:A2 I *D sky130_fd_sc_hd__o22a_2
*I *1599:A1 I *D sky130_fd_sc_hd__a21o_2
*I *1580:A I *D sky130_fd_sc_hd__nand2_2
*I *1577:Y O *D sky130_fd_sc_hd__nand2_2
*CAP
1 *1589:A2 0.00025288
2 *1599:A1 0.000321494
3 *1580:A 0
4 *1577:Y 0.000148704
5 *505:19 0.00080733
6 *505:10 0.00038166
7 *1589:A2 *1577:B 4.4133e-05
8 *1589:A2 *1608:B1 1.08879e-05
9 *1589:A2 *564:22 5.98203e-05
10 *1599:A1 *1502:A1 8.82813e-05
11 *1599:A1 *1590:B1 2.75229e-05
12 *1599:A1 *526:8 7.9205e-06
13 *1599:A1 *564:22 4.98756e-05
14 *1599:A1 *627:10 8.40213e-05
15 *505:10 *1577:A 3.00381e-05
16 *505:10 *1577:B 8.49205e-05
17 *505:10 *1605:B1 0.000132861
18 *505:10 *1606:B2 0.00032488
19 *505:10 *1607:D_N 9.70039e-05
20 *505:10 *560:18 1.03423e-05
21 *505:19 *1577:B 1.80007e-05
22 *505:19 *1595:A 1.1561e-05
23 *505:19 *1606:B2 0.000343855
24 *505:19 *1607:D_N 7.10059e-05
25 *505:19 *1608:B1 0.000109385
26 statusOut *505:19 9.58678e-06
27 *1568:A *1589:A2 3.64998e-06
28 *1568:B *1589:A2 0.000193806
29 *1692:A *1589:A2 2.85364e-05
30 *1692:A *505:19 4.10051e-05
*RES
1 *1577:Y *505:10 8.325 
2 *505:10 *1580:A 3.6 
3 *505:10 *505:19 5.715 
4 *505:19 *1599:A1 8.31 
5 *505:19 *1589:A2 7.665 
*END

*D_NET *506 0.00262563
*CONN
*I *1589:B1 I *D sky130_fd_sc_hd__o22a_2
*I *1599:B1 I *D sky130_fd_sc_hd__a21o_2
*I *1578:Y O *D sky130_fd_sc_hd__nor2_2
*CAP
1 *1589:B1 7.18891e-05
2 *1599:B1 5.44159e-05
3 *1578:Y 0.000567058
4 *506:12 0.000693363
5 *1589:B1 *1608:A2 3.68784e-05
6 *1589:B1 *1630:A 5.39652e-05
7 *1599:B1 *1502:A1 8.7152e-06
8 *1599:B1 *1590:B1 0.000134386
9 *1599:B1 *1608:A2 1.1561e-05
10 *1599:B1 *555:18 1.20478e-05
11 *506:12 *1163:B 0.000118081
12 *506:12 *1501:A 1.61831e-05
13 *506:12 *1578:A 0.000129107
14 *506:12 *1578:B 5.97622e-05
15 *506:12 *1630:A 0.000366589
16 *506:12 *570:20 9.80032e-06
17 *1589:B2 *1589:B1 0
18 *1619:A *506:12 8.33817e-05
19 *118:54 *1589:B1 7.30547e-05
20 *118:54 *1599:B1 0.000125396
*RES
1 *1578:Y *506:12 13.83 
2 *506:12 *1599:B1 5.49 
3 *506:12 *1589:B1 5.56125 
*END

*D_NET *507 0.00468305
*CONN
*I *1580:B I *D sky130_fd_sc_hd__nand2_2
*I *1579:X O *D sky130_fd_sc_hd__or2_2
*CAP
1 *1580:B 0.00134993
2 *1579:X 0.00134993
3 *1580:B *1588:A2 1.17666e-05
4 *1580:B *1591:A2 0.000144987
5 *1580:B *1605:A2 2.49909e-05
6 *1580:B *1605:B1 4.82863e-05
7 *1580:B *1607:D_N 5.8023e-05
8 *1580:B *1608:A1 0.000825739
9 *1580:B *551:46 0.000111946
10 *1580:B *551:67 5.59815e-05
11 *1580:B *555:18 0
12 *1580:B *617:43 0.000135323
13 statusOut *1580:B 1.44071e-06
14 y[16] *1580:B 6.1443e-05
15 *1589:B2 *1580:B 0.000334295
16 *1600:A *1580:B 0
17 *118:20 *1580:B 0
18 *118:50 *1580:B 0
19 *124:33 *1580:B 0.000168971
*RES
1 *1579:X *1580:B 15.3563 
*END

*D_NET *508 0.00514843
*CONN
*I *1590:A2 I *D sky130_fd_sc_hd__o21ai_2
*I *1588:A1 I *D sky130_fd_sc_hd__o21a_2
*I *1587:A I *D sky130_fd_sc_hd__nand2_2
*I *1580:Y O *D sky130_fd_sc_hd__nand2_2
*CAP
1 *1590:A2 0
2 *1588:A1 0.000184319
3 *1587:A 2.9631e-05
4 *1580:Y 0.000622969
5 *508:22 0.000614887
6 *508:14 0.00102391
7 *1587:A *1391:A 7.92997e-05
8 *1587:A *1591:A1 2.49909e-05
9 *1588:A1 *1578:A 4.02505e-05
10 *1588:A1 *1578:B 5.59142e-05
11 *1588:A1 *1579:B 4.82863e-05
12 *1588:A1 *1587:B 7.4027e-05
13 *1588:A1 *1591:A2 5.83121e-06
14 *508:14 *1162:A 3.47681e-05
15 *508:14 *1170:B 7.36562e-05
16 *508:14 *1599:A2 2.85364e-05
17 *508:14 *1605:B1 0.000644078
18 *508:14 *1709:A 0.000300185
19 *508:14 *627:31 2.34423e-05
20 *508:22 *1167:B 1.39525e-05
21 *508:22 *1578:A 5.83373e-05
22 *508:22 *1709:A 0.000189902
23 *1588:B1 *1588:A1 3.09774e-05
24 *1615:A *508:14 4.8398e-05
25 *1618:A *508:14 9.26537e-05
26 *1622:A *508:14 0
27 *121:25 *1588:A1 8.30403e-05
28 *124:10 *508:22 7.59297e-05
29 *125:8 *1588:A1 0.000172158
30 *125:8 *508:22 0.000349205
31 *140:20 *508:14 0.000124895
*RES
1 *1580:Y *508:14 18.41 
2 *508:14 *508:22 10.1 
3 *508:22 *1587:A 4.41 
4 *508:22 *1588:A1 8.295 
5 *508:14 *1590:A2 1.6 
*END

*D_NET *509 0.000975249
*CONN
*I *1582:B1 I *D sky130_fd_sc_hd__o31a_2
*I *1581:X O *D sky130_fd_sc_hd__o21ba_2
*CAP
1 *1582:B1 0.000306215
2 *1581:X 0.000306215
3 *1574:B *1582:B1 0.00011802
4 *1576:B1_N *1582:B1 1.12643e-05
5 *496:30 *1582:B1 5.73214e-05
6 *496:32 *1582:B1 0.000176212
*RES
1 *1581:X *1582:B1 8.27 
*END

*D_NET *510 0.00358076
*CONN
*I *1586:A0 I *D sky130_fd_sc_hd__mux2_1
*I *1599:A2 I *D sky130_fd_sc_hd__a21o_2
*I *1582:X O *D sky130_fd_sc_hd__o31a_2
*CAP
1 *1586:A0 4.17177e-05
2 *1599:A2 0.00024178
3 *1582:X 0.000772437
4 *510:18 0.00105593
5 *1586:A0 *1391:A 0.000118081
6 *1586:A0 *1733:A 4.66108e-05
7 *1586:A0 *654:10 2.39856e-05
8 *1599:A2 *1162:A 0.000170759
9 *1599:A2 *1590:A1 4.0843e-05
10 *1599:A2 *1590:B1 4.82919e-05
11 *1599:A2 *1591:B1 0.000307408
12 *1599:A2 *1709:A 9.387e-06
13 *1599:A2 *1733:A 4.92861e-05
14 *510:18 *1162:A 5.80794e-05
15 *510:18 *1561:S 0
16 *510:18 *1733:A 2.82887e-05
17 *510:18 *556:29 0
18 *1572:A2 *510:18 2.60908e-05
19 *1574:B *510:18 0.000234615
20 *1575:A1 *510:18 0.000167084
21 *1576:A1 *510:18 8.46522e-05
22 *121:42 *510:18 9.82856e-06
23 *128:21 *1599:A2 3.61388e-06
24 *496:32 *510:18 1.34503e-05
25 *508:14 *1599:A2 2.85364e-05
*RES
1 *1582:X *510:18 15.015 
2 *510:18 *1599:A2 9.525 
3 *510:18 *1586:A0 4.74 
*END

*D_NET *511 0.000299865
*CONN
*I *1584:B1 I *D sky130_fd_sc_hd__o31a_2
*I *1583:Y O *D sky130_fd_sc_hd__nand2b_2
*CAP
1 *1584:B1 7.6484e-05
2 *1583:Y 7.6484e-05
3 *1584:B1 *1583:B 9.44548e-05
4 *1584:B1 *615:6 4.66108e-05
5 *1584:A3 *1584:B1 5.83121e-06
*RES
1 *1583:Y *1584:B1 4.7 
*END

*D_NET *512 0.00165826
*CONN
*I *1598:B1 I *D sky130_fd_sc_hd__o311a_2
*I *1585:B1 I *D sky130_fd_sc_hd__o31a_2
*I *1584:X O *D sky130_fd_sc_hd__o31a_2
*CAP
1 *1598:B1 5.41131e-05
2 *1585:B1 0.000203072
3 *1584:X 0.000185723
4 *512:6 0.000442908
5 *1585:B1 *1502:A1 0.000114565
6 *1585:B1 *1583:B 8.23457e-05
7 *1585:B1 *1608:B1 2.76356e-05
8 *1585:B1 *564:22 0.000112892
9 *512:6 *1583:B 4.82919e-05
10 *512:6 *615:6 0.000220453
11 *1568:A *1598:B1 0.000109786
12 *1584:A3 *1598:B1 5.19173e-05
13 *497:10 *1598:B1 4.55864e-06
*RES
1 *1584:X *512:6 4.12 
2 *512:6 *1585:B1 8.81 
3 *512:6 *1598:B1 6.98 
*END

*D_NET *513 0.000559766
*CONN
*I *1586:A1 I *D sky130_fd_sc_hd__mux2_1
*I *1585:X O *D sky130_fd_sc_hd__o31a_2
*CAP
1 *1586:A1 9.10178e-05
2 *1585:X 9.10178e-05
3 *1586:A1 *1391:A 2.54522e-05
4 *1586:A1 *1608:A1 9.21178e-05
5 *1586:A1 *654:10 0.000118081
6 *1571:C1 *1586:A1 9.21178e-05
7 *1586:S *1586:A1 4.99619e-05
*RES
1 *1585:X *1586:A1 9.825 
*END

*D_NET *514 0.00129648
*CONN
*I *1588:A2 I *D sky130_fd_sc_hd__o21a_2
*I *1587:B I *D sky130_fd_sc_hd__nand2_2
*I *1586:X O *D sky130_fd_sc_hd__mux2_1
*CAP
1 *1588:A2 3.41869e-05
2 *1587:B 0.000170368
3 *1586:X 0.000114587
4 *514:6 0.000319141
5 *1587:B *1578:A 7.23533e-05
6 *1587:B *654:10 0.000191232
7 *1588:A2 *1162:B 9.17274e-05
8 *1588:A2 *1591:A2 7.06865e-05
9 *514:6 *654:10 0.000146408
10 *1580:B *1588:A2 1.17666e-05
11 *1588:A1 *1587:B 7.4027e-05
*RES
1 *1586:X *514:6 3.085 
2 *514:6 *1587:B 8.3 
3 *514:6 *1588:A2 6.725 
*END

*D_NET *515 0.000528045
*CONN
*I *1591:A1 I *D sky130_fd_sc_hd__a21o_2
*I *1587:Y O *D sky130_fd_sc_hd__nand2_2
*CAP
1 *1591:A1 9.72498e-05
2 *1587:Y 9.72498e-05
3 *1591:A1 *1391:A 5.57465e-05
4 *1591:A1 *1591:A2 2.75229e-05
5 *1591:A1 *654:10 0.000225285
6 *1587:A *1591:A1 2.49909e-05
*RES
1 *1587:Y *1591:A1 5.735 
*END

*D_NET *516 0.000959071
*CONN
*I *1591:A2 I *D sky130_fd_sc_hd__a21o_2
*I *1588:X O *D sky130_fd_sc_hd__o21a_2
*CAP
1 *1591:A2 0.000240797
2 *1588:X 0.000240797
3 *1591:A2 *1162:B 7.2787e-05
4 *1591:A2 *1391:A 8.65961e-05
5 *1591:A2 *654:10 1.34503e-05
6 *1580:B *1591:A2 0.000144987
7 *1588:A1 *1591:A2 5.83121e-06
8 *1588:A2 *1591:A2 7.06865e-05
9 *1588:B1 *1591:A2 4.41506e-05
10 *1591:A1 *1591:A2 2.75229e-05
11 *121:25 *1591:A2 6.07575e-06
12 *124:33 *1591:A2 5.38986e-06
*RES
1 *1588:X *1591:A2 11.715 
*END

*D_NET *517 0.000607982
*CONN
*I *1590:B1 I *D sky130_fd_sc_hd__o21ai_2
*I *1589:X O *D sky130_fd_sc_hd__o22a_2
*CAP
1 *1590:B1 9.54641e-05
2 *1589:X 9.54641e-05
3 *1590:B1 *1590:A1 4.82919e-05
4 *1590:B1 *1600:B 7.05574e-05
5 *1590:B1 *1608:A2 7.23602e-05
6 *1590:B1 *526:8 1.56428e-05
7 *1599:A1 *1590:B1 2.75229e-05
8 *1599:A2 *1590:B1 4.82919e-05
9 *1599:B1 *1590:B1 0.000134386
*RES
1 *1589:X *1590:B1 9.975 
*END

*D_NET *518 0.0010354
*CONN
*I *1591:B1 I *D sky130_fd_sc_hd__a21o_2
*I *1590:Y O *D sky130_fd_sc_hd__o21ai_2
*CAP
1 *1591:B1 0.000163886
2 *1590:Y 0.000163886
3 *1591:B1 *1391:A 0.000109809
4 *1591:B1 *1733:A 8.49205e-05
5 *1591:B1 *654:10 4.0843e-05
6 *1575:A1 *1591:B1 4.97611e-05
7 *1599:A2 *1591:B1 0.000307408
8 *128:21 *1591:B1 0.000114888
*RES
1 *1590:Y *1591:B1 12.36 
*END

*D_NET *519 0.00753555
*CONN
*I *1608:A1 I *D sky130_fd_sc_hd__a21oi_2
*I *1604:A2 I *D sky130_fd_sc_hd__o221a_2
*I *1594:A I *D sky130_fd_sc_hd__nand2_2
*I *1592:Y O *D sky130_fd_sc_hd__nand2_2
*CAP
1 *1608:A1 0.00152881
2 *1604:A2 0
3 *1594:A 5.77425e-05
4 *1592:Y 0
5 *519:21 0.00199016
6 *519:4 0.000519091
7 *1594:A *535:58 7.43778e-05
8 *1594:A *616:8 2.42236e-05
9 *1594:A *619:24 9.31313e-05
10 *1608:A1 *1184:B 1.45506e-05
11 *1608:A1 *1577:B 1.7635e-05
12 *1608:A1 *1608:A2 0.000318326
13 *1608:A1 *1734:A 3.13574e-05
14 *1608:A1 *521:23 3.17219e-05
15 *1608:A1 *617:43 0.000186412
16 *519:21 *1184:B 0.000252983
17 *519:21 *1592:A 0
18 *519:21 *1592:B 4.90227e-05
19 *519:21 *521:10 0.000110242
20 *519:21 *521:23 1.17666e-05
21 *519:21 *619:24 4.66108e-05
22 y[16] *1608:A1 2.63223e-05
23 *1571:C1 *1608:A1 0.000121312
24 *1580:B *1608:A1 0.000825739
25 *1586:A1 *1608:A1 9.21178e-05
26 *1600:A *1608:A1 0
27 *1646:A *519:21 0.00011766
28 *1648:A *1608:A1 7.10171e-05
29 *1648:A *519:21 0.000368536
30 *106:14 *1594:A 4.33239e-05
31 *106:14 *519:21 0
32 *139:16 *519:21 0.000401873
33 *141:14 *519:21 0.000109489
*RES
1 *1592:Y *519:4 1.6 
2 *519:4 *1594:A 7.49 
3 *519:4 *519:21 13.955 
4 *519:21 *1604:A2 3.6 
5 *519:21 *1608:A1 13.1141 
*END

*D_NET *520 0.00480705
*CONN
*I *1607:D_N I *D sky130_fd_sc_hd__or4b_2
*I *1603:B I *D sky130_fd_sc_hd__nand2_2
*I *1594:B I *D sky130_fd_sc_hd__nand2_2
*I *1593:X O *D sky130_fd_sc_hd__or2_2
*CAP
1 *1607:D_N 0.000415064
2 *1603:B 0.000132877
3 *1594:B 0.000153106
4 *1593:X 0.000214966
5 *520:12 0.000413824
6 *520:10 0.000757871
7 *1594:B *563:128 1.43417e-05
8 *1594:B *563:136 1.61716e-05
9 *1594:B *630:10 2.97561e-05
10 *1594:B *630:27 5.84113e-05
11 *1603:B *1604:C1 0.000490894
12 *1603:B *592:51 6.04957e-05
13 *1607:D_N *1184:A 0
14 *1607:D_N *1194:A1 7.99402e-05
15 *1607:D_N *1577:B 0.000179039
16 *1607:D_N *1605:B1 0.000134528
17 *1607:D_N *1606:B2 6.33921e-05
18 *1607:D_N *1607:C 4.82919e-05
19 *1607:D_N *1608:B1 5.16418e-05
20 *1607:D_N *1629:A 4.82919e-05
21 *1607:D_N *555:18 0
22 *1607:D_N *563:128 3.09134e-05
23 *520:10 *1593:A 4.02438e-05
24 *520:10 *1593:B 0.000121659
25 *520:10 *563:128 3.06569e-06
26 *520:12 *1194:A1 7.03219e-05
27 *520:12 *1592:A 4.74386e-05
28 *520:12 *563:128 4.18273e-05
29 *1192:B *1603:B 0.000212198
30 *1580:B *1607:D_N 5.8023e-05
31 *1625:A *520:10 2.88357e-05
32 *106:14 *1594:B 0.00036516
33 *106:14 *520:12 0.000111293
34 *141:24 *1594:B 3.44708e-05
35 *141:24 *520:12 7.5213e-05
36 *141:30 *1594:B 3.54721e-05
37 *505:10 *1607:D_N 9.70039e-05
38 *505:19 *1607:D_N 7.10059e-05
*RES
1 *1593:X *520:10 6.48 
2 *520:10 *520:12 3.42 
3 *520:12 *1594:B 8.04 
4 *520:12 *1603:B 8.55 
5 *520:10 *1607:D_N 12.825 
*END

*D_NET *521 0.00498238
*CONN
*I *1602:A I *D sky130_fd_sc_hd__xnor2_2
*I *1595:A I *D sky130_fd_sc_hd__inv_2
*I *1604:B1 I *D sky130_fd_sc_hd__o221a_2
*I *1594:Y O *D sky130_fd_sc_hd__nand2_2
*CAP
1 *1602:A 0.00014288
2 *1595:A 0.000272543
3 *1604:B1 6.77706e-06
4 *1594:Y 0.000487781
5 *521:23 0.000495792
6 *521:10 0.000574928
7 *1595:A *1577:B 0.000366292
8 *1595:A *1605:A2 4.66826e-05
9 *1595:A *1606:A1 4.41506e-05
10 *1595:A *1606:B2 0.000343855
11 *1604:B1 *555:59 6.03947e-06
12 *521:10 *1184:B 0.000251627
13 *521:10 *1577:A 0.000183738
14 *521:10 *1592:B 1.27667e-05
15 *521:10 *1604:C1 8.07686e-05
16 *521:10 *555:63 0
17 *521:10 *616:45 0.00044795
18 *521:23 *1577:A 0.000130428
19 *521:23 *1577:B 4.53306e-05
20 *1608:A1 *521:23 3.17219e-05
21 *1626:A *1595:A 8.41307e-05
22 *1631:A *521:10 0.000158066
23 *116:27 *521:10 8.40213e-05
24 *139:16 *521:10 0.000550541
25 *505:19 *1595:A 1.1561e-05
26 *519:21 *521:10 0.000110242
27 *519:21 *521:23 1.17666e-05
*RES
1 *1594:Y *521:10 17.43 
2 *521:10 *1604:B1 3.70875 
3 *521:10 *521:23 4.4 
4 *521:23 *1595:A 12.68 
5 *521:23 *1602:A 3.43 
*END

*D_NET *522 0.000875061
*CONN
*I *1606:A1 I *D sky130_fd_sc_hd__o32ai_2
*I *1595:Y O *D sky130_fd_sc_hd__inv_2
*CAP
1 *1606:A1 0.000161639
2 *1595:Y 0.000161639
3 *1606:A1 *1600:B 0.000201665
4 *1606:A1 *1606:A2 4.82863e-05
5 *1606:A1 *1606:A3 4.99619e-05
6 *1606:A1 *1609:A2 0.000119756
7 *1595:A *1606:A1 4.41506e-05
8 *1626:A *1606:A1 8.79635e-05
*RES
1 *1595:Y *1606:A1 7.805 
*END

*D_NET *523 0.00319445
*CONN
*I *1601:A2 I *D sky130_fd_sc_hd__o31a_2
*I *1606:A2 I *D sky130_fd_sc_hd__o32ai_2
*I *1596:X O *D sky130_fd_sc_hd__and2b_2
*CAP
1 *1601:A2 0
2 *1606:A2 0.000134528
3 *1596:X 0.000595659
4 *523:14 0.000730188
5 *1606:A2 *1577:A 7.4839e-05
6 *1606:A2 *1606:A3 0.000151127
7 *523:14 *1577:A 0.000135052
8 *523:14 *1577:B 1.01152e-05
9 *523:14 *1596:B 1.74678e-05
10 *523:14 *1606:A3 3.91574e-05
11 *523:14 *1731:A 4.66742e-05
12 *523:14 *525:8 0.000444878
13 *523:14 *556:49 0.000101876
14 *523:14 *582:31 0
15 *523:14 *617:43 1.26485e-05
16 *523:14 *617:85 0.000178375
17 *1571:C1 *523:14 0.000169509
18 *1584:A2 *523:14 0.000158488
19 *1598:A2 *523:14 3.43011e-05
20 *1606:A1 *1606:A2 4.82863e-05
21 *1626:A *1606:A2 2.75145e-05
22 *490:28 *523:14 1.64181e-05
23 *490:30 *523:14 6.73502e-05
*RES
1 *1596:X *523:14 17.475 
2 *523:14 *1606:A2 6.39 
3 *523:14 *1601:A2 3.6 
*END

*D_NET *524 0.0023516
*CONN
*I *1598:C1 I *D sky130_fd_sc_hd__o311a_2
*I *1597:Y O *D sky130_fd_sc_hd__nand2b_2
*CAP
1 *1598:C1 0.000633022
2 *1597:Y 0.000633022
3 *1598:C1 *1597:A_N 9.54469e-05
4 *1598:C1 *582:61 0.000541153
5 *1598:C1 *617:6 6.69341e-05
6 *1598:C1 *617:10 4.38278e-05
7 *1585:A1 *1598:C1 1.08758e-05
8 *1585:A2 *1598:C1 0.00017555
9 *1598:A1 *1598:C1 0.000103482
10 *1598:A3 *1598:C1 4.82863e-05
11 *1644:A *1598:C1 0
12 *1645:A *1598:C1 0
13 *1680:A *1598:C1 0
*RES
1 *1597:Y *1598:C1 20.535 
*END

*D_NET *525 0.00177442
*CONN
*I *1601:A3 I *D sky130_fd_sc_hd__o31a_2
*I *1606:A3 I *D sky130_fd_sc_hd__o32ai_2
*I *1598:X O *D sky130_fd_sc_hd__o311a_2
*CAP
1 *1601:A3 4.93242e-05
2 *1606:A3 0.000123021
3 *1598:X 0.000138299
4 *525:8 0.000310644
5 *1601:A3 *564:6 8.40269e-05
6 *1601:A3 *564:22 1.08758e-05
7 *1606:A3 *1577:B 9.0918e-05
8 *525:8 *1577:B 0.000247697
9 *1606:A1 *1606:A3 4.99619e-05
10 *1606:A2 *1606:A3 0.000151127
11 *1606:B1 *1606:A3 9.50342e-06
12 *1626:A *1606:A3 2.49909e-05
13 *523:14 *1606:A3 3.91574e-05
14 *523:14 *525:8 0.000444878
*RES
1 *1598:X *525:8 8.805 
2 *525:8 *1606:A3 6.45 
3 *525:8 *1601:A3 4.395 
*END

*D_NET *526 0.00496763
*CONN
*I *1608:A2 I *D sky130_fd_sc_hd__a21oi_2
*I *1600:B I *D sky130_fd_sc_hd__or2_2
*I *1599:X O *D sky130_fd_sc_hd__a21o_2
*CAP
1 *1608:A2 0.00028518
2 *1600:B 0.00090339
3 *1599:X 0.000136917
4 *526:8 0.00132549
5 *1600:B *1502:A1 7.10294e-05
6 *1600:B *1590:A1 5.10587e-05
7 *1600:B *1601:B1 2.61299e-05
8 *1600:B *1609:A2 0.000520663
9 *1600:B *551:46 0.000165628
10 *1608:A2 *1590:A1 0.000173855
11 *1608:A2 *1609:B1 2.49909e-05
12 *1608:A2 *556:29 0.000454073
13 *526:8 *1502:A1 1.56428e-05
14 *1571:C1 *1608:A2 8.97006e-07
15 *1589:B1 *1608:A2 3.68784e-05
16 *1590:B1 *1600:B 7.05574e-05
17 *1590:B1 *1608:A2 7.23602e-05
18 *1590:B1 *526:8 1.56428e-05
19 *1599:A1 *526:8 7.9205e-06
20 *1599:B1 *1608:A2 1.1561e-05
21 *1606:A1 *1600:B 0.000201665
22 *1608:A1 *1608:A2 0.000318326
23 *118:54 *1608:A2 4.70748e-05
24 *120:10 *1600:B 3.07008e-05
*RES
1 *1599:X *526:8 5.085 
2 *526:8 *1600:B 16.965 
3 *526:8 *1608:A2 11.55 
*END

*D_NET *527 0.00105815
*CONN
*I *1601:B1 I *D sky130_fd_sc_hd__o31a_2
*I *1600:X O *D sky130_fd_sc_hd__or2_2
*CAP
1 *1601:B1 0.000261025
2 *1600:X 0.000261025
3 *1601:B1 *1601:A1 3.21081e-06
4 *1601:B1 *1602:B 0.000247822
5 *1601:B1 *564:6 8.63479e-05
6 *1601:B1 *600:20 0.000112433
7 *1600:A *1601:B1 6.0153e-05
8 *1600:B *1601:B1 2.61299e-05
*RES
1 *1600:X *1601:B1 12.6 
*END

*D_NET *528 0.00180684
*CONN
*I *1602:B I *D sky130_fd_sc_hd__xnor2_2
*I *1601:X O *D sky130_fd_sc_hd__o31a_2
*CAP
1 *1602:B 0.000512592
2 *1601:X 0.000512592
3 *1602:B *564:6 4.85206e-05
4 *1602:B *564:22 3.1835e-05
5 *1602:B *600:20 0.000211758
6 y[31] *1602:B 0.000127903
7 *1600:A *1602:B 0.000113817
8 *1601:B1 *1602:B 0.000247822
9 *1694:A *1602:B 0
*RES
1 *1601:X *1602:B 16.47 
*END

*D_NET *529 0.00360764
*CONN
*I *1605:A2 I *D sky130_fd_sc_hd__o21ai_2
*I *1602:Y O *D sky130_fd_sc_hd__xnor2_2
*CAP
1 *1605:A2 0.000991262
2 *1602:Y 0.000991262
3 *1605:A2 *1605:A1 2.49909e-05
4 *1605:A2 *1605:B1 0.000878215
5 *1605:A2 *550:24 6.07575e-06
6 *1605:A2 *551:8 4.66108e-05
7 *1605:A2 *560:130 2.0514e-05
8 *1605:A2 *560:151 4.00541e-06
9 *1159:B *1605:A2 3.70488e-05
10 *1580:B *1605:A2 2.49909e-05
11 *1595:A *1605:A2 4.66826e-05
12 *1618:A *1605:A2 0.000220453
13 *124:6 *1605:A2 0.000315527
*RES
1 *1602:Y *1605:A2 20 
*END

*D_NET *530 0.00329641
*CONN
*I *1604:C1 I *D sky130_fd_sc_hd__o221a_2
*I *1603:Y O *D sky130_fd_sc_hd__nand2_2
*CAP
1 *1604:C1 0.000732817
2 *1603:Y 0.000732817
3 *1604:C1 *1155:A 0.00036541
4 *1604:C1 *1577:A 0.000185405
5 *1604:C1 *1592:B 0.000201113
6 *1604:C1 *592:51 1.32102e-05
7 *1604:C1 *616:45 0.000302648
8 *1604:C1 *618:21 8.32328e-05
9 *1192:A *1604:C1 3.2172e-05
10 *1192:B *1604:C1 4.90123e-05
11 *1603:B *1604:C1 0.000490894
12 *1646:A *1604:C1 2.69153e-05
13 *521:10 *1604:C1 8.07686e-05
*RES
1 *1603:Y *1604:C1 23.34 
*END

*D_NET *531 0.00333304
*CONN
*I *1605:B1 I *D sky130_fd_sc_hd__o21ai_2
*I *1604:X O *D sky130_fd_sc_hd__o221a_2
*CAP
1 *1605:B1 0.000407698
2 *1604:X 0.000407698
3 *1605:B1 *1166:A 8.49205e-05
4 *1605:B1 *1166:C_N 0.0001249
5 *1605:B1 *1577:B 4.66108e-05
6 *1605:B1 *1604:A1 4.82863e-05
7 *1605:B1 *550:24 0.000258401
8 *1605:B1 *551:8 2.49909e-05
9 *1605:B1 *560:130 1.16578e-05
10 *1580:B *1605:B1 4.82863e-05
11 *1605:A2 *1605:B1 0.000878215
12 *1607:D_N *1605:B1 0.000134528
13 *140:20 *1605:B1 7.99093e-05
14 *505:10 *1605:B1 0.000132861
15 *508:14 *1605:B1 0.000644078
*RES
1 *1604:X *1605:B1 22.62 
*END

*D_NET *532 0.00343299
*CONN
*I *1609:A2 I *D sky130_fd_sc_hd__a21o_2
*I *1606:Y O *D sky130_fd_sc_hd__o32ai_2
*CAP
1 *1609:A2 0.000453645
2 *1606:Y 0.000453645
3 *1609:A2 *1160:B 0.000107205
4 *1609:A2 *568:16 3.65279e-05
5 *1609:A2 *568:26 2.64352e-05
6 *1609:A2 *568:62 5.94763e-05
7 *1609:A2 *570:52 7.49327e-05
8 *1609:A2 *570:56 0.00030358
9 *1609:A2 *627:25 0.000362493
10 *1609:A2 *627:31 8.49205e-05
11 *1609:A2 *627:44 0.000375944
12 *1609:A2 *627:46 8.40213e-05
13 *1609:A2 *627:48 0.000159741
14 *1600:B *1609:A2 0.000520663
15 *1606:A1 *1609:A2 0.000119756
16 *1620:A *1609:A2 0.000173178
17 *1626:A *1609:A2 2.8107e-05
18 *118:20 *1609:A2 8.7152e-06
*RES
1 *1606:Y *1609:A2 21.18 
*END

*D_NET *533 0.00321214
*CONN
*I *1608:B1 I *D sky130_fd_sc_hd__a21oi_2
*I *1607:X O *D sky130_fd_sc_hd__or4b_2
*CAP
1 *1608:B1 0.000681183
2 *1607:X 0.000681183
3 *1608:B1 *1502:A1 1.65804e-05
4 *1608:B1 *1589:A1 3.82741e-05
5 *1608:B1 *1607:B 0.000112123
6 *1608:B1 *1607:C 0.000321775
7 *1608:B1 *555:18 0
8 *1608:B1 *564:22 0.000693779
9 *1608:B1 *627:10 0.000134829
10 *1608:B1 *628:8 3.63297e-05
11 statusOut *1608:B1 2.05641e-05
12 *1568:A *1608:B1 3.79213e-05
13 *1585:B1 *1608:B1 2.76356e-05
14 *1589:A2 *1608:B1 1.08879e-05
15 *1589:B2 *1608:B1 1.88602e-05
16 *1607:D_N *1608:B1 5.16418e-05
17 *479:16 *1608:B1 0.000219193
18 *505:19 *1608:B1 0.000109385
*RES
1 *1607:X *1608:B1 23.28 
*END

*D_NET *534 0.00326502
*CONN
*I *1609:B1 I *D sky130_fd_sc_hd__a21o_2
*I *1608:Y O *D sky130_fd_sc_hd__a21oi_2
*CAP
1 *1609:B1 0.00100589
2 *1608:Y 0.00100589
3 *1609:B1 *1163:A 0.000197736
4 *1609:B1 *1501:A 0.000141873
5 *1609:B1 *1578:B 0.000135547
6 *1609:B1 *545:115 0
7 *1609:B1 *556:29 3.60125e-05
8 *1609:B1 *560:151 0
9 *1609:B1 *568:62 8.7152e-06
10 *1609:B1 *654:26 0.000160665
11 *1416:A *1609:B1 2.0514e-05
12 *1572:A2 *1609:B1 3.00381e-05
13 *1572:B1 *1609:B1 0.000274659
14 *1575:A1 *1609:B1 2.05056e-05
15 *1575:B1 *1609:B1 2.50318e-07
16 *1608:A2 *1609:B1 2.49909e-05
17 *121:25 *1609:B1 0
18 *124:33 *1609:B1 2.80762e-06
19 *125:25 *1609:B1 0.000198934
*RES
1 *1608:Y *1609:B1 23.34 
*END

*D_NET *535 0.0109494
*CONN
*I *1148:A I *D sky130_fd_sc_hd__inv_2
*I *1158:A I *D sky130_fd_sc_hd__xnor2_2
*I *1157:A I *D sky130_fd_sc_hd__xor2_2
*I *1156:A I *D sky130_fd_sc_hd__nand2_2
*I *1171:A1 I *D sky130_fd_sc_hd__o21ai_2
*I *1631:X O *D sky130_fd_sc_hd__clkdlybuf4s25_1
*CAP
1 *1148:A 0
2 *1158:A 0
3 *1157:A 0.000161166
4 *1156:A 0.000551748
5 *1171:A1 0.000228022
6 *1631:X 0
7 *535:66 0.000560557
8 *535:58 0.000966691
9 *535:16 0.00143612
10 *535:4 0.00122365
11 *1156:A *1225:A1 0.000314347
12 *1156:A *1226:A 1.21329e-05
13 *1156:A *1736:A 4.36369e-05
14 *1156:A *550:32 0.000239815
15 *1156:A *550:46 0.000298413
16 *1156:A *550:65 0.000273323
17 *1157:A *1157:B 0.000159677
18 *535:16 *1171:A2 0.000152092
19 *535:16 *1176:B1 7.78168e-05
20 *535:16 *1180:B1 6.10056e-05
21 *535:58 *1183:B 1.53101e-05
22 *535:58 *1202:C 7.68414e-06
23 *535:58 *616:8 4.41468e-05
24 *535:66 *1183:A 0.000162467
25 *535:66 *1183:B 0.000169221
26 *535:66 *592:14 0.000230916
27 *1173:A2 *535:16 1.7635e-05
28 *1176:A2 *535:16 0.00134473
29 *1181:A2 *535:16 0.000118453
30 *1182:A2 *1171:A1 3.1835e-05
31 *1225:A2 *1156:A 1.10951e-05
32 *1594:A *535:58 7.43778e-05
33 *1623:A *1156:A 0.000129511
34 *1631:A *535:58 0.000363272
35 *1704:A *1156:A 4.58262e-06
36 *106:14 *535:58 0.00021464
37 *106:14 *535:66 9.50342e-06
38 *114:12 *1156:A 4.87465e-06
39 *115:24 *1157:A 0
40 *116:33 *535:58 1.19928e-05
41 *117:38 *535:16 2.63322e-05
42 *117:38 *535:58 0.000202148
43 *131:35 *535:16 0.000310957
44 *139:16 *1157:A 0
45 *145:18 *535:16 3.15419e-05
46 *179:14 *1156:A 0.000249636
47 *181:47 *1171:A1 9.73969e-05
48 *193:22 *535:16 0.000304875
*RES
1 *1631:X *535:4 1.6 
2 *535:4 *535:16 6.1677 
3 *535:16 *1171:A1 6.84 
4 *535:16 *1156:A 17.46 
5 *535:4 *535:58 12.14 
6 *535:58 *535:66 10.19 
7 *535:66 *1157:A 8.54 
8 *535:66 *1158:A 1.6 
9 *535:58 *1148:A 3.6 
*END

*D_NET *536 0.0060531
*CONN
*I *1402:B I *D sky130_fd_sc_hd__nor2_2
*I *1403:B I *D sky130_fd_sc_hd__or2_2
*I *1401:B I *D sky130_fd_sc_hd__and2_2
*I *1422:A_N I *D sky130_fd_sc_hd__and2b_2
*I *1632:X O *D sky130_fd_sc_hd__clkdlybuf4s25_1
*CAP
1 *1402:B 0.000166329
2 *1403:B 0
3 *1401:B 0
4 *1422:A_N 4.8428e-05
5 *1632:X 0.000770052
6 *536:22 0.000136469
7 *536:18 0.000492316
8 *536:10 0.00134066
9 *1402:B *1499:S 4.82919e-05
10 *1402:B *560:172 0.000130453
11 *1422:A_N *1403:A 4.82919e-05
12 *1422:A_N *1422:B 4.99619e-05
13 *1422:A_N *602:18 4.82863e-05
14 *536:10 *1501:A 0
15 *536:10 *1529:A1 1.93834e-05
16 *536:10 *545:136 0.000104132
17 *536:10 *545:180 0.000152145
18 *536:10 *564:91 4.03953e-05
19 *536:10 *564:97 5.83723e-05
20 *536:18 *1501:A 0
21 *536:18 *545:115 9.92505e-05
22 *536:18 *545:136 7.63476e-05
23 *536:22 *1403:A 0.000241483
24 *1404:A *536:18 4.66108e-05
25 *1416:A *536:18 4.82863e-05
26 *1425:A2 *536:22 2.0514e-05
27 *1499:A0 *536:10 4.27701e-05
28 *1499:A1 *536:10 3.86529e-05
29 *1503:A2 *536:10 0
30 *1509:C *536:10 0.000112892
31 *1526:A1 *536:10 0
32 *1526:A2 *536:10 0
33 *1527:B *536:10 0
34 *1527:C *536:10 0.000158577
35 *341:28 *536:18 1.46744e-05
36 *341:28 *536:22 0.000248453
37 *427:48 *536:10 0.000105783
38 *440:63 *536:10 3.11859e-05
39 *440:69 *536:10 0.000225182
40 *441:12 *536:10 0.000309064
41 *485:10 *1402:B 0.000579411
*RES
1 *1632:X *536:10 18.39 
2 *536:10 *536:18 8.9 
3 *536:18 *536:22 3.225 
4 *536:22 *1422:A_N 2.74 
5 *536:22 *1401:B 1.6 
6 *536:18 *1403:B 1.6 
7 *536:10 *1402:B 8.88 
*END

*D_NET *537 0.000680807
*CONN
*I *1707:A I *D sky130_fd_sc_hd__clkdlybuf4s25_1
*I *1277:Y O *D sky130_fd_sc_hd__o21ai_2
*CAP
1 *1707:A 0.000109909
2 *1277:Y 0.000109909
3 *1707:A *1268:A_N 0.000140912
4 *1707:A *588:10 0.000203774
5 *1707:A *594:8 3.22827e-05
6 *1273:A2 *1707:A 8.40213e-05
*RES
1 *1277:Y *1707:A 10.395 
*END

*D_NET *538 0.000500841
*CONN
*I *1708:A I *D sky130_fd_sc_hd__clkdlybuf4s25_1
*I *1288:Y O *D sky130_fd_sc_hd__o21ai_2
*CAP
1 *1708:A 0.000142348
2 *1288:Y 0.000142348
3 *1708:A *1288:A1 3.97171e-05
4 *1708:A *1295:A_N 0.000117044
5 *1708:A *1295:B 5.93831e-05
*RES
1 *1288:Y *1708:A 10.23 
*END

*D_NET *539 0.0050847
*CONN
*I *1366:A1 I *D sky130_fd_sc_hd__o211a_2
*I *1382:C I *D sky130_fd_sc_hd__and4_2
*I *1375:C I *D sky130_fd_sc_hd__or4_2
*I *1360:B I *D sky130_fd_sc_hd__nand2b_2
*I *1352:A I *D sky130_fd_sc_hd__xnor2_2
*I *1364:A3 I *D sky130_fd_sc_hd__o311ai_2
*I *1700:X O *D sky130_fd_sc_hd__buf_2
*CAP
1 *1366:A1 2.24216e-05
2 *1382:C 0
3 *1375:C 6.2305e-05
4 *1360:B 0
5 *1352:A 0
6 *1364:A3 3.97876e-05
7 *1700:X 0
8 *539:59 0.000350464
9 *539:44 0.00042688
10 *539:40 0.000777468
11 *539:21 0.000690134
12 *539:6 0.000113597
13 *1364:A3 *1354:B2 0.000117825
14 *1375:C *1375:B 0.000137893
15 *1375:C *553:35 1.29239e-05
16 *539:21 *1354:B2 3.7162e-05
17 *539:21 *1720:A 0.000271592
18 *539:40 *1431:A1 0
19 *539:40 *1720:A 0.00011986
20 *539:40 *546:99 0
21 *539:40 *552:30 3.09164e-05
22 *539:40 *565:112 0
23 *539:44 *1331:A1_N 0
24 *539:59 *1328:S 7.63883e-05
25 *539:59 *540:36 0.000123225
26 *539:59 *632:6 9.46859e-06
27 *1341:C1 *1366:A1 6.98654e-05
28 *1345:A *539:59 0.000192977
29 *1345:B *539:59 0.000105365
30 *1352:B *1364:A3 0
31 *1362:A1 *539:21 0.000149683
32 *1362:A1 *539:40 0.000358506
33 *1362:A2 *539:40 0
34 *1364:C1 *1364:A3 9.47454e-05
35 *1364:C1 *539:21 5.16348e-05
36 *1367:A2 *539:40 0.000114789
37 *1367:A2 *539:44 0.000133163
38 *1367:A3 *539:40 9.5433e-05
39 *1367:B1 *1366:A1 3.81634e-05
40 *1375:A *1375:C 4.82919e-05
41 *1375:A *539:59 2.92496e-05
42 *1375:D *1375:C 5.02217e-05
43 *1382:A *539:59 3.57349e-05
44 *1431:B1 *539:40 0
45 *263:63 *539:59 4.66108e-05
46 *272:23 *1375:C 4.99619e-05
47 *307:12 *1364:A3 0
*RES
1 *1700:X *539:6 3.6 
2 *539:6 *1364:A3 4.98 
3 *539:6 *539:21 5.135 
4 *539:21 *1352:A 1.6 
5 *539:21 *539:40 13.595 
6 *539:40 *539:44 4.145 
7 *539:44 *1360:B 1.6 
8 *539:44 *539:59 9.625 
9 *539:59 *1375:C 7.685 
10 *539:59 *1382:C 1.6 
11 *539:40 *1366:A1 4.2675 
*END

*D_NET *540 0.00501265
*CONN
*I *1345:C I *D sky130_fd_sc_hd__or3_2
*I *1382:B I *D sky130_fd_sc_hd__and4_2
*I *1375:B I *D sky130_fd_sc_hd__or4_2
*I *1347:B I *D sky130_fd_sc_hd__nand2b_2
*I *1339:A I *D sky130_fd_sc_hd__xnor2_2
*I *1701:X O *D sky130_fd_sc_hd__clkbuf_2
*CAP
1 *1345:C 4.35604e-05
2 *1382:B 0
3 *1375:B 0.00011112
4 *1347:B 0
5 *1339:A 0.000188513
6 *1701:X 0.000105698
7 *540:40 0.000220403
8 *540:36 0.000363727
9 *540:25 0.000555643
10 *540:8 0.00063897
11 *1339:A *1326:A 4.66108e-05
12 *1339:A *1445:A1 0
13 *1339:A *1714:A 7.24829e-05
14 *1339:A *553:127 0.000314015
15 *1375:B *546:30 0.000225166
16 *1375:B *553:35 0
17 *540:8 *1341:B2 3.16621e-05
18 *540:8 *1445:A1 0
19 *540:8 *553:127 1.7635e-05
20 *540:8 *610:16 2.67022e-05
21 *540:25 *559:12 4.66108e-05
22 *540:40 *546:30 0.000189926
23 *540:40 *553:35 0
24 *1332:B1 *1339:A 5.83121e-06
25 *1332:C1 *1339:A 8.34281e-06
26 *1341:B1 *540:8 5.10302e-05
27 *1342:B1 *1339:A 0
28 *1342:B1 *540:25 0.00015896
29 *1345:A *1345:C 3.74161e-05
30 *1345:A *540:36 0.000118081
31 *1345:B *540:36 8.34281e-06
32 *1360:A_N *540:25 1.56651e-05
33 *1360:A_N *540:36 0.000162311
34 *1362:A2 *540:25 0.000719078
35 *1364:A1 *540:8 9.50342e-06
36 *1375:C *1375:B 0.000137893
37 *1375:D *1375:B 1.94723e-05
38 *1375:D *540:40 1.43521e-05
39 *1660:A *1339:A 1.01661e-05
40 *272:23 *1375:B 4.82919e-05
41 *289:12 *540:36 0.00016624
42 *539:59 *540:36 0.000123225
*RES
1 *1701:X *540:8 5.49 
2 *540:8 *1339:A 8.07 
3 *540:8 *540:25 9.365 
4 *540:25 *1347:B 1.6 
5 *540:25 *540:36 5.4 
6 *540:36 *540:40 4.4 
7 *540:40 *1375:B 6.705 
8 *540:40 *1382:B 3.6 
9 *540:36 *1345:C 2.395 
*END

*D_NET *541 0.00566625
*CONN
*I *1318:C I *D sky130_fd_sc_hd__nand4_2
*I *1310:A1 I *D sky130_fd_sc_hd__a21oi_2
*I *1309:A1 I *D sky130_fd_sc_hd__o211a_2
*I *1326:A I *D sky130_fd_sc_hd__or2_2
*I *1300:A2 I *D sky130_fd_sc_hd__o22a_2
*I *1298:A I *D sky130_fd_sc_hd__xor2_2
*I *1702:X O *D sky130_fd_sc_hd__buf_2
*CAP
1 *1318:C 0.000166077
2 *1310:A1 0
3 *1309:A1 0
4 *1326:A 0.000535713
5 *1300:A2 0
6 *1298:A 0.000132598
7 *1702:X 0.000270221
8 *541:79 0.000374114
9 *541:62 0.000512079
10 *541:37 0.000862165
11 *541:12 0.00038041
12 *1298:A *1286:A1 0.000115742
13 *1298:A *559:28 5.41014e-05
14 *1318:C *1318:B 8.64421e-05
15 *1318:C *546:43 0.000153263
16 *1326:A *1330:A1 0
17 *1326:A *1337:B1 9.76186e-05
18 *1326:A *1712:A 0
19 *1326:A *1714:A 0.00015771
20 *1326:A *553:67 3.20275e-05
21 *1326:A *553:108 4.84393e-05
22 *1326:A *553:127 1.03572e-05
23 *541:12 *1286:A1 8.7152e-06
24 *541:12 *553:108 1.949e-05
25 *541:12 *553:127 1.82476e-05
26 *541:12 *559:18 1.70935e-05
27 *541:12 *559:28 3.96195e-05
28 *541:37 *553:61 2.69153e-05
29 *541:62 *1337:B1 0
30 *541:62 *549:28 0.000194891
31 *541:62 *553:61 6.04372e-05
32 *541:79 *1315:A1 0.000121643
33 *1293:B1 *1318:C 8.52845e-05
34 *1300:B1 *541:12 4.82919e-05
35 *1309:A2 *541:62 1.12643e-05
36 *1309:A2 *541:79 0.000245845
37 *1311:A2 *1318:C 1.14169e-05
38 *1312:B *541:62 0
39 *1312:B *541:79 3.27181e-05
40 *1318:D *541:79 3.45117e-05
41 *1325:A2 *541:62 1.15727e-05
42 *1325:A2 *541:79 0.000109429
43 *1326:B *541:62 2.56752e-06
44 *1332:B1 *1326:A 0.000373587
45 *1332:C1 *1326:A 4.41506e-05
46 *1338:A2 *1326:A 0
47 *1339:A *1326:A 4.66108e-05
48 *1339:B *1326:A 0
49 *1342:A2 *1326:A 4.38688e-05
50 *255:16 *1318:C 6.90044e-05
51 *262:18 *1326:A 0
*RES
1 *1702:X *541:12 7.95 
2 *541:12 *1298:A 5.775 
3 *541:12 *1300:A2 3.6 
4 *1298:A *541:37 2.05 
5 *541:37 *1326:A 16.775 
6 *541:37 *541:62 8.86375 
7 *541:62 *1309:A1 1.6 
8 *541:62 *541:79 9.12625 
9 *541:79 *1310:A1 1.6 
10 *541:79 *1318:C 9.425 
*END

*D_NET *542 0.00775015
*CONN
*I *1306:A2 I *D sky130_fd_sc_hd__o311a_2
*I *1291:B I *D sky130_fd_sc_hd__or2_2
*I *1318:B I *D sky130_fd_sc_hd__nand4_2
*I *1293:A2 I *D sky130_fd_sc_hd__o2111ai_2
*I *1294:A I *D sky130_fd_sc_hd__and2_2
*I *1296:A1 I *D sky130_fd_sc_hd__a21o_2
*I *1703:X O *D sky130_fd_sc_hd__clkbuf_2
*CAP
1 *1306:A2 8.45543e-05
2 *1291:B 0.000272052
3 *1318:B 0.000107953
4 *1293:A2 3.95527e-05
5 *1294:A 0.000326902
6 *1296:A1 0
7 *1703:X 0.000270775
8 *542:35 0.000424768
9 *542:33 0.000338666
10 *542:27 0.00074737
11 *542:20 0.000573788
12 *542:10 0.000626198
13 *1291:B *1299:B1 8.4841e-05
14 *1291:B *561:62 8.51808e-05
15 *1291:B *561:68 1.48873e-05
16 *1291:B *590:54 0.000133085
17 *1294:A *1309:C1 4.89395e-05
18 *1294:A *561:113 4.10251e-05
19 *1306:A2 *1299:A1 0.000155928
20 *1306:A2 *591:30 0
21 *542:10 *1295:B 9.31547e-06
22 *542:10 *1299:A1 3.09164e-05
23 *542:10 *549:140 0
24 *542:20 *1299:A1 8.41307e-05
25 *542:20 *1299:B1 0.000192907
26 *542:20 *1307:A_N 4.60584e-05
27 *542:20 *1307:B 5.64202e-05
28 *542:20 *591:8 1.34594e-05
29 *542:27 *1299:B1 0.000305658
30 *542:27 *561:68 2.19562e-06
31 *542:33 *1275:A1 8.12462e-06
32 *542:33 *1275:A2 4.86642e-05
33 *542:33 *546:43 0
34 *542:33 *546:51 9.22294e-06
35 *1287:A2 *542:10 7.24866e-05
36 *1293:A1 *1294:A 0.000159156
37 *1293:A1 *1318:B 3.5678e-06
38 *1293:A1 *542:35 4.77757e-05
39 *1293:B1 *1318:B 6.41532e-05
40 *1293:B1 *542:35 3.99431e-05
41 *1296:A2 *542:20 9.30787e-05
42 *1296:B1 *1306:A2 0.000106648
43 *1296:B1 *542:10 0.000516334
44 *1296:B1 *542:27 1.34503e-05
45 *1297:A3 *1294:A 0.000160412
46 *1297:A3 *542:33 4.47073e-05
47 *1297:A3 *542:35 7.38676e-05
48 *1301:B1 *542:20 1.34594e-05
49 *1306:A1 *1306:A2 8.65905e-05
50 *1308:A1 *1306:A2 2.29156e-05
51 *1308:B1 *542:20 0.00022953
52 *1311:B1 *1294:A 0
53 *1318:C *1318:B 8.64421e-05
54 *1318:D *1293:A2 3.60024e-06
55 *1703:A *542:10 0
56 *209:16 *1294:A 2.97746e-05
57 *209:16 *542:20 4.75576e-05
58 *210:43 *1291:B 0.000314438
59 *210:43 *542:33 0
60 *227:8 *1306:A2 0.000124895
61 *228:21 *542:10 0
62 *238:14 *1306:A2 0
63 *253:16 *1294:A 2.0187e-05
64 *255:16 *1294:A 0.000116346
65 *255:16 *542:27 2.75229e-05
66 *264:6 *1318:B 4.77719e-05
*RES
1 *1703:X *542:10 10.275 
2 *542:10 *542:20 12.06 
3 *542:20 *1296:A1 1.6 
4 *542:20 *542:27 3.9 
5 *542:27 *542:33 6.4 
6 *542:33 *542:35 1.485 
7 *542:35 *1294:A 12.875 
8 *542:35 *1293:A2 6.215 
9 *542:33 *1318:B 4.15 
10 *542:27 *1291:B 11.105 
11 *542:10 *1306:A2 6.63 
*END

*D_NET *543 0.00477917
*CONN
*I *1224:B1 I *D sky130_fd_sc_hd__o221a_2
*I *1222:A I *D sky130_fd_sc_hd__xnor2_2
*I *1242:A1 I *D sky130_fd_sc_hd__a31o_2
*I *1231:A1 I *D sky130_fd_sc_hd__o21a_2
*I *1319:C I *D sky130_fd_sc_hd__nand4b_2
*I *1265:A I *D sky130_fd_sc_hd__or4_2
*I *1704:X O *D sky130_fd_sc_hd__buf_2
*CAP
1 *1224:B1 2.61429e-05
2 *1222:A 0.000139994
3 *1242:A1 3.31792e-05
4 *1231:A1 3.12164e-05
5 *1319:C 2.91403e-05
6 *1265:A 0.000132284
7 *1704:X 0.000243917
8 *543:55 0.000173174
9 *543:24 0.000597946
10 *543:20 0.000590864
11 *543:18 0.000183492
12 *543:14 0.000330426
13 *1222:A *1254:A3 3.98395e-05
14 *1222:A *548:107 7.41912e-05
15 *1242:A1 *548:107 6.90254e-05
16 *1265:A *1268:B 0
17 *543:14 *1224:B2 2.98644e-05
18 *543:14 *1225:A1 5.1985e-06
19 *543:14 *1254:A3 4.3606e-05
20 *1222:B *1222:A 3.12855e-05
21 *1224:C1 *1222:A 2.1031e-05
22 *1224:C1 *1242:A1 2.41231e-05
23 *1225:B1 *543:14 2.41231e-05
24 *1231:B1 *1224:B1 4.0032e-05
25 *1231:B1 *543:14 4.39123e-05
26 *1231:B1 *543:18 8.25446e-05
27 *1231:B1 *543:20 1.19928e-05
28 *1266:A1 *543:20 1.79174e-05
29 *1266:A1 *543:24 3.33763e-05
30 *1266:A2 *1319:C 4.66108e-05
31 *1266:A2 *543:24 8.23993e-05
32 *1269:B1 *1265:A 2.49909e-05
33 *1270:A *1265:A 0.000157939
34 *1270:A *1319:C 4.87939e-05
35 *1272:A2 *1265:A 0.000133229
36 *1319:B *1319:C 4.66108e-05
37 *1319:B *543:24 0.000191343
38 *1323:A1 *543:14 0.000193129
39 *163:29 *543:14 5.05981e-05
40 *170:22 *543:24 5.79099e-06
41 *173:22 *1222:A 0.000161514
42 *173:22 *543:20 1.5915e-05
43 *184:16 *543:14 0.000110167
44 *184:16 *543:18 0.000121032
45 *215:8 *1265:A 0.000242997
46 *215:8 *1319:C 4.22675e-05
*RES
1 *1704:X *543:14 10.46 
2 *543:14 *543:18 1.845 
3 *543:18 *543:20 1.485 
4 *543:20 *543:24 7.28 
5 *543:24 *1265:A 7.725 
6 *543:24 *1319:C 4.665 
7 *543:20 *1231:A1 2.215 
8 *543:18 *543:55 2 
9 *543:55 *1242:A1 4.47 
10 *543:55 *1222:A 7.065 
11 *543:14 *1224:B1 2.33875 
*END

*D_NET *544 0.011697
*CONN
*I *1199:A2 I *D sky130_fd_sc_hd__o31a_2
*I *1190:A3 I *D sky130_fd_sc_hd__a311oi_2
*I *1202:C I *D sky130_fd_sc_hd__and4_2
*I *1179:A I *D sky130_fd_sc_hd__xnor2_2
*I *1187:B I *D sky130_fd_sc_hd__or2_2
*I *1216:B I *D sky130_fd_sc_hd__or4_2
*I *1186:A2 I *D sky130_fd_sc_hd__o21a_2
*I *1705:X O *D sky130_fd_sc_hd__buf_2
*CAP
1 *1199:A2 0.000426454
2 *1190:A3 0.000204641
3 *1202:C 0.000432453
4 *1179:A 0.00016054
5 *1187:B 0.00100591
6 *1216:B 0.000158996
7 *1186:A2 1.65033e-05
8 *1705:X 0.000320561
9 *544:94 0.000750298
10 *544:63 0.000790256
11 *544:29 0.00119172
12 *544:16 0.000251872
13 *544:12 0.000607178
14 *1179:A *550:163 0.000196743
15 *1179:A *604:21 4.86027e-05
16 *1186:A2 *619:24 4.66108e-05
17 *1187:B *1196:A 8.5726e-05
18 *1187:B *1233:B1 2.03801e-05
19 *1187:B *1735:A 1.52803e-05
20 *1187:B *545:51 3.18954e-05
21 *1190:A3 *630:35 0.000118543
22 *544:12 *1180:A1 2.49909e-05
23 *544:12 *1235:A1 4.36573e-06
24 *544:12 *558:20 0.000460897
25 *544:12 *622:12 0.0001288
26 *544:16 *558:20 5.13684e-05
27 *544:16 *558:35 0.00015283
28 *544:16 *604:40 0.000130686
29 *544:29 *558:35 0.000183729
30 *544:29 *604:40 0.000212158
31 *544:63 *1180:A1 7.35813e-05
32 *544:63 *604:40 2.54431e-05
33 *1173:A2 *1179:A 1.31227e-05
34 *1173:A2 *1187:B 7.06865e-05
35 *1173:A2 *1190:A3 7.80581e-05
36 *1181:C1 *1179:A 9.14314e-05
37 *1186:A1 *1186:A2 2.49909e-05
38 *1190:B1 *1190:A3 4.77719e-05
39 *1199:A1 *1199:A2 0.000263412
40 *1201:B1 *1179:A 8.64421e-05
41 *1201:B1 *1190:A3 4.66108e-05
42 *1203:A2 *1190:A3 3.44813e-05
43 *1203:A2 *1199:A2 5.04197e-05
44 *1204:A2 *1199:A2 1.87653e-05
45 *1204:B1 *1199:A2 2.85364e-05
46 *1207:C1 *1187:B 0.000594598
47 *1208:A2 *1187:B 7.9642e-06
48 *1216:D *1187:B 0.000250492
49 *1216:D *1216:B 1.84465e-05
50 *1216:D *544:29 1.51074e-05
51 *1217:B *544:16 0
52 *1218:A1 *1187:B 0.000131263
53 *1218:A3 *1187:B 0
54 *1218:A3 *544:12 0.000171207
55 *1218:A3 *544:29 2.20809e-05
56 *1218:B1 *1187:B 1.07628e-05
57 *1603:A *544:94 2.747e-05
58 *1669:A *544:12 0
59 *114:22 *1199:A2 5.69248e-06
60 *114:28 *1199:A2 7.27402e-06
61 *116:33 *1202:C 0.000232111
62 *117:38 *1202:C 9.95705e-05
63 *117:38 *544:63 2.20732e-05
64 *139:16 *1199:A2 1.67131e-05
65 *140:31 *1199:A2 1.42674e-05
66 *141:32 *1190:A3 1.43253e-05
67 *141:44 *1190:A3 5.21426e-05
68 *152:21 *1187:B 4.66474e-05
69 *153:12 *1187:B 7.09057e-05
70 *154:8 *1199:A2 3.94628e-05
71 *156:10 *1190:A3 9.26553e-05
72 *156:10 *1199:A2 4.76082e-05
73 *157:25 *1187:B 0.000336741
74 *170:22 *1216:B 4.77769e-05
75 *170:22 *544:94 8.35118e-05
76 *180:20 *544:12 2.56808e-05
77 *535:58 *1202:C 7.68414e-06
*RES
1 *1705:X *544:12 12.62 
2 *544:12 *544:16 4.4 
3 *544:16 *1186:A2 4.05 
4 *544:16 *544:29 3.7425 
5 *544:29 *1216:B 4.2825 
6 *544:29 *1187:B 23.3425 
7 *544:12 *544:63 2.52 
8 *544:63 *1179:A 9.26 
9 *544:63 *1202:C 6.88 
10 *1216:B *544:94 5.085 
11 *544:94 *1190:A3 8.295 
12 *544:94 *1199:A2 10.47 
*END

*D_NET *545 0.0333825
*CONN
*I *1528:A1 I *D sky130_fd_sc_hd__o22a_2
*I *1544:B2 I *D sky130_fd_sc_hd__o22a_2
*I *1515:B2 I *D sky130_fd_sc_hd__o22a_2
*I *1563:A I *D sky130_fd_sc_hd__or2_2
*I *1417:A1 I *D sky130_fd_sc_hd__o221a_2
*I *1206:A I *D sky130_fd_sc_hd__or2_2
*I *1235:A1 I *D sky130_fd_sc_hd__o221a_2
*I *1249:A1 I *D sky130_fd_sc_hd__o21ai_2
*I *1313:A1 I *D sky130_fd_sc_hd__o22a_2
*I *1194:A1 I *D sky130_fd_sc_hd__o221a_2
*I *1610:X O *D sky130_fd_sc_hd__clkdlybuf4s25_1
*CAP
1 *1528:A1 3.57134e-05
2 *1544:B2 0.00022096
3 *1515:B2 0.000326178
4 *1563:A 2.08101e-05
5 *1417:A1 0.000376691
6 *1206:A 1.10148e-05
7 *1235:A1 0.000724174
8 *1249:A1 4.5535e-05
9 *1313:A1 0.000474319
10 *1194:A1 0.000990058
11 *1610:X 0
12 *545:180 0.00085816
13 *545:149 0.00152892
14 *545:136 0.00100832
15 *545:115 0.00154879
16 *545:70 0.00156766
17 *545:51 0.00208236
18 *545:39 0.00134352
19 *545:8 0.00163975
20 *545:6 0.000913142
21 *1194:A1 *1174:A 2.21075e-05
22 *1194:A1 *1194:B2 4.04756e-05
23 *1194:A1 *1592:A 7.93619e-05
24 *1194:A1 *1606:B2 4.36573e-06
25 *1194:A1 *1735:A 0.001133
26 *1235:A1 *1182:A1 0.000253095
27 *1235:A1 *1236:A1 0.000257253
28 *1249:A1 *1721:A 1.79536e-05
29 *1313:A1 *549:14 4.77769e-05
30 *1515:B2 *551:79 8.40213e-05
31 *1515:B2 *551:97 0.000254388
32 *1515:B2 *564:91 1.47347e-05
33 *1528:A1 *1528:B2 5.58436e-05
34 *1544:B2 *551:105 0.00115553
35 *545:8 *1166:B 0
36 *545:8 *1174:A 7.59573e-06
37 *545:8 *560:130 0
38 *545:39 *1156:B 0
39 *545:39 *1413:A 0
40 *545:39 *1613:A 0.000855691
41 *545:51 *1220:A 0.000347017
42 *545:51 *565:20 0
43 *545:70 *1180:B1 0.000105674
44 *545:70 *1182:A1 3.23812e-05
45 *545:70 *1221:A1 8.9257e-05
46 *545:70 *548:107 1.18673e-05
47 *545:70 *565:20 0.000392717
48 *545:115 *1166:C_N 0
49 *545:115 *1167:B 0
50 *545:115 *1501:A 0
51 *545:136 *1501:A 3.38041e-05
52 *545:149 *1501:A 2.04648e-05
53 *545:149 *1502:B2 0
54 *545:149 *1503:A1 6.36273e-05
55 *545:149 *1505:B 0.000159269
56 *545:149 *560:172 8.08153e-06
57 *545:149 *575:10 0.000101005
58 *545:149 *575:16 0.000151523
59 *545:180 *1719:A 0
60 *545:180 *575:10 8.1149e-05
61 *545:180 *611:10 0.000140145
62 *545:180 *612:14 0.000237249
63 y[26] *545:180 7.03516e-05
64 *1172:C1 *1235:A1 0.000967656
65 *1172:C1 *545:70 9.76431e-05
66 *1187:A *1206:A 3.66286e-05
67 *1187:A *545:51 0.00015747
68 *1187:B *545:51 3.18954e-05
69 *1191:A3 *1235:A1 0.000526142
70 *1193:B *1194:A1 0.000260725
71 *1194:C1 *1194:A1 5.39046e-05
72 *1207:A2 *1194:A1 0.000159966
73 *1207:C1 *1206:A 4.66108e-05
74 *1207:C1 *545:51 4.82863e-05
75 *1218:A3 *1235:A1 6.90435e-05
76 *1218:B1 *1194:A1 0.000163412
77 *1219:B *545:70 3.12916e-05
78 *1242:A2 *545:70 4.90592e-05
79 *1242:A3 *545:70 0.000126425
80 *1262:A1 *1249:A1 5.83121e-06
81 *1262:A2 *545:70 0.000252954
82 *1263:A *1249:A1 3.12907e-05
83 *1264:C1 *545:70 4.36438e-05
84 *1272:A1 *545:70 7.44453e-05
85 *1314:A2 *1313:A1 4.82863e-05
86 *1376:A *1313:A1 2.16917e-05
87 *1377:C *1313:A1 4.89395e-05
88 *1377:D *1313:A1 8.41384e-05
89 *1379:A1 *545:51 0
90 *1379:A2 *545:51 0
91 *1379:B2 *545:51 9.05377e-05
92 *1380:B2 *1313:A1 0.000220014
93 *1404:B *1417:A1 0.000203178
94 *1416:A *545:115 0
95 *1417:B1 *1417:A1 0
96 *1507:B *545:149 0.000123729
97 *1507:B *545:180 4.19967e-05
98 *1519:A_N *1544:B2 0.0001138
99 *1519:B *1544:B2 9.95239e-05
100 *1521:A2 *545:149 0
101 *1526:A2 *545:180 8.96356e-05
102 *1526:B1 *545:180 0.000432775
103 *1527:C *545:180 0.000163199
104 *1528:A2 *1528:A1 4.99619e-05
105 *1528:A2 *1544:B2 0.000200615
106 *1544:B1 *1544:B2 2.79099e-05
107 *1559:B1 *1544:B2 3.85929e-05
108 *1562:B *545:149 2.59981e-05
109 *1564:C1 *545:149 0.000120655
110 *1574:B *545:115 0.000149908
111 *1582:A1 *545:115 0.000207016
112 *1582:A1 *545:136 9.54469e-05
113 *1582:A2 *545:136 4.65643e-05
114 *1603:A *545:8 0
115 *1603:A *545:115 0
116 *1607:D_N *1194:A1 7.99402e-05
117 *1609:B1 *545:115 0
118 *1612:A *545:115 6.15233e-05
119 *1617:A *1544:B2 0.000188727
120 *1620:A *545:115 0.000513517
121 *1632:A *545:180 0.000101917
122 *1667:A *545:180 4.19967e-05
123 *1677:A *545:180 8.43862e-05
124 *117:20 *545:39 0.000638841
125 *121:25 *545:115 0.000422773
126 *124:10 *545:115 0
127 *124:33 *545:115 0
128 *125:8 *545:115 0.000586548
129 *125:25 *545:115 0.000124311
130 *131:20 *545:39 0.000186078
131 *139:16 *1194:A1 0.000226452
132 *140:20 *545:8 0
133 *151:33 *1194:A1 0.000104672
134 *152:21 *1194:A1 0.000161151
135 *153:27 *1194:A1 0.000132993
136 *172:24 *1313:A1 1.07593e-05
137 *172:24 *545:70 0.000167679
138 *173:8 *545:70 6.81824e-05
139 *180:20 *1235:A1 5.63183e-05
140 *181:10 *1235:A1 5.06382e-06
141 *190:20 *1249:A1 4.82863e-05
142 *194:10 *545:70 8.58502e-05
143 *239:25 *1313:A1 0.000295356
144 *319:16 *1313:A1 5.30673e-05
145 *321:8 *545:51 5.53249e-06
146 *342:12 *1417:A1 4.82919e-05
147 *344:10 *1417:A1 7.95206e-05
148 *344:18 *1417:A1 4.88721e-05
149 *450:14 *1528:A1 5.30673e-05
150 *480:36 *545:149 1.94892e-05
151 *490:16 *545:136 6.55011e-05
152 *498:12 *545:115 8.59884e-05
153 *520:12 *1194:A1 7.03219e-05
154 *536:10 *545:136 0.000104132
155 *536:10 *545:180 0.000152145
156 *536:18 *545:115 9.92505e-05
157 *536:18 *545:136 7.63476e-05
158 *544:12 *1235:A1 4.36573e-06
*RES
1 *1610:X *545:6 3.6 
2 *545:6 *545:8 1.7625 
3 *545:8 *1194:A1 15.7552 
4 *545:8 *545:39 6.59237 
5 *545:39 *545:51 17.32 
6 *545:51 *1313:A1 12.055 
7 *545:51 *545:70 15.4564 
8 *545:70 *1249:A1 5.1425 
9 *545:70 *1235:A1 7.2787 
10 *545:39 *1206:A 2.05 
11 *545:6 *545:115 19.53 
12 *545:115 *1417:A1 9.84 
13 *545:115 *545:136 7.895 
14 *545:136 *1563:A 1.96 
15 *545:136 *545:149 13.37 
16 *545:149 *1515:B2 8.58 
17 *545:149 *545:180 21.06 
18 *545:180 *1544:B2 12.325 
19 *545:180 *1528:A1 3.01 
*END

*D_NET *546 0.0151045
*CONN
*I *1370:B2 I *D sky130_fd_sc_hd__a221o_2
*I *1340:B1 I *D sky130_fd_sc_hd__o21ai_2
*I *1430:B2 I *D sky130_fd_sc_hd__a221o_2
*I *1443:B1 I *D sky130_fd_sc_hd__o21ai_2
*I *1353:B1 I *D sky130_fd_sc_hd__o21ai_2
*I *1286:B1 I *D sky130_fd_sc_hd__o21ai_2
*I *1256:B1 I *D sky130_fd_sc_hd__o21ai_2
*I *1275:B1 I *D sky130_fd_sc_hd__o21ai_2
*I *1299:B1 I *D sky130_fd_sc_hd__o21ai_2
*I *1330:B1 I *D sky130_fd_sc_hd__o21ai_2
*I *1611:X O *D sky130_fd_sc_hd__clkdlybuf4s25_1
*CAP
1 *1370:B2 1.68394e-06
2 *1340:B1 0
3 *1430:B2 0.000118835
4 *1443:B1 0.000286839
5 *1353:B1 0
6 *1286:B1 0
7 *1256:B1 0.00040898
8 *1275:B1 0
9 *1299:B1 0.000308407
10 *1330:B1 0.000145133
11 *1611:X 8.18791e-05
12 *546:105 0.000830006
13 *546:99 0.00114765
14 *546:51 0.000482638
15 *546:43 0.00107894
16 *546:32 0.00079846
17 *546:30 0.000776784
18 *546:22 0.00114326
19 *546:18 0.000242375
20 *546:10 0.000287517
21 *1256:B1 *1258:A1 0.000138551
22 *1256:B1 *559:98 3.97827e-05
23 *1256:B1 *561:62 4.40713e-05
24 *1256:B1 *588:10 0
25 *1299:B1 *1275:A1 0
26 *1299:B1 *1275:A2 4.77719e-05
27 *1299:B1 *1307:A_N 4.82863e-05
28 *1299:B1 *1307:B 5.74791e-05
29 *1299:B1 *561:68 9.99769e-05
30 *1330:B1 *1286:A1 3.89563e-05
31 *1330:B1 *1330:A1 2.20014e-05
32 *1330:B1 *1330:A2 8.52845e-05
33 *1370:B2 *557:72 2.50318e-07
34 *1430:B2 *1419:A 0
35 *1430:B2 *1427:A1 1.12643e-05
36 *1430:B2 *552:30 7.96996e-05
37 *1430:B2 *565:112 0
38 *1443:B1 *1343:A 0.000252694
39 *1443:B1 *1354:A1 0
40 *1443:B1 *1444:B2 4.11281e-05
41 *1443:B1 *559:135 9.2544e-05
42 *546:10 *1370:A1 5.4256e-05
43 *546:18 *557:72 0.000198945
44 *546:18 *557:76 0.000219708
45 *546:22 *557:76 2.30292e-05
46 *546:30 *1303:A 4.9253e-06
47 *546:30 *1331:A1_N 0.000643694
48 *546:30 *1431:A1 5.16418e-05
49 *546:30 *1613:A 0
50 *546:30 *553:29 0
51 *546:30 *553:35 0
52 *546:30 *553:45 5.65627e-05
53 *546:43 *1286:A2 0.000276647
54 *546:43 *1330:A2 2.84864e-05
55 *546:99 *1431:A1 0.000181087
56 *546:99 *553:29 0
57 *546:105 *1343:A 5.53249e-06
58 *546:105 *1354:A1 0.000199405
59 *546:105 *1354:B2 9.75641e-05
60 *546:105 *1355:A1 4.99619e-05
61 *546:105 *1419:B 6.06701e-05
62 *546:105 *1715:A 2.85187e-05
63 *546:105 *597:60 0
64 y[8] *1256:B1 7.70938e-05
65 *1261:A *546:43 1.7211e-05
66 *1273:A2 *1256:B1 0.000353998
67 *1276:C1 *1256:B1 8.23457e-05
68 *1277:B1 *1256:B1 6.74147e-05
69 *1287:C1 *546:32 1.4389e-05
70 *1291:B *1299:B1 8.4841e-05
71 *1297:A3 *1299:B1 7.29448e-05
72 *1308:B1 *1299:B1 2.30292e-05
73 *1312:B *546:43 0
74 *1315:B1 *546:43 9.15747e-05
75 *1318:C *546:43 0.000153263
76 *1326:B *546:43 0
77 *1327:A2 *546:43 0
78 *1338:B1 *1330:B1 4.77719e-05
79 *1341:C1 *546:22 4.82919e-05
80 *1354:C1 *546:105 4.82919e-05
81 *1355:A2 *546:105 7.08493e-05
82 *1355:B1 *546:105 2.86975e-05
83 *1370:C1 *546:10 9.50342e-06
84 *1371:A2 *546:10 0
85 *1371:B1 *1370:B2 1.12643e-05
86 *1371:B1 *546:18 0.000159147
87 *1375:B *546:30 0.000225166
88 *1383:A *546:99 0
89 *1430:C1 *1430:B2 9.50342e-06
90 *1431:A2 *546:99 8.71001e-05
91 *1431:B1 *546:99 0.000159964
92 *1441:A2 *1443:B1 0
93 *1444:A2 *1443:B1 9.044e-05
94 *1444:C1 *1443:B1 0.000120655
95 *1449:A2 *1443:B1 6.71882e-05
96 *1659:A *1256:B1 5.53249e-06
97 *209:16 *1299:B1 0.000133791
98 *210:43 *546:43 0.000101278
99 *210:43 *546:51 5.79855e-05
100 *240:10 *1256:B1 0.000119756
101 *251:46 *546:43 0.000254779
102 *287:10 *1443:B1 0
103 *288:8 *546:105 9.80032e-06
104 *288:21 *1443:B1 4.18603e-06
105 *288:21 *546:105 9.3062e-06
106 *317:12 *546:30 0
107 *358:14 *546:99 4.98015e-05
108 *358:14 *546:105 1.4389e-05
109 *359:12 *1430:B2 4.43871e-06
110 *539:40 *546:99 0
111 *540:40 *546:30 0.000189926
112 *542:20 *1299:B1 0.000192907
113 *542:27 *1299:B1 0.000305658
114 *542:33 *546:43 0
115 *542:33 *546:51 9.22294e-06
*RES
1 *1611:X *546:10 7.235 
2 *546:10 *546:18 5.415 
3 *546:18 *546:22 2.795 
4 *546:22 *546:30 14.42 
5 *546:30 *546:32 2.175 
6 *546:32 *1330:B1 4.12 
7 *546:32 *546:43 12.305 
8 *546:43 *546:51 4.115 
9 *546:51 *1299:B1 13.655 
10 *546:51 *1275:B1 1.6 
11 *546:43 *1256:B1 16.54 
12 *546:30 *1286:B1 1.6 
13 *546:22 *546:99 11.285 
14 *546:99 *546:105 11.345 
15 *546:105 *1353:B1 3.6 
16 *546:105 *1443:B1 11.01 
17 *546:99 *1430:B2 8.10875 
18 *546:18 *1340:B1 1.6 
19 *546:10 *1370:B2 1.70875 
*END

*D_NET *547 0.00331375
*CONN
*I *1420:B I *D sky130_fd_sc_hd__or2_2
*I *1437:A_N I *D sky130_fd_sc_hd__and2b_2
*I *1419:B I *D sky130_fd_sc_hd__and2_2
*I *1633:X O *D sky130_fd_sc_hd__clkdlybuf4s25_1
*CAP
1 *1420:B 5.2624e-05
2 *1437:A_N 2.08684e-05
3 *1419:B 0.000187936
4 *1633:X 0.000800597
5 *547:18 0.000355781
6 *547:10 0.0010002
7 *1419:B *1355:A1 0
8 *1419:B *562:49 0.00011099
9 *1437:A_N *565:116 4.76682e-05
10 *547:10 *1444:B2 6.74429e-05
11 *547:18 *562:49 0.000142235
12 *1442:B *547:10 2.34984e-05
13 *1444:A2 *547:10 1.17309e-05
14 *1444:B1 *547:10 7.25921e-06
15 *1445:A2 *547:10 0.000158072
16 *1445:B1 *547:10 0.00019637
17 *287:10 *547:10 6.98113e-05
18 *546:105 *1419:B 6.06701e-05
*RES
1 *1633:X *547:10 14.155 
2 *547:10 *547:18 5.21 
3 *547:18 *1419:B 6.825 
4 *547:18 *1437:A_N 4.05 
5 *547:10 *1420:B 2.395 
*END

*D_NET *548 0.0274063
*CONN
*I *1501:A I *D sky130_fd_sc_hd__nand2_2
*I *1398:A1 I *D sky130_fd_sc_hd__a22o_2
*I *1223:B1 I *D sky130_fd_sc_hd__o21ai_2
*I *1171:B1 I *D sky130_fd_sc_hd__o21ai_2
*I *1180:B1 I *D sky130_fd_sc_hd__o21ai_2
*I *1454:A I *D sky130_fd_sc_hd__nand2_2
*I *1470:B2 I *D sky130_fd_sc_hd__a221o_2
*I *1483:A I *D sky130_fd_sc_hd__nand2_2
*I *1611:A I *D sky130_fd_sc_hd__clkdlybuf4s25_1
*I *1388:A1 I *D sky130_fd_sc_hd__a221o_2
*I *1612:X O *D sky130_fd_sc_hd__clkdlybuf4s25_1
*CAP
1 *1501:A 0.00167925
2 *1398:A1 0
3 *1223:B1 0.000160397
4 *1171:B1 0
5 *1180:B1 0.0010521
6 *1454:A 0.000490629
7 *1470:B2 8.63002e-05
8 *1483:A 0
9 *1611:A 0
10 *1388:A1 4.71487e-05
11 *1612:X 8.00125e-06
12 *548:148 0.00181838
13 *548:126 0.000160397
14 *548:107 0.00202695
15 *548:67 0.00110047
16 *548:54 0.00180838
17 *548:37 0.00182742
18 *548:29 0.00209345
19 *548:23 0.000877245
20 *548:6 0.000217245
21 *1180:B1 *1171:A2 4.17913e-05
22 *1180:B1 *1176:B1 4.40639e-05
23 *1180:B1 *1182:A1 0.000773245
24 *1180:B1 *1236:A1 0.000401436
25 *1223:B1 *1171:A2 0.000165055
26 *1223:B1 *1254:A3 7.69026e-05
27 *1388:A1 *566:59 0.000164874
28 *1454:A *554:42 6.1554e-05
29 *1501:A *1390:A 0.0001032
30 *1501:A *1502:A1 2.17931e-05
31 *1501:A *1502:B2 3.18137e-05
32 *1501:A *1565:A1 0.000275553
33 *1501:A *1578:B 7.00889e-06
34 *1501:A *560:151 0.00022063
35 *1501:A *560:172 9.15855e-05
36 *1501:A *654:26 0.000160665
37 *548:6 *566:59 2.30292e-05
38 *548:23 *1395:A_N 0.000114753
39 *548:23 *566:59 0
40 *548:29 *1395:A_N 4.82863e-05
41 *548:54 *1429:A 0
42 *548:54 *553:29 0.000159957
43 *548:54 *562:35 1.49438e-05
44 *548:54 *567:84 0.000249921
45 *548:67 *1472:B 0.000160635
46 *548:107 *1171:A2 0.00014889
47 *548:107 *557:64 9.54399e-05
48 *548:107 *557:105 0.000154481
49 *548:107 *565:20 1.34361e-05
50 *548:107 *567:10 0.000121152
51 *548:107 *567:19 0.000124283
52 *1172:C1 *1223:B1 5.16418e-05
53 *1173:A2 *1180:B1 3.96263e-05
54 *1176:A2 *1180:B1 0.000535256
55 *1181:C1 *1180:B1 3.96263e-05
56 *1191:A3 *1180:B1 0.000123834
57 *1220:B *548:107 5.47341e-05
58 *1221:B1 *548:107 7.23602e-05
59 *1222:A *548:107 7.41912e-05
60 *1222:B *548:107 0.000154479
61 *1242:A1 *548:107 6.90254e-05
62 *1242:A2 *548:107 0.000446198
63 *1242:A3 *548:107 7.41023e-05
64 *1262:A2 *1180:B1 3.32709e-05
65 *1262:A2 *548:107 3.81629e-05
66 *1384:C1 *548:54 5.20968e-05
67 *1388:A2 *1388:A1 1.37395e-05
68 *1388:A2 *548:23 4.98014e-05
69 *1388:B1 *1388:A1 3.18332e-05
70 *1396:A2 *548:37 0.000100668
71 *1398:A2 *548:148 1.2818e-05
72 *1398:B2 *1501:A 4.01778e-05
73 *1398:B2 *548:23 0.000293726
74 *1398:B2 *548:148 0.000101125
75 *1399:B1 *548:23 1.82476e-05
76 *1400:B1 *548:23 0
77 *1400:B1 *548:29 0.000571715
78 *1400:B1 *548:37 4.82863e-05
79 *1404:A *1501:A 0.000137894
80 *1409:A *548:37 8.65905e-05
81 *1409:B *548:37 4.35432e-05
82 *1409:B *548:54 0
83 *1416:A *1501:A 0.000118496
84 *1421:A_N *548:54 0
85 *1428:A *548:54 0
86 *1431:A2 *548:54 0
87 *1431:B1 *548:54 0
88 *1468:B *1470:B2 3.23391e-05
89 *1469:B *1454:A 0.000154891
90 *1470:A2 *1470:B2 2.48591e-05
91 *1470:B1 *1470:B2 2.48591e-05
92 *1476:B1 *1470:B2 9.0444e-05
93 *1480:A3 *1454:A 2.20312e-05
94 *1482:B *548:54 0.000316112
95 *1482:B *548:67 0.00015212
96 *1484:C1 *548:54 1.89685e-05
97 *1484:C1 *548:67 0.000107465
98 *1485:A2 *548:67 4.82863e-05
99 *1489:A *548:54 0.000103635
100 *1489:C *548:54 0.000100544
101 *1498:A *1501:A 4.1015e-05
102 *1499:A0 *1501:A 6.82359e-05
103 *1500:A *1501:A 0
104 *1500:B *1501:A 6.47594e-05
105 *1502:A2 *1501:A 3.05373e-05
106 *1502:C1 *1501:A 4.82919e-05
107 *1503:A2 *1501:A 0.000199833
108 *1508:B *1501:A 2.59981e-05
109 *1609:B1 *1501:A 0.000141873
110 *1623:A *548:107 0
111 *1624:A *548:107 0.000171756
112 *1628:A *1388:A1 8.38564e-05
113 *1628:A *548:6 4.82919e-05
114 *131:20 *1180:B1 0.000322154
115 *169:14 *548:107 0.000230284
116 *173:22 *548:107 0.000107467
117 *181:47 *1223:B1 1.34594e-05
118 *189:10 *1180:B1 1.81522e-05
119 *189:10 *1223:B1 8.49205e-05
120 *193:22 *1180:B1 5.82026e-05
121 *195:10 *1223:B1 2.16917e-05
122 *302:6 *548:54 0.000238919
123 *326:10 *548:107 0
124 *342:12 *1501:A 0
125 *349:10 *548:37 1.47347e-05
126 *376:8 *548:54 0
127 *384:16 *1454:A 2.59934e-06
128 *395:12 *1470:B2 0.00015155
129 *395:27 *1454:A 2.0514e-05
130 *395:27 *548:67 0.000158066
131 *407:14 *548:67 5.55686e-05
132 *408:16 *548:67 1.74678e-05
133 *409:14 *548:54 1.59281e-05
134 *409:16 *548:54 2.25541e-05
135 *420:16 *1501:A 1.37328e-05
136 *422:10 *1501:A 0
137 *422:14 *1501:A 4.787e-05
138 *422:28 *1501:A 5.03783e-05
139 *427:31 *1501:A 0.000120655
140 *438:10 *1501:A 0.000198046
141 *506:12 *1501:A 1.61831e-05
142 *535:16 *1180:B1 6.10056e-05
143 *536:10 *1501:A 0
144 *536:18 *1501:A 0
145 *545:70 *1180:B1 0.000105674
146 *545:70 *548:107 1.18673e-05
147 *545:115 *1501:A 0
148 *545:136 *1501:A 3.38041e-05
149 *545:149 *1501:A 2.04648e-05
*RES
1 *1612:X *548:6 2.05 
2 *548:6 *1388:A1 3.805 
3 *548:6 *548:23 8.44 
4 *548:23 *548:29 8.235 
5 *548:29 *548:37 8.085 
6 *548:37 *1611:A 1.6 
7 *548:37 *548:54 24.365 
8 *548:54 *1483:A 3.6 
9 *548:54 *548:67 11.06 
10 *548:67 *1470:B2 7.73 
11 *548:67 *1454:A 8.32 
12 *548:29 *548:107 29.97 
13 *548:107 *1180:B1 9.07267 
14 *548:107 *548:126 2 
15 *548:126 *1171:B1 1.6 
16 *548:126 *1223:B1 9.59 
17 *548:23 *548:148 2.175 
18 *548:148 *1398:A1 1.6 
19 *548:148 *1501:A 40.5 
*END

*D_NET *549 0.0209729
*CONN
*I *1314:A1 I *D sky130_fd_sc_hd__o21a_2
*I *1287:A1 I *D sky130_fd_sc_hd__o221a_2
*I *1276:A1 I *D sky130_fd_sc_hd__o221a_2
*I *1257:A1 I *D sky130_fd_sc_hd__o221a_2
*I *1455:A1 I *D sky130_fd_sc_hd__o221a_2
*I *1444:A1 I *D sky130_fd_sc_hd__o221a_2
*I *1354:A1 I *D sky130_fd_sc_hd__o221a_2
*I *1341:A1 I *D sky130_fd_sc_hd__o221a_2
*I *1332:A1 I *D sky130_fd_sc_hd__o211ai_2
*I *1301:A1 I *D sky130_fd_sc_hd__o211ai_2
*I *1613:X O *D sky130_fd_sc_hd__clkdlybuf4s25_1
*CAP
1 *1314:A1 0
2 *1287:A1 0.000116728
3 *1276:A1 0
4 *1257:A1 0.000703858
5 *1455:A1 0.000444329
6 *1444:A1 0
7 *1354:A1 0.000527182
8 *1341:A1 8.71862e-05
9 *1332:A1 2.37881e-05
10 *1301:A1 0.000218029
11 *1613:X 0.000148763
12 *549:140 0.00163965
13 *549:126 0.00142546
14 *549:96 0.000725184
15 *549:75 0.00110456
16 *549:62 0.000672824
17 *549:47 0.000588159
18 *549:34 0.000814623
19 *549:28 0.00115854
20 *549:14 0.00061302
21 *1257:A1 *1250:A 2.30292e-05
22 *1257:A1 *1257:B2 7.59904e-05
23 *1287:A1 *1287:B2 4.82863e-05
24 *1332:A1 *1348:A 8.65905e-05
25 *1341:A1 *1333:A 0
26 *1341:A1 *1333:B 8.40269e-05
27 *1341:A1 *610:18 9.80943e-06
28 *1341:A1 *610:20 4.58166e-05
29 *1354:A1 *1344:B 0.000307049
30 *1354:A1 *1354:B2 5.83121e-06
31 *1354:A1 *1715:A 0.000121023
32 *1455:A1 *1432:A 0.000328561
33 *1455:A1 *1722:A 0.000284302
34 *1455:A1 *605:51 9.29194e-05
35 *549:14 *1313:B2 9.12671e-06
36 *549:14 *553:45 3.00355e-05
37 *549:14 *553:61 8.34281e-06
38 *549:28 *1337:B1 0.000135472
39 *549:28 *1712:A 0.000133806
40 *549:28 *553:61 0.000547445
41 *549:28 *577:6 5.35181e-06
42 *549:34 *1711:A 7.03276e-05
43 *549:34 *577:6 1.80988e-05
44 *549:47 *1711:A 2.98587e-05
45 *549:47 *1713:A 0.000170315
46 *549:47 *559:18 0
47 *549:47 *595:18 0
48 *549:47 *598:18 0.0002817
49 *549:62 *559:18 0
50 *549:62 *595:12 0
51 *549:62 *599:10 1.79483e-05
52 *549:75 *1349:A2_N 0.000204456
53 *549:75 *1349:B2 0.000276445
54 *549:75 *1445:A1 0
55 *549:75 *596:10 5.16348e-05
56 *549:75 *596:14 0.000157602
57 *549:75 *599:10 4.90071e-05
58 *549:75 *621:10 5.33874e-05
59 *549:75 *621:32 4.28396e-05
60 *549:96 *1445:A1 0
61 *549:96 *1722:A 5.33787e-05
62 *549:96 *621:32 1.94892e-05
63 *549:126 *1286:A1 0.000175858
64 *549:126 *1297:A1 7.29185e-05
65 *549:126 *553:67 0
66 *549:126 *593:35 0.000344618
67 *549:140 *1250:B 7.1635e-05
68 *549:140 *1256:A2 1.82476e-05
69 *549:140 *1257:B2 2.06762e-05
70 *549:140 *553:73 0
71 *549:140 *588:10 4.66108e-05
72 y[13] *549:47 0
73 y[20] *1455:A1 0
74 *1276:A2 *1257:A1 1.85674e-05
75 *1276:B1 *549:140 4.95266e-05
76 *1276:C1 *549:140 0.000197055
77 *1285:B *549:140 8.8266e-05
78 *1287:A2 *1287:A1 4.82919e-05
79 *1287:A2 *549:126 3.98869e-05
80 *1287:A2 *549:140 1.0183e-05
81 *1287:B1 *1287:A1 2.55546e-05
82 *1297:A2 *549:126 0.000136052
83 *1298:B *549:126 0.000346474
84 *1300:B1 *549:47 0
85 *1301:B1 *1301:A1 1.08758e-05
86 *1301:B1 *549:126 4.24192e-05
87 *1301:C1 *549:47 0
88 *1308:A2 *549:126 1.88904e-05
89 *1308:B1 *549:126 5.30479e-05
90 *1312:A *549:28 8.52845e-05
91 *1313:A1 *549:14 4.77769e-05
92 *1313:B1 *549:14 0.000137907
93 *1313:B1 *549:28 0.000154986
94 *1314:A2 *549:14 0.000165958
95 *1314:B1 *549:14 8.46818e-05
96 *1314:B1 *549:28 0.000119251
97 *1341:A2 *1341:A1 5.4155e-06
98 *1354:C1 *1354:A1 2.30292e-05
99 *1362:A2 *1341:A1 0.000320818
100 *1364:C1 *1354:A1 4.9968e-05
101 *1443:B1 *1354:A1 0
102 *1445:B1 *549:96 0
103 *1453:A *1455:A1 2.82846e-05
104 *1453:B *1455:A1 0.000111343
105 *1642:A *549:34 0.000196077
106 *1662:A *549:75 2.06147e-05
107 *1670:A *1455:A1 0
108 *1675:A *549:75 0
109 *1675:A *549:96 0
110 *1702:A *549:34 7.1624e-05
111 *1702:A *549:47 0.000239993
112 *201:8 *1257:A1 0.000630273
113 *228:6 *1287:A1 1.52352e-05
114 *228:21 *549:140 6.55328e-05
115 *251:50 *549:28 0.000310736
116 *253:16 *549:28 0.000230033
117 *253:16 *549:126 6.97381e-05
118 *278:6 *1341:A1 7.60965e-05
119 *287:10 *1354:A1 4.38051e-05
120 *288:8 *1354:A1 3.43427e-05
121 *288:21 *1354:A1 7.06865e-05
122 *292:10 *1332:A1 4.99619e-05
123 *292:10 *549:62 0.000299128
124 *292:10 *549:75 0
125 *385:6 *1455:A1 4.66108e-05
126 *385:19 *1455:A1 4.66108e-05
127 *541:62 *549:28 0.000194891
128 *542:10 *549:140 0
129 *546:105 *1354:A1 0.000199405
*RES
1 *1613:X *549:14 5.74 
2 *549:14 *549:28 16.315 
3 *549:28 *549:34 6.425 
4 *549:34 *1301:A1 6.48 
5 *549:34 *549:47 6.99 
6 *549:47 *1332:A1 4.395 
7 *549:47 *549:62 5.175 
8 *549:62 *1341:A1 7.17 
9 *549:62 *549:75 7.755 
10 *549:75 *1354:A1 15.85 
11 *549:75 *549:96 4.95 
12 *549:96 *1444:A1 3.6 
13 *549:96 *1455:A1 14.115 
14 *549:28 *549:126 12.56 
15 *549:126 *549:140 20.67 
16 *549:140 *1257:A1 11.56 
17 *549:140 *1276:A1 1.6 
18 *549:126 *1287:A1 5.7 
19 *549:14 *1314:A1 1.6 
*END

*D_NET *550 0.0231899
*CONN
*I *1172:B1 I *D sky130_fd_sc_hd__o221a_2
*I *1181:A1 I *D sky130_fd_sc_hd__o221a_2
*I *1604:A1 I *D sky130_fd_sc_hd__o221a_2
*I *1502:A1 I *D sky130_fd_sc_hd__o221a_2
*I *1207:A1 I *D sky130_fd_sc_hd__o221a_2
*I *1387:A I *D sky130_fd_sc_hd__nor2_2
*I *1193:A I *D sky130_fd_sc_hd__or2_2
*I *1236:A1 I *D sky130_fd_sc_hd__o21ai_2
*I *1248:A1 I *D sky130_fd_sc_hd__o221a_2
*I *1224:A1 I *D sky130_fd_sc_hd__o221a_2
*I *1614:X O *D sky130_fd_sc_hd__clkdlybuf4s25_1
*CAP
1 *1172:B1 0.000404922
2 *1181:A1 0.000207213
3 *1604:A1 0.000111113
4 *1502:A1 0.00122281
5 *1207:A1 0
6 *1387:A 0.00010897
7 *1193:A 4.5303e-05
8 *1236:A1 0.000603147
9 *1248:A1 0.00019992
10 *1224:A1 0
11 *1614:X 0
12 *550:163 0.000853552
13 *550:65 0.00105794
14 *550:46 0.000719151
15 *550:32 0.000512296
16 *550:24 0.00139327
17 *550:10 0.00123334
18 *550:6 0.00151849
19 *550:4 0.000213623
20 *1172:B1 *1227:B 6.1357e-05
21 *1172:B1 *563:136 8.40269e-05
22 *1172:B1 *592:14 8.49205e-05
23 *1172:B1 *592:51 2.8185e-05
24 *1181:A1 *1181:B2 0.000131746
25 *1181:A1 *1721:A 4.82919e-05
26 *1236:A1 *1182:A1 0.000251387
27 *1236:A1 *1235:B2 1.88602e-05
28 *1248:A1 *566:30 1.79536e-05
29 *1248:A1 *620:10 0
30 *1387:A *1413:A 0.000226855
31 *1502:A1 *1583:A_N 0.000181368
32 *1502:A1 *1607:C 0.000239014
33 *1502:A1 *1717:A 0.000100528
34 *1502:A1 *551:10 0
35 *1502:A1 *551:46 0
36 *1502:A1 *551:79 0.000153278
37 *1502:A1 *555:18 0.000149628
38 *1502:A1 *564:22 0.000192543
39 *1502:A1 *564:35 0.000102479
40 *1502:A1 *564:66 4.88475e-05
41 *1502:A1 *628:8 8.14255e-05
42 *1604:A1 *1577:B 7.79931e-05
43 *1604:A1 *1604:B2 4.00541e-06
44 *1604:A1 *555:44 7.76137e-05
45 *550:6 *555:6 2.54431e-05
46 *550:6 *555:44 5.0751e-05
47 *550:10 *1207:B2 0.00041503
48 *550:10 *1614:A 8.65961e-05
49 *550:10 *555:6 3.23663e-05
50 *550:24 *1159:A 4.66742e-05
51 *550:24 *1166:A 7.13156e-05
52 *550:24 *1166:C_N 0.00012657
53 *550:24 *1605:A1 2.75229e-05
54 *550:24 *560:130 2.53803e-05
55 *550:24 *567:10 0.000160635
56 *550:32 *1156:B 0.000143516
57 *550:32 *1413:A 0.000280179
58 *550:32 *1736:A 2.23203e-05
59 *550:32 *563:74 4.24562e-05
60 *550:46 *1156:B 1.11262e-05
61 *550:65 *1225:A1 0.000116179
62 *550:65 *1721:A 5.12017e-06
63 *550:65 *620:10 0
64 *1156:A *550:32 0.000239815
65 *1156:A *550:46 0.000298413
66 *1156:A *550:65 0.000273323
67 *1159:B *550:24 7.65363e-05
68 *1172:A1 *1172:B1 2.60787e-05
69 *1172:B2 *1172:B1 7.68906e-05
70 *1173:A2 *550:163 5.68887e-05
71 *1178:A1 *1181:A1 8.93004e-05
72 *1178:A1 *550:163 9.28013e-05
73 *1178:B1 *1181:A1 1.88602e-05
74 *1179:A *550:163 0.000196743
75 *1180:B1 *1236:A1 0.000401436
76 *1181:A2 *1181:A1 3.96153e-05
77 *1181:C1 *1181:A1 0
78 *1181:C1 *550:163 0
79 *1182:A2 *550:65 0.000110019
80 *1182:A2 *550:163 8.65961e-05
81 *1182:B1 *550:65 8.80752e-05
82 *1189:A3 *1248:A1 0.00030824
83 *1189:A3 *550:65 3.91137e-05
84 *1191:A3 *1172:B1 0.000233004
85 *1191:A3 *1236:A1 0.000721905
86 *1191:A3 *550:163 8.45182e-05
87 *1208:B1 *550:10 5.30673e-05
88 *1215:A2 *1193:A 4.77757e-05
89 *1225:A2 *550:32 9.12494e-06
90 *1225:A2 *550:46 8.9257e-05
91 *1235:A1 *1236:A1 0.000257253
92 *1236:A2 *1236:A1 4.55864e-06
93 *1246:A2 *1248:A1 3.00381e-05
94 *1248:B1 *1248:A1 2.97004e-06
95 *1252:A1 *1248:A1 1.15688e-05
96 *1253:A *1248:A1 0.000111493
97 *1263:A *550:65 8.40213e-05
98 *1392:A1 *1387:A 4.43871e-06
99 *1488:A *1502:A1 0.000155227
100 *1501:A *1502:A1 2.17931e-05
101 *1502:C1 *1502:A1 2.75229e-05
102 *1568:B *1502:A1 0.000659927
103 *1570:A2 *1502:A1 0
104 *1581:A1 *1502:A1 9.37971e-05
105 *1585:B1 *1502:A1 0.000114565
106 *1599:A1 *1502:A1 8.82813e-05
107 *1599:B1 *1502:A1 8.7152e-06
108 *1600:B *1502:A1 7.10294e-05
109 *1603:A *550:24 0.000121105
110 *1605:A2 *550:24 6.07575e-06
111 *1605:B1 *1604:A1 4.82863e-05
112 *1605:B1 *550:24 0.000258401
113 *1608:B1 *1502:A1 1.65804e-05
114 *1618:A *550:24 5.49658e-05
115 *1623:A *1387:A 0
116 *1623:A *550:32 0
117 *1625:A *1502:A1 0.000286949
118 *1626:A *1502:A1 0.000283844
119 *1634:A *1181:A1 4.99619e-05
120 *1657:A *1172:B1 8.68436e-05
121 *1704:A *550:46 9.65637e-05
122 *114:28 *550:163 0.000128943
123 *140:20 *550:24 0.000158965
124 *169:14 *1193:A 0.000196066
125 *169:14 *550:46 3.93162e-05
126 *170:22 *550:46 0.000124648
127 *172:24 *1193:A 7.47563e-05
128 *172:24 *550:46 8.35106e-05
129 *179:14 *550:46 2.49909e-05
130 *179:14 *550:65 4.38881e-05
131 *179:35 *550:65 0.000203273
132 *184:16 *550:65 0.000115495
133 *189:25 *1248:A1 4.82863e-05
134 *421:14 *1502:A1 6.17458e-05
135 *421:29 *1502:A1 0.000230435
136 *422:14 *1502:A1 2.02553e-05
137 *422:28 *1502:A1 0.000133127
138 *476:12 *1502:A1 1.32017e-05
139 *477:12 *1502:A1 0.000115046
140 *478:28 *1502:A1 8.7636e-05
141 *526:8 *1502:A1 1.56428e-05
*RES
1 *1614:X *550:4 1.6 
2 *550:4 *550:6 1.83 
3 *550:6 *550:10 4.95 
4 *550:10 *550:24 21.915 
5 *550:24 *550:32 8.615 
6 *550:32 *550:46 10.675 
7 *550:46 *1224:A1 1.6 
8 *550:46 *550:65 15.9525 
9 *550:65 *1248:A1 8.3625 
10 *550:65 *1236:A1 6.38543 
11 *550:32 *1193:A 3.43 
12 *550:24 *1387:A 6.255 
13 *550:10 *1207:A1 1.6 
14 *550:6 *1502:A1 41.1 
15 *550:4 *1604:A1 4.135 
16 *1236:A1 *550:163 9.225 
17 *550:163 *1181:A1 7.98 
18 *550:163 *1172:B1 11.3438 
*END

*D_NET *551 0.0251193
*CONN
*I *1564:A1 I *D sky130_fd_sc_hd__o221a_2
*I *1515:A1 I *D sky130_fd_sc_hd__o22a_2
*I *1528:B2 I *D sky130_fd_sc_hd__o22a_2
*I *1544:A1 I *D sky130_fd_sc_hd__o22a_2
*I *1484:A1 I *D sky130_fd_sc_hd__o221a_2
*I *1589:A1 I *D sky130_fd_sc_hd__o22a_2
*I *1614:A I *D sky130_fd_sc_hd__clkdlybuf4s25_1
*I *1613:A I *D sky130_fd_sc_hd__clkdlybuf4s25_1
*I *1615:X O *D sky130_fd_sc_hd__clkdlybuf4s25_1
*CAP
1 *1564:A1 0.00051864
2 *1515:A1 0
3 *1528:B2 3.49263e-05
4 *1544:A1 0
5 *1484:A1 0.000252089
6 *1589:A1 0.000127325
7 *1614:A 2.30897e-05
8 *1613:A 0.00224868
9 *1615:X 1.65033e-05
10 *551:105 0.00109159
11 *551:97 0.00166439
12 *551:79 0.00119983
13 *551:67 0.00237838
14 *551:46 0.00214449
15 *551:10 0.002395
16 *551:8 0.000707016
17 *1484:A1 *1471:A1 8.72789e-05
18 *1484:A1 *1532:B 8.65961e-05
19 *1484:A1 *1556:B 0.000139238
20 *1484:A1 *554:16 5.2378e-05
21 *1484:A1 *613:6 4.66108e-05
22 *1484:A1 *613:14 2.92496e-05
23 *1564:A1 *1499:S 1.70127e-05
24 *1564:A1 *614:27 9.5799e-06
25 *1589:A1 *1607:C 3.82741e-05
26 *1613:A *1184:B 0.000156439
27 *1613:A *1208:A1 0.000657014
28 *1613:A *1303:B 0.000205477
29 *1613:A *1734:A 0.00014453
30 *1613:A *553:45 0
31 *1613:A *563:74 2.16673e-05
32 *1613:A *566:30 1.00909e-05
33 *1613:A *598:18 7.79954e-05
34 *1614:A *555:6 3.00381e-05
35 *551:10 *1717:A 1.70935e-05
36 *551:46 *1717:A 8.52172e-05
37 *551:46 *600:20 0.000188782
38 *551:46 *643:26 0.000195193
39 *551:79 *1502:B2 3.60566e-05
40 *551:79 *564:91 3.96653e-05
41 *551:97 *564:91 0.000275294
42 *551:97 *612:14 2.78732e-05
43 *1191:A3 *1613:A 0
44 *1206:B *1613:A 0.000429454
45 *1384:B1 *1613:A 2.53191e-06
46 *1485:B1 *1484:A1 8.8266e-05
47 *1488:A *551:79 1.73877e-05
48 *1502:A1 *551:10 0
49 *1502:A1 *551:46 0
50 *1502:A1 *551:79 0.000153278
51 *1509:B *551:79 0
52 *1511:A1 *551:79 0.000132842
53 *1515:B1 *551:79 6.45316e-05
54 *1515:B2 *551:79 8.40213e-05
55 *1515:B2 *551:97 0.000254388
56 *1521:A2 *551:79 3.50033e-05
57 *1525:C *551:97 0.000136158
58 *1526:A1 *551:97 0.000163056
59 *1528:A1 *1528:B2 5.58436e-05
60 *1528:B1 *1528:B2 9.53428e-06
61 *1529:A2 *551:97 1.47256e-05
62 *1529:B1 *551:97 0.000396543
63 *1529:C1 *551:97 0.000314462
64 *1544:A2 *1484:A1 0
65 *1544:A2 *551:105 4.66108e-05
66 *1544:B1 *551:105 1.35154e-05
67 *1544:B2 *551:105 0.00115553
68 *1559:B1 *1484:A1 9.66021e-05
69 *1559:B1 *551:105 2.03356e-05
70 *1568:B *1589:A1 4.82919e-05
71 *1570:A2 *551:79 2.11552e-05
72 *1580:B *551:46 0.000111946
73 *1580:B *551:67 5.59815e-05
74 *1589:B2 *1589:A1 0.000231781
75 *1600:A *1589:A1 5.25616e-05
76 *1600:B *551:46 0.000165628
77 *1605:A2 *551:8 4.66108e-05
78 *1605:B1 *551:8 2.49909e-05
79 *1608:B1 *1589:A1 3.82741e-05
80 *1622:A *1613:A 1.92979e-05
81 *1622:A *551:10 0.000211677
82 *1622:A *551:46 0.00033071
83 *1625:A *551:10 0
84 *114:22 *1613:A 1.32141e-05
85 *117:20 *1613:A 0.000101912
86 *118:50 *1589:A1 1.33276e-06
87 *120:10 *551:46 8.9513e-05
88 *269:10 *1613:A 0.000134654
89 *407:27 *1484:A1 5.05437e-05
90 *422:10 *551:79 0.000199734
91 *437:10 *551:79 0.000157179
92 *437:23 *551:79 0.000152907
93 *438:10 *551:79 0.000103457
94 *450:14 *551:97 3.81908e-06
95 *450:14 *551:105 5.062e-06
96 *454:10 *551:97 4.9968e-05
97 *478:28 *1564:A1 0.000593603
98 *545:39 *1613:A 0.000855691
99 *546:30 *1613:A 0
100 *550:10 *1614:A 8.65961e-05
*RES
1 *1615:X *551:8 4.05 
2 *551:8 *551:10 2.655 
3 *551:10 *1613:A 14.2303 
4 *551:10 *1614:A 4.395 
5 *551:8 *551:46 6.9325 
6 *551:46 *1589:A1 5.8377 
7 *551:46 *551:67 2.6052 
8 *551:67 *551:79 13.4725 
9 *551:79 *551:97 19.9 
10 *551:97 *551:105 12.57 
11 *551:105 *1484:A1 12.185 
12 *551:105 *1544:A1 1.6 
13 *551:97 *1528:B2 2.47 
14 *551:79 *1515:A1 1.6 
15 *551:67 *1564:A1 5.4193 
*END

*D_NET *552 0.0101824
*CONN
*I *1399:A3 I *D sky130_fd_sc_hd__a31o_2
*I *1370:A1 I *D sky130_fd_sc_hd__a221o_2
*I *1470:A1 I *D sky130_fd_sc_hd__a221o_2
*I *1430:A1 I *D sky130_fd_sc_hd__a221o_2
*I *1706:X O *D sky130_fd_sc_hd__clkbuf_2
*CAP
1 *1399:A3 2.62443e-05
2 *1370:A1 0.000262374
3 *1470:A1 0.000972829
4 *1430:A1 0
5 *1706:X 0.000551776
6 *552:30 0.0014393
7 *552:24 0.00166072
8 *552:12 0.0015099
9 *1399:A3 *1399:A1 2.68721e-05
10 *1399:A3 *1411:B 1.71013e-05
11 *1399:A3 *1413:A 0
12 *1470:A1 *1429:A 7.17088e-05
13 *1470:A1 *1473:A 6.4422e-05
14 *1470:A1 *1485:A1 8.80755e-05
15 *1470:A1 *603:24 0
16 *1470:A1 *603:26 0
17 *1470:A1 *608:14 7.97717e-05
18 *552:12 *1399:A2 6.1709e-05
19 *552:12 *1561:S 4.71333e-05
20 *552:12 *1578:B 4.82919e-05
21 *552:12 *601:53 0.000268734
22 *552:12 *654:26 2.49909e-05
23 *552:24 *1411:B 3.67779e-05
24 *552:30 *1429:A 0.000352199
25 *552:30 *1431:A1 6.97202e-05
26 *552:30 *1720:A 5.30673e-05
27 *552:30 *553:6 0.000264672
28 *552:30 *565:112 0
29 *1370:A2 *1370:A1 9.50342e-06
30 *1371:A2 *1370:A1 0
31 *1383:B *552:30 6.76097e-05
32 *1384:C1 *1370:A1 0
33 *1384:C1 *552:30 2.75145e-05
34 *1397:B *552:24 1.80064e-05
35 *1400:B1 *1399:A3 1.34361e-05
36 *1400:B1 *552:24 3.86607e-05
37 *1412:A1 *552:24 0.000111302
38 *1430:B2 *552:30 7.96996e-05
39 *1430:C1 *1470:A1 0
40 *1431:B1 *552:30 0
41 *1470:A2 *1470:A1 4.85529e-05
42 *1471:A2 *1470:A1 0.000223492
43 *1478:C *1470:A1 0
44 *1479:B *1470:A1 0
45 *1481:A2 *1470:A1 0
46 *1481:A3 *1470:A1 0
47 *1481:B1 *1470:A1 0
48 *1489:A *1470:A1 0
49 *1616:A *552:24 0.000543954
50 *322:23 *1370:A1 0
51 *331:6 *552:12 4.50034e-05
52 *332:44 *552:24 0.000347023
53 *332:46 *552:24 0.000102922
54 *346:10 *552:24 8.8266e-05
55 *352:10 *552:24 4.82919e-05
56 *358:14 *1470:A1 9.50342e-06
57 *358:14 *552:30 0.00011852
58 *359:12 *1470:A1 0.000148092
59 *359:12 *552:30 9.50342e-06
60 *378:10 *1470:A1 0
61 *395:27 *1470:A1 0
62 *539:40 *552:30 3.09164e-05
63 *546:10 *1370:A1 5.4256e-05
*RES
1 *1706:X *552:12 11.415 
2 *552:12 *552:24 17.945 
3 *552:24 *552:30 13.625 
4 *552:30 *1430:A1 3.6 
5 *552:30 *1470:A1 21.015 
6 *552:24 *1370:A1 10.04 
7 *552:12 *1399:A3 4.47 
*END

*D_NET *553 0.0195893
*CONN
*I *1369:A I *D sky130_fd_sc_hd__nor2_2
*I *1331:B2 I *D sky130_fd_sc_hd__o2bb2a_2
*I *1313:B2 I *D sky130_fd_sc_hd__o22a_2
*I *1354:B2 I *D sky130_fd_sc_hd__o221a_2
*I *1341:B2 I *D sky130_fd_sc_hd__o221a_2
*I *1300:A1 I *D sky130_fd_sc_hd__o22a_2
*I *1287:B2 I *D sky130_fd_sc_hd__o221a_2
*I *1257:B2 I *D sky130_fd_sc_hd__o221a_2
*I *1276:B2 I *D sky130_fd_sc_hd__o221a_2
*I *1429:A I *D sky130_fd_sc_hd__nor2_2
*I *1616:X O *D sky130_fd_sc_hd__clkdlybuf4s25_1
*CAP
1 *1369:A 0
2 *1331:B2 0
3 *1313:B2 9.97878e-06
4 *1354:B2 0.000596504
5 *1341:B2 1.21047e-05
6 *1300:A1 3.44213e-05
7 *1287:B2 8.69256e-05
8 *1257:B2 0.000458563
9 *1276:B2 3.6985e-05
10 *1429:A 0.000431395
11 *1616:X 0.000130557
12 *553:127 0.000957189
13 *553:108 0.000429849
14 *553:73 0.000981466
15 *553:67 0.00107015
16 *553:61 0.00128055
17 *553:45 0.000980298
18 *553:35 0.000637621
19 *553:29 0.000713946
20 *553:6 0.000872208
21 *1257:B2 *1250:A 0.000198051
22 *1300:A1 *1286:A1 8.65905e-05
23 *1354:B2 *1361:B 0
24 *1354:B2 *1715:A 8.34281e-06
25 *1354:B2 *597:8 0
26 *1354:B2 *610:12 0
27 *553:29 *1716:A 0.000137645
28 *553:35 *1716:A 4.04634e-05
29 *553:45 *1303:A 0
30 *553:45 *1303:B 0
31 *553:45 *1328:S 0.000419079
32 *553:45 *1331:A1_N 4.9968e-05
33 *553:61 *1286:A2 9.13924e-05
34 *553:67 *1284:A1 0.000390973
35 *553:67 *1286:A1 9.38885e-05
36 *553:67 *1286:A2 4.11715e-05
37 *553:67 *1293:D1 5.13449e-05
38 *553:67 *561:83 6.1197e-05
39 *553:73 *1283:A_N 0.000164874
40 *553:73 *1283:B 2.30292e-05
41 *553:73 *1284:A1 0.000183043
42 *553:73 *590:25 0.000309897
43 *553:108 *1286:A1 3.51092e-05
44 *553:127 *1445:A1 0
45 *553:127 *1714:A 4.27883e-06
46 *553:127 *559:16 8.40269e-05
47 *553:127 *559:18 0
48 *553:127 *599:38 4.70885e-05
49 *553:127 *599:42 7.50607e-06
50 *553:127 *632:6 4.66108e-05
51 y[11] *553:108 1.88656e-05
52 *1257:A1 *1257:B2 7.59904e-05
53 *1257:B1 *1257:B2 1.12643e-05
54 *1276:A2 *553:73 4.13985e-05
55 *1276:B1 *1276:B2 4.86642e-05
56 *1276:C1 *1257:B2 0.000103941
57 *1276:C1 *1276:B2 2.56752e-06
58 *1276:C1 *553:73 0.000121019
59 *1277:B1 *1257:B2 0.000200615
60 *1284:A2 *553:67 6.67084e-05
61 *1287:A1 *1287:B2 4.82863e-05
62 *1287:B1 *1287:B2 4.86748e-05
63 *1287:C1 *1287:B2 8.65905e-05
64 *1308:B1 *553:67 6.14983e-05
65 *1313:A2 *553:45 4.91459e-05
66 *1313:B1 *1313:B2 2.21649e-05
67 *1313:B1 *553:61 0.000237997
68 *1314:B1 *553:61 4.66108e-05
69 *1325:B1 *553:45 7.21296e-06
70 *1326:A *553:67 3.20275e-05
71 *1326:A *553:108 4.84393e-05
72 *1326:A *553:127 1.03572e-05
73 *1327:A2 *553:61 9.00959e-05
74 *1331:B1 *553:35 3.57349e-05
75 *1331:B1 *553:45 4.66108e-05
76 *1332:B1 *553:108 5.16348e-05
77 *1332:B1 *553:127 0.000329789
78 *1339:A *553:127 0.000314015
79 *1341:B1 *1341:B2 9.50342e-06
80 *1341:B1 *1354:B2 6.9117e-05
81 *1342:B1 *553:127 3.18219e-05
82 *1346:B1 *1354:B2 2.34423e-05
83 *1352:B *1354:B2 0
84 *1354:A1 *1354:B2 5.83121e-06
85 *1359:A *553:29 0.000142489
86 *1364:A2 *1354:B2 0.00012022
87 *1364:A3 *1354:B2 0.000117825
88 *1364:C1 *1354:B2 1.52862e-05
89 *1375:B *553:35 0
90 *1375:C *553:35 1.29239e-05
91 *1375:D *553:35 0.000163019
92 *1383:A *553:29 0.000139245
93 *1384:B1 *553:35 0
94 *1384:B2 *553:35 9.5433e-05
95 *1384:C1 *553:29 1.32017e-05
96 *1384:C1 *553:35 0
97 *1421:A_N *1429:A 0
98 *1421:B *1429:A 7.10578e-05
99 *1429:B *1429:A 0.000123225
100 *1431:A2 *553:29 1.52945e-05
101 *1431:B1 *1429:A 0.000271341
102 *1470:A1 *1429:A 7.17088e-05
103 *1613:A *553:45 0
104 *1703:A *553:73 0
105 *201:8 *1257:B2 0.000234479
106 *209:16 *553:73 4.99619e-05
107 *228:21 *553:73 0
108 *231:16 *553:67 4.00524e-06
109 *232:10 *553:73 0.000177915
110 *242:10 *553:67 0.000114524
111 *250:8 *553:45 3.09451e-05
112 *253:16 *553:67 0.000439888
113 *262:12 *553:127 9.41364e-05
114 *262:18 *1354:B2 0.000141552
115 *262:18 *553:127 0
116 *263:12 *553:127 3.96153e-05
117 *269:16 *553:35 7.94673e-05
118 *288:8 *1354:B2 1.89514e-05
119 *288:21 *1354:B2 0.000148134
120 *301:32 *553:35 7.56277e-05
121 *307:12 *1354:B2 0
122 *317:12 *553:35 5.21046e-05
123 *358:14 *1429:A 6.36578e-05
124 *539:21 *1354:B2 3.7162e-05
125 *540:8 *1341:B2 3.16621e-05
126 *540:8 *553:127 1.7635e-05
127 *540:40 *553:35 0
128 *541:12 *553:108 1.949e-05
129 *541:12 *553:127 1.82476e-05
130 *541:37 *553:61 2.69153e-05
131 *541:62 *553:61 6.04372e-05
132 *546:30 *553:29 0
133 *546:30 *553:35 0
134 *546:30 *553:45 5.65627e-05
135 *546:99 *553:29 0
136 *546:105 *1354:B2 9.75641e-05
137 *548:54 *1429:A 0
138 *548:54 *553:29 0.000159957
139 *549:14 *1313:B2 9.12671e-06
140 *549:14 *553:45 3.00355e-05
141 *549:14 *553:61 8.34281e-06
142 *549:28 *553:61 0.000547445
143 *549:126 *553:67 0
144 *549:140 *1257:B2 2.06762e-05
145 *549:140 *553:73 0
146 *552:30 *1429:A 0.000352199
147 *552:30 *553:6 0.000264672
*RES
1 *1616:X *553:6 4.12 
2 *553:6 *1429:A 15.23 
3 *553:6 *553:29 9.035 
4 *553:29 *553:35 10.145 
5 *553:35 *553:45 9.85 
6 *553:45 *553:61 18.495 
7 *553:61 *553:67 13.155 
8 *553:67 *553:73 12.59 
9 *553:73 *1276:B2 6.215 
10 *553:73 *1257:B2 11.41 
11 *553:67 *1287:B2 5.43 
12 *553:61 *553:108 1.635 
13 *553:108 *1300:A1 4.395 
14 *553:108 *553:127 13.0375 
15 *553:127 *1341:B2 4.0875 
16 *553:127 *1354:B2 14.4825 
17 *553:45 *1313:B2 1.96 
18 *553:35 *1331:B2 1.6 
19 *553:29 *1369:A 3.6 
*END

*D_NET *554 0.00940377
*CONN
*I *1543:A I *D sky130_fd_sc_hd__nor2_2
*I *1484:B2 I *D sky130_fd_sc_hd__o221a_2
*I *1469:A I *D sky130_fd_sc_hd__nor2_2
*I *1455:B2 I *D sky130_fd_sc_hd__o221a_2
*I *1444:B2 I *D sky130_fd_sc_hd__o221a_2
*I *1617:X O *D sky130_fd_sc_hd__clkdlybuf4s25_1
*CAP
1 *1543:A 0.000179679
2 *1484:B2 0
3 *1469:A 0
4 *1455:B2 0
5 *1444:B2 0.000426245
6 *1617:X 3.89154e-05
7 *554:42 0.000846603
8 *554:28 0.00184727
9 *554:16 0.00208602
10 *554:8 0.000877695
11 *1444:B2 *1449:B1 1.03755e-05
12 *1444:B2 *1452:A1 0.000330756
13 *1444:B2 *1722:A 0
14 *1444:B2 *605:51 0
15 *554:16 *1532:B 8.65961e-05
16 *554:16 *1725:A 4.43871e-06
17 *554:16 *573:10 0
18 *554:16 *613:6 0.000307038
19 *554:42 *1452:A1 1.44839e-05
20 *1443:B1 *1444:B2 4.11281e-05
21 *1444:A2 *1444:B2 0.000227389
22 *1444:B1 *1444:B2 1.12643e-05
23 *1444:C1 *1444:B2 4.75576e-05
24 *1445:A2 *1444:B2 5.83121e-06
25 *1452:B1 *1444:B2 0.00015997
26 *1453:B *1444:B2 9.05234e-05
27 *1454:A *554:42 6.1554e-05
28 *1455:A2 *554:42 0.000111459
29 *1455:C1 *554:42 0.000123225
30 *1456:A2 *554:42 5.6361e-05
31 *1456:B1 *554:42 7.06865e-05
32 *1469:B *554:42 3.50152e-06
33 *1480:B1 *554:28 0
34 *1484:A1 *554:16 5.2378e-05
35 *1484:B1 *554:28 9.04579e-05
36 *1485:B1 *554:16 0.000198939
37 *1491:C1 *554:16 5.16348e-05
38 *1491:C1 *554:28 0.000170428
39 *1545:A *1543:A 0.000118513
40 *1545:B *1543:A 5.05521e-05
41 *1559:B1 *554:8 0
42 *1617:A *1543:A 6.55601e-05
43 *1617:A *554:8 7.23602e-05
44 *1678:A *554:16 8.88799e-05
45 *370:8 *1444:B2 0
46 *384:10 *554:28 1.41633e-05
47 *384:16 *554:28 3.60024e-06
48 *384:16 *554:42 0.000122801
49 *400:20 *1444:B2 5.02217e-05
50 *464:8 *554:16 2.59926e-05
51 *470:18 *1543:A 9.32826e-05
52 *547:10 *1444:B2 6.74429e-05
*RES
1 *1617:X *554:8 4.47 
2 *554:8 *554:16 13 
3 *554:16 *554:28 7.58233 
4 *554:28 *554:42 9.245 
5 *554:42 *1444:B2 13.8 
6 *554:42 *1455:B2 3.6 
7 *554:28 *1469:A 1.6 
8 *554:16 *1484:B2 3.6 
9 *554:8 *1543:A 7.755 
*END

*D_NET *555 0.0252553
*CONN
*I *1207:B2 I *D sky130_fd_sc_hd__o221a_2
*I *1194:B2 I *D sky130_fd_sc_hd__o221a_2
*I *1172:A2 I *D sky130_fd_sc_hd__o221a_2
*I *1235:B2 I *D sky130_fd_sc_hd__o221a_2
*I *1248:B2 I *D sky130_fd_sc_hd__o221a_2
*I *1224:B2 I *D sky130_fd_sc_hd__o221a_2
*I *1181:B2 I *D sky130_fd_sc_hd__o221a_2
*I *1604:B2 I *D sky130_fd_sc_hd__o221a_2
*I *1502:B2 I *D sky130_fd_sc_hd__o221a_2
*I *1417:B2 I *D sky130_fd_sc_hd__o221a_2
*I *1618:X O *D sky130_fd_sc_hd__clkdlybuf4s25_1
*CAP
1 *1207:B2 0.000273636
2 *1194:B2 0.000146568
3 *1172:A2 0
4 *1235:B2 0.00024759
5 *1248:B2 9.10347e-05
6 *1224:B2 0.000824094
7 *1181:B2 0.000150099
8 *1604:B2 3.38389e-05
9 *1502:B2 0.000309622
10 *1417:B2 0.00101266
11 *1618:X 0.000416346
12 *555:98 0.00140739
13 *555:90 0.00105935
14 *555:71 0.000995039
15 *555:63 0.00106245
16 *555:59 0.00114193
17 *555:44 0.000860656
18 *555:18 0.00227776
19 *555:6 0.00146664
20 *1181:B2 *558:14 0.000112154
21 *1194:B2 *618:8 1.56428e-05
22 *1224:B2 *1171:A2 0.00063628
23 *1224:B2 *1182:A1 3.38609e-05
24 *1224:B2 *1254:A3 7.48415e-05
25 *1224:B2 *563:45 4.25267e-05
26 *1235:B2 *1175:B 0
27 *1235:B2 *558:20 0.000236318
28 *1248:B2 *1182:A1 3.1388e-05
29 *1417:B2 *1499:S 0.000253503
30 *1417:B2 *556:49 0.000233578
31 *1417:B2 *602:12 0
32 *1502:B2 *1561:S 5.51814e-05
33 *555:18 *1561:S 2.34345e-05
34 *555:18 *1577:B 0
35 *555:18 *1607:C 9.03421e-05
36 *555:18 *1629:A 0.000182342
37 *555:18 *556:29 0
38 *555:44 *1577:B 3.1562e-06
39 *555:59 *1155:A 0.000109664
40 *555:59 *1592:B 3.61276e-05
41 *555:59 *560:18 0.000306508
42 *555:59 *618:21 4.83032e-05
43 *555:59 *643:26 0.000114492
44 *555:63 *1592:B 0.000325194
45 *555:63 *1735:A 5.92482e-05
46 *555:63 *560:18 0.000535376
47 *555:71 *560:18 0
48 *555:71 *560:24 0.000973436
49 *555:90 *1227:B 0.000158133
50 *555:98 *1227:B 8.05167e-05
51 *555:98 *1228:B 2.49909e-05
52 *555:98 *1240:A_N 9.30411e-05
53 *555:98 *622:49 3.00381e-05
54 y[16] *555:18 9.26907e-06
55 y[31] *555:59 2.46089e-05
56 y[3] *555:59 0
57 y[5] *555:98 0.000192125
58 *1172:B2 *555:63 0
59 *1172:B2 *555:71 9.50342e-06
60 *1172:C1 *555:71 0.000297164
61 *1173:A1 *555:63 1.7635e-05
62 *1173:A1 *555:71 4.14001e-05
63 *1181:A1 *1181:B2 0.000131746
64 *1181:A2 *1181:B2 3.96153e-05
65 *1181:B1 *1181:B2 5.66562e-05
66 *1181:C1 *1181:B2 2.45773e-05
67 *1182:A2 *1235:B2 4.42354e-05
68 *1189:A3 *1224:B2 0.000252807
69 *1189:A3 *1248:B2 2.16628e-05
70 *1191:A3 *555:90 5.83121e-06
71 *1194:A1 *1194:B2 4.04756e-05
72 *1194:A2 *1194:B2 3.40584e-05
73 *1195:B1 *1194:B2 4.66108e-05
74 *1207:A2 *1207:B2 4.82919e-05
75 *1208:B1 *1207:B2 9.4988e-05
76 *1217:B *1235:B2 0.000209816
77 *1235:C1 *1235:B2 4.82919e-05
78 *1236:A1 *1235:B2 1.88602e-05
79 *1236:A2 *1224:B2 1.80732e-05
80 *1236:A2 *1235:B2 4.63072e-05
81 *1236:A2 *555:98 8.69748e-05
82 *1236:B1 *1235:B2 4.66108e-05
83 *1241:A1 *1224:B2 1.75385e-05
84 *1244:A1 *1235:B2 4.82919e-05
85 *1245:A2 *555:98 1.08758e-05
86 *1246:A2 *1248:B2 8.57024e-05
87 *1247:B1 *1248:B2 0
88 *1248:B1 *1248:B2 4.05138e-05
89 *1248:C1 *1248:B2 3.09233e-05
90 *1252:A1 *1224:B2 4.92861e-05
91 *1252:A1 *1248:B2 5.09168e-05
92 *1254:B1 *555:98 2.75229e-05
93 *1417:C1 *1417:B2 6.16226e-06
94 *1501:A *1502:B2 3.18137e-05
95 *1502:A1 *555:18 0.000149628
96 *1502:A2 *1502:B2 5.16418e-05
97 *1568:B *555:18 0.000665829
98 *1570:A2 *1502:B2 0.00024159
99 *1571:C1 *555:18 0.000363963
100 *1576:A2 *1502:B2 2.99953e-05
101 *1576:A2 *555:18 0.000165415
102 *1580:B *555:18 0
103 *1581:A1 *555:18 0
104 *1599:B1 *555:18 1.20478e-05
105 *1604:A1 *1604:B2 4.00541e-06
106 *1604:A1 *555:44 7.76137e-05
107 *1604:B1 *555:59 6.03947e-06
108 *1607:D_N *555:18 0
109 *1608:B1 *555:18 0
110 *1614:A *555:6 3.00381e-05
111 *1625:A *555:18 0.000353833
112 *1626:A *555:18 0.000293442
113 *118:54 *555:18 0.000329792
114 *131:20 *1224:B2 0.000207197
115 *139:16 *1194:B2 4.66108e-05
116 *139:16 *555:63 0
117 *139:16 *555:71 2.71495e-05
118 *145:18 *1224:B2 0.000206174
119 *163:29 *1224:B2 6.04678e-05
120 *180:20 *1235:B2 4.82863e-05
121 *181:10 *555:98 6.01127e-05
122 *196:12 *1224:B2 0.000135622
123 *422:10 *1502:B2 9.52234e-05
124 *480:36 *1502:B2 0
125 *521:10 *555:63 0
126 *543:14 *1224:B2 2.98644e-05
127 *545:149 *1502:B2 0
128 *550:6 *555:6 2.54431e-05
129 *550:6 *555:44 5.0751e-05
130 *550:10 *1207:B2 0.00041503
131 *550:10 *555:6 3.23663e-05
132 *551:79 *1502:B2 3.60566e-05
*RES
1 *1618:X *555:6 3.43 
2 *555:6 *555:18 25.0325 
3 *555:18 *1417:B2 6.73503 
4 *555:18 *1502:B2 9.9525 
5 *555:6 *555:44 4.245 
6 *555:44 *1604:B2 2.215 
7 *555:44 *555:59 10.34 
8 *555:59 *555:63 11.445 
9 *555:63 *555:71 3.23717 
10 *555:71 *1181:B2 7.275 
11 *555:71 *555:90 6.26 
12 *555:90 *555:98 9.815 
13 *555:98 *1224:B2 14.9585 
14 *555:98 *1248:B2 6.03 
15 *555:90 *1235:B2 11.495 
16 *555:63 *1172:A2 3.6 
17 *555:59 *1194:B2 6.24 
18 *1618:X *1207:B2 8.51 
*END

*D_NET *556 0.0119334
*CONN
*I *1575:B2 I *D sky130_fd_sc_hd__o221a_2
*I *1529:A1 I *D sky130_fd_sc_hd__o211ai_2
*I *1516:A1 I *D sky130_fd_sc_hd__o211ai_2
*I *1564:B2 I *D sky130_fd_sc_hd__o221a_2
*I *1590:A1 I *D sky130_fd_sc_hd__o21ai_2
*I *1619:X O *D sky130_fd_sc_hd__clkdlybuf4s25_1
*CAP
1 *1575:B2 0
2 *1529:A1 0.000958303
3 *1516:A1 0
4 *1564:B2 3.57635e-05
5 *1590:A1 0.000127723
6 *1619:X 0
7 *556:60 0.00135724
8 *556:49 0.00169282
9 *556:29 0.0018414
10 *556:6 0.00071101
11 *1529:A1 *1514:A 0.000550347
12 *1529:A1 *564:91 3.59531e-06
13 *1564:B2 *1596:A_N 8.57024e-05
14 *556:29 *1162:A 3.22246e-05
15 *556:29 *1561:S 0.000183731
16 *556:49 *1499:S 0
17 *556:49 *1566:A 1.41125e-05
18 *556:49 *582:39 0
19 *556:49 *614:27 0
20 *556:49 *617:85 9.51166e-05
21 *556:60 *1510:B 0.000104213
22 *556:60 *1548:B 8.01291e-05
23 *556:60 *564:85 0
24 *556:60 *579:16 0
25 *556:60 *579:53 0
26 *556:60 *614:27 1.94892e-05
27 *556:60 *614:36 7.79794e-05
28 y[24] *1529:A1 0.00048243
29 *1417:B2 *556:49 0.000233578
30 *1509:C *1529:A1 4.82919e-05
31 *1512:A *556:60 0.000202417
32 *1512:B *556:60 0.000137894
33 *1529:B1 *1529:A1 2.49909e-05
34 *1564:B1 *1564:B2 1.12643e-05
35 *1564:B1 *556:60 0.000200495
36 *1571:C1 *556:29 0
37 *1571:C1 *556:49 0.000129523
38 *1572:A2 *556:29 1.83756e-05
39 *1572:B1 *556:29 4.43682e-05
40 *1575:A1 *556:29 9.2741e-05
41 *1575:A2 *556:49 0.000188781
42 *1575:C1 *556:29 4.00541e-06
43 *1590:B1 *1590:A1 4.82919e-05
44 *1599:A2 *1590:A1 4.0843e-05
45 *1600:B *1590:A1 5.10587e-05
46 *1608:A2 *1590:A1 0.000173855
47 *1608:A2 *556:29 0.000454073
48 *1609:B1 *556:29 3.60125e-05
49 *120:10 *1590:A1 0.000224914
50 *120:10 *556:29 0.000228593
51 *124:33 *556:29 8.23457e-05
52 *440:12 *1529:A1 1.92979e-05
53 *440:12 *556:60 8.55576e-05
54 *440:14 *556:60 4.01403e-05
55 *442:10 *556:60 0.000112892
56 *478:28 *556:49 6.12722e-06
57 *478:28 *556:60 5.69898e-06
58 *490:28 *556:49 0.000208957
59 *498:8 *556:49 2.10433e-05
60 *498:12 *556:49 0.000182349
61 *510:18 *556:29 0
62 *523:14 *556:49 0.000101876
63 *536:10 *1529:A1 1.93834e-05
64 *555:18 *556:29 0
*RES
1 *1619:X *556:6 3.6 
2 *556:6 *1590:A1 7.395 
3 *556:6 *556:29 13.985 
4 *556:29 *556:49 12.0293 
5 *556:49 *1564:B2 4.395 
6 *556:49 *556:60 10.05 
7 *556:60 *1516:A1 3.6 
8 *556:60 *1529:A1 7.59233 
9 *556:29 *1575:B2 1.6 
*END

*D_NET *557 0.0286297
*CONN
*I *1400:A1 I *D sky130_fd_sc_hd__a21o_2
*I *1514:A I *D sky130_fd_sc_hd__nand3_2
*I *1542:C1 I *D sky130_fd_sc_hd__o311a_2
*I *1471:A1 I *D sky130_fd_sc_hd__a21o_2
*I *1371:A1 I *D sky130_fd_sc_hd__a21o_2
*I *1431:A1 I *D sky130_fd_sc_hd__a21o_2
*I *1331:A1_N I *D sky130_fd_sc_hd__o2bb2a_2
*I *1233:B1 I *D sky130_fd_sc_hd__o21a_2
*I *1164:B1 I *D sky130_fd_sc_hd__o21a_2
*I *1389:A1 I *D sky130_fd_sc_hd__a21o_2
*I *1620:X O *D sky130_fd_sc_hd__clkdlybuf4s25_1
*CAP
1 *1400:A1 0
2 *1514:A 0.0022988
3 *1542:C1 0
4 *1471:A1 0.0012792
5 *1371:A1 0
6 *1431:A1 0.00024369
7 *1331:A1_N 0.000296016
8 *1233:B1 0.000486226
9 *1164:B1 0
10 *1389:A1 0.000158824
11 *1620:X 0.00068985
12 *557:156 0.00244891
13 *557:131 0.00220452
14 *557:105 0.000855353
15 *557:76 0.000844545
16 *557:72 0.00128558
17 *557:64 0.00175074
18 *557:21 0.000974898
19 *557:4 0.000647496
20 *1233:B1 *1174:A 0.000388068
21 *1233:B1 *1735:A 0.000103545
22 *1233:B1 *619:24 0.000493819
23 *1331:A1_N *1328:S 7.61266e-05
24 *1471:A1 *1485:A1 0.000268739
25 *1471:A1 *613:6 5.23392e-05
26 *1514:A *1486:A 1.88602e-05
27 *1514:A *1718:A 6.17113e-06
28 *557:21 *1166:A 8.09021e-06
29 *557:21 *1196:A 0.00014506
30 *557:21 *1734:A 2.05571e-05
31 *557:21 *560:130 5.95095e-05
32 *557:21 *560:151 0.000116158
33 *557:64 *1413:A 9.39379e-05
34 *557:64 *1717:A 8.8266e-05
35 *557:64 *567:19 9.37731e-05
36 *557:72 *565:10 9.18296e-05
37 *557:105 *567:19 3.09233e-05
38 *557:105 *567:32 0.000195918
39 *557:131 *1718:A 0.00146381
40 *557:131 *567:32 1.7902e-05
41 *557:131 *567:59 0.000928355
42 *557:156 *1718:A 2.34423e-05
43 *1159:B *557:21 0.00033137
44 *1173:A2 *1233:B1 0.000135584
45 *1187:B *1233:B1 2.03801e-05
46 *1207:C1 *1233:B1 9.02259e-05
47 *1207:C1 *557:21 2.49909e-05
48 *1218:A3 *1233:B1 8.87268e-05
49 *1234:A1 *1233:B1 1.81227e-05
50 *1234:B1_N *1233:B1 0.000130801
51 *1235:C1 *1233:B1 0.00010973
52 *1331:B1 *1331:A1_N 0.000154592
53 *1341:C1 *557:76 8.40269e-05
54 *1345:A *1331:A1_N 0.000201508
55 *1370:A2 *557:72 6.8725e-06
56 *1370:B2 *557:72 2.50318e-07
57 *1371:B1 *557:72 8.42587e-05
58 *1375:A *1331:A1_N 0.000137571
59 *1383:B *1431:A1 0.000122337
60 *1388:B1 *557:64 2.76356e-05
61 *1392:A1 *557:64 0.00017922
62 *1397:B *557:131 8.23457e-05
63 *1471:A2 *1471:A1 0.000135889
64 *1471:B1 *1471:A1 7.37556e-05
65 *1484:A1 *1471:A1 8.72789e-05
66 *1512:A *1514:A 8.7152e-06
67 *1524:A1 *1514:A 3.54277e-05
68 *1529:A1 *1514:A 0.000550347
69 *1533:B *1471:A1 2.11084e-05
70 *1540:A1 *557:131 2.99445e-05
71 *1541:A2 *557:156 3.57349e-05
72 *1541:B1 *1514:A 8.7152e-06
73 *1541:B1 *557:156 7.1009e-05
74 *1542:A2 *1471:A1 4.9253e-06
75 *1542:A2 *557:156 6.07575e-06
76 *1542:A3 *557:156 8.23457e-05
77 *1545:A *1471:A1 0.000122331
78 *1557:B *557:131 0
79 *1558:A1 *557:131 0.000160658
80 *1559:B1 *557:131 0.000137578
81 *1620:A *557:21 4.82863e-05
82 *1624:A *557:105 0
83 *1624:A *557:131 4.61658e-05
84 *119:14 *1389:A1 0.000102024
85 *119:14 *557:21 0.000113282
86 *119:14 *557:64 0.000265547
87 *269:16 *1331:A1_N 0.000156274
88 *316:16 *557:64 5.74656e-05
89 *407:14 *1471:A1 0.000307043
90 *407:27 *1471:A1 0.000150653
91 *440:14 *1514:A 1.88602e-05
92 *440:44 *1514:A 0.000209894
93 *464:8 *1471:A1 0.000359579
94 *464:16 *557:131 0.000139252
95 *464:37 *557:131 0
96 *469:16 *1514:A 0
97 *469:16 *557:131 5.53549e-06
98 *470:18 *1471:A1 7.68414e-06
99 *470:18 *557:131 7.29385e-05
100 *471:10 *557:156 2.92496e-05
101 *539:40 *1431:A1 0
102 *539:44 *1331:A1_N 0
103 *546:18 *557:72 0.000198945
104 *546:18 *557:76 0.000219708
105 *546:22 *557:76 2.30292e-05
106 *546:30 *1331:A1_N 0.000643694
107 *546:30 *1431:A1 5.16418e-05
108 *546:99 *1431:A1 0.000181087
109 *548:107 *557:64 9.54399e-05
110 *548:107 *557:105 0.000154481
111 *552:30 *1431:A1 6.97202e-05
112 *553:45 *1331:A1_N 4.9968e-05
*RES
1 *1620:X *557:4 1.6 
2 *557:4 *1389:A1 3.775 
3 *557:4 *557:21 13.03 
4 *557:21 *1164:B1 1.6 
5 *557:21 *1233:B1 18.14 
6 *1620:X *557:64 18.325 
7 *557:64 *557:72 13.955 
8 *557:72 *557:76 5.9 
9 *557:76 *1331:A1_N 12.8475 
10 *557:76 *1431:A1 9.18 
11 *557:72 *1371:A1 1.6 
12 *557:64 *557:105 2.655 
13 *557:105 *557:131 32.545 
14 *557:131 *1471:A1 24.38 
15 *557:131 *557:156 4.355 
16 *557:156 *1542:C1 3.6 
17 *557:156 *1514:A 9.35647 
18 *557:105 *1400:A1 3.6 
*END

*D_NET *558 0.00849084
*CONN
*I *1175:A I *D sky130_fd_sc_hd__xnor2_2
*I *1188:A_N I *D sky130_fd_sc_hd__and2b_2
*I *1174:A I *D sky130_fd_sc_hd__nand2_2
*I *1180:A1 I *D sky130_fd_sc_hd__o21ai_2
*I *1634:X O *D sky130_fd_sc_hd__clkdlybuf4s25_1
*CAP
1 *1175:A 2.08101e-05
2 *1188:A_N 0
3 *1174:A 0.000882316
4 *1180:A1 5.50482e-05
5 *1634:X 0.000428932
6 *558:35 0.00109608
7 *558:20 0.000602679
8 *558:14 0.000783613
9 *1174:A *1174:B 2.94505e-05
10 *1174:A *1208:A1 2.2142e-05
11 *1174:A *1735:A 0.000239111
12 *1174:A *604:40 4.66108e-05
13 *1180:A1 *604:40 8.8266e-05
14 *558:14 *1227:A 7.14699e-05
15 *558:14 *1721:A 0.000184234
16 *558:20 *1175:B 0
17 *558:20 *1227:A 0.00035215
18 *558:20 *604:21 0
19 *558:35 *604:40 8.41384e-05
20 *1181:B1 *558:14 0.00013837
21 *1181:B1 *558:20 0.000154811
22 *1181:B2 *558:14 0.000112154
23 *1182:B1 *558:14 0.000233266
24 *1189:A3 *558:20 2.75229e-05
25 *1194:A1 *1174:A 2.21075e-05
26 *1217:B *558:20 0
27 *1218:A3 *1174:A 0.000188712
28 *1218:A3 *558:20 2.61834e-05
29 *1218:A3 *558:35 0.000166706
30 *1218:B1 *1174:A 0.000173724
31 *1233:B1 *1174:A 0.000388068
32 *1235:B2 *558:20 0.000236318
33 *1669:A *558:20 0
34 *114:12 *1174:A 1.56428e-05
35 *131:20 *1174:A 4.82919e-05
36 *132:6 *558:20 2.30292e-05
37 *140:20 *1174:A 0.00053598
38 *151:33 *1174:A 4.36573e-05
39 *180:20 *558:14 1.42519e-05
40 *544:12 *1180:A1 2.49909e-05
41 *544:12 *558:20 0.000460897
42 *544:16 *558:20 5.13684e-05
43 *544:16 *558:35 0.00015283
44 *544:29 *558:35 0.000183729
45 *544:63 *1180:A1 7.35813e-05
46 *545:8 *1174:A 7.59573e-06
*RES
1 *1634:X *558:14 12.71 
2 *558:14 *558:20 11.435 
3 *558:20 *1180:A1 5.085 
4 *558:20 *558:35 6.98 
5 *558:35 *1174:A 22.475 
6 *558:35 *1188:A_N 1.6 
7 *558:14 *1175:A 1.96 
*END

*D_NET *559 0.0213726
*CONN
*I *1355:A1 I *D sky130_fd_sc_hd__o21ai_2
*I *1485:A1 I *D sky130_fd_sc_hd__o21ai_2
*I *1456:A1 I *D sky130_fd_sc_hd__o21ai_2
*I *1277:A1 I *D sky130_fd_sc_hd__o21ai_2
*I *1258:A1 I *D sky130_fd_sc_hd__o21ai_2
*I *1342:A1 I *D sky130_fd_sc_hd__o21ai_2
*I *1445:A1 I *D sky130_fd_sc_hd__o21ai_2
*I *1300:B2 I *D sky130_fd_sc_hd__o22a_2
*I *1315:A1 I *D sky130_fd_sc_hd__o21ai_2
*I *1288:A1 I *D sky130_fd_sc_hd__o21ai_2
*I *1621:X O *D sky130_fd_sc_hd__clkdlybuf4s25_1
*CAP
1 *1355:A1 0.00032086
2 *1485:A1 0.000611954
3 *1456:A1 0.000139871
4 *1277:A1 2.2266e-05
5 *1258:A1 0.000271803
6 *1342:A1 5.33703e-05
7 *1445:A1 0.00074218
8 *1300:B2 0
9 *1315:A1 0.00108737
10 *1288:A1 0.00198446
11 *1621:X 0.00010551
12 *559:135 0.00134904
13 *559:127 0.00102834
14 *559:98 0.000785189
15 *559:28 0.00301681
16 *559:18 0.000719146
17 *559:16 0.00108618
18 *559:12 0.000330095
19 *1288:A1 *1295:A_N 6.43623e-05
20 *1315:A1 *1286:A2 0
21 *1342:A1 *1714:A 2.20014e-05
22 *1342:A1 *595:55 9.47267e-06
23 *1342:A1 *632:6 0.000158861
24 *1355:A1 *1436:A 3.23391e-05
25 *1355:A1 *1715:A 3.64998e-06
26 *1355:A1 *562:49 0
27 *1445:A1 *1343:B 2.42236e-05
28 *1445:A1 *1349:B2 0
29 *1445:A1 *1722:A 3.64998e-06
30 *1445:A1 *599:10 0
31 *1445:A1 *610:12 0.000484465
32 *1445:A1 *610:16 0.000119603
33 *1445:A1 *621:10 7.3664e-05
34 *1445:A1 *621:32 8.70844e-05
35 *1456:A1 *1475:B 3.26889e-05
36 *1485:A1 *1475:B 0.00034574
37 *559:16 *1714:A 3.96737e-05
38 *559:16 *595:12 8.0896e-05
39 *559:16 *599:38 4.80285e-05
40 *559:16 *632:6 0.000104883
41 *559:18 *1317:B 6.08204e-05
42 *559:18 *595:12 0.000112147
43 *559:18 *595:18 1.01276e-05
44 *559:18 *598:18 0
45 *559:18 *599:10 0
46 *559:18 *599:38 6.53533e-05
47 *559:18 *599:42 0.000118619
48 *559:98 *1320:B 0.000106255
49 *559:98 *1328:S 0.000120087
50 *559:98 *561:62 4.39384e-05
51 *559:98 *588:10 0
52 *559:135 *1452:A1 0
53 *559:135 *569:36 1.88602e-05
54 *559:135 *569:47 7.59697e-05
55 y[11] *559:28 4.03905e-05
56 *1256:B1 *1258:A1 0.000138551
57 *1256:B1 *559:98 3.97827e-05
58 *1273:A2 *1277:A1 4.82919e-05
59 *1277:A2 *1258:A1 0.00016985
60 *1277:A2 *559:98 2.97004e-06
61 *1296:B1 *1288:A1 0.000111044
62 *1298:A *559:28 5.41014e-05
63 *1300:B1 *559:28 9.41518e-05
64 *1309:A2 *559:98 0.000230002
65 *1312:B *1315:A1 5.05066e-06
66 *1325:A1 *559:98 4.89395e-05
67 *1325:A2 *1315:A1 7.23242e-05
68 *1325:A2 *559:98 0.000561735
69 *1325:B1 *559:98 8.33066e-06
70 *1327:B1 *559:98 0.000102748
71 *1338:A2 *1342:A1 5.83121e-06
72 *1339:A *1445:A1 0
73 *1342:B1 *1342:A1 0.000187563
74 *1342:B1 *559:16 8.35106e-05
75 *1355:A2 *1355:A1 0
76 *1419:B *1355:A1 0
77 *1441:A2 *1355:A1 0.00010532
78 *1441:A2 *559:135 0.000155247
79 *1441:B1 *1355:A1 9.38156e-05
80 *1442:B *1355:A1 9.28507e-05
81 *1443:B1 *559:135 9.2544e-05
82 *1444:A2 *559:135 5.64768e-05
83 *1445:B1 *1445:A1 9.50342e-06
84 *1451:A1 *559:135 0.000151439
85 *1455:C1 *559:135 4.41354e-05
86 *1456:B1 *1456:A1 8.8266e-05
87 *1456:B1 *559:135 0
88 *1462:A2 *559:135 0.00015829
89 *1470:A1 *1485:A1 8.80755e-05
90 *1470:A2 *1485:A1 0.000260367
91 *1471:A1 *1485:A1 0.000268739
92 *1476:B1 *1485:A1 0.000192497
93 *1480:A3 *559:135 0
94 *1696:A *1445:A1 1.05827e-05
95 *1696:A *559:18 3.12319e-05
96 *1708:A *1288:A1 3.97171e-05
97 *222:10 *1258:A1 4.99619e-05
98 *231:16 *1315:A1 0.000315458
99 *249:10 *559:98 3.63576e-05
100 *262:18 *559:12 0.000114492
101 *263:12 *559:18 0
102 *370:8 *559:135 0.000193343
103 *371:44 *559:135 7.01104e-05
104 *378:43 *559:135 6.99988e-05
105 *384:10 *559:135 5.30057e-05
106 *384:16 *559:135 1.94892e-05
107 *393:6 *1485:A1 2.5195e-05
108 *540:8 *1445:A1 0
109 *540:25 *559:12 4.66108e-05
110 *541:12 *559:18 1.70935e-05
111 *541:12 *559:28 3.96195e-05
112 *541:79 *1315:A1 0.000121643
113 *546:105 *1355:A1 4.99619e-05
114 *549:47 *559:18 0
115 *549:62 *559:18 0
116 *549:75 *1445:A1 0
117 *549:96 *1445:A1 0
118 *553:127 *1445:A1 0
119 *553:127 *559:16 8.40269e-05
120 *553:127 *559:18 0
*RES
1 *1621:X *559:12 7.43 
2 *559:12 *559:16 6.245 
3 *559:16 *559:18 6.225 
4 *559:18 *559:28 3.61157 
5 *559:28 *1288:A1 8.2115 
6 *559:28 *1315:A1 7.03017 
7 *559:18 *1300:B2 3.6 
8 *559:16 *1445:A1 16.14 
9 *559:12 *1342:A1 4.12 
10 *1315:A1 *559:98 15.45 
11 *559:98 *1258:A1 8.805 
12 *559:98 *1277:A1 4.05 
13 *1445:A1 *559:127 3.085 
14 *559:127 *559:135 18.07 
15 *559:135 *1456:A1 4.39 
16 *559:135 *1485:A1 12.88 
17 *559:127 *1355:A1 11.66 
*END

*D_NET *560 0.0275042
*CONN
*I *1503:A1 I *D sky130_fd_sc_hd__o21ai_2
*I *1565:A1 I *D sky130_fd_sc_hd__o21ai_2
*I *1418:A1 I *D sky130_fd_sc_hd__o21ai_2
*I *1605:A1 I *D sky130_fd_sc_hd__o21ai_2
*I *1225:A1 I *D sky130_fd_sc_hd__o21ai_2
*I *1208:A1 I *D sky130_fd_sc_hd__o21ai_2
*I *1195:A1 I *D sky130_fd_sc_hd__o21ai_2
*I *1246:B1 I *D sky130_fd_sc_hd__a21oi_2
*I *1182:A1 I *D sky130_fd_sc_hd__o21ai_2
*I *1622:X O *D sky130_fd_sc_hd__clkdlybuf4s25_1
*CAP
1 *1503:A1 0.000109557
2 *1565:A1 0.000674689
3 *1418:A1 0.000367102
4 *1605:A1 1.65547e-05
5 *1225:A1 0.0003792
6 *1208:A1 0.000759565
7 *1195:A1 0.00010005
8 *1246:B1 4.63121e-05
9 *1182:A1 0.00114863
10 *1622:X 0.00175934
11 *560:172 0.00122605
12 *560:151 0.00168883
13 *560:130 0.00102561
14 *560:24 0.00197977
15 *560:18 0.00239299
16 *1182:A1 *1223:A1 0.000101188
17 *1182:A1 *584:10 0
18 *1182:A1 *622:49 0
19 *1208:A1 *1184:B 0.000670979
20 *1208:A1 *1735:A 3.82072e-05
21 *1225:A1 *1721:A 3.25831e-05
22 *1246:B1 *584:10 0
23 *1503:A1 *1505:A 8.53113e-06
24 *1503:A1 *1726:A 2.16833e-05
25 *1565:A1 *579:10 1.87448e-05
26 *560:18 *1577:A 0.000171912
27 *560:18 *1577:B 4.39911e-06
28 *560:18 *1732:A 0.000134264
29 *560:18 *1735:A 5.92482e-05
30 *560:18 *643:26 1.83756e-05
31 *560:130 *1166:B 1.02348e-05
32 *560:130 *1734:A 8.7152e-06
33 *560:151 *1166:A 0.00017586
34 *560:151 *1390:A 0.000185411
35 *560:151 *1405:B1 0
36 *560:151 *1405:B2 0.000211725
37 *560:151 *566:59 0
38 *560:151 *568:62 0
39 *560:151 *570:60 0
40 *560:151 *600:20 2.96556e-06
41 *560:151 *627:61 0.00010596
42 *560:151 *643:26 0
43 *560:172 *1499:S 0.0001947
44 *560:172 *602:12 0
45 y[2] *560:18 0.000571255
46 y[31] *560:18 3.1562e-06
47 y[3] *560:18 0
48 *1156:A *1225:A1 0.000314347
49 *1159:B *560:151 0
50 *1172:A1 *1195:A1 0
51 *1172:C1 *1182:A1 5.9377e-05
52 *1172:C1 *560:24 0.000264421
53 *1173:A1 *560:24 1.93372e-05
54 *1173:B1_N *560:18 0.000137571
55 *1174:A *1208:A1 2.2142e-05
56 *1178:B1 *560:24 7.61574e-05
57 *1180:B1 *1182:A1 0.000773245
58 *1195:B1 *1195:A1 2.75229e-05
59 *1195:B1 *560:18 6.18095e-05
60 *1208:A2 *1208:A1 6.10968e-05
61 *1224:B2 *1182:A1 3.38609e-05
62 *1225:B1 *1225:A1 0.000257442
63 *1235:A1 *1182:A1 0.000253095
64 *1236:A1 *1182:A1 0.000251387
65 *1236:A2 *1182:A1 0.000128459
66 *1247:B1 *1246:B1 0
67 *1248:B2 *1182:A1 3.1388e-05
68 *1254:B1 *1182:A1 5.24732e-05
69 *1262:A1 *1182:A1 9.93482e-05
70 *1262:A1 *1225:A1 8.89497e-05
71 *1402:B *560:172 0.000130453
72 *1404:A *560:151 0.000114492
73 *1404:A *560:172 2.82846e-05
74 *1417:C1 *560:151 8.52172e-05
75 *1417:C1 *560:172 1.96989e-05
76 *1418:B1 *1418:A1 4.82863e-05
77 *1425:A2 *560:151 0
78 *1425:A3 *560:151 8.44359e-05
79 *1425:B1 *560:151 0
80 *1501:A *1565:A1 0.000275553
81 *1501:A *560:151 0.00022063
82 *1501:A *560:172 9.15855e-05
83 *1503:B1 *1503:A1 4.66108e-05
84 *1527:A *1503:A1 0.000171179
85 *1527:A *560:172 0.00022448
86 *1562:B *1565:A1 4.82919e-05
87 *1562:B *560:172 0.000196671
88 *1564:B1 *1565:A1 0.000803766
89 *1564:C1 *1565:A1 9.90606e-05
90 *1565:A2 *1565:A1 3.1226e-05
91 *1582:A1 *560:172 0.00019637
92 *1605:A2 *1605:A1 2.49909e-05
93 *1605:A2 *560:130 2.0514e-05
94 *1605:A2 *560:151 4.00541e-06
95 *1605:B1 *560:130 1.16578e-05
96 *1609:B1 *560:151 0
97 *1613:A *1208:A1 0.000657014
98 *1622:A *1208:A1 2.49909e-05
99 *1623:A *1225:A1 5.31158e-06
100 *1628:A *560:151 0.000129114
101 *1651:A *1246:B1 9.50342e-06
102 *1657:A *1195:A1 1.61831e-05
103 *115:24 *560:24 0.000600354
104 *140:20 *1208:A1 1.51848e-05
105 *163:29 *1225:A1 0.000218366
106 *169:14 *1225:A1 4.66108e-05
107 *172:24 *1225:A1 2.49909e-05
108 *184:16 *1225:A1 9.17857e-05
109 *196:12 *1182:A1 2.52096e-05
110 *342:12 *560:172 0
111 *344:10 *1418:A1 0.000110673
112 *344:18 *1418:A1 0.000283658
113 *345:10 *560:151 9.68787e-05
114 *422:28 *1503:A1 0.000120655
115 *480:21 *560:172 0.000124007
116 *485:27 *560:172 9.80943e-06
117 *490:16 *560:172 0.000198934
118 *505:10 *560:18 1.03423e-05
119 *543:14 *1225:A1 5.1985e-06
120 *545:8 *560:130 0
121 *545:70 *1182:A1 3.23812e-05
122 *545:149 *1503:A1 6.36273e-05
123 *545:149 *560:172 8.08153e-06
124 *550:24 *1605:A1 2.75229e-05
125 *550:24 *560:130 2.53803e-05
126 *550:65 *1225:A1 0.000116179
127 *555:59 *560:18 0.000306508
128 *555:63 *560:18 0.000535376
129 *555:71 *560:18 0
130 *555:71 *560:24 0.000973436
131 *557:21 *560:130 5.95095e-05
132 *557:21 *560:151 0.000116158
*RES
1 *1622:X *560:18 26.1 
2 *560:18 *560:24 4.4269 
3 *560:24 *1182:A1 12.1284 
4 *560:24 *1246:B1 4.8425 
5 *560:18 *1195:A1 5.01 
6 *1622:X *1208:A1 14.5235 
7 *1182:A1 *1225:A1 16.56 
8 *1208:A1 *560:130 8.045 
9 *560:130 *1605:A1 2.05 
10 *560:130 *560:151 21.17 
11 *560:151 *1418:A1 8.805 
12 *560:151 *560:172 15.025 
13 *560:172 *1565:A1 15.045 
14 *560:172 *1503:A1 6.885 
*END

*D_NET *561 0.0192341
*CONN
*I *1221:A1 I *D sky130_fd_sc_hd__o21ai_2
*I *1328:S I *D sky130_fd_sc_hd__mux2_1
*I *1273:A1 I *D sky130_fd_sc_hd__o21ai_2
*I *1337:B1 I *D sky130_fd_sc_hd__o211a_2
*I *1309:C1 I *D sky130_fd_sc_hd__o211a_2
*I *1293:D1 I *D sky130_fd_sc_hd__o2111ai_2
*I *1297:A1 I *D sky130_fd_sc_hd__o31a_2
*I *1284:A1 I *D sky130_fd_sc_hd__o31a_2
*I *1267:A I *D sky130_fd_sc_hd__nand2_2
*I *1254:A3 I *D sky130_fd_sc_hd__o311a_2
*I *1623:X O *D sky130_fd_sc_hd__clkdlybuf4s25_1
*CAP
1 *1221:A1 6.9988e-05
2 *1328:S 0.000491211
3 *1273:A1 0
4 *1337:B1 0.000341315
5 *1309:C1 2.32529e-05
6 *1293:D1 4.20048e-05
7 *1297:A1 0.000140251
8 *1284:A1 0.000170247
9 *1267:A 6.47002e-05
10 *1254:A3 0.000495257
11 *1623:X 0.000108513
12 *561:113 0.000542183
13 *561:83 0.000207246
14 *561:72 0.000258564
15 *561:68 0.000662698
16 *561:62 0.000877311
17 *561:50 0.000946765
18 *561:39 0.000865759
19 *561:25 0.00112234
20 *561:10 0.000855068
21 *1221:A1 *565:20 1.21329e-05
22 *1254:A3 *1223:A1 0.000491118
23 *1337:B1 *1286:A1 0.000137126
24 *1337:B1 *1330:A1 9.61012e-05
25 *1337:B1 *1338:A1 5.73376e-05
26 *1337:B1 *1712:A 7.89034e-05
27 *561:39 *1304:A 4.66108e-05
28 *561:68 *1275:A2 1.31227e-05
29 *1172:C1 *1254:A3 0.00031707
30 *1222:A *1254:A3 3.98395e-05
31 *1223:B1 *1254:A3 7.69026e-05
32 *1224:B2 *1254:A3 7.48415e-05
33 *1224:C1 *1254:A3 0.000110791
34 *1254:B1 *1254:A3 2.75229e-05
35 *1256:B1 *561:62 4.40713e-05
36 *1263:B *1254:A3 3.57349e-05
37 *1263:C *1254:A3 1.19928e-05
38 *1273:A2 *561:62 0.000163694
39 *1276:C1 *561:62 3.76665e-05
40 *1276:C1 *561:68 8.46717e-05
41 *1277:B1 *561:62 7.58604e-05
42 *1284:A2 *1284:A1 0.000568853
43 *1284:A2 *1293:D1 6.90254e-05
44 *1284:A2 *561:83 6.90254e-05
45 *1284:A2 *561:113 0.00046722
46 *1291:B *561:62 8.51808e-05
47 *1291:B *561:68 1.48873e-05
48 *1292:A_N *561:62 1.91597e-05
49 *1293:C1 *561:68 3.66286e-05
50 *1293:C1 *561:72 8.40269e-05
51 *1293:C1 *561:113 0.000132827
52 *1294:A *1309:C1 4.89395e-05
53 *1294:A *561:113 4.10251e-05
54 *1296:B1 *561:68 3.96653e-05
55 *1297:A3 *1297:A1 8.35118e-05
56 *1297:A3 *561:68 0.000196669
57 *1297:B1 *1293:D1 4.66108e-05
58 *1299:B1 *561:68 9.99769e-05
59 *1306:A1 *1293:D1 4.66108e-05
60 *1306:A1 *1297:A1 3.93531e-05
61 *1313:A2 *1328:S 6.36381e-05
62 *1319:A_N *561:39 0.00013488
63 *1322:A2 *561:39 1.42674e-05
64 *1322:B2 *561:25 0.000325822
65 *1322:B2 *561:39 0.000837527
66 *1322:C1 *561:39 0.000269335
67 *1325:B1 *1328:S 0
68 *1326:A *1337:B1 9.76186e-05
69 *1326:B *1337:B1 2.36046e-05
70 *1331:A1_N *1328:S 7.61266e-05
71 *1337:A1 *1337:B1 5.02814e-06
72 *1337:A2 *1337:B1 8.7152e-06
73 *1338:A2 *1337:B1 8.11479e-05
74 *1338:A3 *1337:B1 8.87145e-05
75 *1339:B *1337:B1 1.12141e-05
76 *1345:B *1328:S 9.50342e-06
77 *1375:A *1328:S 8.51337e-05
78 *1380:A1 *561:39 4.28112e-06
79 *163:29 *1254:A3 0
80 *172:24 *561:10 8.41384e-05
81 *173:22 *1254:A3 6.12027e-05
82 *173:22 *561:10 3.1191e-05
83 *189:25 *1254:A3 1.17309e-05
84 *191:75 *1254:A3 2.92496e-05
85 *191:85 *1254:A3 4.66108e-05
86 *216:16 *1267:A 3.63576e-05
87 *216:16 *561:39 0.000649837
88 *216:22 *1267:A 8.35157e-05
89 *231:16 *1337:B1 1.0145e-05
90 *231:16 *561:113 8.7152e-06
91 *239:10 *561:62 1.1561e-05
92 *239:25 *1328:S 0.000136176
93 *239:25 *561:62 8.93165e-05
94 *251:14 *1328:S 0.000131525
95 *253:16 *1297:A1 7.14973e-05
96 *253:16 *1309:C1 8.53011e-05
97 *255:16 *561:113 0.000103446
98 *264:6 *1267:A 0.000155608
99 *264:6 *561:39 0.000176295
100 *269:10 *561:39 5.4533e-05
101 *273:10 *1328:S 0.000585935
102 *273:39 *1328:S 0.00024719
103 *539:59 *1328:S 7.63883e-05
104 *541:62 *1337:B1 0
105 *542:27 *561:68 2.19562e-06
106 *543:14 *1254:A3 4.3606e-05
107 *545:70 *1221:A1 8.9257e-05
108 *549:28 *1337:B1 0.000135472
109 *549:126 *1297:A1 7.29185e-05
110 *553:45 *1328:S 0.000419079
111 *553:67 *1284:A1 0.000390973
112 *553:67 *1293:D1 5.13449e-05
113 *553:67 *561:83 6.1197e-05
114 *553:73 *1284:A1 0.000183043
115 *559:98 *1328:S 0.000120087
116 *559:98 *561:62 4.39384e-05
*RES
1 *1623:X *561:10 5.265 
2 *561:10 *1254:A3 15.21 
3 *561:10 *561:25 5.21 
4 *561:25 *561:39 21.79 
5 *561:39 *1267:A 3.445 
6 *561:39 *561:50 2 
7 *561:50 *561:62 9.725 
8 *561:62 *561:68 6.255 
9 *561:68 *561:72 2.795 
10 *561:72 *1284:A1 10.335 
11 *561:72 *561:83 0.87 
12 *561:83 *1297:A1 9.955 
13 *561:83 *1293:D1 4.92 
14 *561:68 *561:113 7.715 
15 *561:113 *1309:C1 4.395 
16 *561:113 *1337:B1 16.06 
17 *561:62 *1273:A1 1.6 
18 *561:50 *1328:S 18.795 
19 *561:25 *1221:A1 6.98 
*END

*D_NET *562 0.0129756
*CONN
*I *1540:C1 I *D sky130_fd_sc_hd__o211a_2
*I *1477:C1 I *D sky130_fd_sc_hd__a311o_2
*I *1466:C1 I *D sky130_fd_sc_hd__o311a_2
*I *1449:B1 I *D sky130_fd_sc_hd__o211a_2
*I *1366:C1 I *D sky130_fd_sc_hd__o211a_2
*I *1346:C1 I *D sky130_fd_sc_hd__o211a_2
*I *1424:C1 I *D sky130_fd_sc_hd__a211o_2
*I *1624:X O *D sky130_fd_sc_hd__clkdlybuf4s25_1
*CAP
1 *1540:C1 0.00029199
2 *1477:C1 0
3 *1466:C1 1.36534e-05
4 *1449:B1 0.000928272
5 *1366:C1 1.39588e-05
6 *1346:C1 0.000154146
7 *1424:C1 6.13058e-05
8 *1624:X 0
9 *562:49 0.000691191
10 *562:37 0.00152296
11 *562:35 0.000823951
12 *562:25 0.00137377
13 *562:17 0.00121632
14 *562:6 0.000350556
15 *1346:C1 *1340:A2 0.00044777
16 *1466:C1 *603:24 4.66108e-05
17 *562:25 *567:84 6.68849e-05
18 *562:35 *567:84 0.000120186
19 *562:35 *603:24 1.7635e-05
20 *562:37 *603:24 0.000209673
21 *562:49 *1419:A 1.34361e-05
22 *562:49 *1427:A1 6.85516e-05
23 *562:49 *1436:A 0
24 *562:49 *565:108 0.000112603
25 *562:49 *565:112 0.000300469
26 *562:49 *603:24 0.000119915
27 *562:49 *603:26 0.000174249
28 *1341:C1 *1346:C1 0.00021716
29 *1341:C1 *1366:C1 7.63347e-05
30 *1346:A1 *1346:C1 2.02512e-05
31 *1346:A2 *1346:C1 7.30553e-05
32 *1351:A3 *562:49 0.000109198
33 *1351:B1 *1346:C1 9.07339e-05
34 *1351:B1 *1366:C1 5.55968e-05
35 *1351:B2 *1346:C1 0.000125539
36 *1355:A1 *562:49 0
37 *1355:A2 *562:49 0.000102768
38 *1362:A2 *562:49 3.35816e-05
39 *1362:B1 *562:49 0.00011099
40 *1419:B *562:49 0.00011099
41 *1426:B *1424:C1 9.54399e-05
42 *1439:B *1424:C1 1.7902e-05
43 *1439:B *562:17 1.07797e-05
44 *1444:A2 *1449:B1 1.00941e-05
45 *1444:B2 *1449:B1 1.03755e-05
46 *1460:B *562:37 0.000134249
47 *1466:B1 *562:35 1.10537e-05
48 *1466:B1 *562:37 9.50342e-06
49 *1478:A *1466:C1 4.66108e-05
50 *1491:A2 *562:25 0.000191213
51 *1492:B *562:25 5.73959e-06
52 *1497:A1 *562:17 0
53 *1497:A4 *562:17 3.90266e-05
54 *1497:B1 *1540:C1 4.76581e-05
55 *1497:B1 *562:17 0.000127408
56 *1552:A1 *1540:C1 0.000154059
57 *1552:A2 *1540:C1 3.42081e-05
58 *1552:B1 *1540:C1 1.19928e-05
59 *1552:C1 *1540:C1 0
60 *1553:B *562:17 0.00022448
61 *1554:A2 *562:17 7.3664e-05
62 *1617:A *1540:C1 6.65887e-05
63 *1617:A *562:17 0.000177299
64 *346:10 *1424:C1 0.000226841
65 *346:10 *562:17 0.00012904
66 *347:36 *1424:C1 8.99646e-05
67 *347:36 *562:17 7.23533e-05
68 *349:10 *1424:C1 5.53249e-06
69 *396:10 *562:37 2.92841e-05
70 *409:14 *562:25 7.47215e-05
71 *409:14 *562:35 0.000150623
72 *425:8 *562:25 0.00027446
73 *547:18 *562:49 0.000142235
74 *548:54 *562:35 1.49438e-05
*RES
1 *1624:X *562:6 3.6 
2 *562:6 *1424:C1 6.255 
3 *562:6 *562:17 8.265 
4 *562:17 *562:25 12.91 
5 *562:25 *562:35 4.19833 
6 *562:35 *562:37 2.5275 
7 *562:37 *562:49 15.3275 
8 *562:49 *1346:C1 7.705 
9 *562:49 *1366:C1 2.395 
10 *562:37 *1449:B1 6.15237 
11 *562:35 *1466:C1 4.05 
12 *562:25 *1477:C1 3.6 
13 *562:17 *1540:C1 8.535 
*END

*D_NET *563 0.0164514
*CONN
*I *1190:C1 I *D sky130_fd_sc_hd__a311oi_2
*I *1191:A1 I *D sky130_fd_sc_hd__a31o_2
*I *1178:A3 I *D sky130_fd_sc_hd__a31o_2
*I *1204:A1 I *D sky130_fd_sc_hd__o31a_2
*I *1203:C1 I *D sky130_fd_sc_hd__o211ai_2
*I *1230:B1 I *D sky130_fd_sc_hd__a21oi_2
*I *1413:A I *D sky130_fd_sc_hd__or2_2
*I *1220:A I *D sky130_fd_sc_hd__nand2_2
*I *1176:B1 I *D sky130_fd_sc_hd__a21o_2
*I *1232:B2 I *D sky130_fd_sc_hd__a22o_2
*I *1625:X O *D sky130_fd_sc_hd__clkdlybuf4s25_1
*CAP
1 *1190:C1 0
2 *1191:A1 0
3 *1178:A3 0.000120481
4 *1204:A1 5.90356e-06
5 *1203:C1 1.53036e-05
6 *1230:B1 0
7 *1413:A 0.000803469
8 *1220:A 0.00014319
9 *1176:B1 0.00026818
10 *1232:B2 8.45991e-05
11 *1625:X 0.000733005
12 *563:136 0.000461114
13 *563:128 0.000945715
14 *563:74 0.00138718
15 *563:45 0.000962899
16 *563:28 0.000369971
17 *563:26 0.000363873
18 *563:20 0.000457621
19 *563:8 0.000243448
20 *1176:B1 *1176:A1 3.79555e-05
21 *1176:B1 *1226:A 4.66108e-05
22 *1176:B1 *1736:A 0.000258125
23 *1176:B1 *566:30 0.000119658
24 *1176:B1 *620:25 2.60367e-05
25 *1178:A3 *1227:A 5.30673e-05
26 *1178:A3 *1227:B 0.000110456
27 *1232:B2 *1176:A1 5.40052e-05
28 *1232:B2 *630:62 5.63183e-05
29 *1413:A *1156:B 8.33567e-05
30 *1413:A *1395:B 0
31 *1413:A *1399:A1 0
32 *1413:A *566:30 0
33 *1413:A *567:59 0
34 *563:26 *1149:A 1.08758e-05
35 *563:26 *1177:A2 0.000337854
36 *563:26 *630:62 0.000101321
37 *563:28 *630:62 4.95846e-05
38 *563:45 *1156:B 8.54244e-05
39 *563:74 *1156:B 2.09665e-05
40 *563:74 *1736:A 0.000468281
41 *563:74 *566:30 0.000303219
42 *563:128 *1184:A 2.73058e-05
43 *563:128 *1185:A 4.66108e-05
44 *563:128 *1593:A 1.42598e-05
45 *563:128 *581:16 0.000143529
46 *563:128 *581:38 0.000378814
47 *563:136 *1183:A 8.19737e-05
48 *563:136 *1227:B 2.09165e-05
49 *563:136 *581:16 1.08817e-05
50 *563:136 *592:14 3.59531e-06
51 *563:136 *630:10 0.000159964
52 *563:136 *630:27 0.000101308
53 *1172:B1 *563:136 8.40269e-05
54 *1177:A1 *563:26 4.41506e-05
55 *1177:B1 *563:26 2.49909e-05
56 *1179:B *1178:A3 2.84757e-05
57 *1180:B1 *1176:B1 4.40639e-05
58 *1189:A1 *563:45 0.000346389
59 *1191:A2 *1178:A3 8.7152e-06
60 *1191:B1 *563:136 0.000516535
61 *1218:A2 *1203:C1 1.77461e-05
62 *1218:A2 *563:26 2.39856e-05
63 *1224:B2 *563:45 4.25267e-05
64 *1229:B *563:26 0.000149922
65 *1229:B *563:28 8.7152e-06
66 *1232:A1 *1232:B2 3.53401e-05
67 *1232:A1 *563:28 2.24911e-05
68 *1232:A2 *1232:B2 3.84918e-06
69 *1244:A2 *1232:B2 8.33066e-06
70 *1387:A *1413:A 0.000226855
71 *1392:A1 *1413:A 5.43215e-05
72 *1393:A *1413:A 0.000162332
73 *1396:B1 *1413:A 0
74 *1397:B *1413:A 0.000139245
75 *1399:A3 *1413:A 0
76 *1400:B1 *1413:A 0
77 *1412:A2 *1413:A 1.26626e-05
78 *1413:B *1413:A 1.65105e-05
79 *1414:A2_N *1413:A 4.82919e-05
80 *1414:B1 *1413:A 4.75576e-05
81 *1423:B1 *1413:A 0
82 *1594:B *563:128 1.43417e-05
83 *1594:B *563:136 1.61716e-05
84 *1603:A *563:20 0.000194314
85 *1607:D_N *563:128 3.09134e-05
86 *1613:A *563:74 2.16673e-05
87 *1625:A *563:128 2.747e-05
88 *106:14 *1203:C1 3.63576e-05
89 *106:14 *563:26 0.000553433
90 *106:14 *563:136 0
91 *107:10 *563:26 4.66108e-05
92 *117:20 *563:20 0.000195741
93 *131:20 *1413:A 0
94 *141:24 *563:128 0.000205985
95 *141:30 *563:128 7.03276e-05
96 *145:18 *563:45 0.000458809
97 *157:12 *563:8 7.01132e-05
98 *157:12 *563:128 0.000180988
99 *157:25 *1204:A1 6.03947e-06
100 *157:25 *563:8 2.14226e-05
101 *157:25 *563:20 2.31166e-05
102 *172:24 *563:26 5.61484e-05
103 *180:20 *1178:A3 8.8266e-05
104 *181:47 *1176:B1 4.82919e-05
105 *184:16 *1232:B2 4.66108e-05
106 *315:19 *1413:A 0.000363761
107 *352:10 *1413:A 6.44134e-05
108 *364:6 *1413:A 2.75229e-05
109 *520:10 *563:128 3.06569e-06
110 *520:12 *563:128 4.18273e-05
111 *535:16 *1176:B1 7.78168e-05
112 *545:39 *1413:A 0
113 *545:51 *1220:A 0.000347017
114 *550:32 *1413:A 0.000280179
115 *550:32 *563:74 4.24562e-05
116 *557:64 *1413:A 9.39379e-05
*RES
1 *1625:X *563:8 3.76375 
2 *563:8 *563:20 7.08625 
3 *563:20 *563:26 10.895 
4 *563:26 *563:28 0.7425 
5 *563:28 *1232:B2 5.3025 
6 *563:28 *563:45 1.88287 
7 *563:45 *1176:B1 6.2177 
8 *563:45 *563:74 2.77063 
9 *563:74 *1220:A 6.81 
10 *563:74 *1413:A 22.005 
11 *563:26 *1230:B1 3.6 
12 *563:20 *1203:C1 2.05 
13 *563:8 *1204:A1 1.83625 
14 *1625:X *563:128 14.925 
15 *563:128 *563:136 10.235 
16 *563:136 *1178:A3 8.225 
17 *563:136 *1191:A1 1.6 
18 *563:128 *1190:C1 3.6 
*END

*D_NET *564 0.0148774
*CONN
*I *1601:A1 I *D sky130_fd_sc_hd__o31a_2
*I *1509:A I *D sky130_fd_sc_hd__and3_2
*I *1524:C1 I *D sky130_fd_sc_hd__o211a_2
*I *1522:C1 I *D sky130_fd_sc_hd__a311oi_2
*I *1537:C1 I *D sky130_fd_sc_hd__a211oi_2
*I *1511:C1 I *D sky130_fd_sc_hd__a211oi_2
*I *1499:S I *D sky130_fd_sc_hd__mux2_1
*I *1570:B1 I *D sky130_fd_sc_hd__o211a_2
*I *1626:X O *D sky130_fd_sc_hd__clkdlybuf4s25_1
*CAP
1 *1601:A1 2.07361e-05
2 *1509:A 0
3 *1524:C1 1.17533e-05
4 *1522:C1 1.77753e-05
5 *1537:C1 0.000521692
6 *1511:C1 7.14563e-05
7 *1499:S 0.000878342
8 *1570:B1 7.32372e-05
9 *1626:X 0.000238175
10 *564:97 0.000993686
11 *564:91 0.000804035
12 *564:85 0.00050607
13 *564:66 0.000622698
14 *564:35 0.00130463
15 *564:22 0.000737731
16 *564:6 0.000880357
17 *1511:C1 *1487:A 1.34503e-05
18 *1511:C1 *1487:B 9.56742e-05
19 *1522:C1 *612:27 0
20 *1537:C1 *1517:A 0.000164279
21 *1537:C1 *1719:A 0.000131766
22 *1537:C1 *612:14 1.33293e-05
23 *1537:C1 *612:27 0.0001249
24 *1570:B1 *1731:A 0.00013313
25 *564:22 *1391:A 8.40213e-05
26 *564:22 *1577:B 0
27 *564:22 *1583:A_N 0.000179694
28 *564:22 *654:10 8.23457e-05
29 *564:66 *1487:B 7.77408e-05
30 *564:66 *1548:B 1.65192e-05
31 *564:66 *614:27 0
32 *564:66 *614:36 0
33 *564:85 *1548:B 6.65066e-05
34 *564:91 *611:10 0
35 *564:97 *611:10 0
36 *564:97 *611:20 6.29809e-05
37 *1402:B *1499:S 4.82919e-05
38 *1417:B2 *1499:S 0.000253503
39 *1502:A1 *564:22 0.000192543
40 *1502:A1 *564:35 0.000102479
41 *1502:A1 *564:66 4.88475e-05
42 *1509:B *564:85 4.18569e-05
43 *1509:C *564:91 0.0010143
44 *1511:A2 *564:97 5.21706e-05
45 *1512:B *564:85 0
46 *1513:A2 *564:66 9.50342e-06
47 *1513:A2 *564:85 0.000195648
48 *1515:B1 *564:91 4.82863e-05
49 *1515:B2 *564:91 1.47347e-05
50 *1516:C1 *564:91 7.10578e-05
51 *1522:A3 *564:97 4.66108e-05
52 *1527:A *1499:S 0
53 *1527:B *1524:C1 2.75145e-05
54 *1527:B *564:91 4.61196e-05
55 *1529:A1 *564:91 3.59531e-06
56 *1529:B1 *564:91 2.75229e-05
57 *1541:A1 *1537:C1 3.86607e-05
58 *1559:A2 *1537:C1 0
59 *1564:A1 *1499:S 1.70127e-05
60 *1564:C1 *564:66 9.14049e-05
61 *1568:A *564:22 0.000196438
62 *1576:A2 *1570:B1 0
63 *1582:A2 *1499:S 6.03272e-05
64 *1585:B1 *564:22 0.000112892
65 *1589:A2 *564:22 5.98203e-05
66 *1599:A1 *564:22 4.98756e-05
67 *1601:A3 *564:6 8.40269e-05
68 *1601:A3 *564:22 1.08758e-05
69 *1601:B1 *1601:A1 3.21081e-06
70 *1601:B1 *564:6 8.63479e-05
71 *1602:B *564:6 4.85206e-05
72 *1602:B *564:22 3.1835e-05
73 *1608:B1 *564:22 0.000693779
74 *421:48 *564:66 0.000144833
75 *440:63 *564:97 2.04531e-05
76 *440:69 *564:97 1.52184e-05
77 *442:10 *564:85 0
78 *443:16 *1511:C1 4.66108e-05
79 *444:8 *1511:C1 0.000125681
80 *450:12 *1537:C1 4.82863e-05
81 *455:6 *1524:C1 4.82863e-05
82 *465:22 *1537:C1 4.76263e-05
83 *476:12 *564:66 0.000312625
84 *476:20 *564:66 1.83847e-05
85 *477:12 *564:66 5.05223e-05
86 *478:28 *1499:S 0.000133162
87 *479:10 *564:66 7.67415e-06
88 *479:16 *564:22 5.25754e-05
89 *485:10 *1499:S 6.27029e-05
90 *485:27 *1499:S 1.91597e-05
91 *490:16 *1499:S 8.53113e-06
92 *495:10 *564:35 2.44872e-05
93 *495:10 *564:66 3.70538e-05
94 *495:12 *564:22 0.000151726
95 *495:12 *564:35 2.42236e-05
96 *495:56 *1570:B1 0.000110875
97 *536:10 *564:91 4.03953e-05
98 *536:10 *564:97 5.83723e-05
99 *551:79 *564:91 3.96653e-05
100 *551:97 *564:91 0.000275294
101 *556:49 *1499:S 0
102 *556:60 *564:85 0
103 *560:172 *1499:S 0.0001947
*RES
1 *1626:X *564:6 5.845 
2 *564:6 *564:22 22.215 
3 *564:22 *1570:B1 5.79 
4 *564:22 *564:35 1.2525 
5 *564:35 *1499:S 8.55063 
6 *564:35 *564:66 12.3175 
7 *564:66 *1511:C1 5.91 
8 *564:66 *564:85 5.93 
9 *564:85 *564:91 13.055 
10 *564:91 *564:97 9.245 
11 *564:97 *1537:C1 13.22 
12 *564:97 *1522:C1 1.96 
13 *564:91 *1524:C1 4.05 
14 *564:85 *1509:A 1.6 
15 *564:6 *1601:A1 1.96 
*END

*D_NET *565 0.020779
*CONN
*I *1385:S I *D sky130_fd_sc_hd__mux2_1
*I *1351:A1 I *D sky130_fd_sc_hd__a32o_2
*I *1367:A1 I *D sky130_fd_sc_hd__a31o_2
*I *1427:A1 I *D sky130_fd_sc_hd__o31a_2
*I *1436:A I *D sky130_fd_sc_hd__nor2_2
*I *1441:A1 I *D sky130_fd_sc_hd__a21o_2
*I *1338:A1 I *D sky130_fd_sc_hd__a31o_2
*I *1311:A1 I *D sky130_fd_sc_hd__a21o_2
*I *1281:B1 I *D sky130_fd_sc_hd__a211o_2
*I *1243:A I *D sky130_fd_sc_hd__and2_2
*I *1627:X O *D sky130_fd_sc_hd__clkdlybuf4s25_1
*CAP
1 *1385:S 0.000138464
2 *1351:A1 2.84535e-05
3 *1367:A1 0.000104449
4 *1427:A1 0.000498912
5 *1436:A 0.000231998
6 *1441:A1 6.75731e-05
7 *1338:A1 0.000104694
8 *1311:A1 5.80935e-05
9 *1281:B1 0.00066897
10 *1243:A 9.74528e-06
11 *1627:X 0.000115632
12 *565:116 0.000528556
13 *565:112 0.000907923
14 *565:108 0.00052108
15 *565:100 0.00125975
16 *565:71 0.00208441
17 *565:54 0.00142067
18 *565:35 0.00280028
19 *565:20 0.00272624
20 *565:10 0.00121683
21 *1281:B1 *590:19 1.13474e-05
22 *1427:A1 *1419:A 7.5416e-05
23 *565:100 *1716:A 1.45731e-05
24 *565:100 *598:18 4.57523e-06
25 *565:112 *1419:A 0.000116158
26 *1220:B *565:20 0
27 *1221:A1 *565:20 1.21329e-05
28 *1242:A2 *565:20 0.000350626
29 *1270:B *1243:A 1.79536e-05
30 *1270:B *565:20 0.000289865
31 *1318:D *1311:A1 9.58678e-06
32 *1326:B *1338:A1 2.70428e-05
33 *1337:B1 *1338:A1 5.73376e-05
34 *1338:A2 *1338:A1 0.00011049
35 *1341:C1 *1351:A1 4.75991e-05
36 *1341:C1 *565:100 0.00015857
37 *1347:A_N *565:100 0
38 *1351:A2 *565:100 0
39 *1351:A2 *565:108 3.59531e-06
40 *1352:B *565:108 5.21761e-05
41 *1355:A1 *1436:A 3.23391e-05
42 *1362:A2 *565:108 0
43 *1362:A2 *565:112 0.000139252
44 *1362:B1 *565:108 8.51879e-05
45 *1362:B1 *565:112 0.000116165
46 *1367:B1 *1367:A1 8.65905e-05
47 *1378:A2 *1367:A1 3.51884e-05
48 *1378:A2 *565:108 2.30292e-05
49 *1379:B2 *565:20 0
50 *1385:A0 *565:20 0.00010075
51 *1386:A *565:20 8.08153e-06
52 *1386:B *565:20 7.81954e-05
53 *1427:A2 *1427:A1 9.53428e-06
54 *1428:B *1427:A1 4.82863e-05
55 *1430:B2 *1427:A1 1.12643e-05
56 *1430:B2 *565:112 0
57 *1434:A2 *1427:A1 0.000285297
58 *1434:B1 *1427:A1 0.000253941
59 *1437:A_N *565:116 4.76682e-05
60 *1438:B1 *1427:A1 0.000481967
61 *1441:A2 *1441:A1 4.82919e-05
62 *1441:B1 *1436:A 0.0002954
63 *1442:A *1436:A 0
64 *1621:A *565:100 1.92979e-05
65 *1655:A *1281:B1 5.18317e-06
66 *169:14 *565:20 4.29758e-05
67 *194:10 *1243:A 1.92979e-05
68 *194:10 *565:20 0.000123967
69 *202:71 *1243:A 7.9642e-06
70 *262:18 *565:100 0
71 *263:12 *1338:A1 5.74263e-05
72 *263:31 *1338:A1 5.13038e-05
73 *307:12 *565:108 0.000121547
74 *316:16 *1385:S 5.58206e-05
75 *316:27 *565:10 5.13037e-05
76 *316:27 *565:20 2.76749e-05
77 *321:8 *565:20 0
78 *326:10 *565:20 5.30144e-05
79 *326:19 *565:10 5.06607e-05
80 *326:19 *565:20 5.69248e-06
81 *358:27 *1427:A1 6.50552e-05
82 *371:67 *1436:A 2.99518e-06
83 *539:40 *565:112 0
84 *545:51 *565:20 0
85 *545:70 *565:20 0.000392717
86 *548:107 *565:20 1.34361e-05
87 *552:30 *565:112 0
88 *557:72 *565:10 9.18296e-05
89 *562:49 *1427:A1 6.85516e-05
90 *562:49 *1436:A 0
91 *562:49 *565:108 0.000112603
92 *562:49 *565:112 0.000300469
*RES
1 *1627:X *565:10 6.375 
2 *565:10 *565:20 19.9686 
3 *565:20 *1243:A 3.8325 
4 *565:20 *565:35 4.03873 
5 *565:35 *1281:B1 5.99823 
6 *565:35 *565:54 0.5548 
7 *565:54 *1311:A1 4.89963 
8 *565:54 *565:71 1.41613 
9 *565:71 *1338:A1 5.52617 
10 *565:71 *565:100 8.74397 
11 *565:100 *565:108 8.65 
12 *565:108 *565:112 7.205 
13 *565:112 *565:116 4.52 
14 *565:116 *1441:A1 2.395 
15 *565:116 *1436:A 10.295 
16 *565:112 *1427:A1 16.035 
17 *565:108 *1367:A1 3.445 
18 *565:100 *1351:A1 2.05 
19 *565:10 *1385:S 5.7 
*END

*D_NET *566 0.0121363
*CONN
*I *1561:S I *D sky130_fd_sc_hd__mux2_1
*I *1408:B1 I *D sky130_fd_sc_hd__a21oi_2
*I *1699:A I *D sky130_fd_sc_hd__buf_2
*I *1252:C1 I *D sky130_fd_sc_hd__a211o_2
*I *1245:A1 I *D sky130_fd_sc_hd__o21ba_2
*I *1628:X O *D sky130_fd_sc_hd__clkdlybuf4s25_1
*CAP
1 *1561:S 0.00121367
2 *1408:B1 2.23845e-05
3 *1699:A 0
4 *1252:C1 2.95816e-05
5 *1245:A1 0
6 *1628:X 0.000334188
7 *566:59 0.0016931
8 *566:30 0.00151449
9 *566:10 0.00167639
10 *566:6 0.000982719
11 *1408:B1 *1399:A2 1.91597e-05
12 *1408:B1 *601:53 8.40213e-05
13 *1561:S *1162:A 2.75229e-05
14 *1561:S *1162:B 0.000111909
15 *1561:S *1399:A1 0
16 *1561:S *1399:A2 0.000345353
17 *1561:S *1578:B 2.8585e-06
18 *1561:S *654:26 1.91597e-05
19 *566:30 *1736:A 0.000139032
20 *566:59 *1405:B1 0.000102134
21 *566:59 *643:26 0.000105806
22 *1172:C1 *566:30 3.92756e-05
23 *1176:B1 *566:30 0.000119658
24 *1191:A3 *566:30 8.98337e-05
25 *1245:A2 *1252:C1 3.07253e-05
26 *1245:B1_N *1252:C1 0
27 *1248:A1 *566:30 1.79536e-05
28 *1252:B1 *1252:C1 5.59683e-05
29 *1253:A *566:30 1.22505e-05
30 *1254:B1 *566:30 4.49232e-05
31 *1388:A1 *566:59 0.000164874
32 *1388:B1 *566:6 0.000179577
33 *1388:B1 *566:59 1.16578e-05
34 *1388:C1 *566:10 3.39064e-05
35 *1389:B1 *566:10 5.12942e-05
36 *1389:B1 *566:59 4.82919e-05
37 *1393:A *566:10 0
38 *1398:A2 *1561:S 3.09233e-05
39 *1398:A2 *566:59 0.000335163
40 *1398:B2 *566:59 9.92626e-05
41 *1399:B1 *1408:B1 4.82863e-05
42 *1399:B1 *1561:S 2.07184e-05
43 *1399:B1 *566:59 0.000376607
44 *1413:A *566:30 0
45 *1425:A1 *1561:S 4.21314e-05
46 *1502:B2 *1561:S 5.51814e-05
47 *1570:A1 *1561:S 0.000116528
48 *1572:A1 *1561:S 0.000303047
49 *1572:A2 *1561:S 1.15688e-05
50 *1573:A3 *1561:S 3.61388e-06
51 *1576:A2 *1561:S 0.00019541
52 *1588:B1 *1561:S 9.80032e-06
53 *1613:A *566:30 1.00909e-05
54 *1628:A *566:59 5.70744e-05
55 *115:24 *566:30 0
56 *121:25 *1561:S 0.000342778
57 *315:19 *566:10 0
58 *316:16 *566:6 0.0001249
59 *480:36 *1561:S 4.90071e-05
60 *510:18 *1561:S 0
61 *548:6 *566:59 2.30292e-05
62 *548:23 *566:59 0
63 *552:12 *1561:S 4.71333e-05
64 *555:18 *1561:S 2.34345e-05
65 *556:29 *1561:S 0.000183731
66 *560:151 *566:59 0
67 *563:74 *566:30 0.000303219
*RES
1 *1628:X *566:6 5.845 
2 *566:6 *566:10 5.42 
3 *566:10 *566:30 7.90693 
4 *566:30 *1245:A1 1.6 
5 *566:30 *1252:C1 2.41 
6 *566:10 *1699:A 3.6 
7 *566:6 *566:59 14.09 
8 *566:59 *1408:B1 4.395 
9 *566:59 *1561:S 27.67 
*END

*D_NET *567 0.0125051
*CONN
*I *1452:A1 I *D sky130_fd_sc_hd__a21o_2
*I *1467:A1 I *D sky130_fd_sc_hd__a21oi_2
*I *1481:A1 I *D sky130_fd_sc_hd__o31a_2
*I *1396:A1 I *D sky130_fd_sc_hd__a31o_2
*I *1627:A I *D sky130_fd_sc_hd__clkdlybuf4s25_1
*I *1392:B1 I *D sky130_fd_sc_hd__a21oi_2
*I *1699:X O *D sky130_fd_sc_hd__buf_2
*CAP
1 *1452:A1 0.000656909
2 *1467:A1 0
3 *1481:A1 0.000102484
4 *1396:A1 6.0786e-05
5 *1627:A 3.76639e-05
6 *1392:B1 0
7 *1699:X 0.00026416
8 *567:84 0.00122612
9 *567:59 0.0018283
10 *567:32 0.00132045
11 *567:19 0.000254093
12 *567:10 0.000377535
13 *1452:A1 *1432:A 0.000169676
14 *567:32 *1718:A 8.53113e-06
15 *567:59 *1718:A 2.79004e-05
16 *567:59 *1719:A 0
17 *567:84 *1473:A 2.11084e-05
18 *567:84 *1473:B 3.42596e-05
19 *1393:A *567:10 0.000114424
20 *1393:B *567:10 2.60908e-05
21 *1396:A2 *1396:A1 1.61831e-05
22 *1396:B1 *567:10 0.000130564
23 *1396:B1 *567:19 0.000354427
24 *1396:B1 *567:32 0.000203762
25 *1397:B *567:32 0
26 *1400:A2 *1396:A1 4.82863e-05
27 *1400:A2 *567:32 1.15688e-05
28 *1400:A2 *567:59 7.23602e-05
29 *1412:A2 *567:59 0
30 *1413:A *567:59 0
31 *1413:B *567:59 0
32 *1414:B1 *567:59 0
33 *1440:A1 *567:59 0.000193315
34 *1440:A2 *567:59 0.00015896
35 *1440:B1 *567:59 8.49205e-05
36 *1444:B2 *1452:A1 0.000330756
37 *1455:C1 *1452:A1 2.25179e-05
38 *1456:B1 *1452:A1 8.53113e-06
39 *1466:B1 *1452:A1 5.59099e-05
40 *1467:A2 *1452:A1 4.21579e-05
41 *1467:A2 *567:84 8.6076e-05
42 *1467:B1 *1452:A1 2.68526e-05
43 *1468:B *1452:A1 1.14169e-05
44 *1468:B *567:84 1.56651e-05
45 *1491:A1 *567:59 2.96426e-05
46 *1492:A *567:59 0.000103905
47 *1494:B *567:84 1.83986e-05
48 *1495:B *1481:A1 0.000132436
49 *1553:C *567:59 0.000292465
50 *1555:B *567:59 4.82919e-05
51 *1557:B *567:59 2.24336e-05
52 *1623:A *567:10 1.82563e-05
53 *326:68 *567:59 5.93953e-05
54 *352:10 *567:59 0
55 *370:8 *1452:A1 4.19797e-05
56 *378:10 *567:59 1.9415e-05
57 *385:38 *1452:A1 0.000199032
58 *400:20 *1452:A1 0.000167884
59 *408:6 *567:84 3.45679e-05
60 *409:14 *567:84 3.31204e-05
61 *415:16 *567:84 0.000406717
62 *429:8 *567:59 0.000178696
63 *431:10 *567:59 1.12578e-05
64 *485:10 *567:59 0.00015806
65 *548:54 *567:84 0.000249921
66 *548:107 *567:10 0.000121152
67 *548:107 *567:19 0.000124283
68 *550:24 *567:10 0.000160635
69 *554:42 *1452:A1 1.44839e-05
70 *557:64 *567:19 9.37731e-05
71 *557:105 *567:19 3.09233e-05
72 *557:105 *567:32 0.000195918
73 *557:131 *567:32 1.7902e-05
74 *557:131 *567:59 0.000928355
75 *559:135 *1452:A1 0
76 *562:25 *567:84 6.68849e-05
77 *562:35 *567:84 0.000120186
*RES
1 *1699:X *567:10 9.9 
2 *567:10 *1392:B1 3.6 
3 *567:10 *567:19 4.185 
4 *567:19 *1627:A 4.05 
5 *567:19 *567:32 3.36 
6 *567:32 *1396:A1 4.395 
7 *567:32 *567:59 28.445 
8 *567:59 *1481:A1 3.55 
9 *567:59 *567:84 15.595 
10 *567:84 *1467:A1 1.6 
11 *567:84 *1452:A1 18.215 
*END

*D_NET *568 0.00671093
*CONN
*I *1162:A I *D sky130_fd_sc_hd__or2_2
*I *1160:A I *D sky130_fd_sc_hd__nor3b_2
*I *1168:A I *D sky130_fd_sc_hd__or3b_2
*I *1165:C_N I *D sky130_fd_sc_hd__nor3b_2
*I *1163:A I *D sky130_fd_sc_hd__nor2_2
*I *1167:A I *D sky130_fd_sc_hd__nor3b_2
*I *1161:A I *D sky130_fd_sc_hd__or3b_2
*I *1170:A_N I *D sky130_fd_sc_hd__nand3b_2
*I *1169:A_N I *D sky130_fd_sc_hd__and3b_2
*I *1166:C_N I *D sky130_fd_sc_hd__or3b_2
*I *1629:X O *D sky130_fd_sc_hd__clkdlybuf4s25_1
*CAP
1 *1162:A 0.000304651
2 *1160:A 0
3 *1168:A 0
4 *1165:C_N 0
5 *1163:A 6.31906e-05
6 *1167:A 6.97723e-05
7 *1161:A 0
8 *1170:A_N 7.76055e-05
9 *1169:A_N 0
10 *1166:C_N 0.000132401
11 *1629:X 5.47785e-05
12 *568:62 0.000252705
13 *568:43 0.000138326
14 *568:39 6.07208e-05
15 *568:26 0.000207578
16 *568:24 0.000229429
17 *568:20 6.26755e-05
18 *568:18 8.11956e-05
19 *568:16 0.000231033
20 *568:6 0.000537433
21 *1162:A *1733:A 6.79508e-05
22 *1166:C_N *1166:B 0.00020044
23 *1167:A *1709:A 0.00015639
24 *1170:A_N *1169:C 0.000136339
25 *1170:A_N *1170:C 4.66108e-05
26 *1170:A_N *1717:A 0.000342773
27 *568:6 *627:25 2.49909e-05
28 *568:6 *627:31 2.05056e-05
29 *568:16 *1160:B 0.00011228
30 *568:16 *570:52 3.66286e-05
31 *568:16 *627:31 2.75229e-05
32 *568:18 *570:52 4.99619e-05
33 *568:18 *570:56 0.000145515
34 *568:20 *570:56 0.000111455
35 *568:24 *570:56 0.000120655
36 *568:26 *1166:B 4.21314e-05
37 *568:26 *570:60 0.000135533
38 *568:43 *1717:A 9.52621e-05
39 *1561:S *1162:A 2.75229e-05
40 *1599:A2 *1162:A 0.000170759
41 *1605:B1 *1166:C_N 0.0001249
42 *1609:A2 *568:16 3.65279e-05
43 *1609:A2 *568:26 2.64352e-05
44 *1609:A2 *568:62 5.94763e-05
45 *1609:B1 *1163:A 0.000197736
46 *1609:B1 *568:62 8.7152e-06
47 *1612:A *568:18 2.75145e-05
48 *1612:A *568:20 6.97118e-05
49 *1612:A *568:24 6.71882e-05
50 *1615:A *568:16 8.40213e-05
51 *1615:A *568:18 0.000112232
52 *1620:A *1163:A 5.00159e-05
53 *1620:A *1166:C_N 1.94892e-05
54 *1620:A *568:26 4.62396e-05
55 *1620:A *568:43 0.000123225
56 *1628:A *1167:A 2.75229e-05
57 *118:20 *1163:A 3.9141e-05
58 *118:20 *568:62 2.8531e-05
59 *119:14 *568:43 0
60 *119:51 *1170:A_N 9.52851e-05
61 *119:51 *568:43 2.05056e-05
62 *120:10 *1162:A 0.000602765
63 *121:25 *1163:A 1.73877e-05
64 *508:14 *1162:A 3.47681e-05
65 *510:18 *1162:A 5.80794e-05
66 *545:115 *1166:C_N 0
67 *550:24 *1166:C_N 0.00012657
68 *556:29 *1162:A 3.22246e-05
69 *560:151 *568:62 0
*RES
1 *1629:X *568:6 2.395 
2 *568:6 *568:16 3.555 
3 *568:16 *568:18 1.83 
4 *568:18 *568:20 1.14 
5 *568:20 *568:24 3.14 
6 *568:24 *568:26 2.145 
7 *568:26 *1166:C_N 7.14 
8 *568:26 *568:39 2 
9 *568:39 *568:43 1.845 
10 *568:43 *1169:A_N 1.6 
11 *568:43 *1170:A_N 4.81 
12 *568:39 *1161:A 1.6 
13 *568:24 *568:62 1.89 
14 *568:62 *1167:A 5.085 
15 *568:62 *1163:A 6 
16 *568:20 *1165:C_N 1.6 
17 *568:18 *1168:A 1.6 
18 *568:16 *1160:A 1.6 
19 *568:6 *1162:A 14.06 
*END

*D_NET *569 0.00433613
*CONN
*I *1450:A_N I *D sky130_fd_sc_hd__and2b_2
*I *1443:A2 I *D sky130_fd_sc_hd__o21ai_2
*I *1432:B I *D sky130_fd_sc_hd__nand2_2
*I *1464:A2 I *D sky130_fd_sc_hd__a22o_2
*I *1433:B I *D sky130_fd_sc_hd__xnor2_2
*I *1635:X O *D sky130_fd_sc_hd__clkdlybuf4s25_1
*CAP
1 *1450:A_N 1.02819e-05
2 *1443:A2 0.00018121
3 *1432:B 0
4 *1464:A2 1.40877e-05
5 *1433:B 0.000124369
6 *1635:X 3.10222e-05
7 *569:47 0.000472704
8 *569:36 0.000961994
9 *569:10 0.000211394
10 *569:8 0.000784741
11 *1433:B *1433:A 0.000136881
12 *1433:B *1461:A_N 3.09164e-05
13 *1450:A_N *603:24 4.77757e-05
14 *1464:A2 *1464:B2 6.49403e-05
15 *1464:A2 *605:10 3.75272e-05
16 *569:8 *571:10 0.000106344
17 *569:8 *606:10 5.51574e-05
18 *569:10 *1461:A_N 2.92496e-05
19 *569:10 *571:10 1.05827e-05
20 *569:10 *571:12 0.000173154
21 *569:10 *606:10 1.22505e-05
22 *569:10 *606:14 9.24127e-05
23 y[20] *1433:B 0.000186083
24 *1441:A2 *1443:A2 0.000163889
25 *1635:A *1433:B 0
26 *1635:A *569:10 0
27 *1670:A *1433:B 7.79101e-05
28 *371:67 *1443:A2 0
29 *378:43 *1443:A2 7.23602e-05
30 *378:43 *569:47 0.000104287
31 *387:16 *1450:A_N 4.77757e-05
32 *559:135 *569:36 1.88602e-05
33 *559:135 *569:47 7.59697e-05
*RES
1 *1635:X *569:8 4.8525 
2 *569:8 *569:10 2.5275 
3 *569:10 *1433:B 7.785 
4 *569:10 *1464:A2 4.2 
5 *569:8 *569:36 2.43583 
6 *569:36 *1432:B 3.6 
7 *569:36 *569:47 4.725 
8 *569:47 *1443:A2 6.81 
9 *569:47 *1450:A_N 4.05 
*END

*D_NET *570 0.00669752
*CONN
*I *1162:B I *D sky130_fd_sc_hd__or2_2
*I *1167:C_N I *D sky130_fd_sc_hd__nor3b_2
*I *1160:B I *D sky130_fd_sc_hd__nor3b_2
*I *1168:C_N I *D sky130_fd_sc_hd__or3b_2
*I *1165:B I *D sky130_fd_sc_hd__nor3b_2
*I *1161:B I *D sky130_fd_sc_hd__or3b_2
*I *1166:B I *D sky130_fd_sc_hd__or3b_2
*I *1170:C I *D sky130_fd_sc_hd__nand3b_2
*I *1169:C I *D sky130_fd_sc_hd__and3b_2
*I *1163:B I *D sky130_fd_sc_hd__nor2_2
*I *1630:X O *D sky130_fd_sc_hd__clkdlybuf4s25_1
*CAP
1 *1162:B 0.000227287
2 *1167:C_N 0
3 *1160:B 5.4201e-05
4 *1168:C_N 0
5 *1165:B 0
6 *1161:B 3.69588e-05
7 *1166:B 0.000140841
8 *1170:C 3.97116e-05
9 *1169:C 3.69401e-05
10 *1163:B 3.45886e-05
11 *1630:X 0.00022337
12 *570:60 0.00024808
13 *570:56 0.000195003
14 *570:52 0.000138233
15 *570:50 6.77097e-05
16 *570:32 0.000156053
17 *570:28 0.000198004
18 *570:22 0.000274944
19 *570:20 0.00057241
20 *1160:B *1160:C_N 0
21 *1161:B *1717:A 4.66108e-05
22 *1163:B *1578:A 0.000118081
23 *1166:B *1166:A 8.12903e-05
24 *1166:B *627:61 2.15738e-05
25 *1170:C *1717:A 2.16917e-05
26 *570:20 *1578:A 8.49205e-05
27 *570:56 *1165:A 0
28 *570:56 *627:48 6.27029e-05
29 *570:60 *627:61 2.25075e-05
30 *1166:C_N *1166:B 0.00020044
31 *1170:A_N *1169:C 0.000136339
32 *1170:A_N *1170:C 4.66108e-05
33 *1561:S *1162:B 0.000111909
34 *1575:A1 *1162:B 0.000279129
35 *1588:A2 *1162:B 9.17274e-05
36 *1588:B1 *1162:B 4.66108e-05
37 *1591:A2 *1162:B 7.2787e-05
38 *1609:A2 *1160:B 0.000107205
39 *1609:A2 *570:52 7.49327e-05
40 *1609:A2 *570:56 0.00030358
41 *1610:A *570:32 9.37731e-05
42 *1612:A *570:56 1.4174e-05
43 *1615:A *570:28 4.76263e-05
44 *1615:A *570:32 0.000197365
45 *1619:A *570:20 0.000161529
46 *118:12 *570:22 1.42087e-05
47 *118:12 *570:28 6.53268e-05
48 *119:51 *1169:C 0.00013802
49 *119:51 *1170:C 7.40446e-05
50 *124:10 *570:22 0
51 *124:10 *570:28 1.43823e-05
52 *124:10 *570:32 3.69334e-05
53 *128:21 *1162:B 1.88904e-05
54 *128:21 *570:22 0.000242804
55 *128:21 *570:28 0.00011118
56 *506:12 *1163:B 0.000118081
57 *506:12 *570:20 9.80032e-06
58 *545:8 *1166:B 0
59 *560:130 *1166:B 1.02348e-05
60 *560:151 *570:60 0
61 *568:16 *1160:B 0.00011228
62 *568:16 *570:52 3.66286e-05
63 *568:18 *570:52 4.99619e-05
64 *568:18 *570:56 0.000145515
65 *568:20 *570:56 0.000111455
66 *568:24 *570:56 0.000120655
67 *568:26 *1166:B 4.21314e-05
68 *568:26 *570:60 0.000135533
*RES
1 *1630:X *1163:B 4.34 
2 *1630:X *570:20 6.12 
3 *570:20 *570:22 2.91 
4 *570:22 *570:28 2.7 
5 *570:28 *570:32 4.4 
6 *570:32 *1169:C 2.9125 
7 *570:32 *1170:C 2.755 
8 *570:28 *570:50 2 
9 *570:50 *570:52 0.795 
10 *570:52 *570:56 4.26 
11 *570:56 *570:60 3.635 
12 *570:60 *1166:B 7.02 
13 *570:60 *1161:B 4.05 
14 *570:56 *1165:B 1.6 
15 *570:52 *1168:C_N 1.6 
16 *570:50 *1160:B 3.1 
17 *570:22 *1167:C_N 3.6 
18 *570:20 *1162:B 9.105 
*END

*D_NET *571 0.00421892
*CONN
*I *1447:B I *D sky130_fd_sc_hd__or2_2
*I *1446:B I *D sky130_fd_sc_hd__nand2_2
*I *1448:B I *D sky130_fd_sc_hd__xnor2_2
*I *1464:B2 I *D sky130_fd_sc_hd__a22o_2
*I *1461:A_N I *D sky130_fd_sc_hd__and2b_2
*I *1636:X O *D sky130_fd_sc_hd__clkdlybuf4s25_1
*CAP
1 *1447:B 0.000120819
2 *1446:B 0.000275384
3 *1448:B 0
4 *1464:B2 7.16588e-05
5 *1461:A_N 0.000260377
6 *1636:X 4.43494e-05
7 *571:12 0.000427261
8 *571:10 0.000378494
9 *571:8 0.000558653
10 *571:6 0.000165168
11 *1446:B *1446:A 0
12 *1446:B *606:50 0
13 *1461:A_N *1432:A 0
14 *1461:A_N *1461:B 0.00052577
15 *1461:A_N *605:6 4.67325e-05
16 *1461:A_N *605:10 0.000237243
17 *1464:B2 *1461:B 0.000110668
18 *1464:B2 *1464:B1 0.000249775
19 *1464:B2 *605:10 3.24158e-05
20 *571:10 *606:10 7.33378e-05
21 *571:12 *1432:A 0
22 *1433:B *1461:A_N 3.09164e-05
23 *1453:A *571:10 0
24 *1453:B *571:10 0
25 *1455:A2 *571:10 0
26 *1462:B1 *1461:A_N 0.0001947
27 *1464:A2 *1464:B2 6.49403e-05
28 *1636:A *1446:B 0
29 *1636:A *571:10 0
30 *1670:A *1461:A_N 3.09233e-05
31 *569:8 *571:10 0.000106344
32 *569:10 *1461:A_N 2.92496e-05
33 *569:10 *571:10 1.05827e-05
34 *569:10 *571:12 0.000173154
*RES
1 *1636:X *571:6 2.05 
2 *571:6 *571:8 2 
3 *571:8 *571:10 5.46 
4 *571:10 *571:12 2.145 
5 *571:12 *1461:A_N 11.25 
6 *571:12 *1464:B2 6.48 
7 *571:10 *1448:B 3.6 
8 *571:8 *1446:B 7.995 
9 *571:6 *1447:B 3.1 
*END

*D_NET *572 0.00241593
*CONN
*I *1459:B I *D sky130_fd_sc_hd__xnor2_2
*I *1458:B I *D sky130_fd_sc_hd__or2_2
*I *1475:A_N I *D sky130_fd_sc_hd__and2b_2
*I *1457:B I *D sky130_fd_sc_hd__and2_2
*I *1637:X O *D sky130_fd_sc_hd__clkdlybuf4s25_1
*CAP
1 *1459:B 0
2 *1458:B 0.000340396
3 *1475:A_N 0
4 *1457:B 8.34899e-05
5 *1637:X 0.00033019
6 *572:18 0.00018415
7 *572:12 0.000464236
8 *572:10 0.000353369
9 *1457:B *1475:B 4.40028e-05
10 *1458:B *1458:A 9.07709e-05
11 *1458:B *1459:A 0.000121023
12 *572:10 *1724:A 0
13 *572:10 *607:8 0
14 y[22] *572:10 1.54061e-06
15 *1470:C1 *572:18 4.82919e-05
16 *393:6 *1457:B 8.64421e-05
17 *393:6 *572:18 1.43191e-05
18 *394:14 *1458:B 7.50114e-05
19 *394:14 *572:10 3.09164e-05
20 *394:14 *572:12 5.4003e-05
21 *394:14 *572:18 9.37731e-05
*RES
1 *1637:X *572:10 7.755 
2 *572:10 *572:12 0.615 
3 *572:12 *572:18 3.92 
4 *572:18 *1457:B 3.445 
5 *572:18 *1475:A_N 1.6 
6 *572:12 *1458:B 8.205 
7 *572:10 *1459:B 3.6 
*END

*D_NET *573 0.00174129
*CONN
*I *1490:A_N I *D sky130_fd_sc_hd__and2b_2
*I *1472:B I *D sky130_fd_sc_hd__nand2_2
*I *1473:B I *D sky130_fd_sc_hd__or2_2
*I *1638:X O *D sky130_fd_sc_hd__clkdlybuf4s25_1
*CAP
1 *1490:A_N 0
2 *1472:B 7.6908e-05
3 *1473:B 0.000101084
4 *1638:X 8.51447e-05
5 *573:10 0.000365006
6 *573:8 0.000272159
7 *1473:B *1473:A 0.000124604
8 *1473:B *608:14 1.56477e-05
9 *573:10 *1725:A 0
10 *573:10 *608:14 0.000177669
11 *1481:A3 *1473:B 2.92496e-05
12 *1482:B *1473:B 0
13 *1485:A2 *1473:B 3.59531e-06
14 *1485:A2 *573:10 9.43917e-05
15 *1673:A *573:8 0
16 *1673:A *573:10 0
17 *407:14 *1472:B 4.82863e-05
18 *407:14 *1473:B 6.58955e-06
19 *408:16 *1473:B 2.37321e-05
20 *415:16 *1473:B 0.000122331
21 *548:67 *1472:B 0.000160635
22 *554:16 *573:10 0
23 *567:84 *1473:B 3.42596e-05
*RES
1 *1638:X *573:8 4.98 
2 *573:8 *573:10 4.185 
3 *573:10 *1473:B 6.63 
4 *573:10 *1472:B 5.445 
5 *573:8 *1490:A_N 3.6 
*END

*D_NET *574 0.00470972
*CONN
*I *1486:B I *D sky130_fd_sc_hd__or2_2
*I *1510:A_N I *D sky130_fd_sc_hd__and2b_2
*I *1487:B I *D sky130_fd_sc_hd__nand2_2
*I *1639:X O *D sky130_fd_sc_hd__clkdlybuf4s25_1
*CAP
1 *1486:B 0.000199156
2 *1510:A_N 0
3 *1487:B 0.000961796
4 *1639:X 3.58834e-05
5 *574:12 0.0010113
6 *574:8 0.000284542
7 *1486:B *1486:A 0.000123225
8 *1486:B *1548:A 0.000198613
9 *1487:B *1487:A 0.000190813
10 *1487:B *1504:A 1.91597e-05
11 *1487:B *1506:A 0.000119762
12 *1487:B *1546:A 0.00023468
13 *1487:B *1548:B 5.46798e-05
14 *1487:B *614:36 1.71013e-05
15 *574:12 *1548:A 0.000116165
16 *574:12 *1730:A 3.09233e-05
17 *574:12 *579:53 2.92496e-05
18 *1511:A1 *1487:B 8.65905e-05
19 *1511:C1 *1487:B 9.56742e-05
20 *1512:A *1487:B 5.83121e-06
21 *1516:B1 *1486:B 0.000159262
22 *1516:C1 *1486:B 5.05521e-05
23 *1521:A2 *1487:B 3.38425e-05
24 *1674:A *574:8 2.75229e-05
25 *420:16 *1486:B 6.01436e-05
26 *420:16 *1487:B 0.0001049
27 *443:16 *1487:B 0.000122325
28 *476:12 *1487:B 4.99619e-05
29 *478:16 *1486:B 0.000150976
30 *478:16 *574:12 5.7344e-05
31 *564:66 *1487:B 7.77408e-05
*RES
1 *1639:X *574:8 4.05 
2 *574:8 *574:12 3.635 
3 *574:12 *1487:B 20.48 
4 *574:12 *1510:A_N 1.6 
5 *574:8 *1486:B 9.735 
*END

*D_NET *575 0.00356224
*CONN
*I *1504:B I *D sky130_fd_sc_hd__nand2_2
*I *1520:A_N I *D sky130_fd_sc_hd__and2b_2
*I *1506:B I *D sky130_fd_sc_hd__or2_2
*I *1505:B I *D sky130_fd_sc_hd__nor2_2
*I *1640:X O *D sky130_fd_sc_hd__clkdlybuf4s25_1
*CAP
1 *1504:B 9.16864e-05
2 *1520:A_N 3.18487e-05
3 *1506:B 0
4 *1505:B 5.59718e-05
5 *1640:X 0.000513828
6 *575:36 0.000201961
7 *575:16 0.000206629
8 *575:10 0.000742911
9 *1504:B *611:10 7.01063e-05
10 *1504:B *611:20 3.94692e-05
11 *1505:B *1505:A 0.000145583
12 *1505:B *611:33 1.7635e-05
13 *575:10 *1726:A 0.000125167
14 *575:10 *611:10 3.27443e-05
15 *575:16 *1726:A 0.000171226
16 *1507:A *575:10 0.0001249
17 *1507:B *575:10 0.000134314
18 *1527:A *1504:B 0.000212646
19 *421:14 *1504:B 6.81971e-05
20 *455:6 *1520:A_N 2.49909e-05
21 *455:6 *575:36 5.74791e-05
22 *545:149 *1505:B 0.000159269
23 *545:149 *575:10 0.000101005
24 *545:149 *575:16 0.000151523
25 *545:180 *575:10 8.1149e-05
*RES
1 *1640:X *575:10 11.7 
2 *575:10 *575:16 3.21 
3 *575:16 *1505:B 5.49 
4 *575:16 *1506:B 3.6 
5 *575:10 *575:36 3.14 
6 *575:36 *1520:A_N 2.05 
7 *575:36 *1504:B 8.255 
*END

*D_NET *576 0.00220832
*CONN
*I *1535:A_N I *D sky130_fd_sc_hd__and2b_2
*I *1517:B I *D sky130_fd_sc_hd__nor2_2
*I *1518:B I *D sky130_fd_sc_hd__nand2_2
*I *1641:X O *D sky130_fd_sc_hd__clkdlybuf4s25_1
*CAP
1 *1535:A_N 0
2 *1517:B 8.12866e-05
3 *1518:B 0
4 *1641:X 0.0002668
5 *576:19 0.000198725
6 *576:10 0.000384238
7 *1517:B *1517:A 4.82863e-05
8 *576:10 *602:10 7.17811e-05
9 *576:10 *612:14 0.000191845
10 *576:19 *1517:A 0.000296162
11 *576:19 *1535:B 0.000232105
12 *576:19 *612:27 8.28254e-05
13 *1522:B1 *576:10 0
14 *1526:B1 *576:10 5.03916e-05
15 *1527:B *576:10 7.23602e-05
16 *1529:A2 *576:10 6.26955e-05
17 *1536:B1 *576:19 2.30292e-05
18 *449:12 *1517:B 4.82919e-05
19 *451:35 *576:10 4.1583e-05
20 *451:51 *576:10 5.5912e-05
*RES
1 *1641:X *576:10 11.315 
2 *576:10 *1518:B 1.6 
3 *576:10 *576:19 3.915 
4 *576:19 *1517:B 3.1 
5 *576:19 *1535:A_N 1.6 
*END

*D_NET *577 0.00286127
*CONN
*I *1307:A_N I *D sky130_fd_sc_hd__and2b_2
*I *1290:A I *D sky130_fd_sc_hd__xnor2_2
*I *1289:A I *D sky130_fd_sc_hd__nand2_2
*I *1305:A1 I *D sky130_fd_sc_hd__o211ai_2
*I *1299:A1 I *D sky130_fd_sc_hd__o21ai_2
*I *1642:X O *D sky130_fd_sc_hd__clkdlybuf4s25_1
*CAP
1 *1307:A_N 2.04702e-05
2 *1290:A 0.000119887
3 *1289:A 0
4 *1305:A1 4.40828e-05
5 *1299:A1 0.000205874
6 *1642:X 0.000242355
7 *577:23 4.40828e-05
8 *577:10 0.000407958
9 *577:6 0.000584796
10 *1299:A1 *1286:A2 3.67394e-05
11 *1299:A1 *591:8 2.93678e-05
12 *1305:A1 *593:22 0.000121039
13 *1307:A_N *1307:B 0.000124895
14 *577:10 *1286:A2 4.36573e-06
15 *1287:A2 *1299:A1 7.81221e-05
16 *1299:B1 *1307:A_N 4.82863e-05
17 *1301:B1 *1299:A1 1.27868e-05
18 *1301:B1 *577:10 9.51228e-05
19 *1306:A1 *1299:A1 0.000156875
20 *1306:A2 *1299:A1 0.000155928
21 *1642:A *1290:A 9.32439e-05
22 *237:8 *1305:A1 4.77769e-05
23 *238:14 *1299:A1 0
24 *253:16 *577:6 2.65814e-06
25 *542:10 *1299:A1 3.09164e-05
26 *542:20 *1299:A1 8.41307e-05
27 *542:20 *1307:A_N 4.60584e-05
28 *549:28 *577:6 5.35181e-06
29 *549:34 *577:6 1.80988e-05
*RES
1 *1642:X *577:6 4.12 
2 *577:6 *577:10 5.42 
3 *577:10 *1299:A1 8.58 
4 *577:10 *577:23 2 
5 *577:23 *1305:A1 2.74 
6 *577:23 *1289:A 1.6 
7 *577:6 *1290:A 4.06 
8 *1299:A1 *1307:A_N 4.34 
*END

*D_NET *578 0.00189165
*CONN
*I *1556:A_N I *D sky130_fd_sc_hd__and2b_2
*I *1532:B I *D sky130_fd_sc_hd__or2_2
*I *1530:B I *D sky130_fd_sc_hd__nand2_2
*I *1531:B I *D sky130_fd_sc_hd__nor2_2
*I *1643:X O *D sky130_fd_sc_hd__clkdlybuf4s25_1
*CAP
1 *1556:A_N 3.37454e-05
2 *1532:B 1.41735e-05
3 *1530:B 0
4 *1531:B 0.000201971
5 *1643:X 8.614e-05
6 *578:16 0.000405631
7 *578:10 0.000338938
8 *578:8 0.00024099
9 *1531:B *1531:A 0.000153217
10 *1531:B *1729:A 1.08758e-05
11 *1531:B *613:14 4.99619e-05
12 *578:8 *1556:B 0
13 *578:8 *1725:A 0
14 *578:10 *1556:B 0
15 *578:10 *1725:A 0
16 *578:16 *613:14 0
17 *1484:A1 *1532:B 8.65961e-05
18 *1491:C1 *578:16 0
19 *407:27 *578:16 0.000162311
20 *461:8 *1531:B 2.05056e-05
21 *554:16 *1532:B 8.65961e-05
*RES
1 *1643:X *578:8 4.98 
2 *578:8 *578:10 1.89 
3 *578:10 *578:16 5.795 
4 *578:16 *1531:B 5.185 
5 *578:16 *1530:B 1.6 
6 *578:10 *1532:B 4.395 
7 *578:8 *1556:A_N 4.05 
*END

*D_NET *579 0.0058145
*CONN
*I *1548:A I *D sky130_fd_sc_hd__nand2_2
*I *1546:A I *D sky130_fd_sc_hd__nor2_2
*I *1547:A I *D sky130_fd_sc_hd__and2_2
*I *1584:A1 I *D sky130_fd_sc_hd__o31a_2
*I *1571:A1 I *D sky130_fd_sc_hd__o221a_2
*I *1644:X O *D sky130_fd_sc_hd__clkdlybuf4s25_1
*CAP
1 *1548:A 0.000339205
2 *1546:A 4.4005e-05
3 *1547:A 1.90984e-05
4 *1584:A1 0.000418213
5 *1571:A1 2.71009e-05
6 *1644:X 2.58827e-05
7 *579:53 0.000500323
8 *579:16 0.000681388
9 *579:10 0.000338122
10 *579:6 0.000225946
11 *1548:A *1486:A 2.86661e-05
12 *1548:A *1510:B 6.95335e-05
13 *1548:A *1548:B 2.32321e-05
14 *1571:A1 *1566:A 2.41368e-05
15 *1571:A1 *1566:B 4.92971e-05
16 *1571:A1 *615:27 7.9642e-06
17 *1584:A1 *1154:A 5.08304e-06
18 *1584:A1 *582:61 0
19 *1584:A1 *615:6 0.000122337
20 *1584:A1 *617:85 0.000246793
21 *579:6 *1730:A 5.05521e-05
22 *579:6 *614:27 2.54431e-05
23 *579:10 *614:27 0.000224692
24 *579:16 *1566:A 8.10698e-05
25 *579:16 *1566:B 0.000301428
26 *579:16 *1596:A_N 0.000135533
27 *579:16 *614:27 0.000117512
28 *579:53 *1510:B 1.94805e-05
29 *579:53 *1730:A 5.92191e-05
30 y[29] *1584:A1 2.38115e-05
31 *1486:B *1548:A 0.000198613
32 *1487:B *1546:A 0.00023468
33 *1514:B *1548:A 0.000162332
34 *1514:C *1548:A 8.23457e-05
35 *1516:B1 *1548:A 7.47145e-05
36 *1564:C1 *579:16 4.94326e-05
37 *1565:A1 *579:10 1.87448e-05
38 *1565:A2 *1547:A 4.00541e-06
39 *1565:A2 *579:10 7.80933e-05
40 *1565:A2 *579:16 6.97118e-05
41 *1571:B1 *1584:A1 0.000142597
42 *112:6 *1584:A1 3.48406e-05
43 *420:16 *1546:A 0.00023468
44 *476:12 *579:16 0
45 *478:16 *1548:A 3.1835e-05
46 *478:16 *579:53 1.73877e-05
47 *556:60 *579:16 0
48 *556:60 *579:53 0
49 *574:12 *1548:A 0.000116165
50 *574:12 *579:53 2.92496e-05
*RES
1 *1644:X *579:6 2.395 
2 *579:6 *579:10 2.79 
3 *579:10 *579:16 8.345 
4 *579:16 *1571:A1 4.215 
5 *579:16 *1584:A1 14.515 
6 *579:10 *1547:A 1.96 
7 *579:6 *579:53 4.145 
8 *579:53 *1546:A 5.775 
9 *579:53 *1548:A 11.085 
*END

*D_NET *580 0.0030795
*CONN
*I *1566:A I *D sky130_fd_sc_hd__nor2_2
*I *1567:A I *D sky130_fd_sc_hd__and2_2
*I *1583:A_N I *D sky130_fd_sc_hd__nand2b_2
*I *1645:X O *D sky130_fd_sc_hd__clkdlybuf4s25_1
*CAP
1 *1566:A 0.000215041
2 *1567:A 0
3 *1583:A_N 6.77237e-05
4 *1645:X 0.000252699
5 *580:12 0.000202203
6 *580:6 0.000602219
7 *1566:A *1596:A_N 0.000180856
8 *1566:A *615:27 3.23657e-05
9 *1583:A_N *1567:B 4.66108e-05
10 *580:6 *1154:A 3.72916e-05
11 *580:12 *1567:B 0.000118081
12 *1502:A1 *1583:A_N 0.000181368
13 *1564:C1 *1566:A 4.08933e-05
14 *1568:A *580:12 1.91597e-05
15 *1571:A1 *1566:A 2.41368e-05
16 *1571:A2 *580:6 8.23457e-05
17 *1571:A2 *580:12 4.35648e-05
18 *1571:B1 *580:12 4.85255e-05
19 *112:6 *580:6 0.00014294
20 *490:28 *1566:A 0.000296876
21 *490:30 *1566:A 5.16418e-05
22 *500:8 *1583:A_N 4.66108e-05
23 *500:8 *580:12 7.14699e-05
24 *556:49 *1566:A 1.41125e-05
25 *564:22 *1583:A_N 0.000179694
26 *579:16 *1566:A 8.10698e-05
*RES
1 *1645:X *580:6 4.81 
2 *580:6 *580:12 2.895 
3 *580:12 *1583:A_N 8.195 
4 *580:12 *1567:A 1.6 
5 *580:6 *1566:A 11.105 
*END

*D_NET *581 0.0090266
*CONN
*I *1184:A I *D sky130_fd_sc_hd__nor2_2
*I *1185:A I *D sky130_fd_sc_hd__xnor2_2
*I *1183:A I *D sky130_fd_sc_hd__nand2_2
*I *1200:A_N I *D sky130_fd_sc_hd__and2b_2
*I *1646:X O *D sky130_fd_sc_hd__clkdlybuf4s25_1
*CAP
1 *1184:A 0.000639474
2 *1185:A 0.000415592
3 *1183:A 0.000217132
4 *1200:A_N 0
5 *1646:X 0
6 *581:38 0.00126044
7 *581:16 0.000501941
8 *581:6 0.000490186
9 *1183:A *1183:B 0
10 *1183:A *1200:B 8.65905e-05
11 *1183:A *592:14 0.000162773
12 *1184:A *1159:A 0.000138406
13 *1184:A *1184:B 0.00148058
14 *1184:A *1196:B 0.000136739
15 *1184:A *1735:A 0.000162669
16 *1185:A *1184:B 4.41506e-05
17 *1185:A *1185:B 2.49909e-05
18 *1185:A *1593:A 3.93531e-05
19 *1185:A *1593:B 6.82416e-05
20 *1185:A *583:17 0.00019637
21 *581:16 *1200:B 0.000119762
22 *581:16 *1710:A 1.88656e-05
23 *1173:A2 *1183:A 3.18147e-05
24 *1173:A2 *581:16 4.51031e-05
25 *1191:A2 *581:16 8.07785e-05
26 *1191:B1 *581:16 0.000323137
27 *1193:B *581:38 5.92482e-05
28 *1202:D *581:16 0.000222173
29 *1607:D_N *1184:A 0
30 *1625:A *1184:A 8.249e-05
31 *1625:A *581:38 2.62338e-05
32 *106:14 *1183:A 8.53113e-06
33 *114:22 *1184:A 0.00109124
34 *157:12 *581:38 0
35 *535:66 *1183:A 0.000162467
36 *563:128 *1184:A 2.73058e-05
37 *563:128 *1185:A 4.66108e-05
38 *563:128 *581:16 0.000143529
39 *563:128 *581:38 0.000378814
40 *563:136 *1183:A 8.19737e-05
41 *563:136 *581:16 1.08817e-05
*RES
1 *1646:X *581:6 3.6 
2 *581:6 *581:16 9.665 
3 *581:16 *1200:A_N 1.6 
4 *581:16 *1183:A 11.03 
5 *581:6 *581:38 4.695 
6 *581:38 *1185:A 10.29 
7 *581:38 *1184:A 10.6321 
*END

*D_NET *582 0.0112827
*CONN
*I *1597:A_N I *D sky130_fd_sc_hd__nand2b_2
*I *1596:B I *D sky130_fd_sc_hd__and2b_2
*I *1579:A I *D sky130_fd_sc_hd__or2_2
*I *1578:A I *D sky130_fd_sc_hd__nor2_2
*I *1577:A I *D sky130_fd_sc_hd__nand2_2
*I *1647:X O *D sky130_fd_sc_hd__clkdlybuf4s25_1
*CAP
1 *1597:A_N 7.45065e-05
2 *1596:B 0.000347058
3 *1579:A 0
4 *1578:A 0.00028005
5 *1577:A 0.000710734
6 *1647:X 0.000183788
7 *582:61 0.000653767
8 *582:39 0.0012539
9 *582:31 0.00159506
10 *582:6 0.00128353
11 *1577:A *1155:A 0.000339465
12 *1577:A *1577:B 1.88658e-05
13 *1577:A *1733:A 1.31646e-05
14 *1577:A *1734:A 4.82863e-05
15 *1577:A *643:26 0.000150314
16 *1578:A *1578:B 0.000159002
17 *1578:A *1579:B 3.82728e-05
18 *1596:B *1596:A_N 4.66108e-05
19 *1596:B *1731:A 3.96653e-05
20 *1597:A_N *1154:A 1.26626e-05
21 *1597:A_N *614:27 7.81954e-05
22 *582:31 *1733:A 3.67779e-05
23 *582:31 *617:85 0
24 *582:39 *617:43 0.0011455
25 *582:61 *1154:A 0.000113572
26 *582:61 *617:85 0
27 y[29] *582:39 0
28 *1163:B *1578:A 0.000118081
29 *1571:C1 *582:39 0.000155356
30 *1584:A1 *582:61 0
31 *1587:B *1578:A 7.23533e-05
32 *1588:A1 *1578:A 4.02505e-05
33 *1598:C1 *1597:A_N 9.54469e-05
34 *1598:C1 *582:61 0.000541153
35 *1604:C1 *1577:A 0.000185405
36 *1606:A2 *1577:A 7.4839e-05
37 *1606:B1 *1577:A 0
38 *1626:A *1577:A 4.09173e-05
39 *1644:A *1597:A_N 0
40 *1647:A *1577:A 1.22505e-05
41 *1647:A *582:39 0
42 *1693:A *1577:A 0
43 *1693:A *582:31 3.47837e-05
44 *1698:A *582:31 0
45 *124:10 *1578:A 8.53113e-06
46 *124:33 *1578:A 0.000317141
47 *124:33 *582:39 1.88602e-05
48 *125:25 *582:39 3.60648e-06
49 *505:10 *1577:A 3.00381e-05
50 *506:12 *1578:A 0.000129107
51 *508:22 *1578:A 5.83373e-05
52 *521:10 *1577:A 0.000183738
53 *521:23 *1577:A 0.000130428
54 *523:14 *1577:A 0.000135052
55 *523:14 *1596:B 1.74678e-05
56 *523:14 *582:31 0
57 *556:49 *582:39 0
58 *560:18 *1577:A 0.000171912
59 *570:20 *1578:A 8.49205e-05
*RES
1 *1647:X *582:6 3.43 
2 *582:6 *1577:A 22.49 
3 *582:6 *582:31 7.6325 
4 *582:31 *582:39 3.5429 
5 *582:39 *1578:A 11.1 
6 *582:39 *1579:A 3.6 
7 *582:31 *582:61 6.3525 
8 *582:61 *1596:B 8.19 
9 *582:61 *1597:A_N 5.49 
*END

*D_NET *583 0.00404545
*CONN
*I *1606:B2 I *D sky130_fd_sc_hd__o32ai_2
*I *1592:A I *D sky130_fd_sc_hd__nand2_2
*I *1593:A I *D sky130_fd_sc_hd__or2_2
*I *1648:X O *D sky130_fd_sc_hd__clkdlybuf4s25_1
*CAP
1 *1606:B2 0.000337648
2 *1592:A 0.000272323
3 *1593:A 5.77029e-05
4 *1648:X 0
5 *583:17 0.000657565
6 *583:4 0.000105296
7 *1593:A *1593:B 4.77807e-05
8 *1606:B2 *1577:B 1.20478e-05
9 *1606:B2 *1734:A 0.000320239
10 *583:17 *1593:B 0.000102732
11 *1185:A *1593:A 3.93531e-05
12 *1185:A *583:17 0.00019637
13 *1194:A1 *1592:A 7.93619e-05
14 *1194:A1 *1606:B2 4.36573e-06
15 *1194:C1 *1592:A 1.88602e-05
16 *1595:A *1606:B2 0.000343855
17 *1607:D_N *1606:B2 6.33921e-05
18 *1646:A *1592:A 0.000240424
19 *1646:A *1606:B2 1.88904e-05
20 *1648:A *1606:B2 7.80945e-05
21 *106:14 *1592:A 0.000278473
22 *505:10 *1606:B2 0.00032488
23 *505:19 *1606:B2 0.000343855
24 *519:21 *1592:A 0
25 *520:10 *1593:A 4.02438e-05
26 *520:12 *1592:A 4.74386e-05
27 *563:128 *1593:A 1.42598e-05
*RES
1 *1648:X *583:4 1.6 
2 *583:4 *1593:A 3.1 
3 *583:4 *583:17 3.83 
4 *583:17 *1592:A 10.38 
5 *583:17 *1606:B2 13.905 
*END

*D_NET *584 0.00474843
*CONN
*I *1197:A I *D sky130_fd_sc_hd__nand2_2
*I *1211:A_N I *D sky130_fd_sc_hd__and2b_2
*I *1196:A I *D sky130_fd_sc_hd__nor2_2
*I *1649:X O *D sky130_fd_sc_hd__clkdlybuf4s25_1
*CAP
1 *1197:A 9.11642e-05
2 *1211:A_N 0
3 *1196:A 0.000294198
4 *1649:X 0.000708174
5 *584:29 0.00011656
6 *584:10 0.00102777
7 *1196:A *1174:B 0.000125345
8 *1196:A *1196:B 3.65496e-05
9 *1197:A *619:30 8.35118e-05
10 *584:10 *1174:B 4.98305e-05
11 *584:10 *1240:A_N 0.000335557
12 *584:10 *586:12 0.000202086
13 *584:10 *619:24 3.51036e-05
14 *584:10 *622:49 1.885e-05
15 *584:29 *619:30 4.77807e-05
16 y[5] *584:10 2.9031e-05
17 *1159:B *1196:A 1.1071e-05
18 *1173:A2 *1196:A 2.75746e-05
19 *1173:A2 *584:10 6.33448e-05
20 *1177:A1 *584:10 6.83304e-05
21 *1177:B1 *584:10 0.000133804
22 *1178:B1 *584:10 0.000240436
23 *1182:A1 *584:10 0
24 *1182:B1 *584:10 0.0001249
25 *1187:B *1196:A 8.5726e-05
26 *1189:A1 *584:10 0.000140522
27 *1206:B *1196:A 1.7635e-05
28 *1208:A2 *1196:A 1.56383e-05
29 *1233:A2 *584:10 0.000132488
30 *1234:A1 *584:10 1.75055e-05
31 *1235:B1 *584:10 1.88602e-05
32 *1246:B1 *584:10 0
33 *1651:A *584:10 5.51158e-05
34 *115:24 *1196:A 2.06578e-05
35 *140:20 *1196:A 2.39856e-05
36 *151:6 *1196:A 4.66108e-05
37 *157:25 *1197:A 1.19928e-05
38 *180:20 *584:10 0
39 *181:10 *584:10 7.6323e-05
40 *181:25 *584:10 6.93439e-05
41 *557:21 *1196:A 0.00014506
*RES
1 *1649:X *584:10 20.145 
2 *584:10 *1196:A 9.735 
3 *584:10 *584:29 2.45 
4 *584:29 *1211:A_N 1.6 
5 *584:29 *1197:A 3.1 
*END

*D_NET *585 0.00457881
*CONN
*I *1149:A I *D sky130_fd_sc_hd__inv_2
*I *1210:A I *D sky130_fd_sc_hd__xnor2_2
*I *1209:A I *D sky130_fd_sc_hd__nand2_2
*I *1223:A1 I *D sky130_fd_sc_hd__o21ai_2
*I *1650:X O *D sky130_fd_sc_hd__clkdlybuf4s25_1
*CAP
1 *1149:A 0.000263112
2 *1210:A 0
3 *1209:A 2.21004e-05
4 *1223:A1 0.000438019
5 *1650:X 0.000396308
6 *585:35 0.000415104
7 *585:24 0.000215803
8 *1149:A *1171:A2 0.00010796
9 *1149:A *1176:A1 8.14586e-05
10 *1149:A *592:72 6.9719e-05
11 *1149:A *630:62 0.000119835
12 *1223:A1 *1721:A 4.50351e-05
13 *585:35 *1176:A1 0.000194906
14 *585:35 *1209:B 4.66108e-05
15 *585:35 *1210:B 0.00011255
16 *585:35 *1223:A2 3.83194e-05
17 *585:35 *620:49 7.26398e-05
18 *1182:A1 *1223:A1 0.000101188
19 *1212:A1 *1149:A 1.40867e-05
20 *1241:A1 *1149:A 0.000147874
21 *1254:A2 *1223:A1 0
22 *1254:A3 *1223:A1 0.000491118
23 *1254:B1 *1223:A1 1.03833e-05
24 *1262:A1 *1223:A1 6.81919e-05
25 *1263:A *1223:A1 0.000217227
26 *1323:A1 *1149:A 4.66108e-05
27 *1650:A *1223:A1 3.64998e-06
28 *1685:A *1223:A1 7.63204e-05
29 *107:10 *1149:A 0.000165756
30 *131:20 *1149:A 1.28715e-05
31 *163:8 *585:24 0.000119873
32 *163:8 *585:35 3.57349e-05
33 *163:29 *1223:A1 6.60907e-06
34 *184:16 *1149:A 0.000155608
35 *184:16 *585:24 4.6075e-05
36 *184:16 *585:35 9.3916e-05
37 *189:25 *1223:A1 8.09021e-06
38 *191:75 *1223:A1 6.73424e-05
39 *193:22 *1223:A1 3.9922e-05
40 *563:26 *1149:A 1.08758e-05
*RES
1 *1650:X *1223:A1 17.19 
2 *1223:A1 *585:24 2.74 
3 *585:24 *1209:A 1.96 
4 *585:24 *585:35 4.26 
5 *585:35 *1210:A 1.6 
6 *585:35 *1149:A 12.515 
*END

*D_NET *586 0.00615195
*CONN
*I *1226:A I *D sky130_fd_sc_hd__nand2_2
*I *1227:A I *D sky130_fd_sc_hd__nor2_2
*I *1228:A I *D sky130_fd_sc_hd__xnor2_2
*I *1240:A_N I *D sky130_fd_sc_hd__and2b_2
*I *1651:X O *D sky130_fd_sc_hd__clkdlybuf4s25_1
*CAP
1 *1226:A 0.000309181
2 *1227:A 0.000528132
3 *1228:A 0
4 *1240:A_N 0.000541453
5 *1651:X 0
6 *586:12 0.000423999
7 *586:4 0.000719859
8 *1226:A *1226:B 0.000612754
9 *1226:A *620:25 0.000109389
10 *1226:A *620:40 5.97296e-05
11 *1226:A *622:49 3.57349e-05
12 *1240:A_N *622:49 0.000157122
13 y[5] *586:12 8.34493e-05
14 *1156:A *1226:A 1.21329e-05
15 *1176:B1 *1226:A 4.66108e-05
16 *1177:B1 *1226:A 6.10079e-05
17 *1178:A3 *1227:A 5.30673e-05
18 *1189:A3 *1227:A 4.16445e-05
19 *1189:A3 *586:12 6.00201e-05
20 *1704:A *1226:A 0.000115945
21 *179:14 *1226:A 0.000296457
22 *180:20 *1227:A 0.000130903
23 *180:20 *586:12 1.65192e-05
24 *181:10 *1240:A_N 4.41506e-05
25 *181:33 *1226:A 0.000492116
26 *181:47 *1226:A 0.000146267
27 *555:98 *1240:A_N 9.30411e-05
28 *558:14 *1227:A 7.14699e-05
29 *558:20 *1227:A 0.00035215
30 *584:10 *1240:A_N 0.000335557
31 *584:10 *586:12 0.000202086
*RES
1 *1651:X *586:4 1.6 
2 *586:4 *586:12 7.885 
3 *586:12 *1240:A_N 10.94 
4 *586:12 *1228:A 1.6 
5 *586:4 *1227:A 10.945 
6 *1240:A_N *1226:A 18.48 
*END

*D_NET *587 0.00425521
*CONN
*I *1238:A I *D sky130_fd_sc_hd__nor2_2
*I *1237:A I *D sky130_fd_sc_hd__nand2_2
*I *1150:A I *D sky130_fd_sc_hd__inv_2
*I *1254:A1 I *D sky130_fd_sc_hd__o311a_2
*I *1239:A I *D sky130_fd_sc_hd__xnor2_2
*I *1652:X O *D sky130_fd_sc_hd__clkdlybuf4s25_1
*CAP
1 *1238:A 0.000150766
2 *1237:A 0
3 *1150:A 5.9876e-05
4 *1254:A1 7.93047e-05
5 *1239:A 0
6 *1652:X 0.000138379
7 *587:53 0.000243708
8 *587:36 0.000171994
9 *587:25 0.00023768
10 *587:12 0.000277579
11 *1150:A *1739:A 2.97561e-05
12 *1238:A *1238:B 6.98388e-05
13 *1254:A1 *1269:A2 1.08758e-05
14 *587:12 *623:21 0.000174464
15 *587:25 *623:27 0.000144234
16 *587:25 *623:40 1.71013e-05
17 *587:36 *623:40 2.23407e-05
18 *587:53 *623:40 3.94692e-05
19 *1254:A2 *587:12 0.000160635
20 *1255:B *1150:A 0.0001947
21 *1255:B *1254:A1 0.000270415
22 *1263:C *1254:A1 0.000154828
23 *1264:C1 *587:25 0.000160635
24 *1269:B1 *1150:A 5.16348e-05
25 *1270:B *1238:A 0.000144046
26 *1271:A1 *1238:A 4.02502e-05
27 *190:12 *1238:A 0.000147211
28 *190:12 *587:53 0.000163992
29 *190:20 *587:53 7.47284e-05
30 *191:85 *1150:A 0.0001947
31 *191:85 *1254:A1 4.60584e-05
32 *194:10 *1238:A 1.08758e-05
33 *202:40 *587:25 0.000114492
34 *202:60 *587:25 2.07184e-05
35 *202:60 *587:36 4.9968e-05
36 *202:60 *587:53 0.000155928
37 *202:71 *1238:A 2.99445e-05
38 *202:71 *587:53 0.000153794
39 *219:18 *1254:A1 4.82919e-05
*RES
1 *1652:X *587:12 8.975 
2 *587:12 *1239:A 1.6 
3 *587:12 *587:25 5.48 
4 *587:25 *1254:A1 6.81 
5 *587:25 *587:36 0.615 
6 *587:36 *1150:A 10.045 
7 *587:36 *587:53 3.675 
8 *587:53 *1237:A 3.6 
9 *587:53 *1238:A 7.245 
*END

*D_NET *588 0.00438922
*CONN
*I *1320:A_N I *D sky130_fd_sc_hd__and2b_2
*I *1303:A I *D sky130_fd_sc_hd__nand2_2
*I *1302:A I *D sky130_fd_sc_hd__nor2_2
*I *1304:A I *D sky130_fd_sc_hd__xnor2_2
*I *1653:X O *D sky130_fd_sc_hd__clkdlybuf4s25_1
*CAP
1 *1320:A_N 9.99303e-05
2 *1303:A 0.000323057
3 *1302:A 0
4 *1304:A 1.38189e-05
5 *1653:X 0.000751327
6 *588:25 0.00042927
7 *588:23 0.000298726
8 *588:10 0.000857728
9 *1303:A *1303:B 0.000300141
10 *1303:A *594:17 4.55864e-06
11 *588:10 *1268:A_N 0.000172964
12 *588:10 *1320:B 5.31158e-06
13 *588:10 *589:24 9.2741e-05
14 *588:10 *594:8 4.57438e-05
15 *588:10 *594:17 4.58262e-06
16 *588:10 *624:35 5.2711e-05
17 *588:23 *1320:B 7.59112e-05
18 *588:23 *594:17 1.29317e-05
19 *588:25 *1320:B 1.56261e-05
20 *588:25 *594:17 0.000108212
21 *1256:B1 *588:10 0
22 *1277:A2 *588:10 0.00011852
23 *1282:A *1320:A_N 4.66108e-05
24 *1322:C1 *588:10 8.33066e-06
25 *1322:C1 *588:23 0.000109489
26 *1325:B1 *1303:A 0
27 *1325:B1 *588:25 0
28 *1653:A *588:10 6.71882e-05
29 *1659:A *588:10 4.49498e-05
30 *1707:A *588:10 0.000203774
31 *250:8 *1303:A 0
32 *264:6 *1304:A 2.69217e-05
33 *546:30 *1303:A 4.9253e-06
34 *549:140 *588:10 4.66108e-05
35 *553:45 *1303:A 0
36 *559:98 *588:10 0
37 *561:39 *1304:A 4.66108e-05
*RES
1 *1653:X *588:10 16.635 
2 *588:10 *1304:A 4.05 
3 *588:10 *588:23 2.34 
4 *588:23 *588:25 2.4 
5 *588:25 *1302:A 3.6 
6 *588:25 *1303:A 9.72 
7 *588:23 *1320:A_N 5.205 
*END

*D_NET *589 0.00286471
*CONN
*I *1256:A1 I *D sky130_fd_sc_hd__o21ai_2
*I *1251:A I *D sky130_fd_sc_hd__xnor2_2
*I *1268:A_N I *D sky130_fd_sc_hd__and2b_2
*I *1250:A I *D sky130_fd_sc_hd__nand2_2
*I *1654:X O *D sky130_fd_sc_hd__clkdlybuf4s25_1
*CAP
1 *1256:A1 0.000175392
2 *1251:A 0
3 *1268:A_N 0.000202514
4 *1250:A 3.65433e-05
5 *1654:X 7.4766e-05
6 *589:24 0.000294057
7 *589:20 0.000305157
8 *1268:A_N *594:8 0.000271341
9 *589:24 *624:35 0.000122331
10 y[8] *1256:A1 4.11198e-05
11 *1257:A1 *1250:A 2.30292e-05
12 *1257:B2 *1250:A 0.000198051
13 *1257:C1 *1256:A1 1.28458e-05
14 *1257:C1 *1268:A_N 0.00011741
15 *1273:A2 *1268:A_N 2.49909e-05
16 *1653:A *589:20 0.000139238
17 *1659:A *1256:A1 0.000120323
18 *1659:A *1268:A_N 0
19 *1659:A *589:20 0.000139238
20 *1707:A *1268:A_N 0.000140912
21 *201:8 *1250:A 0.000159747
22 *588:10 *1268:A_N 0.000172964
23 *588:10 *589:24 9.2741e-05
*RES
1 *1654:X *1250:A 5.03 
2 *1654:X *589:20 5.235 
3 *589:20 *589:24 4.175 
4 *589:24 *1268:A_N 11.765 
5 *589:24 *1251:A 1.6 
6 *589:20 *1256:A1 6.84 
*END

*D_NET *590 0.00394117
*CONN
*I *1280:A1 I *D sky130_fd_sc_hd__o21a_2
*I *1275:A1 I *D sky130_fd_sc_hd__o21ai_2
*I *1260:A I *D sky130_fd_sc_hd__xnor2_2
*I *1259:A I *D sky130_fd_sc_hd__nand2_2
*I *1283:A_N I *D sky130_fd_sc_hd__and2b_2
*I *1281:A1 I *D sky130_fd_sc_hd__a211o_2
*I *1655:X O *D sky130_fd_sc_hd__clkdlybuf4s25_1
*CAP
1 *1280:A1 0
2 *1275:A1 0.000189578
3 *1260:A 0
4 *1259:A 1.88809e-05
5 *1283:A_N 2.23465e-05
6 *1281:A1 0.000191165
7 *1655:X 0
8 *590:54 0.000327523
9 *590:25 0.000164149
10 *590:19 0.000199335
11 *590:6 0.000460709
12 *590:4 0.000331076
13 *1259:A *1283:B 0
14 *1259:A *625:8 5.4155e-06
15 *1275:A1 *1275:A2 8.71001e-05
16 *1281:A1 *1281:A2 5.29295e-05
17 *1283:A_N *1283:B 8.8266e-05
18 *1283:A_N *625:8 3.23663e-05
19 *590:6 *1281:A2 8.73389e-06
20 *590:19 *625:44 0.000117295
21 *590:19 *625:57 8.61417e-05
22 *590:25 *625:8 2.61633e-05
23 *590:25 *625:31 6.74079e-05
24 *590:25 *625:44 1.34361e-05
25 *1276:A2 *590:25 8.77398e-05
26 *1276:B1 *590:25 0
27 *1280:B1 *1275:A1 0.000122184
28 *1280:B1 *590:54 0.00011138
29 *1281:B1 *590:19 1.13474e-05
30 *1281:C1 *1275:A1 3.64998e-06
31 *1281:C1 *1281:A1 4.07027e-05
32 *1281:C1 *590:19 2.95708e-05
33 *1287:C1 *590:6 1.9657e-05
34 *1291:B *590:54 0.000133085
35 *1299:B1 *1275:A1 0
36 *1308:A2 *1275:A1 0
37 *1655:A *590:19 0.000149766
38 *1655:A *590:25 0.000175045
39 *1690:A *590:25 8.41307e-05
40 *542:33 *1275:A1 8.12462e-06
41 *553:73 *1283:A_N 0.000164874
42 *553:73 *590:25 0.000309897
*RES
1 *1655:X *590:4 1.6 
2 *590:4 *590:6 2.175 
3 *590:6 *1281:A1 4.3 
4 *590:6 *590:19 4.655 
5 *590:19 *590:25 7.01 
6 *590:25 *1283:A_N 3.085 
7 *590:25 *1259:A 1.96 
8 *590:19 *1260:A 3.6 
9 *590:4 *590:54 6.775 
10 *590:54 *1275:A1 9.23 
11 *590:54 *1280:A1 1.6 
*END

*D_NET *591 0.00700266
*CONN
*I *1286:A1 I *D sky130_fd_sc_hd__o21ai_2
*I *1305:B1 I *D sky130_fd_sc_hd__o211ai_2
*I *1278:A I *D sky130_fd_sc_hd__nand2_2
*I *1279:A I *D sky130_fd_sc_hd__xnor2_2
*I *1295:A_N I *D sky130_fd_sc_hd__and2b_2
*I *1656:X O *D sky130_fd_sc_hd__clkdlybuf4s25_1
*CAP
1 *1286:A1 0.00103327
2 *1305:B1 0
3 *1278:A 2.47865e-05
4 *1279:A 0
5 *1295:A_N 0.000218505
6 *1656:X 0.000230624
7 *591:41 0.00114875
8 *591:30 0.000301248
9 *591:10 0.000330463
10 *591:8 0.00050356
11 *1286:A1 *1330:A1 0.000309747
12 *1286:A1 *1330:A2 5.06989e-05
13 *1286:A1 *593:12 3.33076e-05
14 *1295:A_N *1279:B 0
15 *1295:A_N *1295:B 0
16 *591:10 *1279:B 0
17 *591:10 *1295:B 0
18 *591:30 *1279:B 0
19 *591:30 *626:19 0
20 *591:30 *626:32 0
21 *591:41 *626:32 0
22 y[10] *1286:A1 0.000374754
23 y[11] *1286:A1 1.88656e-05
24 *1288:A1 *1295:A_N 6.43623e-05
25 *1288:A2 *1295:A_N 0.000185405
26 *1288:B1 *1295:A_N 0
27 *1296:B1 *591:10 0
28 *1296:B1 *591:30 0
29 *1297:A2 *1286:A1 5.83121e-06
30 *1298:A *1286:A1 0.000115742
31 *1298:B *1286:A1 5.87261e-05
32 *1299:A1 *591:8 2.93678e-05
33 *1300:A1 *1286:A1 8.65905e-05
34 *1301:A2 *1286:A1 0.000190178
35 *1306:A2 *591:30 0
36 *1306:C1 *1286:A1 3.12855e-05
37 *1306:C1 *591:30 9.50342e-06
38 *1306:C1 *591:41 0.000202791
39 *1330:B1 *1286:A1 3.89563e-05
40 *1332:B1 *1286:A1 0.000528875
41 *1337:B1 *1286:A1 0.000137126
42 *1656:A *591:8 0.0001249
43 *1658:A *1286:A1 1.52352e-05
44 *1708:A *1295:A_N 0.000117044
45 *253:16 *1286:A1 0.000155124
46 *541:12 *1286:A1 8.7152e-06
47 *542:20 *591:8 1.34594e-05
48 *549:126 *1286:A1 0.000175858
49 *553:67 *1286:A1 9.38885e-05
50 *553:108 *1286:A1 3.51092e-05
*RES
1 *1656:X *591:8 7.155 
2 *591:8 *591:10 1.89 
3 *591:10 *1295:A_N 8.58 
4 *591:10 *1279:A 3.6 
5 *591:8 *591:30 2.4 
6 *591:30 *1278:A 4.05 
7 *591:30 *591:41 2.4 
8 *591:41 *1305:B1 3.6 
9 *591:41 *1286:A1 29.245 
*END

*D_NET *592 0.0150566
*CONN
*I *1177:A2 I *D sky130_fd_sc_hd__a21oi_2
*I *1189:A2 I *D sky130_fd_sc_hd__a31o_2
*I *1171:A2 I *D sky130_fd_sc_hd__o21ai_2
*I *1156:B I *D sky130_fd_sc_hd__nand2_2
*I *1158:B I *D sky130_fd_sc_hd__xnor2_2
*I *1157:B I *D sky130_fd_sc_hd__xor2_2
*I *1657:X O *D sky130_fd_sc_hd__clkdlybuf4s25_1
*CAP
1 *1177:A2 0.000169691
2 *1189:A2 0.000235388
3 *1171:A2 0.000777811
4 *1156:B 0.000662478
5 *1158:B 0
6 *1157:B 0.000103161
7 *1657:X 0.00094473
8 *592:72 0.00104821
9 *592:55 0.00108329
10 *592:51 0.00116676
11 *592:14 0.000436611
12 *1171:A2 *1176:A1 8.2372e-05
13 *1171:A2 *630:62 5.8499e-05
14 *1189:A2 *1230:A2 9.90325e-05
15 *592:14 *1227:B 0
16 *592:51 *1227:B 0.000158066
17 *592:51 *604:40 1.1071e-05
18 *592:72 *630:62 7.76832e-05
19 *1149:A *1171:A2 0.00010796
20 *1149:A *592:72 6.9719e-05
21 *1157:A *1157:B 0.000159677
22 *1172:B1 *592:14 8.49205e-05
23 *1172:B1 *592:51 2.8185e-05
24 *1172:B2 *592:51 0.000230429
25 *1178:B1 *592:55 0.000426507
26 *1179:B *592:51 0.000129114
27 *1180:B1 *1171:A2 4.17913e-05
28 *1183:A *592:14 0.000162773
29 *1189:A1 *1156:B 0.00027517
30 *1189:A1 *592:55 0.000256172
31 *1189:B1 *1189:A2 0.000191343
32 *1191:A2 *592:51 0.000122754
33 *1191:A3 *1156:B 6.24871e-05
34 *1192:B *592:51 0.000636461
35 *1194:C1 *1156:B 7.63573e-05
36 *1214:B *1156:B 0
37 *1215:A2 *1156:B 7.98307e-05
38 *1216:C *592:51 2.85364e-05
39 *1216:D *1177:A2 0.0001293
40 *1216:D *592:51 4.00257e-05
41 *1218:A2 *1177:A2 3.83194e-05
42 *1218:B1 *1177:A2 0.000122817
43 *1223:B1 *1171:A2 0.000165055
44 *1224:B2 *1171:A2 0.00063628
45 *1225:A2 *1156:B 5.26905e-05
46 *1241:A1 *1171:A2 1.59079e-05
47 *1413:A *1156:B 8.33567e-05
48 *1603:A *592:51 0.000195465
49 *1603:B *592:51 6.04957e-05
50 *1604:C1 *592:51 1.32102e-05
51 *1704:A *1156:B 0.000165937
52 *115:24 *1157:B 0
53 *117:20 *1177:A2 0.000139441
54 *117:20 *592:51 2.03253e-05
55 *131:20 *1156:B 0
56 *139:16 *592:14 0.000163199
57 *141:44 *592:51 0.000264606
58 *145:18 *1171:A2 9.24136e-05
59 *145:18 *592:55 1.42325e-05
60 *156:14 *1156:B 5.68759e-05
61 *156:14 *592:55 0.000239147
62 *157:12 *592:51 0.000232176
63 *170:22 *592:51 3.71957e-05
64 *172:24 *1177:A2 2.49909e-05
65 *181:47 *1171:A2 9.98772e-05
66 *193:22 *1171:A2 0.000520339
67 *195:10 *1171:A2 1.34503e-05
68 *535:16 *1171:A2 0.000152092
69 *535:66 *592:14 0.000230916
70 *545:39 *1156:B 0
71 *548:107 *1171:A2 0.00014889
72 *550:32 *1156:B 0.000143516
73 *550:46 *1156:B 1.11262e-05
74 *563:26 *1177:A2 0.000337854
75 *563:45 *1156:B 8.54244e-05
76 *563:74 *1156:B 2.09665e-05
77 *563:136 *592:14 3.59531e-06
*RES
1 *1657:X *592:14 12.62 
2 *592:14 *1157:B 6.145 
3 *592:14 *1158:B 1.6 
4 *1657:X *592:51 23.5075 
5 *592:51 *592:55 1.70333 
6 *592:55 *1156:B 12.7197 
7 *592:55 *592:72 1.4975 
8 *592:72 *1171:A2 11.2945 
9 *592:72 *1189:A2 7.29 
10 *592:51 *1177:A2 8.5725 
*END

*D_NET *593 0.00426419
*CONN
*I *1290:B I *D sky130_fd_sc_hd__xnor2_2
*I *1305:A2 I *D sky130_fd_sc_hd__o211ai_2
*I *1307:B I *D sky130_fd_sc_hd__and2b_2
*I *1299:A2 I *D sky130_fd_sc_hd__o21ai_2
*I *1289:B I *D sky130_fd_sc_hd__nand2_2
*I *1658:X O *D sky130_fd_sc_hd__clkdlybuf4s25_1
*CAP
1 *1290:B 6.83462e-05
2 *1305:A2 0
3 *1307:B 0.000207394
4 *1299:A2 0
5 *1289:B 0
6 *1658:X 0.000405704
7 *593:35 0.000365643
8 *593:22 0.000308844
9 *593:16 0.000197864
10 *593:12 0.000521319
11 *1290:B *1713:A 0.000174586
12 *593:12 *1711:A 4.60814e-05
13 *593:22 *1286:A2 8.83758e-05
14 *1286:A1 *593:12 3.33076e-05
15 *1297:A2 *593:12 6.52411e-05
16 *1299:B1 *1307:B 5.74791e-05
17 *1301:A2 *1290:B 2.04875e-05
18 *1301:A2 *593:16 5.00391e-05
19 *1301:B1 *1307:B 7.00889e-06
20 *1301:B1 *593:35 0.000344356
21 *1305:A1 *593:22 0.000121039
22 *1306:A1 *593:22 5.69024e-05
23 *1306:A1 *593:35 6.09299e-05
24 *1306:C1 *593:16 1.64067e-05
25 *1307:A_N *1307:B 0.000124895
26 *1658:A *593:12 0.000129369
27 *1702:A *1290:B 2.15337e-05
28 *237:8 *593:22 6.33849e-05
29 *238:14 *1290:B 0.000194024
30 *238:14 *593:16 0.000112589
31 *542:20 *1307:B 5.64202e-05
32 *549:126 *593:35 0.000344618
*RES
1 *1658:X *593:12 9.345 
2 *593:12 *593:16 3.38 
3 *593:16 *593:22 3.585 
4 *593:22 *1289:B 1.6 
5 *593:22 *593:35 8.98 
6 *593:35 *1299:A2 1.6 
7 *593:35 *1307:B 5.185 
8 *593:16 *1305:A2 1.6 
9 *593:12 *1290:B 6.255 
*END

*D_NET *594 0.00330969
*CONN
*I *1320:B I *D sky130_fd_sc_hd__and2b_2
*I *1303:B I *D sky130_fd_sc_hd__nand2_2
*I *1302:B I *D sky130_fd_sc_hd__nor2_2
*I *1304:B I *D sky130_fd_sc_hd__xnor2_2
*I *1659:X O *D sky130_fd_sc_hd__clkdlybuf4s25_1
*CAP
1 *1320:B 0.000114336
2 *1303:B 0.000248481
3 *1302:B 0
4 *1304:B 0.000114336
5 *1659:X 0.000154955
6 *594:17 0.000394034
7 *594:8 0.000300509
8 *594:8 *1268:B 7.24866e-05
9 *1268:A_N *594:8 0.000271341
10 *1282:A *1320:B 2.69153e-05
11 *1282:B *594:8 0.000147212
12 *1282:B *594:17 0.00017664
13 *1303:A *1303:B 0.000300141
14 *1303:A *594:17 4.55864e-06
15 *1322:C1 *594:17 5.62661e-05
16 *1613:A *1303:B 0.000205477
17 *1707:A *594:8 3.22827e-05
18 *222:10 *594:8 0.000138273
19 *231:16 *1303:B 1.92979e-05
20 *231:16 *594:17 0.000157578
21 *269:10 *1303:B 0
22 *553:45 *1303:B 0
23 *559:98 *1320:B 0.000106255
24 *588:10 *1320:B 5.31158e-06
25 *588:10 *594:8 4.57438e-05
26 *588:10 *594:17 4.58262e-06
27 *588:23 *1320:B 7.59112e-05
28 *588:23 *594:17 1.29317e-05
29 *588:25 *1320:B 1.56261e-05
30 *588:25 *594:17 0.000108212
*RES
1 *1659:X *594:8 9.06 
2 *594:8 *1304:B 3.6 
3 *594:8 *594:17 4.44 
4 *594:17 *1302:B 3.6 
5 *594:17 *1303:B 9.615 
6 *1304:B *1320:B 10.05 
*END

*D_NET *595 0.00510504
*CONN
*I *1336:B I *D sky130_fd_sc_hd__nand2b_2
*I *1330:A2 I *D sky130_fd_sc_hd__o21ai_2
*I *1316:B I *D sky130_fd_sc_hd__nand2_2
*I *1348:A I *D sky130_fd_sc_hd__nand2_2
*I *1317:B I *D sky130_fd_sc_hd__xnor2_2
*I *1660:X O *D sky130_fd_sc_hd__clkdlybuf4s25_1
*CAP
1 *1336:B 0
2 *1330:A2 0.000137069
3 *1316:B 0
4 *1348:A 0.000216038
5 *1317:B 0.000118796
6 *1660:X 0
7 *595:55 0.000547268
8 *595:18 0.000403348
9 *595:12 0.000595129
10 *595:4 0.000936815
11 *1317:B *1317:A 4.99619e-05
12 *1317:B *1714:A 4.82919e-05
13 *1317:B *598:18 0
14 *1348:A *1713:A 8.49205e-05
15 *595:12 *1714:A 0.000307606
16 *595:12 *599:38 0.000120655
17 *595:55 *1714:A 8.64421e-05
18 *595:55 *632:6 3.52734e-06
19 *1286:A1 *1330:A2 5.06989e-05
20 *1330:B1 *1330:A2 8.52845e-05
21 *1332:A1 *1348:A 8.65905e-05
22 *1332:A2 *1348:A 4.80069e-05
23 *1332:A2 *595:18 8.49205e-05
24 *1332:B1 *1348:A 5.14972e-05
25 *1332:B1 *595:18 8.65961e-05
26 *1332:C1 *1330:A2 2.77737e-05
27 *1332:C1 *595:55 3.51931e-05
28 *1335:B *595:55 4.59172e-05
29 *1338:A2 *595:55 0.000157818
30 *1338:B1 *1330:A2 0
31 *1342:A1 *595:55 9.47267e-06
32 *263:31 *1330:A2 1.92979e-05
33 *263:31 *595:55 2.0474e-05
34 *263:44 *595:55 0.000173045
35 *263:59 *595:55 9.08126e-05
36 *280:6 *595:55 3.72418e-05
37 *292:10 *1348:A 4.60584e-05
38 *546:43 *1330:A2 2.84864e-05
39 *549:47 *595:18 0
40 *549:62 *595:12 0
41 *559:16 *595:12 8.0896e-05
42 *559:18 *1317:B 6.08204e-05
43 *559:18 *595:12 0.000112147
44 *559:18 *595:18 1.01276e-05
*RES
1 *1660:X *595:4 1.6 
2 *595:4 *595:12 11.35 
3 *595:12 *595:18 3.41 
4 *595:18 *1317:B 5.94 
5 *595:18 *1348:A 7.98 
6 *595:12 *1316:B 1.6 
7 *595:4 *595:55 8.885 
8 *595:55 *1330:A2 6.285 
9 *595:55 *1336:B 3.6 
*END

*D_NET *596 0.00529153
*CONN
*I *1340:A2 I *D sky130_fd_sc_hd__o21ai_2
*I *1363:C1 I *D sky130_fd_sc_hd__o211ai_2
*I *1349:A2_N I *D sky130_fd_sc_hd__o2bb2a_2
*I *1334:B I *D sky130_fd_sc_hd__xnor2_2
*I *1333:B I *D sky130_fd_sc_hd__nand2_2
*I *1350:B2 I *D sky130_fd_sc_hd__a2bb2o_2
*I *1661:X O *D sky130_fd_sc_hd__clkdlybuf4s25_1
*CAP
1 *1340:A2 0.000806974
2 *1363:C1 4.68181e-05
3 *1349:A2_N 0.000140436
4 *1334:B 0
5 *1333:B 2.94267e-05
6 *1350:B2 0.000181779
7 *1661:X 0
8 *596:52 0.000901126
9 *596:14 0.000269694
10 *596:10 7.51914e-05
11 *596:8 0.000352282
12 *596:4 0.000242476
13 *1333:B *1350:A1_N 8.23457e-05
14 *1333:B *610:20 2.16917e-05
15 *1349:A2_N *1349:B2 2.33718e-05
16 *1350:B2 *1152:A 5.70787e-05
17 *1350:B2 *1333:A 0
18 *1350:B2 *1350:A1_N 3.30915e-05
19 *1363:C1 *1361:B 9.50342e-06
20 *1363:C1 *610:16 6.28843e-05
21 *596:14 *1334:A 6.28843e-05
22 *1341:A1 *1333:B 8.40269e-05
23 *1341:C1 *1340:A2 9.84233e-05
24 *1346:A2 *1340:A2 2.8185e-05
25 *1346:C1 *1340:A2 0.00044777
26 *1349:A1_N *1349:A2_N 7.50953e-06
27 *1349:B1 *1349:A2_N 5.00612e-05
28 *1349:B1 *596:10 1.73877e-05
29 *1349:B1 *596:14 1.94636e-05
30 *1351:B1 *1340:A2 0.000238519
31 *1362:A2 *1333:B 1.12578e-05
32 *1362:A2 *1350:B2 1.37594e-05
33 *1364:A1 *1363:C1 5.73518e-05
34 *1367:B1 *1340:A2 0.000120655
35 *1661:A *596:8 8.23457e-05
36 *1675:A *1349:A2_N 1.54862e-05
37 *279:21 *596:8 0.00010492
38 *279:21 *596:52 3.09179e-05
39 *279:28 *1340:A2 4.16262e-05
40 *279:28 *596:52 4.9253e-06
41 *292:10 *596:14 4.18603e-06
42 *549:75 *1349:A2_N 0.000204456
43 *549:75 *596:10 5.16348e-05
44 *549:75 *596:14 0.000157602
*RES
1 *1661:X *596:4 1.6 
2 *596:4 *596:8 5.21 
3 *596:8 *596:10 0.615 
4 *596:10 *596:14 3.89 
5 *596:14 *1350:B2 4.75 
6 *596:14 *1333:B 2.74 
7 *596:10 *1334:B 3.6 
8 *596:8 *1349:A2_N 6.795 
9 *596:4 *596:52 0.795 
10 *596:52 *1363:C1 6.98 
11 *596:52 *1340:A2 14.08 
*END

*D_NET *597 0.00440735
*CONN
*I *1353:A2 I *D sky130_fd_sc_hd__o21ai_2
*I *1343:B I *D sky130_fd_sc_hd__nand2_2
*I *1344:B I *D sky130_fd_sc_hd__xnor2_2
*I *1363:A2 I *D sky130_fd_sc_hd__o211ai_2
*I *1361:B I *D sky130_fd_sc_hd__and2b_2
*I *1662:X O *D sky130_fd_sc_hd__clkdlybuf4s25_1
*CAP
1 *1353:A2 0
2 *1343:B 0.000174691
3 *1344:B 0.000189802
4 *1363:A2 7.79655e-05
5 *1361:B 0.000198044
6 *1662:X 0.000223433
7 *597:60 0.00019881
8 *597:47 0.000362288
9 *597:8 0.000351076
10 *1343:B *1343:A 6.53388e-05
11 *1343:B *1722:A 0
12 *1343:B *610:12 0.00011379
13 *1344:B *1344:A 0.000194131
14 *1344:B *1353:A1 0.00010978
15 *1361:B *1361:A_N 9.47267e-06
16 *1361:B *610:12 0
17 *1361:B *610:16 2.03321e-05
18 *1363:A2 *1361:A_N 0.000235568
19 *1363:A2 *1363:A1 0
20 *597:8 *610:12 0
21 *597:47 *1720:A 4.40446e-05
22 *597:47 *610:12 4.94326e-05
23 *597:60 *1343:A 5.53249e-06
24 *597:60 *610:12 1.79098e-05
25 *1351:A3 *1361:B 0.000481515
26 *1351:A3 *1363:A2 4.57447e-05
27 *1354:A1 *1344:B 0.000307049
28 *1354:B2 *1361:B 0
29 *1354:B2 *597:8 0
30 *1363:C1 *1361:B 9.50342e-06
31 *1364:A1 *1361:B 5.16418e-05
32 *1364:B1 *1361:B 0.000278246
33 *1364:B1 *1363:A2 5.05437e-05
34 *1364:C1 *1361:B 8.32987e-05
35 *1444:C1 *1343:B 9.50342e-06
36 *1445:A1 *1343:B 2.42236e-05
37 *1445:A2 *1343:B 0.000187071
38 *1445:B1 *1343:B 5.00526e-05
39 *288:8 *1344:B 2.8185e-05
40 *307:12 *1361:B 0.000159333
41 *546:105 *597:60 0
*RES
1 *1662:X *597:8 4.725 
2 *597:8 *1361:B 10.92 
3 *597:8 *1363:A2 6.135 
4 *1662:X *597:47 5.865 
5 *597:47 *1344:B 8.55 
6 *597:47 *597:60 0.615 
7 *597:60 *1343:B 8.235 
8 *597:60 *1353:A2 3.6 
*END

*D_NET *598 0.00696481
*CONN
*I *1357:B I *D sky130_fd_sc_hd__or2_2
*I *1356:B I *D sky130_fd_sc_hd__and2_2
*I *1358:B I *D sky130_fd_sc_hd__xnor2_2
*I *1384:A2 I *D sky130_fd_sc_hd__a221o_2
*I *1663:X O *D sky130_fd_sc_hd__clkdlybuf4s25_1
*CAP
1 *1357:B 0.000138043
2 *1356:B 0.000147119
3 *1358:B 0.000138043
4 *1384:A2 6.43378e-06
5 *1663:X 0.00208966
6 *598:31 0.000270371
7 *598:18 0.00221934
8 *1357:B *1153:A 4.99619e-05
9 *1357:B *1357:A 1.61831e-05
10 *598:18 *1716:A 0
11 y[11] *598:18 0
12 *1317:B *598:18 0
13 *1370:A2 *1357:B 2.82846e-05
14 *1370:B1 *1357:B 7.9642e-06
15 *1370:C1 *1356:B 8.65905e-05
16 *1378:A2 *1356:B 9.68253e-05
17 *1378:B1 *1357:B 8.65961e-05
18 *1379:C1 *1356:B 0
19 *1379:C1 *1357:B 7.44375e-05
20 *1379:C1 *598:18 0
21 *1379:C1 *598:31 0
22 *1384:A1 *598:31 9.5433e-05
23 *1384:B1 *598:18 1.34017e-05
24 *1384:C1 *1356:B 0
25 *1384:C1 *598:31 0
26 *1613:A *598:18 7.79954e-05
27 *1621:A *598:18 0
28 *1660:A *598:18 0.000634408
29 *1702:A *598:18 2.49909e-05
30 *263:12 *598:18 0.000105993
31 *263:31 *598:18 5.49498e-05
32 *272:23 *1384:A2 8.26048e-06
33 *299:10 *1357:B 4.66108e-05
34 *300:14 *1357:B 0.000160635
35 *549:47 *598:18 0.0002817
36 *559:18 *598:18 0
37 *565:100 *598:18 4.57523e-06
*RES
1 *1663:X *598:18 13.054 
2 *598:18 *1384:A2 3.72375 
3 *598:18 *598:31 2.34 
4 *598:31 *1358:B 3.6 
5 *598:31 *1356:B 6.795 
6 *1358:B *1357:B 11.28 
*END

*D_NET *599 0.0062086
*CONN
*I *1316:A I *D sky130_fd_sc_hd__nand2_2
*I *1336:A_N I *D sky130_fd_sc_hd__nand2b_2
*I *1330:A1 I *D sky130_fd_sc_hd__o21ai_2
*I *1317:A I *D sky130_fd_sc_hd__xnor2_2
*I *1349:B2 I *D sky130_fd_sc_hd__o2bb2a_2
*I *1350:A1_N I *D sky130_fd_sc_hd__a2bb2o_2
*I *1664:X O *D sky130_fd_sc_hd__clkdlybuf4s25_1
*CAP
1 *1316:A 0
2 *1336:A_N 0.000126309
3 *1330:A1 0.000170041
4 *1317:A 0.000141218
5 *1349:B2 0.000336139
6 *1350:A1_N 5.11978e-05
7 *1664:X 0
8 *599:53 0.000514978
9 *599:42 0.00045792
10 *599:38 0.000226249
11 *599:10 0.00063612
12 *599:4 0.000376958
13 *1317:A *1714:A 0.000108761
14 *1330:A1 *1712:A 1.71013e-05
15 *1349:B2 *1363:A1 2.65814e-06
16 *1350:A1_N *1152:A 1.61836e-05
17 *1350:A1_N *610:20 0.000146403
18 *599:53 *1714:A 2.0514e-05
19 *1286:A1 *1330:A1 0.000309747
20 *1317:B *1317:A 4.99619e-05
21 *1326:A *1330:A1 0
22 *1330:B1 *1330:A1 2.20014e-05
23 *1332:C1 *1336:A_N 2.85618e-05
24 *1333:B *1350:A1_N 8.23457e-05
25 *1337:A1 *1336:A_N 1.18246e-05
26 *1337:A2 *1336:A_N 0.000107391
27 *1337:B1 *1330:A1 9.61012e-05
28 *1337:C1 *1336:A_N 1.14169e-05
29 *1337:C1 *599:53 7.35284e-05
30 *1338:A3 *1330:A1 9.00084e-05
31 *1338:A3 *1336:A_N 0.000254303
32 *1338:B1 *1330:A1 8.52883e-05
33 *1339:B *1330:A1 9.00084e-05
34 *1349:A1_N *1349:B2 2.21923e-05
35 *1349:A2_N *1349:B2 2.33718e-05
36 *1349:B1 *1349:B2 0.000123225
37 *1350:B2 *1350:A1_N 3.30915e-05
38 *1351:A3 *1349:B2 8.23457e-05
39 *1445:A1 *1349:B2 0
40 *1445:A1 *599:10 0
41 *1696:A *599:10 1.59477e-05
42 *262:12 *599:42 0.000178333
43 *262:12 *599:53 0.00030782
44 *263:12 *599:42 1.03833e-05
45 *549:62 *599:10 1.79483e-05
46 *549:75 *1349:B2 0.000276445
47 *549:75 *599:10 4.90071e-05
48 *553:127 *599:38 4.70885e-05
49 *553:127 *599:42 7.50607e-06
50 *559:16 *599:38 4.80285e-05
51 *559:18 *599:10 0
52 *559:18 *599:38 6.53533e-05
53 *559:18 *599:42 0.000118619
54 *595:12 *599:38 0.000120655
*RES
1 *1664:X *599:4 1.6 
2 *599:4 *599:10 5.705 
3 *599:10 *1350:A1_N 5.37 
4 *599:10 *1349:B2 9.885 
5 *599:4 *599:38 5.12 
6 *599:38 *599:42 4.655 
7 *599:42 *1317:A 4.135 
8 *599:42 *599:53 3.9 
9 *599:53 *1330:A1 10.46 
10 *599:53 *1336:A_N 5.275 
11 *599:38 *1316:A 3.6 
*END

*D_NET *600 0.00812704
*CONN
*I *1373:A I *D sky130_fd_sc_hd__nand2_2
*I *1395:B I *D sky130_fd_sc_hd__nand2b_2
*I *1372:A I *D sky130_fd_sc_hd__or2_2
*I *1405:A1 I *D sky130_fd_sc_hd__a22o_2
*I *1665:X O *D sky130_fd_sc_hd__clkdlybuf4s25_1
*CAP
1 *1373:A 0
2 *1395:B 0.000149417
3 *1372:A 0.000179184
4 *1405:A1 0
5 *1665:X 0.00117311
6 *600:31 0.000519922
7 *600:20 0.00136444
8 *1372:A *1373:B 4.92062e-05
9 *1372:A *643:39 2.84447e-05
10 *1395:B *1395:A_N 0
11 *600:20 *1405:B1 1.03755e-05
12 *600:20 *1405:B2 7.9642e-06
13 *600:20 *643:26 0.00130429
14 *600:31 *1373:B 8.40213e-05
15 *600:31 *643:26 1.2818e-05
16 *600:31 *643:30 8.66683e-05
17 *600:31 *643:39 0.000120655
18 y[31] *600:20 4.49328e-05
19 *1388:A2 *1395:B 1.94805e-05
20 *1392:A1 *1372:A 0
21 *1400:B1 *1395:B 3.09233e-05
22 *1413:A *1395:B 0
23 *1600:A *600:20 0.00074898
24 *1601:B1 *600:20 0.000112433
25 *1602:B *600:20 0.000211758
26 *1626:A *600:20 9.76758e-05
27 *1692:A *600:20 0.000391325
28 *118:20 *600:20 0.000396383
29 *118:50 *600:20 0.000526889
30 *314:10 *1372:A 9.53428e-06
31 *314:10 *600:31 0.000146379
32 *315:19 *1395:B 1.0183e-05
33 *345:10 *600:20 2.8185e-05
34 *345:10 *600:31 6.97118e-05
35 *551:46 *600:20 0.000188782
36 *560:151 *600:20 2.96556e-06
*RES
1 *1665:X *600:20 18.1261 
2 *600:20 *1405:A1 1.6 
3 *600:20 *600:31 4.965 
4 *600:31 *1372:A 4.405 
5 *600:31 *1395:B 7.745 
6 *600:31 *1373:A 1.6 
*END

*D_NET *601 0.00615886
*CONN
*I *1390:A I *D sky130_fd_sc_hd__or2_2
*I *1399:A1 I *D sky130_fd_sc_hd__a31o_2
*I *1411:B I *D sky130_fd_sc_hd__nand2b_2
*I *1405:B1 I *D sky130_fd_sc_hd__a22o_2
*I *1391:A I *D sky130_fd_sc_hd__xor2_2
*I *1666:X O *D sky130_fd_sc_hd__clkdlybuf4s25_1
*CAP
1 *1390:A 5.2861e-05
2 *1399:A1 5.35698e-05
3 *1411:B 0.000117281
4 *1405:B1 0.000225643
5 *1391:A 0.000842286
6 *1666:X 0.000812826
7 *601:53 0.000286334
8 *601:34 0.000472889
9 *601:30 0.000214083
10 *1391:A *1391:B 7.00889e-06
11 *1391:A *1733:A 0.000443158
12 *1391:A *654:10 0.000324044
13 *1405:B1 *1405:B2 2.16306e-05
14 *1405:B1 *643:26 2.92496e-05
15 *601:34 *1411:A_N 4.2463e-05
16 *601:53 *1399:A2 3.79854e-05
17 *1398:A2 *1405:B1 0.00018305
18 *1398:A2 *601:53 0.000129728
19 *1398:B1 *1405:B1 9.14049e-05
20 *1398:B1 *601:34 1.82499e-06
21 *1399:A3 *1399:A1 2.68721e-05
22 *1399:A3 *1411:B 1.71013e-05
23 *1399:B1 *1399:A1 0
24 *1399:B1 *1411:B 0
25 *1399:B1 *601:53 2.30292e-05
26 *1400:B1 *1411:B 0
27 *1408:B1 *601:53 8.40213e-05
28 *1412:A1 *1411:B 4.99619e-05
29 *1413:A *1399:A1 0
30 *1414:A2_N *1399:A1 9.50342e-06
31 *1423:B1 *1399:A1 0
32 *1501:A *1390:A 0.0001032
33 *1561:S *1399:A1 0
34 *1586:A0 *1391:A 0.000118081
35 *1586:A1 *1391:A 2.54522e-05
36 *1586:S *1391:A 5.05437e-05
37 *1587:A *1391:A 7.92997e-05
38 *1591:A1 *1391:A 5.57465e-05
39 *1591:A2 *1391:A 8.65961e-05
40 *1591:B1 *1391:A 0.000109809
41 *1693:A *1391:A 2.49909e-05
42 *331:10 *601:53 2.49909e-05
43 *345:10 *1405:B1 0.000118446
44 *345:10 *601:53 7.44375e-05
45 *552:12 *601:53 0.000268734
46 *552:24 *1411:B 3.67779e-05
47 *560:151 *1390:A 0.000185411
48 *560:151 *1405:B1 0
49 *564:22 *1391:A 8.40213e-05
50 *566:59 *1405:B1 0.000102134
51 *600:20 *1405:B1 1.03755e-05
*RES
1 *1666:X *1391:A 18.665 
2 *1391:A *601:30 2.05 
3 *601:30 *601:34 3.83 
4 *601:34 *1405:B1 8.745 
5 *601:34 *601:53 8.155 
6 *601:53 *1411:B 5.685 
7 *601:53 *1399:A1 4.725 
8 *601:30 *1390:A 7.745 
*END

*D_NET *602 0.00341331
*CONN
*I *1402:A I *D sky130_fd_sc_hd__nor2_2
*I *1403:A I *D sky130_fd_sc_hd__or2_2
*I *1401:A I *D sky130_fd_sc_hd__and2_2
*I *1422:B I *D sky130_fd_sc_hd__and2b_2
*I *1667:X O *D sky130_fd_sc_hd__clkdlybuf4s25_1
*CAP
1 *1402:A 0
2 *1403:A 0.000127479
3 *1401:A 0
4 *1422:B 0.000105519
5 *1667:X 0.000574737
6 *602:18 0.000167194
7 *602:12 0.000423709
8 *602:10 0.000809291
9 *602:10 *1719:A 0
10 *602:12 *1719:A 0
11 *1417:B2 *602:12 0
12 *1417:C1 *602:12 0
13 *1418:A2 *1422:B 7.00889e-06
14 *1418:A2 *602:12 0
15 *1422:A_N *1403:A 4.82919e-05
16 *1422:A_N *1422:B 4.99619e-05
17 *1422:A_N *602:18 4.82863e-05
18 *1500:A *602:10 0
19 *1500:B *602:10 0
20 *1536:A2 *602:10 0.000234685
21 *1537:A1 *602:10 0.000176273
22 *342:12 *602:12 6.73751e-05
23 *451:35 *602:10 0.000260234
24 *536:22 *1403:A 0.000241483
25 *560:172 *602:12 0
26 *576:10 *602:10 7.17811e-05
*RES
1 *1667:X *602:10 13.275 
2 *602:10 *602:12 3.93 
3 *602:12 *602:18 3.065 
4 *602:18 *1422:B 3.445 
5 *602:18 *1401:A 1.6 
6 *602:12 *1403:A 6.12 
7 *602:10 *1402:A 3.6 
*END

*D_NET *603 0.0043434
*CONN
*I *1420:A I *D sky130_fd_sc_hd__or2_2
*I *1437:B I *D sky130_fd_sc_hd__and2b_2
*I *1419:A I *D sky130_fd_sc_hd__and2_2
*I *1668:X O *D sky130_fd_sc_hd__clkdlybuf4s25_1
*CAP
1 *1420:A 0
2 *1437:B 0
3 *1419:A 0.000107222
4 *1668:X 0.00126009
5 *603:26 0.000163757
6 *603:24 0.00131663
7 *603:24 *605:51 9.81421e-05
8 *1427:A1 *1419:A 7.5416e-05
9 *1430:B2 *1419:A 0
10 *1430:C1 *1419:A 2.15738e-05
11 *1430:C1 *603:26 5.92849e-05
12 *1450:A_N *603:24 4.77757e-05
13 *1451:B1 *603:24 1.19928e-05
14 *1452:A2 *603:24 5.05437e-05
15 *1466:A1 *603:24 1.94212e-06
16 *1466:B1 *603:24 1.80524e-05
17 *1466:C1 *603:24 4.66108e-05
18 *1467:B1 *603:24 4.89295e-05
19 *1470:A1 *603:24 0
20 *1470:A1 *603:26 0
21 *1478:A *603:24 0.000114203
22 *1478:C *603:24 2.42321e-05
23 *385:50 *603:24 4.17151e-05
24 *387:16 *603:24 0.000184219
25 *562:35 *603:24 1.7635e-05
26 *562:37 *603:24 0.000209673
27 *562:49 *1419:A 1.34361e-05
28 *562:49 *603:24 0.000119915
29 *562:49 *603:26 0.000174249
30 *565:112 *1419:A 0.000116158
*RES
1 *1668:X *603:24 23.52 
2 *603:24 *603:26 2.145 
3 *603:26 *1419:A 6 
4 *603:26 *1437:B 3.6 
5 *603:24 *1420:A 3.6 
*END

*D_NET *604 0.00629194
*CONN
*I *1188:B I *D sky130_fd_sc_hd__and2b_2
*I *1174:B I *D sky130_fd_sc_hd__nand2_2
*I *1180:A2 I *D sky130_fd_sc_hd__o21ai_2
*I *1175:B I *D sky130_fd_sc_hd__xnor2_2
*I *1669:X O *D sky130_fd_sc_hd__clkdlybuf4s25_1
*CAP
1 *1188:B 0
2 *1174:B 0.000665604
3 *1180:A2 0
4 *1175:B 0.00013582
5 *1669:X 0.000261131
6 *604:40 0.00107586
7 *604:21 0.000551212
8 *604:8 0.000537912
9 *1174:B *1196:B 0.000278707
10 *1174:B *619:30 5.30352e-05
11 *1175:B *1737:A 7.37496e-05
12 *604:8 *1227:B 0.000191721
13 *604:21 *1737:A 9.04636e-05
14 *1159:B *1174:B 0.000137689
15 *1173:A2 *604:21 0
16 *1174:A *1174:B 2.94505e-05
17 *1174:A *604:40 4.66108e-05
18 *1177:B1 *1174:B 0.000150503
19 *1179:A *604:21 4.86027e-05
20 *1180:A1 *604:40 8.8266e-05
21 *1181:C1 *604:21 2.54603e-05
22 *1186:B1 *604:40 9.58678e-06
23 *1189:B1 *1174:B 5.47091e-05
24 *1196:A *1174:B 0.000125345
25 *1216:C *604:40 4.27883e-06
26 *1216:D *604:40 2.8531e-05
27 *1217:B *604:21 0.000113416
28 *1217:B *604:40 7.83993e-05
29 *1229:A *1174:B 1.14192e-05
30 *1229:B *1174:B 0.000178736
31 *1232:A1 *1174:B 8.7152e-06
32 *1235:B2 *1175:B 0
33 *1236:A2 *1175:B 1.54318e-05
34 *1236:A2 *604:21 6.31535e-05
35 *1669:A *1175:B 7.67036e-05
36 *114:12 *1174:B 0
37 *115:24 *1174:B 4.22926e-05
38 *117:38 *604:40 1.16578e-05
39 *140:20 *1174:B 3.79325e-05
40 *170:22 *1174:B 0.00018955
41 *170:22 *604:40 0.000286962
42 *544:16 *604:40 0.000130686
43 *544:29 *604:40 0.000212158
44 *544:63 *604:40 2.54431e-05
45 *558:20 *1175:B 0
46 *558:20 *604:21 0
47 *558:35 *604:40 8.41384e-05
48 *584:10 *1174:B 4.98305e-05
49 *592:51 *604:40 1.1071e-05
*RES
1 *1669:X *604:8 6.81 
2 *604:8 *1175:B 6.255 
3 *604:8 *604:21 5.42 
4 *604:21 *1180:A2 1.6 
5 *604:21 *604:40 13.255 
6 *604:40 *1174:B 19.475 
7 *604:40 *1188:B 1.6 
*END

*D_NET *605 0.00553708
*CONN
*I *1443:A1 I *D sky130_fd_sc_hd__o21ai_2
*I *1450:B I *D sky130_fd_sc_hd__and2b_2
*I *1432:A I *D sky130_fd_sc_hd__nand2_2
*I *1464:A1 I *D sky130_fd_sc_hd__a22o_2
*I *1433:A I *D sky130_fd_sc_hd__xnor2_2
*I *1670:X O *D sky130_fd_sc_hd__clkdlybuf4s25_1
*CAP
1 *1443:A1 0.000190614
2 *1450:B 0
3 *1432:A 0.000344629
4 *1464:A1 0
5 *1433:A 0.000167139
6 *1670:X 0
7 *605:51 0.0007851
8 *605:10 0.000453646
9 *605:6 0.000694148
10 *605:4 0.000657497
11 *605:10 *1464:B1 0
12 *605:51 *1722:A 7.63883e-05
13 *1433:B *1433:A 0.000136881
14 *1444:B2 *605:51 0
15 *1449:A2 *1443:A1 8.64421e-05
16 *1451:A2 *605:51 4.66108e-05
17 *1451:B1 *605:51 4.92062e-05
18 *1452:A1 *1432:A 0.000169676
19 *1452:A2 *605:51 1.61831e-05
20 *1452:B1 *605:51 2.9664e-05
21 *1453:A *1432:A 9.387e-06
22 *1453:B *605:51 9.5433e-05
23 *1455:A1 *1432:A 0.000328561
24 *1455:A1 *605:51 9.29194e-05
25 *1455:A2 *1432:A 4.66108e-05
26 *1455:B1 *1432:A 1.12643e-05
27 *1456:B1 *1432:A 0.000155497
28 *1461:A_N *1432:A 0
29 *1461:A_N *605:6 4.67325e-05
30 *1461:A_N *605:10 0.000237243
31 *1464:A2 *605:10 3.75272e-05
32 *1464:B2 *605:10 3.24158e-05
33 *1635:A *1433:A 0
34 *1668:A *1433:A 8.2651e-05
35 *1670:A *1432:A 0
36 *371:67 *1443:A1 0
37 *373:14 *1443:A1 4.94474e-05
38 *385:6 *1432:A 1.91597e-05
39 *385:19 *1432:A 4.85169e-05
40 *385:38 *1432:A 1.89514e-05
41 *385:50 *1443:A1 3.09164e-05
42 *387:16 *1443:A1 2.68464e-05
43 *387:16 *605:51 0.000120107
44 *400:20 *1432:A 4.4929e-05
45 *571:12 *1432:A 0
46 *603:24 *605:51 9.81421e-05
*RES
1 *1670:X *605:4 1.6 
2 *605:4 *605:6 0.795 
3 *605:6 *605:10 3.915 
4 *605:10 *1433:A 9.53 
5 *605:10 *1464:A1 1.6 
6 *605:6 *1432:A 13.025 
7 *605:4 *605:51 12.82 
8 *605:51 *1450:B 1.6 
9 *605:51 *1443:A1 8.825 
*END

*D_NET *606 0.00469665
*CONN
*I *1446:A I *D sky130_fd_sc_hd__nand2_2
*I *1447:A I *D sky130_fd_sc_hd__or2_2
*I *1448:A I *D sky130_fd_sc_hd__xnor2_2
*I *1461:B I *D sky130_fd_sc_hd__and2b_2
*I *1464:B1 I *D sky130_fd_sc_hd__a22o_2
*I *1671:X O *D sky130_fd_sc_hd__clkdlybuf4s25_1
*CAP
1 *1446:A 0.000121499
2 *1447:A 5.95703e-05
3 *1448:A 0
4 *1461:B 0.000227542
5 *1464:B1 0.00020128
6 *1671:X 0.000481213
7 *606:50 0.000506815
8 *606:14 0.000500903
9 *606:10 0.000227548
10 *606:50 *1723:A 4.05674e-06
11 y[21] *606:10 8.65961e-05
12 y[21] *606:50 1.4389e-05
13 *1446:B *1446:A 0
14 *1446:B *606:50 0
15 *1455:A2 *1446:A 8.47629e-05
16 *1455:A2 *606:50 3.47837e-05
17 *1461:A_N *1461:B 0.00052577
18 *1462:B1 *1461:B 6.52265e-05
19 *1464:B2 *1461:B 0.000110668
20 *1464:B2 *1464:B1 0.000249775
21 *1636:A *606:10 0.000120364
22 *1636:A *606:14 3.58184e-05
23 *1671:A *606:14 0
24 *384:10 *1447:A 3.64998e-06
25 *398:10 *1461:B 0.000380194
26 *400:20 *1461:B 0.000421068
27 *569:8 *606:10 5.51574e-05
28 *569:10 *606:10 1.22505e-05
29 *569:10 *606:14 9.24127e-05
30 *571:10 *606:10 7.33378e-05
31 *605:10 *1464:B1 0
*RES
1 *1671:X *606:10 7.815 
2 *606:10 *606:14 3.89 
3 *606:14 *1464:B1 5.44 
4 *606:14 *1461:B 9.985 
5 *606:10 *1448:A 3.6 
6 *1671:X *606:50 7.59 
7 *606:50 *1447:A 4.395 
8 *606:50 *1446:A 6.255 
*END

*D_NET *607 0.00217048
*CONN
*I *1459:A I *D sky130_fd_sc_hd__xnor2_2
*I *1458:A I *D sky130_fd_sc_hd__or2_2
*I *1457:A I *D sky130_fd_sc_hd__and2_2
*I *1475:B I *D sky130_fd_sc_hd__and2b_2
*I *1672:X O *D sky130_fd_sc_hd__clkdlybuf4s25_1
*CAP
1 *1459:A 4.04328e-05
2 *1458:A 6.96054e-05
3 *1457:A 0
4 *1475:B 9.10707e-05
5 *1672:X 0.000113388
6 *607:28 0.000110038
7 *607:12 0.000178208
8 *607:8 0.000200526
9 *1455:A2 *607:8 0
10 *1455:A2 *607:12 0
11 *1456:A1 *1475:B 3.26889e-05
12 *1456:B1 *607:12 0
13 *1457:B *1475:B 4.40028e-05
14 *1458:B *1458:A 9.07709e-05
15 *1458:B *1459:A 0.000121023
16 *1485:A1 *1475:B 0.00034574
17 *384:10 *607:8 7.06865e-05
18 *384:10 *607:12 0.000162311
19 *393:6 *1475:B 0.000198001
20 *394:14 *1458:A 0.000239807
21 *394:14 *1459:A 6.21825e-05
22 *572:10 *607:8 0
*RES
1 *1672:X *607:8 5.49 
2 *607:8 *607:12 3.89 
3 *607:12 *1475:B 5.17 
4 *607:12 *1457:A 1.6 
5 *607:8 *607:28 2 
6 *607:28 *1458:A 4.135 
7 *607:28 *1459:A 3.1 
*END

*D_NET *608 0.00190928
*CONN
*I *1490:B I *D sky130_fd_sc_hd__and2b_2
*I *1472:A I *D sky130_fd_sc_hd__nand2_2
*I *1473:A I *D sky130_fd_sc_hd__or2_2
*I *1673:X O *D sky130_fd_sc_hd__clkdlybuf4s25_1
*CAP
1 *1490:B 0
2 *1472:A 0
3 *1473:A 7.81788e-05
4 *1673:X 0.000231939
5 *608:14 0.000434189
6 *608:6 0.000587949
7 *608:14 *1724:A 0
8 *1470:A1 *1473:A 6.4422e-05
9 *1470:A1 *608:14 7.97717e-05
10 *1471:A2 *608:14 0
11 *1473:B *1473:A 0.000124604
12 *1473:B *608:14 1.56477e-05
13 *1481:A3 *1473:A 7.21296e-06
14 *1491:C1 *608:6 5.9064e-05
15 *1673:A *608:6 2.75229e-05
16 *567:84 *1473:A 2.11084e-05
17 *573:10 *608:14 0.000177669
*RES
1 *1673:X *608:6 5.155 
2 *608:6 *608:14 8.975 
3 *608:14 *1473:A 5.94 
4 *608:14 *1472:A 3.6 
5 *608:6 *1490:B 1.6 
*END

*D_NET *609 0.00460098
*CONN
*I *1486:A I *D sky130_fd_sc_hd__or2_2
*I *1510:B I *D sky130_fd_sc_hd__and2b_2
*I *1487:A I *D sky130_fd_sc_hd__nand2_2
*I *1674:X O *D sky130_fd_sc_hd__clkdlybuf4s25_1
*CAP
1 *1486:A 0.000420142
2 *1510:B 9.27382e-05
3 *1487:A 0.000473133
4 *1674:X 0
5 *609:29 0.000550639
6 *609:4 0.000510891
7 *1487:A *1504:A 4.66108e-05
8 *1487:A *1506:A 8.56548e-05
9 *1486:B *1486:A 0.000123225
10 *1487:B *1487:A 0.000190813
11 *1511:A1 *1487:A 2.57174e-05
12 *1511:A2 *1487:A 0.000489598
13 *1511:C1 *1487:A 1.34503e-05
14 *1512:A *1486:A 0.000153825
15 *1512:A *1487:A 0.000162311
16 *1512:A *1510:B 2.92496e-05
17 *1512:A *609:29 7.23635e-05
18 *1512:B *1487:A 4.93614e-05
19 *1514:A *1486:A 1.88602e-05
20 *1514:B *1486:A 0.000106909
21 *1514:B *1487:A 8.65961e-05
22 *1514:B *609:29 0.000119756
23 *1516:B1 *1486:A 2.25075e-05
24 *1516:C1 *1486:A 5.6361e-05
25 *1521:A2 *1487:A 6.97202e-05
26 *1548:A *1486:A 2.86661e-05
27 *1548:A *1510:B 6.95335e-05
28 *420:16 *1486:A 3.09179e-05
29 *437:10 *1487:A 0.000149778
30 *440:12 *1486:A 3.86607e-05
31 *440:14 *1486:A 1.45569e-05
32 *443:16 *1487:A 1.12578e-05
33 *444:8 *1487:A 0.000163481
34 *556:60 *1510:B 0.000104213
35 *579:53 *1510:B 1.94805e-05
*RES
1 *1674:X *609:4 1.6 
2 *609:4 *1487:A 14.41 
3 *609:4 *609:29 3.14 
4 *609:29 *1510:B 6.255 
5 *609:29 *1486:A 11.145 
*END

*D_NET *610 0.00657603
*CONN
*I *1363:B1 I *D sky130_fd_sc_hd__o211ai_2
*I *1340:A1 I *D sky130_fd_sc_hd__o21ai_2
*I *1333:A I *D sky130_fd_sc_hd__nand2_2
*I *1334:A I *D sky130_fd_sc_hd__xnor2_2
*I *1152:A I *D sky130_fd_sc_hd__inv_2
*I *1675:X O *D sky130_fd_sc_hd__clkdlybuf4s25_1
*CAP
1 *1363:B1 0
2 *1340:A1 0.00091706
3 *1333:A 3.55506e-05
4 *1334:A 4.09406e-05
5 *1152:A 0.000170374
6 *1675:X 0.000366099
7 *610:20 0.000432455
8 *610:18 0.000339087
9 *610:16 0.00113919
10 *610:12 0.000505836
11 *610:12 *1722:A 9.46111e-06
12 *1333:B *610:20 2.16917e-05
13 *1341:A1 *1333:A 0
14 *1341:A1 *610:18 9.80943e-06
15 *1341:A1 *610:20 4.58166e-05
16 *1341:A2 *1333:A 0
17 *1341:C1 *1340:A1 0.000450139
18 *1343:B *610:12 0.00011379
19 *1346:B1 *1340:A1 0.000230435
20 *1349:A1_N *1152:A 3.83041e-05
21 *1349:B1 *1334:A 0.000116165
22 *1350:A1_N *1152:A 1.61836e-05
23 *1350:A1_N *610:20 0.000146403
24 *1350:B2 *1152:A 5.70787e-05
25 *1350:B2 *1333:A 0
26 *1351:A2 *1340:A1 7.01359e-05
27 *1354:B2 *610:12 0
28 *1360:A_N *1340:A1 2.937e-05
29 *1361:B *610:12 0
30 *1361:B *610:16 2.03321e-05
31 *1362:A2 *1340:A1 0.000178979
32 *1363:C1 *610:16 6.28843e-05
33 *1364:A1 *610:16 0
34 *1445:A1 *610:12 0.000484465
35 *1445:A1 *610:16 0.000119603
36 *110:6 *1152:A 4.99619e-05
37 *278:6 *1340:A1 0.000113237
38 *278:6 *610:18 8.8266e-05
39 *540:8 *610:16 2.67022e-05
40 *596:14 *1334:A 6.28843e-05
41 *597:8 *610:12 0
42 *597:47 *610:12 4.94326e-05
43 *597:60 *610:12 1.79098e-05
*RES
1 *1675:X *610:12 10.995 
2 *610:12 *610:16 5.675 
3 *610:16 *610:18 1.14 
4 *610:18 *610:20 2.865 
5 *610:20 *1152:A 4.495 
6 *610:20 *1334:A 6.98 
7 *610:18 *1333:A 2.215 
8 *610:16 *1340:A1 18.335 
9 *610:12 *1363:B1 3.6 
*END

*D_NET *611 0.00490381
*CONN
*I *1520:B I *D sky130_fd_sc_hd__and2b_2
*I *1506:A I *D sky130_fd_sc_hd__or2_2
*I *1504:A I *D sky130_fd_sc_hd__nand2_2
*I *1505:A I *D sky130_fd_sc_hd__nor2_2
*I *1676:X O *D sky130_fd_sc_hd__clkdlybuf4s25_1
*CAP
1 *1520:B 3.26279e-05
2 *1506:A 5.39713e-05
3 *1504:A 1.50419e-05
4 *1505:A 5.40834e-05
5 *1676:X 0.000671635
6 *611:33 8.15373e-05
7 *611:20 0.000304889
8 *611:10 0.000942544
9 *1505:A *1726:A 0.000101872
10 *611:10 *1728:A 1.22676e-05
11 *611:33 *1726:A 9.67081e-06
12 y[24] *611:10 0.000103919
13 y[26] *611:10 0.00038879
14 *1487:A *1504:A 4.66108e-05
15 *1487:A *1506:A 8.56548e-05
16 *1487:B *1504:A 1.91597e-05
17 *1487:B *1506:A 0.000119762
18 *1503:A1 *1505:A 8.53113e-06
19 *1504:B *611:10 7.01063e-05
20 *1504:B *611:20 3.94692e-05
21 *1505:B *1505:A 0.000145583
22 *1505:B *611:33 1.7635e-05
23 *1507:B *611:10 0.000197739
24 *1527:A *1505:A 1.71207e-05
25 *1527:A *611:10 6.48855e-05
26 *1527:B *611:10 5.64768e-05
27 *1527:C *611:10 0
28 *1640:A *611:10 4.82919e-05
29 *1676:A *611:10 0.000431333
30 *421:14 *611:20 7.87799e-05
31 *440:44 *611:20 0.00021012
32 *453:6 *1520:B 0.000119756
33 *455:6 *1520:B 0.000118081
34 *545:180 *611:10 0.000140145
35 *564:91 *611:10 0
36 *564:97 *611:10 0
37 *564:97 *611:20 6.29809e-05
38 *575:10 *611:10 3.27443e-05
*RES
1 *1676:X *611:10 19.005 
2 *611:10 *611:20 3.79683 
3 *611:20 *1505:A 5.3625 
4 *611:20 *611:33 2.2325 
5 *611:33 *1504:A 2.05 
6 *611:33 *1506:A 3.1 
7 *611:10 *1520:B 4.74 
*END

*D_NET *612 0.00306724
*CONN
*I *1518:A I *D sky130_fd_sc_hd__nand2_2
*I *1517:A I *D sky130_fd_sc_hd__nor2_2
*I *1535:B I *D sky130_fd_sc_hd__and2b_2
*I *1677:X O *D sky130_fd_sc_hd__clkdlybuf4s25_1
*CAP
1 *1518:A 0
2 *1517:A 8.08147e-05
3 *1535:B 0.000125218
4 *1677:X 0.000404477
5 *612:27 0.000152463
6 *612:14 0.000601343
7 *1517:B *1517:A 4.82863e-05
8 *1522:C1 *612:27 0
9 *1527:B *612:14 7.23602e-05
10 *1536:B1 *1535:B 4.99619e-05
11 *1537:C1 *1517:A 0.000164279
12 *1537:C1 *612:14 1.33293e-05
13 *1537:C1 *612:27 0.0001249
14 *450:12 *1517:A 4.66108e-05
15 *454:10 *612:14 0.000115135
16 *545:180 *612:14 0.000237249
17 *551:97 *612:14 2.78732e-05
18 *576:10 *612:14 0.000191845
19 *576:19 *1517:A 0.000296162
20 *576:19 *1535:B 0.000232105
21 *576:19 *612:27 8.28254e-05
*RES
1 *1677:X *612:14 13.43 
2 *612:14 *1535:B 4.12 
3 *612:14 *612:27 2.37 
4 *612:27 *1517:A 4.81 
5 *612:27 *1518:A 1.6 
*END

*D_NET *613 0.00175325
*CONN
*I *1532:A I *D sky130_fd_sc_hd__or2_2
*I *1556:B I *D sky130_fd_sc_hd__and2b_2
*I *1531:A I *D sky130_fd_sc_hd__nor2_2
*I *1530:A I *D sky130_fd_sc_hd__nand2_2
*I *1678:X O *D sky130_fd_sc_hd__clkdlybuf4s25_1
*CAP
1 *1532:A 0
2 *1556:B 0.000102978
3 *1531:A 3.60066e-05
4 *1530:A 0
5 *1678:X 7.70731e-05
6 *613:14 0.000226135
7 *613:8 0.000293107
8 *613:6 7.70731e-05
9 *1471:A1 *613:6 5.23392e-05
10 *1484:A1 *1556:B 0.000139238
11 *1484:A1 *613:6 4.66108e-05
12 *1484:A1 *613:14 2.92496e-05
13 *1531:B *1531:A 0.000153217
14 *1531:B *613:14 4.99619e-05
15 *1533:B *613:6 4.99619e-05
16 *1544:A2 *1556:B 0
17 *1552:C1 *613:14 0
18 *461:8 *1531:A 8.8266e-05
19 *461:21 *613:14 0
20 *464:8 *613:6 2.49909e-05
21 *554:16 *613:6 0.000307038
22 *578:8 *1556:B 0
23 *578:10 *1556:B 0
24 *578:16 *613:14 0
*RES
1 *1678:X *613:6 4.465 
2 *613:6 *613:8 2 
3 *613:8 *613:14 5.105 
4 *613:14 *1530:A 1.6 
5 *613:14 *1531:A 3.085 
6 *613:8 *1556:B 5.745 
7 *613:6 *1532:A 1.6 
*END

*D_NET *614 0.0039442
*CONN
*I *1548:B I *D sky130_fd_sc_hd__nand2_2
*I *1546:B I *D sky130_fd_sc_hd__nor2_2
*I *1547:B I *D sky130_fd_sc_hd__and2_2
*I *1154:A I *D sky130_fd_sc_hd__inv_2
*I *1679:X O *D sky130_fd_sc_hd__clkdlybuf4s25_1
*CAP
1 *1548:B 0.000552959
2 *1546:B 0
3 *1547:B 0
4 *1154:A 0.000130766
5 *1679:X 0
6 *614:36 0.000671276
7 *614:27 0.000529962
8 *614:6 0.000542411
9 *1154:A *617:85 0
10 *614:27 *617:85 0
11 y[29] *1154:A 0.000105911
12 *1487:B *1548:B 5.46798e-05
13 *1487:B *614:36 1.71013e-05
14 *1512:B *1548:B 5.02217e-05
15 *1513:A2 *1548:B 5.83121e-06
16 *1514:C *1548:B 9.59984e-05
17 *1548:A *1548:B 2.32321e-05
18 *1564:A1 *614:27 9.5799e-06
19 *1564:B1 *614:27 0
20 *1565:B1 *614:27 7.23533e-05
21 *1584:A1 *1154:A 5.08304e-06
22 *1597:A_N *1154:A 1.26626e-05
23 *1597:A_N *614:27 7.81954e-05
24 *1644:A *614:27 0
25 *440:36 *1548:B 2.81489e-05
26 *478:16 *1548:B 8.49205e-05
27 *478:16 *614:27 9.37731e-05
28 *556:49 *614:27 0
29 *556:60 *1548:B 8.01291e-05
30 *556:60 *614:27 1.94892e-05
31 *556:60 *614:36 7.79794e-05
32 *564:66 *1548:B 1.65192e-05
33 *564:66 *614:27 0
34 *564:66 *614:36 0
35 *564:85 *1548:B 6.65066e-05
36 *579:6 *614:27 2.54431e-05
37 *579:10 *614:27 0.000224692
38 *579:16 *614:27 0.000117512
39 *580:6 *1154:A 3.72916e-05
40 *582:61 *1154:A 0.000113572
*RES
1 *1679:X *614:6 3.6 
2 *614:6 *1154:A 7.05 
3 *614:6 *614:27 11.08 
4 *614:27 *1547:B 3.6 
5 *614:27 *614:36 2.4 
6 *614:36 *1546:B 3.6 
7 *614:36 *1548:B 13.515 
*END

*D_NET *615 0.0030499
*CONN
*I *1566:B I *D sky130_fd_sc_hd__nor2_2
*I *1567:B I *D sky130_fd_sc_hd__and2_2
*I *1583:B I *D sky130_fd_sc_hd__nand2b_2
*I *1680:X O *D sky130_fd_sc_hd__clkdlybuf4s25_1
*CAP
1 *1566:B 0.000115119
2 *1567:B 6.29398e-05
3 *1583:B 5.81914e-05
4 *1680:X 0.000161972
5 *615:27 0.000321577
6 *615:6 0.000363681
7 *1566:A *615:27 3.23657e-05
8 *1568:A *615:27 0.000115433
9 *1571:A1 *1566:B 4.92971e-05
10 *1571:A1 *615:27 7.9642e-06
11 *1571:B1 *1567:B 4.66108e-05
12 *1581:A2 *1567:B 0.000120655
13 *1583:A_N *1567:B 4.66108e-05
14 *1584:A1 *615:6 0.000122337
15 *1584:A3 *615:6 1.19928e-05
16 *1584:A3 *615:27 7.1456e-05
17 *1584:B1 *1583:B 9.44548e-05
18 *1584:B1 *615:6 4.66108e-05
19 *1585:B1 *1583:B 8.23457e-05
20 *479:10 *1566:B 0.000287765
21 *479:16 *1566:B 1.93416e-05
22 *479:16 *615:27 5.03747e-05
23 *490:30 *615:27 3.36429e-05
24 *495:10 *1566:B 1.97442e-05
25 *500:8 *1567:B 1.91597e-05
26 *512:6 *1583:B 4.82919e-05
27 *512:6 *615:6 0.000220453
28 *579:16 *1566:B 0.000301428
29 *580:12 *1567:B 0.000118081
*RES
1 *1680:X *615:6 5.155 
2 *615:6 *1583:B 3.1 
3 *615:6 *615:27 5.765 
4 *615:27 *1567:B 5.43 
5 *615:27 *1566:B 7.785 
*END

*D_NET *616 0.00942968
*CONN
*I *1185:B I *D sky130_fd_sc_hd__xnor2_2
*I *1184:B I *D sky130_fd_sc_hd__nor2_2
*I *1200:B I *D sky130_fd_sc_hd__and2b_2
*I *1183:B I *D sky130_fd_sc_hd__nand2_2
*I *1681:X O *D sky130_fd_sc_hd__clkdlybuf4s25_1
*CAP
1 *1185:B 1.49104e-05
2 *1184:B 0.000945352
3 *1200:B 0.000222177
4 *1183:B 0.000216825
5 *1681:X 0.000398445
6 *616:45 0.00125339
7 *616:8 0.000544318
8 *1184:B *1159:A 9.80559e-05
9 *1184:B *1593:B 8.35118e-05
10 *1184:B *1734:A 0
11 *1184:B *1735:A 0.000124296
12 *1185:B *1593:B 3.57349e-05
13 *1200:B *630:10 0.000198046
14 *616:8 *619:24 9.14714e-05
15 *616:45 *1592:B 0.000165397
16 *1172:C1 *1183:B 8.34204e-05
17 *1173:A2 *1200:B 9.39684e-05
18 *1183:A *1183:B 0
19 *1183:A *1200:B 8.65905e-05
20 *1184:A *1184:B 0.00148058
21 *1185:A *1184:B 4.41506e-05
22 *1185:A *1185:B 2.49909e-05
23 *1206:B *1184:B 0.000337302
24 *1208:A1 *1184:B 0.000670979
25 *1594:A *616:8 2.42236e-05
26 *1604:C1 *616:45 0.000302648
27 *1608:A1 *1184:B 1.45506e-05
28 *1613:A *1184:B 0.000156439
29 *1648:A *1184:B 3.58134e-05
30 *114:22 *1184:B 3.98864e-05
31 *116:8 *1183:B 3.30343e-05
32 *116:27 *1183:B 9.89899e-05
33 *116:27 *616:8 0.00011686
34 *131:20 *1184:B 0
35 *139:16 *1183:B 1.65371e-05
36 *139:16 *616:8 7.57835e-05
37 *519:21 *1184:B 0.000252983
38 *521:10 *1184:B 0.000251627
39 *521:10 *616:45 0.00044795
40 *535:58 *1183:B 1.53101e-05
41 *535:58 *616:8 4.41468e-05
42 *535:66 *1183:B 0.000169221
43 *581:16 *1200:B 0.000119762
*RES
1 *1681:X *616:8 6.765 
2 *616:8 *1183:B 8.595 
3 *616:8 *1200:B 8.37 
4 *1681:X *616:45 12.545 
5 *616:45 *1184:B 14.6946 
6 *616:45 *1185:B 2.05 
*END

*D_NET *617 0.011858
*CONN
*I *1597:B I *D sky130_fd_sc_hd__nand2b_2
*I *1596:A_N I *D sky130_fd_sc_hd__and2b_2
*I *1579:B I *D sky130_fd_sc_hd__or2_2
*I *1578:B I *D sky130_fd_sc_hd__nor2_2
*I *1577:B I *D sky130_fd_sc_hd__nand2_2
*I *1682:X O *D sky130_fd_sc_hd__clkdlybuf4s25_1
*CAP
1 *1597:B 0.000221905
2 *1596:A_N 0.000238936
3 *1579:B 3.26596e-05
4 *1578:B 0.000427272
5 *1577:B 0.00102705
6 *1682:X 7.82801e-05
7 *617:85 0.000806447
8 *617:43 0.00105263
9 *617:10 0.00169694
10 *617:6 0.000501072
11 *1577:B *1734:A 0.000102334
12 *1596:A_N *1731:A 0.000191232
13 y[29] *617:85 2.37321e-05
14 *1154:A *617:85 0
15 *1398:B2 *1578:B 0
16 *1501:A *1578:B 7.00889e-06
17 *1561:S *1578:B 2.8585e-06
18 *1564:B2 *1596:A_N 8.57024e-05
19 *1564:C1 *1596:A_N 2.14017e-05
20 *1566:A *1596:A_N 0.000180856
21 *1568:A *1577:B 1.82563e-05
22 *1571:C1 *617:85 0.00017086
23 *1577:A *1577:B 1.88658e-05
24 *1578:A *1578:B 0.000159002
25 *1578:A *1579:B 3.82728e-05
26 *1580:B *617:43 0.000135323
27 *1584:A1 *617:85 0.000246793
28 *1588:A1 *1578:B 5.59142e-05
29 *1588:A1 *1579:B 4.82863e-05
30 *1589:A2 *1577:B 4.4133e-05
31 *1595:A *1577:B 0.000366292
32 *1596:B *1596:A_N 4.66108e-05
33 *1598:A2 *1577:B 7.9642e-06
34 *1598:A2 *617:43 9.67081e-06
35 *1598:C1 *617:6 6.69341e-05
36 *1598:C1 *617:10 4.38278e-05
37 *1604:A1 *1577:B 7.79931e-05
38 *1605:B1 *1577:B 4.66108e-05
39 *1606:A3 *1577:B 9.0918e-05
40 *1606:B1 *1577:B 0.000136884
41 *1606:B2 *1577:B 1.20478e-05
42 *1607:D_N *1577:B 0.000179039
43 *1608:A1 *1577:B 1.7635e-05
44 *1608:A1 *617:43 0.000186412
45 *1609:B1 *1578:B 0.000135547
46 *1625:A *1577:B 0
47 *1692:A *1577:B 3.17287e-05
48 *1706:A *1578:B 1.56428e-05
49 *121:25 *1578:B 0.000148474
50 *121:25 *1579:B 4.82863e-05
51 *125:8 *1578:B 6.71803e-06
52 *125:8 *1579:B 1.8279e-05
53 *125:25 *1579:B 4.43871e-06
54 *478:16 *1596:A_N 4.9253e-06
55 *478:16 *1597:B 8.37434e-05
56 *490:28 *1596:A_N 8.23457e-05
57 *495:56 *1596:A_N 2.49909e-05
58 *497:10 *1577:B 0.000241193
59 *505:10 *1577:B 8.49205e-05
60 *505:19 *1577:B 1.80007e-05
61 *506:12 *1578:B 5.97622e-05
62 *521:23 *1577:B 4.53306e-05
63 *523:14 *1577:B 1.01152e-05
64 *523:14 *617:43 1.26485e-05
65 *523:14 *617:85 0.000178375
66 *525:8 *1577:B 0.000247697
67 *552:12 *1578:B 4.82919e-05
68 *555:18 *1577:B 0
69 *555:44 *1577:B 3.1562e-06
70 *556:49 *617:85 9.51166e-05
71 *560:18 *1577:B 4.39911e-06
72 *564:22 *1577:B 0
73 *579:16 *1596:A_N 0.000135533
74 *582:31 *617:85 0
75 *582:39 *617:43 0.0011455
76 *582:61 *617:85 0
77 *614:27 *617:85 0
*RES
1 *1682:X *617:6 3.085 
2 *617:6 *617:10 3.14 
3 *617:10 *1577:B 27.94 
4 *617:10 *617:43 3.07677 
5 *617:43 *1578:B 15.3775 
6 *617:43 *1579:B 4.5375 
7 *617:6 *617:85 12.37 
8 *617:85 *1596:A_N 11.24 
9 *617:85 *1597:B 5.275 
*END

*D_NET *618 0.00449034
*CONN
*I *1155:A I *D sky130_fd_sc_hd__inv_2
*I *1593:B I *D sky130_fd_sc_hd__or2_2
*I *1592:B I *D sky130_fd_sc_hd__nand2_2
*I *1683:X O *D sky130_fd_sc_hd__clkdlybuf4s25_1
*CAP
1 *1155:A 0.000225298
2 *1593:B 0.000262198
3 *1592:B 0.000262359
4 *1683:X 6.94528e-05
5 *618:21 0.000521994
6 *618:8 0.00036631
7 *1155:A *643:26 0.000514303
8 *1184:B *1593:B 8.35118e-05
9 *1185:A *1593:B 6.82416e-05
10 *1185:B *1593:B 3.57349e-05
11 *1194:B2 *618:8 1.56428e-05
12 *1195:B1 *618:8 1.08105e-05
13 *1577:A *1155:A 0.000339465
14 *1593:A *1593:B 4.77807e-05
15 *1604:C1 *1155:A 0.00036541
16 *1604:C1 *1592:B 0.000201113
17 *1604:C1 *618:21 8.32328e-05
18 *141:14 *1593:B 4.66108e-05
19 *519:21 *1592:B 4.90227e-05
20 *520:10 *1593:B 0.000121659
21 *521:10 *1592:B 1.27667e-05
22 *555:59 *1155:A 0.000109664
23 *555:59 *1592:B 3.61276e-05
24 *555:59 *618:21 4.83032e-05
25 *555:63 *1592:B 0.000325194
26 *583:17 *1593:B 0.000102732
27 *616:45 *1592:B 0.000165397
*RES
1 *1683:X *618:8 4.395 
2 *618:8 *1592:B 10.815 
3 *618:8 *618:21 1.125 
4 *618:21 *1593:B 8.535 
5 *618:21 *1155:A 12.12 
*END

*D_NET *619 0.00724684
*CONN
*I *1197:B I *D sky130_fd_sc_hd__nand2_2
*I *1211:B I *D sky130_fd_sc_hd__and2b_2
*I *1196:B I *D sky130_fd_sc_hd__nor2_2
*I *1684:X O *D sky130_fd_sc_hd__clkdlybuf4s25_1
*CAP
1 *1197:B 0
2 *1211:B 0
3 *1196:B 0.000231632
4 *1684:X 0.00136994
5 *619:30 0.000344962
6 *619:24 0.00148327
7 *1196:B *1159:A 1.64608e-05
8 *1196:B *630:62 3.37099e-05
9 *619:24 *630:27 0.000150569
10 *619:24 *630:35 6.12118e-05
11 y[2] *619:24 0.000308724
12 *1159:B *1196:B 3.08152e-05
13 *1173:A2 *619:24 0.000383612
14 *1174:B *1196:B 0.000278707
15 *1174:B *619:30 5.30352e-05
16 *1184:A *1196:B 0.000136739
17 *1186:A1 *619:24 5.12793e-05
18 *1186:A2 *619:24 4.66108e-05
19 *1191:A2 *619:24 0.00029007
20 *1196:A *1196:B 3.65496e-05
21 *1197:A *619:30 8.35118e-05
22 *1215:C1 *1196:B 9.30787e-05
23 *1215:C1 *619:30 1.74306e-05
24 *1233:B1 *619:24 0.000493819
25 *1234:A1 *619:24 8.7152e-06
26 *1234:B1_N *619:24 2.40822e-05
27 *1235:C1 *619:24 8.44008e-05
28 *1594:A *619:24 9.31313e-05
29 *1631:A *619:24 0.000346135
30 *140:20 *1196:B 8.49205e-05
31 *142:6 *619:24 0.000269334
32 *157:25 *619:30 0.000119425
33 *519:21 *619:24 4.66108e-05
34 *584:10 *619:24 3.51036e-05
35 *584:29 *619:30 4.77807e-05
36 *616:8 *619:24 9.14714e-05
*RES
1 *1684:X *619:24 33.75 
2 *619:24 *619:30 4.79 
3 *619:30 *1196:B 9.48 
4 *619:30 *1211:B 3.6 
5 *619:24 *1197:B 1.6 
*END

*D_NET *620 0.00490116
*CONN
*I *1210:B I *D sky130_fd_sc_hd__xnor2_2
*I *1230:A2 I *D sky130_fd_sc_hd__a21oi_2
*I *1209:B I *D sky130_fd_sc_hd__nand2_2
*I *1223:A2 I *D sky130_fd_sc_hd__o21ai_2
*I *1241:A2 I *D sky130_fd_sc_hd__a31o_2
*I *1685:X O *D sky130_fd_sc_hd__clkdlybuf4s25_1
*CAP
1 *1210:B 2.02912e-05
2 *1230:A2 0.000174582
3 *1209:B 1.36534e-05
4 *1223:A2 0.000297845
5 *1241:A2 0.000185984
6 *1685:X 0.000252952
7 *620:49 0.000215518
8 *620:40 6.4792e-05
9 *620:25 0.000441565
10 *620:10 0.000552162
11 *1230:A2 *1226:B 0.000151736
12 *620:25 *1176:A1 8.97006e-07
13 *620:25 *1226:B 8.79694e-05
14 *620:40 *1226:B 6.76938e-05
15 *1176:B1 *620:25 2.60367e-05
16 *1189:A2 *1230:A2 9.90325e-05
17 *1189:A3 *1230:A2 3.55338e-05
18 *1189:A3 *620:25 0
19 *1189:B1 *1230:A2 4.66108e-05
20 *1226:A *620:25 0.000109389
21 *1226:A *620:40 5.97296e-05
22 *1229:A *1230:A2 4.66108e-05
23 *1248:A1 *620:10 0
24 *1249:B1 *620:10 0.000283303
25 *1249:B1 *620:25 0
26 *1253:A *620:10 0.000344205
27 *145:18 *1230:A2 5.86304e-05
28 *163:8 *1223:A2 0.000191343
29 *170:22 *1230:A2 8.54124e-05
30 *179:14 *620:10 3.05228e-05
31 *179:14 *620:25 2.30512e-05
32 *181:33 *1241:A2 2.05056e-05
33 *181:47 *1241:A2 0.000235668
34 *184:16 *1209:B 4.66108e-05
35 *184:16 *1210:B 0.000121038
36 *184:16 *620:49 8.23457e-05
37 *189:25 *620:10 8.49205e-05
38 *191:8 *620:10 5.05521e-05
39 *193:22 *1223:A2 0
40 *197:10 *620:10 2.23485e-05
41 *550:65 *620:10 0
42 *585:35 *1209:B 4.66108e-05
43 *585:35 *1210:B 0.00011255
44 *585:35 *1223:A2 3.83194e-05
45 *585:35 *620:49 7.26398e-05
*RES
1 *1685:X *620:10 9.855 
2 *620:10 *1241:A2 6.12 
3 *620:10 *620:25 2.7 
4 *620:25 *1223:A2 7.335 
5 *620:25 *620:40 2.87 
6 *620:40 *1209:B 2.05 
7 *620:40 *620:49 0.795 
8 *620:49 *1230:A2 10.01 
9 *620:49 *1210:B 2.74 
*END

*D_NET *621 0.00402642
*CONN
*I *1343:A I *D sky130_fd_sc_hd__nand2_2
*I *1353:A1 I *D sky130_fd_sc_hd__o21ai_2
*I *1344:A I *D sky130_fd_sc_hd__xnor2_2
*I *1361:A_N I *D sky130_fd_sc_hd__and2b_2
*I *1363:A1 I *D sky130_fd_sc_hd__o211ai_2
*I *1686:X O *D sky130_fd_sc_hd__clkdlybuf4s25_1
*CAP
1 *1343:A 0.000123285
2 *1353:A1 0.000156201
3 *1344:A 0.000115799
4 *1361:A_N 0.000586254
5 *1363:A1 9.10064e-05
6 *1686:X 0
7 *621:32 0.000217056
8 *621:10 0.000737105
9 *621:6 0.000128186
10 *1344:A *1715:A 0.000130453
11 *1343:B *1343:A 6.53388e-05
12 *1344:B *1344:A 0.000194131
13 *1344:B *1353:A1 0.00010978
14 *1349:B2 *1363:A1 2.65814e-06
15 *1351:A3 *1361:A_N 7.9205e-06
16 *1351:A3 *1363:A1 9.46525e-06
17 *1361:B *1361:A_N 9.47267e-06
18 *1363:A2 *1361:A_N 0.000235568
19 *1363:A2 *1363:A1 0
20 *1364:A2 *1361:A_N 2.75229e-05
21 *1364:B1 *1361:A_N 5.94488e-05
22 *1364:C1 *1361:A_N 0.000202956
23 *1443:B1 *1343:A 0.000252694
24 *1445:A1 *621:10 7.3664e-05
25 *1445:A1 *621:32 8.70844e-05
26 *1445:A2 *1343:A 0.000103185
27 *288:8 *1344:A 7.86938e-05
28 *288:8 *1353:A1 6.71882e-05
29 *307:12 *1361:A_N 2.75229e-05
30 *546:105 *1343:A 5.53249e-06
31 *549:75 *621:10 5.33874e-05
32 *549:75 *621:32 4.28396e-05
33 *549:96 *621:32 1.94892e-05
34 *597:60 *1343:A 5.53249e-06
*RES
1 *1686:X *621:6 3.6 
2 *621:6 *621:10 3.635 
3 *621:10 *1363:A1 2.755 
4 *621:10 *1361:A_N 9.31 
5 *621:6 *621:32 3.89 
6 *621:32 *1344:A 5.275 
7 *621:32 *1353:A1 2.74 
8 *1353:A1 *1343:A 11.385 
*END

*D_NET *622 0.00730642
*CONN
*I *1240:B I *D sky130_fd_sc_hd__and2b_2
*I *1226:B I *D sky130_fd_sc_hd__nand2_2
*I *1227:B I *D sky130_fd_sc_hd__nor2_2
*I *1228:B I *D sky130_fd_sc_hd__xnor2_2
*I *1687:X O *D sky130_fd_sc_hd__clkdlybuf4s25_1
*CAP
1 *1240:B 0
2 *1226:B 0.000279594
3 *1227:B 0.000419447
4 *1228:B 0.000291961
5 *1687:X 0.000387973
6 *622:49 0.000555052
7 *622:12 0.000823924
8 *1226:B *1176:A1 5.12179e-05
9 y[5] *622:12 9.24545e-05
10 *1172:B1 *1227:B 6.1357e-05
11 *1172:B2 *1227:B 6.52265e-05
12 *1177:B1 *1226:B 0.000596485
13 *1177:B1 *622:49 4.66108e-05
14 *1178:A3 *1227:B 0.000110456
15 *1182:A1 *622:49 0
16 *1182:B1 *622:12 0.000394699
17 *1191:A2 *1227:B 3.50959e-05
18 *1191:A3 *1227:B 0.000306259
19 *1191:B1 *1227:B 3.09164e-05
20 *1217:A *622:49 0.000143571
21 *1226:A *1226:B 0.000612754
22 *1226:A *622:49 3.57349e-05
23 *1230:A2 *1226:B 0.000151736
24 *1236:A2 *1227:B 0.000270415
25 *1236:A2 *1228:B 4.66108e-05
26 *1240:A_N *622:49 0.000157122
27 *1244:A2 *622:49 8.73147e-06
28 *1704:A *1226:B 0.000114649
29 *131:35 *622:49 5.66315e-05
30 *180:20 *1227:B 1.08758e-05
31 *180:20 *622:12 0.000132872
32 *181:10 *622:49 4.82919e-05
33 *544:12 *622:12 0.0001288
34 *555:90 *1227:B 0.000158133
35 *555:98 *1227:B 8.05167e-05
36 *555:98 *1228:B 2.49909e-05
37 *555:98 *622:49 3.00381e-05
38 *563:136 *1227:B 2.09165e-05
39 *584:10 *622:49 1.885e-05
40 *592:14 *1227:B 0
41 *592:51 *1227:B 0.000158066
42 *604:8 *1227:B 0.000191721
43 *620:25 *1226:B 8.79694e-05
44 *620:40 *1226:B 6.76938e-05
*RES
1 *1687:X *622:12 12.83 
2 *622:12 *1228:B 2.05 
3 *622:12 *1227:B 17.27 
4 *1228:B *622:49 11.195 
5 *622:49 *1226:B 14.9 
6 *622:49 *1240:B 1.6 
*END

*D_NET *623 0.00352696
*CONN
*I *1239:B I *D sky130_fd_sc_hd__xnor2_2
*I *1238:B I *D sky130_fd_sc_hd__nor2_2
*I *1237:B I *D sky130_fd_sc_hd__nand2_2
*I *1269:A2 I *D sky130_fd_sc_hd__a31o_2
*I *1151:A I *D sky130_fd_sc_hd__inv_2
*I *1688:X O *D sky130_fd_sc_hd__clkdlybuf4s25_1
*CAP
1 *1239:B 0
2 *1238:B 9.83803e-05
3 *1237:B 0
4 *1269:A2 4.63152e-05
5 *1151:A 1.88809e-05
6 *1688:X 0.00020086
7 *623:40 0.000223146
8 *623:27 0.000296129
9 *623:21 0.000270867
10 *623:6 0.000365559
11 *623:27 *1739:A 0
12 *623:40 *1739:A 0
13 y[7] *623:21 0
14 *1238:A *1238:B 6.98388e-05
15 *1254:A1 *1269:A2 1.08758e-05
16 *1254:A2 *623:21 4.60584e-05
17 *1255:B *1269:A2 4.21973e-05
18 *1263:C *1269:A2 3.26889e-05
19 *1264:C1 *623:27 4.35432e-05
20 *1269:A1 *1269:A2 4.82919e-05
21 *1269:B1 *623:40 0.000102338
22 *1270:B *1238:B 7.27704e-06
23 *1271:A1 *1238:B 0.000121659
24 *1271:A2 *1238:B 2.69217e-05
25 *1688:A *1151:A 5.4155e-06
26 *1688:A *623:6 5.30673e-05
27 *1688:A *623:21 0.000112622
28 *190:12 *1238:B 0.000141368
29 *190:12 *623:40 0.000154488
30 *190:20 *623:40 7.63883e-05
31 *202:40 *623:21 2.92496e-05
32 *202:40 *623:27 0.000132985
33 *214:8 *1238:B 0.00018795
34 *214:8 *623:40 0.000163992
35 *587:12 *623:21 0.000174464
36 *587:25 *623:27 0.000144234
37 *587:25 *623:40 1.71013e-05
38 *587:36 *623:40 2.23407e-05
39 *587:53 *623:40 3.94692e-05
*RES
1 *1688:X *623:6 4.81 
2 *623:6 *1151:A 1.96 
3 *623:6 *623:21 7.975 
4 *623:21 *623:27 5.12 
5 *623:27 *1269:A2 4.755 
6 *623:27 *623:40 4.44 
7 *623:40 *1237:B 3.6 
8 *623:40 *1238:B 7.14 
9 *623:21 *1239:B 1.6 
*END

*D_NET *624 0.0034622
*CONN
*I *1256:A2 I *D sky130_fd_sc_hd__o21ai_2
*I *1250:B I *D sky130_fd_sc_hd__nand2_2
*I *1268:B I *D sky130_fd_sc_hd__and2b_2
*I *1251:B I *D sky130_fd_sc_hd__xnor2_2
*I *1689:X O *D sky130_fd_sc_hd__clkdlybuf4s25_1
*CAP
1 *1256:A2 0.000124017
2 *1250:B 8.48182e-05
3 *1268:B 0.000238017
4 *1251:B 0.000264272
5 *1689:X 0.000101511
6 *624:35 0.000396959
7 *624:6 0.000415675
8 y[8] *1250:B 0
9 *1255:A *1268:B 4.49328e-05
10 *1257:C1 *1268:B 0.000103974
11 *1258:A2 *1268:B 0.000187766
12 *1258:B1 *1268:B 0
13 *1264:C1 *1268:B 1.71013e-05
14 *1264:C1 *624:6 0.000349592
15 *1265:A *1268:B 0
16 *1272:A2 *1268:B 0
17 *1277:B1 *1250:B 5.51245e-05
18 *1277:B1 *1256:A2 7.25036e-05
19 *1282:B *1268:B 1.39525e-05
20 *1287:C1 *1256:A2 5.4003e-05
21 *1653:A *624:35 0.000120655
22 *1689:A *1251:B 4.82919e-05
23 *1689:A *624:6 0.000148084
24 *202:40 *624:6 0.000157343
25 *222:10 *1268:B 7.5648e-05
26 *239:10 *1256:A2 5.05521e-05
27 *549:140 *1250:B 7.1635e-05
28 *549:140 *1256:A2 1.82476e-05
29 *588:10 *624:35 5.2711e-05
30 *589:24 *624:35 0.000122331
31 *594:8 *1268:B 7.24866e-05
*RES
1 *1689:X *624:6 5.5 
2 *624:6 *1251:B 2.755 
3 *624:6 *1268:B 11.825 
4 *1251:B *624:35 7.155 
5 *624:35 *1250:B 5.745 
6 *624:35 *1256:A2 6.54 
*END

*D_NET *625 0.00348583
*CONN
*I *1275:A2 I *D sky130_fd_sc_hd__o21ai_2
*I *1280:A2 I *D sky130_fd_sc_hd__o21a_2
*I *1281:A2 I *D sky130_fd_sc_hd__a211o_2
*I *1260:B I *D sky130_fd_sc_hd__xnor2_2
*I *1259:B I *D sky130_fd_sc_hd__nand2_2
*I *1283:B I *D sky130_fd_sc_hd__and2b_2
*I *1690:X O *D sky130_fd_sc_hd__clkdlybuf4s25_1
*CAP
1 *1275:A2 0.000129785
2 *1280:A2 2.5813e-05
3 *1281:A2 9.03006e-05
4 *1260:B 0
5 *1259:B 0
6 *1283:B 0.000110976
7 *1690:X 0.000387079
8 *625:57 0.000262355
9 *625:44 0.000329417
10 *625:31 0.000176743
11 *625:8 0.000453672
12 *1259:A *1283:B 0
13 *1259:A *625:8 5.4155e-06
14 *1275:A1 *1275:A2 8.71001e-05
15 *1276:A2 *625:8 0.00030934
16 *1276:B1 *625:31 4.22574e-05
17 *1276:B1 *625:44 3.60024e-06
18 *1276:C1 *625:44 0
19 *1280:B1 *1280:A2 4.77757e-05
20 *1281:A1 *1281:A2 5.29295e-05
21 *1281:C1 *1281:A2 2.68464e-05
22 *1281:C1 *625:57 3.23391e-05
23 *1283:A_N *1283:B 8.8266e-05
24 *1283:A_N *625:8 3.23663e-05
25 *1287:C1 *1281:A2 0.000300628
26 *1297:A3 *1275:A2 6.69608e-06
27 *1299:B1 *1275:A2 4.77719e-05
28 *232:10 *1283:B 3.23663e-05
29 *542:33 *1275:A2 4.86642e-05
30 *553:73 *1283:B 2.30292e-05
31 *561:68 *1275:A2 1.31227e-05
32 *590:6 *1281:A2 8.73389e-06
33 *590:19 *625:44 0.000117295
34 *590:19 *625:57 8.61417e-05
35 *590:25 *625:8 2.61633e-05
36 *590:25 *625:31 6.74079e-05
37 *590:25 *625:44 1.34361e-05
*RES
1 *1690:X *625:8 6.46 
2 *625:8 *1283:B 4.045 
3 *625:8 *1259:B 1.6 
4 *1690:X *625:31 4.98 
5 *625:31 *1260:B 3.6 
6 *625:31 *625:44 2.445 
7 *625:44 *1281:A2 6.48 
8 *625:44 *625:57 2.145 
9 *625:57 *1280:A2 4.05 
10 *625:57 *1275:A2 6.45 
*END

*D_NET *626 0.00715568
*CONN
*I *1295:B I *D sky130_fd_sc_hd__and2b_2
*I *1286:A2 I *D sky130_fd_sc_hd__o21ai_2
*I *1305:C1 I *D sky130_fd_sc_hd__o211ai_2
*I *1278:B I *D sky130_fd_sc_hd__nand2_2
*I *1279:B I *D sky130_fd_sc_hd__xnor2_2
*I *1691:X O *D sky130_fd_sc_hd__clkdlybuf4s25_1
*CAP
1 *1295:B 0.000189195
2 *1286:A2 0.00160304
3 *1305:C1 2.0132e-05
4 *1278:B 0
5 *1279:B 0.000367074
6 *1691:X 0.000169876
7 *626:32 0.00177128
8 *626:19 0.000231971
9 *626:8 0.000431622
10 *1261:A *1286:A2 0.000114649
11 *1284:A2 *1286:A2 1.83311e-05
12 *1288:B1 *1295:B 5.05437e-05
13 *1293:A1 *1286:A2 2.51225e-05
14 *1293:B1 *1286:A2 0.000493767
15 *1295:A_N *1279:B 0
16 *1295:A_N *1295:B 0
17 *1296:B1 *1295:B 0.000161324
18 *1297:B1 *1286:A2 0.000119873
19 *1299:A1 *1286:A2 3.67394e-05
20 *1306:A1 *1286:A2 3.59784e-05
21 *1308:A2 *1286:A2 2.74082e-05
22 *1315:A1 *1286:A2 0
23 *1327:A2 *1286:A2 0.000139013
24 *1656:A *1279:B 0
25 *1656:A *626:8 9.51192e-05
26 *1656:A *626:19 0
27 *1656:A *626:32 0
28 *1708:A *1295:B 5.93831e-05
29 *237:8 *1286:A2 2.06497e-05
30 *238:14 *1286:A2 3.06748e-05
31 *240:27 *1286:A2 0.000175069
32 *251:46 *1286:A2 0.000256583
33 *542:10 *1295:B 9.31547e-06
34 *546:43 *1286:A2 0.000276647
35 *553:61 *1286:A2 9.13924e-05
36 *553:67 *1286:A2 4.11715e-05
37 *577:10 *1286:A2 4.36573e-06
38 *591:10 *1279:B 0
39 *591:10 *1295:B 0
40 *591:30 *1279:B 0
41 *591:30 *626:19 0
42 *591:30 *626:32 0
43 *591:41 *626:32 0
44 *593:22 *1286:A2 8.83758e-05
*RES
1 *1691:X *626:8 5.775 
2 *626:8 *1279:B 6.51 
3 *626:8 *626:19 1.38 
4 *626:19 *1278:B 3.6 
5 *626:19 *626:32 4.085 
6 *626:32 *1305:C1 1.96 
7 *626:32 *1286:A2 31.9789 
8 *1279:B *1295:B 11.67 
*END

*D_NET *627 0.00655332
*CONN
*I *1160:C_N I *D sky130_fd_sc_hd__nor3b_2
*I *1167:B I *D sky130_fd_sc_hd__nor3b_2
*I *1169:B I *D sky130_fd_sc_hd__and3b_2
*I *1168:B I *D sky130_fd_sc_hd__or3b_2
*I *1161:C_N I *D sky130_fd_sc_hd__or3b_2
*I *1166:A I *D sky130_fd_sc_hd__or3b_2
*I *1165:A I *D sky130_fd_sc_hd__nor3b_2
*I *1170:B I *D sky130_fd_sc_hd__nand3b_2
*I *1607:B I *D sky130_fd_sc_hd__or4b_2
*I *1692:X O *D sky130_fd_sc_hd__clkdlybuf4s25_1
*CAP
1 *1160:C_N 2.14552e-05
2 *1167:B 0.000116706
3 *1169:B 2.36145e-05
4 *1168:B 0
5 *1161:C_N 0
6 *1166:A 0.000134443
7 *1165:A 9.23745e-05
8 *1170:B 5.76844e-05
9 *1607:B 0.000251858
10 *1692:X 0.000107945
11 *627:90 0.00014032
12 *627:61 0.000179134
13 *627:48 0.000408748
14 *627:46 0.000327386
15 *627:44 0.000326441
16 *627:31 0.000371534
17 *627:25 0.000218349
18 *627:10 0.000513584
19 *1607:B *1607:C 0.00011379
20 *1607:B *1629:A 0.000149195
21 *1607:B *629:6 5.83121e-06
22 *627:10 *1607:C 0.000126298
23 *1160:B *1160:C_N 0
24 *1166:B *1166:A 8.12903e-05
25 *1166:B *627:61 2.15738e-05
26 *1599:A1 *627:10 8.40213e-05
27 *1605:B1 *1166:A 8.49205e-05
28 *1608:B1 *1607:B 0.000112123
29 *1608:B1 *627:10 0.000134829
30 *1609:A2 *627:25 0.000362493
31 *1609:A2 *627:31 8.49205e-05
32 *1609:A2 *627:44 0.000375944
33 *1609:A2 *627:46 8.40213e-05
34 *1609:A2 *627:48 0.000159741
35 *1612:A *1165:A 1.46028e-05
36 *1612:A *1167:B 8.17626e-05
37 *1612:A *1169:B 7.23533e-05
38 *1612:A *627:48 3.54025e-05
39 *1622:A *1170:B 7.36562e-05
40 *1622:A *627:31 2.59981e-05
41 *1626:A *627:25 5.16211e-05
42 *1628:A *1165:A 0
43 *124:10 *1167:B 0.000213181
44 *124:10 *1169:B 7.23533e-05
45 *125:8 *1167:B 9.31547e-06
46 *508:14 *1170:B 7.36562e-05
47 *508:14 *627:31 2.34423e-05
48 *508:22 *1167:B 1.39525e-05
49 *545:115 *1167:B 0
50 *550:24 *1166:A 7.13156e-05
51 *557:21 *1166:A 8.09021e-06
52 *560:151 *1166:A 0.00017586
53 *560:151 *627:61 0.00010596
54 *568:6 *627:25 2.49909e-05
55 *568:6 *627:31 2.05056e-05
56 *568:16 *627:31 2.75229e-05
57 *570:56 *1165:A 0
58 *570:56 *627:48 6.27029e-05
59 *570:60 *627:61 2.25075e-05
*RES
1 *1692:X *627:10 6.03 
2 *627:10 *1607:B 7.5 
3 *627:10 *627:25 5.555 
4 *627:25 *627:31 3.41 
5 *627:31 *1170:B 5.235 
6 *627:31 *627:44 5.555 
7 *627:44 *627:46 0.795 
8 *627:46 *627:48 3.555 
9 *627:48 *1165:A 2.92 
10 *627:48 *627:61 3.38 
11 *627:61 *1166:A 7.35 
12 *627:61 *1161:C_N 3.6 
13 *627:46 *1168:B 1.6 
14 *627:44 *627:90 2 
15 *627:90 *1169:B 4.47 
16 *627:90 *1167:B 6.255 
17 *627:25 *1160:C_N 1.96 
*END

*D_NET *628 0.00380581
*CONN
*I *1630:A I *D sky130_fd_sc_hd__clkdlybuf4s25_1
*I *1607:C I *D sky130_fd_sc_hd__or4b_2
*I *1693:X O *D sky130_fd_sc_hd__clkdlybuf4s25_1
*CAP
1 *1630:A 0.000438615
2 *1607:C 0.000422344
3 *1693:X 4.18913e-05
4 *628:8 0.00090285
5 *1607:C *1607:A 5.4155e-06
6 *1607:C *1629:A 0.000320024
7 *1607:C *629:6 4.47209e-05
8 *1502:A1 *1607:C 0.000239014
9 *1502:A1 *628:8 8.14255e-05
10 *1589:A1 *1607:C 3.82741e-05
11 *1589:B1 *1630:A 5.39652e-05
12 *1589:B2 *1607:C 7.9642e-06
13 *1589:B2 *1630:A 5.37305e-05
14 *1589:B2 *628:8 1.7635e-05
15 *1607:B *1607:C 0.00011379
16 *1607:D_N *1607:C 4.82919e-05
17 *1608:B1 *1607:C 0.000321775
18 *1608:B1 *628:8 3.63297e-05
19 *1619:A *1630:A 3.45252e-05
20 *506:12 *1630:A 0.000366589
21 *555:18 *1607:C 9.03421e-05
22 *627:10 *1607:C 0.000126298
*RES
1 *1693:X *628:8 4.725 
2 *628:8 *1607:C 14.76 
3 *628:8 *1630:A 10.56 
*END

*D_NET *629 0.00157271
*CONN
*I *1607:A I *D sky130_fd_sc_hd__or4b_2
*I *1629:A I *D sky130_fd_sc_hd__clkdlybuf4s25_1
*I *1694:X O *D sky130_fd_sc_hd__clkdlybuf4s25_1
*CAP
1 *1607:A 1.9526e-05
2 *1629:A 0.000186307
3 *1694:X 0.000154312
4 *629:6 0.000360145
5 *1606:B1 *629:6 9.66021e-05
6 *1607:B *1629:A 0.000149195
7 *1607:B *629:6 5.83121e-06
8 *1607:C *1607:A 5.4155e-06
9 *1607:C *1629:A 0.000320024
10 *1607:C *629:6 4.47209e-05
11 *1607:D_N *1629:A 4.82919e-05
12 *555:18 *1629:A 0.000182342
*RES
1 *1694:X *629:6 4.465 
2 *629:6 *1629:A 10.955 
3 *629:6 *1607:A 1.96 
*END

*D_NET *630 0.00880886
*CONN
*I *1190:A1 I *D sky130_fd_sc_hd__a311oi_2
*I *1159:A I *D sky130_fd_sc_hd__nand2_2
*I *1164:A1 I *D sky130_fd_sc_hd__o21a_2
*I *1176:A1 I *D sky130_fd_sc_hd__a21o_2
*I *1202:A I *D sky130_fd_sc_hd__and4_2
*I *1695:X O *D sky130_fd_sc_hd__clkdlybuf4s25_1
*CAP
1 *1190:A1 1.79983e-05
2 *1159:A 0.000259402
3 *1164:A1 6.08094e-05
4 *1176:A1 0.00035684
5 *1202:A 0
6 *1695:X 0.000193527
7 *630:62 0.000695336
8 *630:35 0.00158219
9 *630:27 0.00103458
10 *630:10 0.000359879
11 *1149:A *1176:A1 8.14586e-05
12 *1149:A *630:62 0.000119835
13 *1159:B *1159:A 4.82863e-05
14 *1171:A2 *1176:A1 8.2372e-05
15 *1171:A2 *630:62 5.8499e-05
16 *1176:A2 *1176:A1 4.12756e-05
17 *1176:B1 *1176:A1 3.79555e-05
18 *1184:A *1159:A 0.000138406
19 *1184:B *1159:A 9.80559e-05
20 *1186:A1 *630:35 0.000107535
21 *1189:A3 *1176:A1 9.32949e-06
22 *1190:A3 *630:35 0.000118543
23 *1190:B1 *1190:A1 3.21081e-06
24 *1190:B1 *630:27 6.62684e-05
25 *1190:B1 *630:35 7.95969e-05
26 *1191:A2 *630:27 7.14699e-05
27 *1191:A2 *630:35 0.000228863
28 *1196:B *1159:A 1.64608e-05
29 *1196:B *630:62 3.37099e-05
30 *1200:B *630:10 0.000198046
31 *1201:B1 *630:35 4.66108e-05
32 *1207:C1 *1164:A1 0.000120655
33 *1212:B1 *630:62 0.000151258
34 *1213:A *630:62 5.3661e-05
35 *1213:B *630:62 0.000135439
36 *1215:C1 *630:62 0.000115748
37 *1226:B *1176:A1 5.12179e-05
38 *1229:B *630:62 2.53191e-06
39 *1232:A2 *630:35 6.8725e-06
40 *1232:B2 *1176:A1 5.40052e-05
41 *1232:B2 *630:62 5.63183e-05
42 *1234:B1_N *630:35 1.2912e-05
43 *1241:A1 *1176:A1 2.53191e-06
44 *1244:A2 *1176:A1 2.3228e-05
45 *1594:B *630:10 2.97561e-05
46 *1594:B *630:27 5.84113e-05
47 *106:14 *630:10 3.99039e-05
48 *117:20 *1159:A 8.10701e-05
49 *141:30 *630:27 3.81944e-05
50 *142:6 *630:35 0.000241502
51 *153:31 *630:62 0.000120047
52 *153:59 *630:62 1.92979e-05
53 *156:10 *630:35 2.88357e-05
54 *184:16 *1176:A1 2.47079e-05
55 *184:16 *630:35 8.35157e-05
56 *185:8 *630:35 2.97522e-05
57 *193:22 *1176:A1 3.70162e-05
58 *550:24 *1159:A 4.66742e-05
59 *563:26 *630:62 0.000101321
60 *563:28 *630:62 4.95846e-05
61 *563:136 *630:10 0.000159964
62 *563:136 *630:27 0.000101308
63 *585:35 *1176:A1 0.000194906
64 *592:72 *630:62 7.76832e-05
65 *619:24 *630:27 0.000150569
66 *619:24 *630:35 6.12118e-05
67 *620:25 *1176:A1 8.97006e-07
*RES
1 *1695:X *630:10 7.32 
2 *630:10 *1202:A 3.6 
3 *630:10 *630:27 6.365 
4 *630:27 *630:35 14.81 
5 *630:35 *1176:A1 14.515 
6 *630:35 *630:62 8.865 
7 *630:62 *1164:A1 4.74 
8 *630:62 *1159:A 8.685 
9 *630:27 *1190:A1 1.96 
*END

*D_NET *631 0.00279948
*CONN
*I *1709:A I *D sky130_fd_sc_hd__clkdlybuf4s25_1
*I *1609:X O *D sky130_fd_sc_hd__a21o_2
*CAP
1 *1709:A 0.000730243
2 *1609:X 0.000730243
3 *1709:A *1717:A 0.000306155
4 *1167:A *1709:A 0.00015639
5 *1599:A2 *1709:A 9.387e-06
6 *1615:A *1709:A 1.26548e-05
7 *1628:A *1709:A 4.70919e-05
8 *119:51 *1709:A 2.20732e-05
9 *128:21 *1709:A 0.000295152
10 *508:14 *1709:A 0.000300185
11 *508:22 *1709:A 0.000189902
*RES
1 *1609:X *1709:A 21.615 
*END

*D_NET *632 0.0056274
*CONN
*I *1356:A I *D sky130_fd_sc_hd__and2_2
*I *1357:A I *D sky130_fd_sc_hd__or2_2
*I *1153:A I *D sky130_fd_sc_hd__inv_2
*I *1358:A I *D sky130_fd_sc_hd__xnor2_2
*I *1696:X O *D sky130_fd_sc_hd__clkdlybuf4s25_1
*CAP
1 *1356:A 0
2 *1357:A 0.000468256
3 *1153:A 0.0001233
4 *1358:A 0
5 *1696:X 0.00120101
6 *632:32 0.000530205
7 *632:12 0.000325929
8 *632:6 0.00146559
9 *1338:A2 *632:6 2.75252e-05
10 *1342:A1 *632:6 0.000158861
11 *1342:A2 *632:6 1.77665e-05
12 *1357:B *1153:A 4.99619e-05
13 *1357:B *1357:A 1.61831e-05
14 *1370:C1 *1357:A 7.68414e-06
15 *1370:C1 *632:32 2.49909e-05
16 *1378:A2 *1357:A 6.77417e-05
17 *1378:B1 *1357:A 4.21973e-05
18 *1382:A *632:6 1.1392e-05
19 *1382:D *632:6 2.75145e-05
20 *1382:D *632:12 0
21 *1384:A1 *1153:A 0.000161837
22 *1384:A1 *632:12 1.19928e-05
23 *1384:C1 *632:32 0.000116853
24 *263:63 *632:6 0.000126323
25 *280:6 *632:6 1.33269e-05
26 *299:10 *1357:A 0.000221525
27 *300:14 *1357:A 5.92345e-05
28 *301:6 *632:6 6.71882e-05
29 *301:32 *632:32 0.00011852
30 *539:59 *632:6 9.46859e-06
31 *553:127 *632:6 4.66108e-05
32 *559:16 *632:6 0.000104883
33 *595:55 *632:6 3.52734e-06
*RES
1 *1696:X *632:6 15.85 
2 *632:6 *632:12 3.15 
3 *632:12 *1358:A 1.6 
4 *632:12 *1153:A 4.465 
5 *632:6 *632:32 5.83 
6 *632:32 *1357:A 8.47 
7 *632:32 *1356:A 1.6 
*END

*D_NET *633 0.00288171
*CONN
*I *1710:A I *D sky130_fd_sc_hd__clkdlybuf4s25_1
*I *1173:X O *D sky130_fd_sc_hd__a21bo_2
*CAP
1 *1710:A 0.000878339
2 *1173:X 0.000878339
3 *1710:A *1735:A 3.57253e-05
4 y[0] *1710:A 0.000287141
5 y[3] *1710:A 0.000103668
6 *1194:C1 *1710:A 4.78497e-05
7 *1195:A2 *1710:A 0.000460968
8 *1195:B1 *1710:A 1.07069e-05
9 *1646:A *1710:A 0
10 *1657:A *1710:A 0.000104042
11 *1681:A *1710:A 0
12 *1695:A *1710:A 4.82919e-05
13 *157:12 *1710:A 7.77167e-06
14 *581:16 *1710:A 1.88656e-05
*RES
1 *1173:X *1710:A 16.1614 
*END

*D_NET *634 0.00091606
*CONN
*I *1711:A I *D sky130_fd_sc_hd__clkdlybuf4s25_1
*I *1301:Y O *D sky130_fd_sc_hd__o211ai_2
*CAP
1 *1711:A 0.000230514
2 *1301:Y 0.000230514
3 *1658:A *1711:A 8.23457e-05
4 *1702:A *1711:A 7.46628e-05
5 *238:14 *1711:A 0.000151756
6 *549:34 *1711:A 7.03276e-05
7 *549:47 *1711:A 2.98587e-05
8 *593:12 *1711:A 4.60814e-05
*RES
1 *1301:Y *1711:A 11.925 
*END

*D_NET *635 0.00176007
*CONN
*I *1712:A I *D sky130_fd_sc_hd__clkdlybuf4s25_1
*I *1315:Y O *D sky130_fd_sc_hd__o21ai_2
*CAP
1 *1712:A 0.000539067
2 *1315:Y 0.000539067
3 *1309:A2 *1712:A 0.000355077
4 *1325:A2 *1712:A 1.05984e-05
5 *1326:A *1712:A 0
6 *1326:B *1712:A 0
7 *1330:A1 *1712:A 1.71013e-05
8 *1337:B1 *1712:A 7.89034e-05
9 *253:16 *1712:A 8.64488e-05
10 *549:28 *1712:A 0.000133806
*RES
1 *1315:Y *1712:A 15.825 
*END

*D_NET *636 0.00196235
*CONN
*I *1713:A I *D sky130_fd_sc_hd__clkdlybuf4s25_1
*I *1332:Y O *D sky130_fd_sc_hd__o211ai_2
*CAP
1 *1713:A 0.000415119
2 *1332:Y 0.000415119
3 y[12] *1713:A 0
4 y[13] *1713:A 0
5 *1290:B *1713:A 0.000174586
6 *1301:A2 *1713:A 0.000343781
7 *1348:A *1713:A 8.49205e-05
8 *1702:A *1713:A 0.000358508
9 *549:47 *1713:A 0.000170315
*RES
1 *1332:Y *1713:A 18.045 
*END

*D_NET *637 0.0027542
*CONN
*I *1714:A I *D sky130_fd_sc_hd__clkdlybuf4s25_1
*I *1342:Y O *D sky130_fd_sc_hd__o21ai_2
*CAP
1 *1714:A 0.000592927
2 *1342:Y 0.000592927
3 *1317:A *1714:A 0.000108761
4 *1317:B *1714:A 4.82919e-05
5 *1326:A *1714:A 0.00015771
6 *1332:C1 *1714:A 7.23533e-05
7 *1339:A *1714:A 7.24829e-05
8 *1342:A1 *1714:A 2.20014e-05
9 *1342:B1 *1714:A 0.000272749
10 *1660:A *1714:A 0.000124956
11 *262:12 *1714:A 0.000193806
12 *262:18 *1714:A 3.67241e-05
13 *553:127 *1714:A 4.27883e-06
14 *559:16 *1714:A 3.96737e-05
15 *595:12 *1714:A 0.000307606
16 *595:55 *1714:A 8.64421e-05
17 *599:53 *1714:A 2.0514e-05
*RES
1 *1342:Y *1714:A 21.105 
*END

*D_NET *638 0.00260326
*CONN
*I *1715:A I *D sky130_fd_sc_hd__clkdlybuf4s25_1
*I *1355:Y O *D sky130_fd_sc_hd__o21ai_2
*CAP
1 *1715:A 0.000814587
2 *1355:Y 0.000814587
3 *1344:A *1715:A 0.000130453
4 *1354:A1 *1715:A 0.000121023
5 *1354:B2 *1715:A 8.34281e-06
6 *1355:A1 *1715:A 3.64998e-06
7 *1355:B1 *1715:A 2.86975e-05
8 *1675:A *1715:A 0.00011852
9 *288:8 *1715:A 0.00053467
10 *288:21 *1715:A 2.08258e-07
11 *546:105 *1715:A 2.85187e-05
*RES
1 *1355:Y *1715:A 18.705 
*END

*D_NET *639 0.00589639
*CONN
*I *1716:A I *D sky130_fd_sc_hd__clkdlybuf4s25_1
*I *1371:X O *D sky130_fd_sc_hd__a21o_2
*CAP
1 *1716:A 0.00207965
2 *1371:X 0.00207965
3 *1348:B *1716:A 0
4 *1359:A *1716:A 0.00012893
5 *1621:A *1716:A 0.00105694
6 *1660:A *1716:A 0
7 *1696:A *1716:A 0.000150081
8 *292:10 *1716:A 0.000167993
9 *301:32 *1716:A 4.04634e-05
10 *553:29 *1716:A 0.000137645
11 *553:35 *1716:A 4.04634e-05
12 *565:100 *1716:A 1.45731e-05
13 *598:18 *1716:A 0
*RES
1 *1371:X *1716:A 15.4777 
*END

*D_NET *640 0.00324043
*CONN
*I *1717:A I *D sky130_fd_sc_hd__clkdlybuf4s25_1
*I *1389:X O *D sky130_fd_sc_hd__a21o_2
*CAP
1 *1717:A 0.000651617
2 *1389:X 0.000651617
3 *1161:B *1717:A 4.66108e-05
4 *1170:A_N *1717:A 0.000342773
5 *1170:C *1717:A 2.16917e-05
6 *1502:A1 *1717:A 0.000100528
7 *1610:A *1717:A 6.58423e-05
8 *1612:A *1717:A 0.000122325
9 *1620:A *1717:A 2.63666e-05
10 *1709:A *1717:A 0.000306155
11 *119:14 *1717:A 0.0004887
12 *119:51 *1717:A 0.000130363
13 *551:10 *1717:A 1.70935e-05
14 *551:46 *1717:A 8.52172e-05
15 *557:64 *1717:A 8.8266e-05
16 *568:43 *1717:A 9.52621e-05
*RES
1 *1389:X *1717:A 23.37 
*END

*D_NET *641 0.00493104
*CONN
*I *1718:A I *D sky130_fd_sc_hd__clkdlybuf4s25_1
*I *1400:X O *D sky130_fd_sc_hd__a21o_2
*CAP
1 *1718:A 0.00102321
2 *1400:X 0.00102321
3 *1396:A2 *1718:A 0.000123034
4 *1415:B *1718:A 0.000141599
5 *1514:A *1718:A 6.17113e-06
6 *1540:A1 *1718:A 7.34442e-05
7 *1553:C *1718:A 0
8 *1555:A *1718:A 0
9 *1555:B *1718:A 0
10 *1557:A *1718:A 0.00013521
11 *1558:A1 *1718:A 1.75055e-05
12 *1559:B1 *1718:A 0.000312083
13 *1617:A *1718:A 0
14 *1624:A *1718:A 0
15 *344:22 *1718:A 8.60912e-05
16 *344:26 *1718:A 0.000154223
17 *431:10 *1718:A 2.15594e-05
18 *449:12 *1718:A 0
19 *451:16 *1718:A 0
20 *470:18 *1718:A 0
21 *471:10 *1718:A 0.000290012
22 *557:131 *1718:A 0.00146381
23 *557:156 *1718:A 2.34423e-05
24 *567:32 *1718:A 8.53113e-06
25 *567:59 *1718:A 2.79004e-05
*RES
1 *1400:X *1718:A 33.12 
*END

*D_NET *642 0.00267571
*CONN
*I *1719:A I *D sky130_fd_sc_hd__clkdlybuf4s25_1
*I *1418:Y O *D sky130_fd_sc_hd__o21ai_2
*CAP
1 *1719:A 0.000806747
2 *1418:Y 0.000806747
3 y[18] *1719:A 7.35729e-05
4 *1536:B1 *1719:A 2.84568e-05
5 *1537:C1 *1719:A 0.000131766
6 *1539:A2 *1719:A 9.47454e-05
7 *1541:A1 *1719:A 3.26566e-05
8 *1557:B *1719:A 0
9 *1557:C *1719:A 0
10 *1560:A2 *1719:A 0.000116165
11 *1641:A *1719:A 4.43871e-06
12 *1667:A *1719:A 0
13 *344:18 *1719:A 0.00012657
14 *449:12 *1719:A 0.00016954
15 *450:12 *1719:A 0
16 *467:10 *1719:A 0.000284305
17 *545:180 *1719:A 0
18 *567:59 *1719:A 0
19 *602:10 *1719:A 0
20 *602:12 *1719:A 0
*RES
1 *1418:Y *1719:A 23.61 
*END

*D_NET *643 0.00784575
*CONN
*I *1405:A2 I *D sky130_fd_sc_hd__a22o_2
*I *1395:A_N I *D sky130_fd_sc_hd__nand2b_2
*I *1373:B I *D sky130_fd_sc_hd__nand2_2
*I *1372:B I *D sky130_fd_sc_hd__or2_2
*I *1697:X O *D sky130_fd_sc_hd__clkdlybuf4s25_1
*CAP
1 *1405:A2 0
2 *1395:A_N 0.000121527
3 *1373:B 2.16073e-05
4 *1372:B 0
5 *1697:X 0.00126325
6 *643:39 0.00020719
7 *643:30 0.000159839
8 *643:26 0.00135904
9 *643:26 *1734:A 0
10 statusOut *643:26 8.92684e-05
11 y[16] *643:26 0
12 y[31] *643:26 2.49909e-05
13 *1155:A *643:26 0.000514303
14 *1372:A *1373:B 4.92062e-05
15 *1372:A *643:39 2.84447e-05
16 *1388:A2 *1395:A_N 4.9968e-05
17 *1395:B *1395:A_N 0
18 *1400:B1 *1395:A_N 2.24423e-05
19 *1405:B1 *643:26 2.92496e-05
20 *1577:A *643:26 0.000150314
21 *1621:A *643:26 0.00120893
22 *1626:A *643:26 1.7635e-05
23 *1628:A *643:26 0
24 *1692:A *643:26 0.000323182
25 *548:23 *1395:A_N 0.000114753
26 *548:29 *1395:A_N 4.82863e-05
27 *551:46 *643:26 0.000195193
28 *555:59 *643:26 0.000114492
29 *560:18 *643:26 1.83756e-05
30 *560:151 *643:26 0
31 *566:59 *643:26 0.000105806
32 *600:20 *643:26 0.00130429
33 *600:31 *1373:B 8.40213e-05
34 *600:31 *643:26 1.2818e-05
35 *600:31 *643:30 8.66683e-05
36 *600:31 *643:39 0.000120655
*RES
1 *1697:X *643:26 21.0681 
2 *643:26 *643:30 1.82625 
3 *643:30 *1372:B 1.6 
4 *643:30 *643:39 1.5 
5 *643:39 *1373:B 2.395 
6 *643:39 *1395:A_N 8.45 
7 *643:26 *1405:A2 1.6 
*END

*D_NET *644 0.00324215
*CONN
*I *1720:A I *D sky130_fd_sc_hd__clkdlybuf4s25_1
*I *1431:X O *D sky130_fd_sc_hd__a21o_2
*CAP
1 *1720:A 0.000912873
2 *1431:X 0.000912873
3 *1362:A1 *1720:A 0.000254844
4 *1362:A2 *1720:A 2.91399e-05
5 *1383:B *1720:A 0.000160635
6 *1662:A *1720:A 0.00027299
7 *1686:A *1720:A 3.70488e-05
8 *1700:A *1720:A 4.82863e-05
9 *305:6 *1720:A 0.000124895
10 *539:21 *1720:A 0.000271592
11 *539:40 *1720:A 0.00011986
12 *552:30 *1720:A 5.30673e-05
13 *597:47 *1720:A 4.40446e-05
*RES
1 *1431:X *1720:A 19.88 
*END

*D_NET *645 0.00644829
*CONN
*I *1721:A I *D sky130_fd_sc_hd__clkdlybuf4s25_1
*I *1182:Y O *D sky130_fd_sc_hd__o21ai_2
*CAP
1 *1721:A 0.00160197
2 *1182:Y 0.00160197
3 *1721:A *1736:A 0
4 *1721:A *1738:A 0.000214629
5 y[1] *1721:A 0.000193259
6 y[4] *1721:A 4.82863e-05
7 y[6] *1721:A 0.000385338
8 *1181:A1 *1721:A 4.82919e-05
9 *1181:B1 *1721:A 4.78756e-05
10 *1182:A2 *1721:A 2.09708e-05
11 *1182:B1 *1721:A 0.000633786
12 *1223:A1 *1721:A 4.50351e-05
13 *1225:A1 *1721:A 3.25831e-05
14 *1245:B1_N *1721:A 0.000115726
15 *1247:A1 *1721:A 4.99619e-05
16 *1247:B1 *1721:A 0.000238919
17 *1249:A1 *1721:A 1.79536e-05
18 *1254:B1 *1721:A 1.7635e-05
19 *1262:A1 *1721:A 0.000195311
20 *1263:A *1721:A 8.34458e-05
21 *1634:A *1721:A 0.000240186
22 *1685:A *1721:A 0.000233231
23 *1687:A *1721:A 6.90876e-05
24 *195:10 *1721:A 0.000123475
25 *550:65 *1721:A 5.12017e-06
26 *558:14 *1721:A 0.000184234
*RES
1 *1182:Y *1721:A 40.32 
*END

*D_NET *646 0.00124385
*CONN
*I *1722:A I *D sky130_fd_sc_hd__clkdlybuf4s25_1
*I *1445:Y O *D sky130_fd_sc_hd__o21ai_2
*CAP
1 *1722:A 0.000293012
2 *1445:Y 0.000293012
3 *1343:B *1722:A 0
4 *1444:B1 *1722:A 0.000159957
5 *1444:B2 *1722:A 0
6 *1445:A1 *1722:A 3.64998e-06
7 *1445:B1 *1722:A 7.06865e-05
8 *1452:B1 *1722:A 0
9 *1455:A1 *1722:A 0.000284302
10 *549:96 *1722:A 5.33787e-05
11 *605:51 *1722:A 7.63883e-05
12 *610:12 *1722:A 9.46111e-06
*RES
1 *1445:Y *1722:A 13.71 
*END

*D_NET *647 0.000304685
*CONN
*I *1723:A I *D sky130_fd_sc_hd__clkdlybuf4s25_1
*I *1456:Y O *D sky130_fd_sc_hd__o21ai_2
*CAP
1 *1723:A 0.000150314
2 *1456:Y 0.000150314
3 *606:50 *1723:A 4.05674e-06
*RES
1 *1456:Y *1723:A 5.3 
*END

*D_NET *648 0.00114432
*CONN
*I *1724:A I *D sky130_fd_sc_hd__clkdlybuf4s25_1
*I *1471:X O *D sky130_fd_sc_hd__a21o_2
*CAP
1 *1724:A 0.000393835
2 *1471:X 0.000393835
3 *1468:B *1724:A 0.000316118
4 *1471:A2 *1724:A 0
5 *1471:B1 *1724:A 4.05358e-05
6 *1637:A *1724:A 0
7 *572:10 *1724:A 0
8 *608:14 *1724:A 0
*RES
1 *1471:X *1724:A 14.745 
*END

*D_NET *649 0.000807474
*CONN
*I *1725:A I *D sky130_fd_sc_hd__clkdlybuf4s25_1
*I *1485:Y O *D sky130_fd_sc_hd__o21ai_2
*CAP
1 *1725:A 0.00028252
2 *1485:Y 0.00028252
3 *1485:B1 *1725:A 8.8266e-05
4 *1491:C1 *1725:A 2.16389e-05
5 *1673:A *1725:A 0.000114761
6 *407:14 *1725:A 1.33293e-05
7 *554:16 *1725:A 4.43871e-06
8 *573:10 *1725:A 0
9 *578:8 *1725:A 0
10 *578:10 *1725:A 0
*RES
1 *1485:Y *1725:A 12.375 
*END

*D_NET *650 0.00144203
*CONN
*I *1726:A I *D sky130_fd_sc_hd__clkdlybuf4s25_1
*I *1503:Y O *D sky130_fd_sc_hd__o21ai_2
*CAP
1 *1726:A 0.000261063
2 *1503:Y 0.000261063
3 *1503:A1 *1726:A 2.16833e-05
4 *1503:B1 *1726:A 4.82919e-05
5 *1505:A *1726:A 0.000101872
6 *1527:A *1726:A 0.000441991
7 *575:10 *1726:A 0.000125167
8 *575:16 *1726:A 0.000171226
9 *611:33 *1726:A 9.67081e-06
*RES
1 *1503:Y *1726:A 13.815 
*END

*D_NET *651 0.000297854
*CONN
*I *1727:A I *D sky130_fd_sc_hd__clkdlybuf4s25_1
*I *1516:Y O *D sky130_fd_sc_hd__o211ai_2
*CAP
1 *1727:A 0.000133908
2 *1516:Y 0.000133908
3 y[25] *1727:A 0
4 *1516:C1 *1727:A 3.00381e-05
5 *440:8 *1727:A 0
*RES
1 *1516:Y *1727:A 9.285 
*END

*D_NET *652 0.00184256
*CONN
*I *1728:A I *D sky130_fd_sc_hd__clkdlybuf4s25_1
*I *1529:Y O *D sky130_fd_sc_hd__o211ai_2
*CAP
1 *1728:A 0.000865372
2 *1529:Y 0.000865372
3 y[18] *1728:A 0
4 y[24] *1728:A 0
5 y[26] *1728:A 2.66935e-05
6 *1526:A2 *1728:A 5.76386e-05
7 *1526:B1 *1728:A 0
8 *1640:A *1728:A 0
9 *1667:A *1728:A 0
10 *454:10 *1728:A 1.52184e-05
11 *611:10 *1728:A 1.22676e-05
*RES
1 *1529:Y *1728:A 22.06 
*END

*D_NET *653 0.00178506
*CONN
*I *1729:A I *D sky130_fd_sc_hd__clkdlybuf4s25_1
*I *1545:X O *D sky130_fd_sc_hd__or3b_2
*CAP
1 *1729:A 0.000405629
2 *1545:X 0.000405629
3 *1531:B *1729:A 1.08758e-05
4 *1544:A2 *1729:A 0.000199032
5 *1544:B1 *1729:A 0.000278806
6 *1545:C_N *1729:A 3.72916e-05
7 *1552:A1 *1729:A 9.78012e-05
8 *1552:C1 *1729:A 7.47215e-05
9 *1678:A *1729:A 8.98657e-05
10 *461:21 *1729:A 0.000185405
*RES
1 *1545:X *1729:A 16.02 
*END

*D_NET *654 0.00677566
*CONN
*I *1405:B2 I *D sky130_fd_sc_hd__a22o_2
*I *1411:A_N I *D sky130_fd_sc_hd__nand2b_2
*I *1399:A2 I *D sky130_fd_sc_hd__a31o_2
*I *1390:B I *D sky130_fd_sc_hd__or2_2
*I *1391:B I *D sky130_fd_sc_hd__xor2_2
*I *1698:X O *D sky130_fd_sc_hd__clkdlybuf4s25_1
*CAP
1 *1405:B2 0.000124064
2 *1411:A_N 0.000127318
3 *1399:A2 0.000204782
4 *1390:B 0
5 *1391:B 0.000319469
6 *1698:X 0.00113272
7 *654:26 0.000267403
8 *654:10 0.00126343
9 *654:10 *1733:A 0.000142384
10 *1391:A *1391:B 7.00889e-06
11 *1391:A *654:10 0.000324044
12 *1398:B1 *1411:A_N 2.20753e-05
13 *1399:B1 *1399:A2 8.65905e-05
14 *1405:B1 *1405:B2 2.16306e-05
15 *1408:B1 *1399:A2 1.91597e-05
16 *1412:A1 *1411:A_N 8.65905e-05
17 *1414:A2_N *1399:A2 0.00012657
18 *1501:A *654:26 0.000160665
19 *1561:S *1399:A2 0.000345353
20 *1561:S *654:26 1.91597e-05
21 *1586:A0 *654:10 2.39856e-05
22 *1586:A1 *654:10 0.000118081
23 *1586:S *654:10 2.05056e-05
24 *1587:B *654:10 0.000191232
25 *1591:A1 *654:10 0.000225285
26 *1591:A2 *654:10 1.34503e-05
27 *1591:B1 *654:10 4.0843e-05
28 *1609:B1 *654:26 0.000160665
29 *1666:A *654:10 2.11084e-05
30 *1693:A *654:10 7.84791e-05
31 *331:6 *1399:A2 0.000124007
32 *331:10 *1399:A2 4.82919e-05
33 *345:10 *1405:B2 0.000293726
34 *514:6 *654:10 0.000146408
35 *552:12 *1399:A2 6.1709e-05
36 *552:12 *654:26 2.49909e-05
37 *560:151 *1405:B2 0.000211725
38 *564:22 *654:10 8.23457e-05
39 *600:20 *1405:B2 7.9642e-06
40 *601:34 *1411:A_N 4.2463e-05
41 *601:53 *1399:A2 3.79854e-05
*RES
1 *1698:X *654:10 18.385 
2 *654:10 *1391:B 1.0125 
3 *654:10 *654:26 6.34 
4 *654:26 *1390:B 1.6 
5 *654:26 *1399:A2 7.6 
6 *1391:B *1411:A_N 3.7225 
7 *1391:B *1405:B2 9.785 
*END

*D_NET *655 0.000487969
*CONN
*I *1730:A I *D sky130_fd_sc_hd__clkdlybuf4s25_1
*I *1565:Y O *D sky130_fd_sc_hd__o21ai_2
*CAP
1 *1730:A 0.000102838
2 *1565:Y 0.000102838
3 *478:16 *1730:A 0.000141599
4 *574:12 *1730:A 3.09233e-05
5 *579:6 *1730:A 5.05521e-05
6 *579:53 *1730:A 5.92191e-05
*RES
1 *1565:Y *1730:A 9.63 
*END

*D_NET *656 0.00232181
*CONN
*I *1731:A I *D sky130_fd_sc_hd__clkdlybuf4s25_1
*I *1576:X O *D sky130_fd_sc_hd__a21bo_2
*CAP
1 *1731:A 0.000713743
2 *1576:X 0.000713743
3 *1569:B *1731:A 0.000120655
4 *1570:A1 *1731:A 5.72708e-05
5 *1570:B1 *1731:A 0.00013313
6 *1573:A1 *1731:A 9.80943e-06
7 *1573:A2 *1731:A 0.000198939
8 *1575:A2 *1731:A 4.05358e-05
9 *1596:A_N *1731:A 0.000191232
10 *1596:B *1731:A 3.96653e-05
11 *121:42 *1731:A 3.86529e-05
12 *495:56 *1731:A 1.77593e-05
13 *523:14 *1731:A 4.66742e-05
*RES
1 *1576:X *1731:A 18.21 
*END

*D_NET *657 0.000969185
*CONN
*I *1732:A I *D sky130_fd_sc_hd__clkdlybuf4s25_1
*I *1195:Y O *D sky130_fd_sc_hd__o21ai_2
*CAP
1 *1732:A 0.000141484
2 *1195:Y 0.000141484
3 *1173:B1_N *1732:A 0.000137571
4 *1195:B1 *1732:A 0.000293726
5 *1631:A *1732:A 0.000120655
6 *560:18 *1732:A 0.000134264
*RES
1 *1195:Y *1732:A 11.76 
*END

*D_NET *658 0.00308197
*CONN
*I *1733:A I *D sky130_fd_sc_hd__clkdlybuf4s25_1
*I *1591:X O *D sky130_fd_sc_hd__a21o_2
*CAP
1 *1733:A 0.000902393
2 *1591:X 0.000902393
3 *1162:A *1733:A 6.79508e-05
4 *1391:A *1733:A 0.000443158
5 *1577:A *1733:A 1.31646e-05
6 *1586:A0 *1733:A 4.66108e-05
7 *1591:B1 *1733:A 8.49205e-05
8 *1599:A2 *1733:A 4.92861e-05
9 *1647:A *1733:A 1.92979e-05
10 *1693:A *1733:A 0.000345347
11 *510:18 *1733:A 2.82887e-05
12 *582:31 *1733:A 3.67779e-05
13 *654:10 *1733:A 0.000142384
*RES
1 *1591:X *1733:A 24.355 
*END

*D_NET *659 0.00448543
*CONN
*I *1734:A I *D sky130_fd_sc_hd__clkdlybuf4s25_1
*I *1605:Y O *D sky130_fd_sc_hd__o21ai_2
*CAP
1 *1734:A 0.00152382
2 *1605:Y 0.00152382
3 y[16] *1734:A 0.000244929
4 *1184:B *1734:A 0
5 *1577:A *1734:A 4.82863e-05
6 *1577:B *1734:A 0.000102334
7 *1606:B2 *1734:A 0.000320239
8 *1608:A1 *1734:A 3.13574e-05
9 *1613:A *1734:A 0.00014453
10 *1621:A *1734:A 0
11 *1648:A *1734:A 0.000191248
12 *117:20 *1734:A 0.000325591
13 *557:21 *1734:A 2.05571e-05
14 *560:130 *1734:A 8.7152e-06
15 *643:26 *1734:A 0
*RES
1 *1605:Y *1734:A 15.1119 
*END

*D_NET *660 0.00649214
*CONN
*I *1735:A I *D sky130_fd_sc_hd__clkdlybuf4s25_1
*I *1208:Y O *D sky130_fd_sc_hd__o21ai_2
*CAP
1 *1735:A 0.00178865
2 *1208:Y 0.00178865
3 y[0] *1735:A 7.71138e-05
4 *1174:A *1735:A 0.000239111
5 *1184:A *1735:A 0.000162669
6 *1184:B *1735:A 0.000124296
7 *1187:B *1735:A 1.52803e-05
8 *1194:A1 *1735:A 0.001133
9 *1194:C1 *1735:A 1.00558e-05
10 *1208:A1 *1735:A 3.82072e-05
11 *1208:A2 *1735:A 2.34691e-05
12 *1233:B1 *1735:A 0.000103545
13 *1646:A *1735:A 0.000299
14 *1648:A *1735:A 0
15 *1710:A *1735:A 3.57253e-05
16 *114:22 *1735:A 0.000396852
17 *140:20 *1735:A 1.56428e-05
18 *151:33 *1735:A 4.66108e-05
19 *153:27 *1735:A 7.57564e-05
20 *555:63 *1735:A 5.92482e-05
21 *560:18 *1735:A 5.92482e-05
*RES
1 *1208:Y *1735:A 17.1996 
*END

*D_NET *661 0.0047955
*CONN
*I *1736:A I *D sky130_fd_sc_hd__clkdlybuf4s25_1
*I *1225:Y O *D sky130_fd_sc_hd__o21ai_2
*CAP
1 *1736:A 0.0019007
2 *1225:Y 0.0019007
3 *1736:A *1738:A 6.26955e-05
4 *1156:A *1736:A 4.36369e-05
5 *1176:B1 *1736:A 0.000258125
6 *1247:A2 *1736:A 0
7 *1721:A *1736:A 0
8 *550:32 *1736:A 2.23203e-05
9 *563:74 *1736:A 0.000468281
10 *566:30 *1736:A 0.000139032
*RES
1 *1225:Y *1736:A 13.6135 
*END

*D_NET *662 0.000638551
*CONN
*I *1737:A I *D sky130_fd_sc_hd__clkdlybuf4s25_1
*I *1236:Y O *D sky130_fd_sc_hd__o21ai_2
*CAP
1 *1737:A 0.00013407
2 *1236:Y 0.00013407
3 *1175:B *1737:A 7.37496e-05
4 *1181:C1 *1737:A 7.60391e-05
5 *1182:A2 *1737:A 0.000120655
6 *1669:A *1737:A 9.50342e-06
7 *604:21 *1737:A 9.04636e-05
*RES
1 *1236:Y *1737:A 10.23 
*END

*D_NET *663 0.00278763
*CONN
*I *1738:A I *D sky130_fd_sc_hd__clkdlybuf4s25_1
*I *1249:Y O *D sky130_fd_sc_hd__o21ai_2
*CAP
1 *1738:A 0.000325982
2 *1249:Y 0.000325982
3 y[6] *1738:A 6.97202e-05
4 *1182:B1 *1738:A 0.00123849
5 *1247:A1 *1738:A 4.82863e-05
6 *1247:B1 *1738:A 0.000111277
7 *1249:B1 *1738:A 2.6906e-05
8 *1254:C1 *1738:A 0.000111061
9 *1649:A *1738:A 4.82919e-05
10 *1721:A *1738:A 0.000214629
11 *1736:A *1738:A 6.26955e-05
12 *197:10 *1738:A 0.000204309
*RES
1 *1249:Y *1738:A 20.37 
*END

*D_NET *664 0.0010929
*CONN
*I *1739:A I *D sky130_fd_sc_hd__clkdlybuf4s25_1
*I *1258:Y O *D sky130_fd_sc_hd__o21ai_2
*CAP
1 *1739:A 0.000413885
2 *1258:Y 0.000413885
3 *1150:A *1739:A 2.97561e-05
4 *1258:B1 *1739:A 0
5 *1269:B1 *1739:A 2.97204e-05
6 *1272:A1 *1739:A 2.17931e-05
7 *1272:A2 *1739:A 9.91257e-05
8 *191:85 *1739:A 7.06865e-05
9 *219:18 *1739:A 5.83121e-06
10 *222:10 *1739:A 8.22234e-06
11 *623:27 *1739:A 0
12 *623:40 *1739:A 0
*RES
1 *1258:Y *1739:A 13.485 
*END
