*SPEF "ieee 1481-1999"
*DESIGN "addsub32"
*DATE "09:27:25 Tuesday September 29, 2026"
*VENDOR "The OpenROAD Project"
*PROGRAM "OpenROAD"
*VERSION "dcf36133a369abc8f3c5e5738cd4d82e4903c0e0"
*DESIGN_FLOW "NAME_SCOPE LOCAL" "PIN_CAP NONE"
*DIVIDER /
*DELIMITER :
*BUS_DELIMITER []
*T_UNIT 1 NS
*C_UNIT 1 PF
*R_UNIT 1 OHM
*L_UNIT 1 HENRY

*NAME_MAP
*1 A[0]
*2 A[10]
*3 A[11]
*4 A[12]
*5 A[13]
*6 A[14]
*7 A[15]
*8 A[16]
*9 A[17]
*10 A[18]
*11 A[19]
*12 A[1]
*13 A[20]
*14 A[21]
*15 A[22]
*16 A[23]
*17 A[24]
*18 A[25]
*19 A[26]
*20 A[27]
*21 A[28]
*22 A[29]
*23 A[2]
*24 A[30]
*25 A[31]
*26 A[3]
*27 A[4]
*28 A[5]
*29 A[6]
*30 A[7]
*31 A[8]
*32 A[9]
*33 B[0]
*34 B[10]
*35 B[11]
*36 B[12]
*37 B[13]
*38 B[14]
*39 B[15]
*40 B[16]
*41 B[17]
*42 B[18]
*43 B[19]
*44 B[1]
*45 B[20]
*46 B[21]
*47 B[22]
*48 B[23]
*49 B[24]
*50 B[25]
*51 B[26]
*52 B[27]
*53 B[28]
*54 B[29]
*55 B[2]
*56 B[30]
*57 B[31]
*58 B[3]
*59 B[4]
*60 B[5]
*61 B[6]
*62 B[7]
*63 B[8]
*64 B[9]
*65 S[0]
*66 S[10]
*67 S[11]
*68 S[12]
*69 S[13]
*70 S[14]
*71 S[15]
*72 S[16]
*73 S[17]
*74 S[18]
*75 S[19]
*76 S[1]
*77 S[20]
*78 S[21]
*79 S[22]
*80 S[23]
*81 S[24]
*82 S[25]
*83 S[26]
*84 S[27]
*85 S[28]
*86 S[29]
*87 S[2]
*88 S[30]
*89 S[31]
*90 S[3]
*91 S[4]
*92 S[5]
*93 S[6]
*94 S[7]
*95 S[8]
*96 S[9]
*99 carryOut
*100 sub
*101 _000_
*102 _001_
*103 _002_
*104 _003_
*105 _004_
*106 _005_
*107 _006_
*108 _007_
*109 _008_
*110 _009_
*111 _010_
*112 _011_
*113 _012_
*114 _013_
*115 _014_
*116 _015_
*117 _016_
*118 _017_
*119 _018_
*120 _019_
*121 _020_
*122 _021_
*123 _022_
*124 _023_
*125 _024_
*126 _025_
*127 _026_
*128 _027_
*129 _028_
*130 _029_
*131 _030_
*132 _031_
*133 _032_
*134 _033_
*135 _034_
*136 _035_
*137 _036_
*138 _037_
*139 _038_
*140 _039_
*141 _040_
*142 _041_
*143 _042_
*144 _043_
*145 _044_
*146 _045_
*147 _046_
*148 _047_
*149 _048_
*150 _049_
*151 _050_
*152 _051_
*153 _052_
*154 _053_
*155 _054_
*156 _055_
*157 _056_
*158 _057_
*159 _058_
*160 _059_
*161 _060_
*162 _061_
*163 _062_
*164 _063_
*165 _064_
*166 _065_
*167 _066_
*168 _067_
*169 _068_
*170 _069_
*171 _070_
*172 _071_
*173 _072_
*174 _073_
*175 _074_
*176 _075_
*177 _076_
*178 _077_
*179 _078_
*180 _079_
*181 _080_
*182 _081_
*183 _082_
*184 _083_
*185 _084_
*186 _085_
*187 _086_
*188 _087_
*189 _088_
*190 _089_
*191 _090_
*192 _091_
*193 _092_
*194 _093_
*195 _094_
*196 _095_
*197 _096_
*198 _097_
*199 _098_
*200 _099_
*201 _100_
*202 _101_
*203 _102_
*204 _103_
*205 _104_
*206 _105_
*207 _106_
*208 _107_
*209 _108_
*210 _109_
*211 _110_
*212 _111_
*213 _112_
*214 _113_
*215 _114_
*216 _115_
*217 _116_
*218 _117_
*219 _118_
*220 _119_
*221 _120_
*222 _121_
*223 _122_
*224 _123_
*225 _124_
*226 _125_
*227 _126_
*228 _127_
*229 _128_
*230 _129_
*231 _130_
*232 _131_
*233 _132_
*234 _133_
*235 _134_
*236 _135_
*237 _136_
*238 _137_
*239 _138_
*240 _139_
*241 _140_
*242 _141_
*243 _142_
*244 _143_
*245 _144_
*246 _145_
*247 _146_
*248 _147_
*249 _148_
*250 _149_
*251 _150_
*252 _151_
*253 _152_
*254 _153_
*255 _154_
*256 _155_
*257 _156_
*258 _157_
*259 _158_
*260 _159_
*261 _160_
*262 _161_
*263 _162_
*264 _163_
*265 _164_
*266 _165_
*267 _166_
*268 _167_
*269 _168_
*270 _169_
*271 _170_
*272 _171_
*273 _172_
*274 _173_
*275 _174_
*276 _175_
*277 _176_
*278 _177_
*279 _178_
*280 _179_
*281 _180_
*282 _181_
*283 _182_
*284 _183_
*285 _184_
*286 _185_
*287 _186_
*288 _187_
*289 _188_
*290 _189_
*291 _190_
*292 _191_
*293 _192_
*294 _193_
*295 _194_
*296 _195_
*297 _196_
*298 _197_
*299 _198_
*300 _199_
*301 _200_
*302 _201_
*303 _202_
*304 _203_
*305 _204_
*306 _205_
*307 _206_
*308 _207_
*309 _208_
*310 _209_
*311 _210_
*312 _211_
*313 _212_
*314 _213_
*315 _214_
*316 _215_
*317 _216_
*318 _217_
*319 _218_
*320 _219_
*321 _220_
*322 _221_
*323 _222_
*324 _223_
*325 _224_
*326 _225_
*327 _226_
*328 _227_
*329 _228_
*330 _229_
*331 _230_
*332 _231_
*333 _232_
*334 _233_
*335 _234_
*336 _235_
*337 _236_
*338 _237_
*339 _238_
*340 _239_
*341 _240_
*342 _241_
*343 _242_
*344 _243_
*345 _244_
*346 _245_
*347 _246_
*348 _247_
*349 _248_
*350 _249_
*351 _250_
*352 _251_
*353 _252_
*354 _253_
*355 _254_
*356 _255_
*357 _256_
*358 _257_
*359 _258_
*360 _259_
*361 _260_
*362 _261_
*363 _262_
*364 _263_
*365 _264_
*366 _265_
*367 _266_
*368 _267_
*369 _268_
*370 _269_
*371 _270_
*372 _271_
*373 _272_
*374 _273_
*375 _274_
*376 _275_
*377 _276_
*378 _277_
*379 _278_
*380 _279_
*381 _280_
*382 _281_
*383 _282_
*384 _283_
*385 _284_
*386 _285_
*387 _286_
*388 _287_
*389 _288_
*390 _289_
*391 _290_
*392 _291_
*393 _292_
*394 _293_
*395 _294_
*396 _295_
*397 _296_
*398 _297_
*399 _298_
*400 _299_
*401 _300_
*402 _301_
*403 _302_
*404 _303_
*405 _304_
*406 _305_
*407 _306_
*408 _307_
*409 _308_
*410 _309_
*411 _310_
*412 _311_
*413 _312_
*414 _313_
*415 _314_
*416 _315_
*417 _316_
*418 _317_
*419 _318_
*420 _319_
*421 _320_
*422 _321_
*423 _322_
*424 _323_
*425 _324_
*426 _325_
*427 _326_
*428 _327_
*429 _328_
*430 _329_
*431 _330_
*432 _331_
*433 _332_
*434 _333_
*435 _334_
*436 _335_
*437 _336_
*438 _337_
*439 _338_
*440 _339_
*441 _340_
*442 _341_
*443 _342_
*444 _343_
*445 _344_
*446 _345_
*447 _346_
*448 _347_
*449 _348_
*450 net1
*451 net10
*452 net100
*453 net101
*454 net102
*455 net103
*456 net104
*457 net105
*458 net106
*459 net107
*460 net108
*461 net109
*462 net11
*463 net110
*464 net111
*465 net112
*466 net113
*467 net114
*468 net115
*469 net116
*470 net117
*471 net118
*472 net119
*473 net12
*474 net120
*475 net121
*476 net122
*477 net123
*478 net124
*479 net125
*480 net126
*481 net127
*482 net128
*483 net129
*484 net13
*485 net130
*486 net131
*487 net132
*488 net133
*489 net134
*490 net135
*491 net136
*492 net137
*493 net138
*494 net139
*495 net14
*496 net140
*497 net141
*498 net142
*499 net147
*500 net15
*501 net154
*502 net155
*503 net156
*504 net157
*505 net158
*506 net16
*507 net17
*508 net18
*509 net19
*510 net2
*511 net20
*512 net201
*513 net21
*514 net211
*515 net212
*516 net213
*517 net22
*518 net23
*519 net24
*520 net25
*521 net26
*522 net27
*523 net28
*524 net29
*525 net3
*526 net30
*527 net31
*528 net32
*529 net33
*530 net34
*531 net35
*532 net36
*533 net37
*534 net38
*535 net39
*536 net4
*537 net40
*538 net41
*539 net42
*540 net43
*541 net44
*542 net45
*543 net46
*544 net47
*545 net48
*546 net49
*547 net5
*548 net50
*549 net51
*550 net52
*551 net53
*552 net54
*553 net55
*554 net56
*555 net57
*556 net58
*557 net59
*558 net6
*559 net60
*560 net61
*561 net62
*562 net63
*563 net64
*564 net65
*565 net66
*566 net67
*567 net68
*568 net69
*569 net7
*570 net70
*571 net71
*572 net72
*573 net73
*574 net74
*575 net75
*576 net76
*577 net77
*578 net78
*579 net79
*580 net8
*581 net80
*582 net81
*583 net82
*584 net83
*585 net84
*586 net85
*587 net86
*588 net87
*589 net88
*590 net89
*591 net9
*592 net90
*593 net91
*594 net92
*595 net93
*596 net94
*597 net95
*598 net96
*599 net97
*600 net98
*601 net99
*602 FILLER_0_113
*603 FILLER_0_12
*604 FILLER_0_123
*605 FILLER_0_126
*606 FILLER_0_139
*607 FILLER_0_15
*608 FILLER_0_157
*609 FILLER_0_160
*610 FILLER_0_167
*611 FILLER_0_169
*612 FILLER_0_175
*613 FILLER_0_178
*614 FILLER_0_18
*615 FILLER_0_181
*616 FILLER_0_191
*617 FILLER_0_194
*618 FILLER_0_197
*619 FILLER_0_200
*620 FILLER_0_203
*621 FILLER_0_206
*622 FILLER_0_209
*623 FILLER_0_29
*624 FILLER_0_3
*625 FILLER_0_32
*626 FILLER_0_42
*627 FILLER_0_57
*628 FILLER_0_6
*629 FILLER_0_60
*630 FILLER_0_9
*631 FILLER_0_94
*632 FILLER_10_100
*633 FILLER_10_11
*634 FILLER_10_119
*635 FILLER_10_122
*636 FILLER_10_125
*637 FILLER_10_128
*638 FILLER_10_131
*639 FILLER_10_134
*640 FILLER_10_137
*641 FILLER_10_141
*642 FILLER_10_144
*643 FILLER_10_147
*644 FILLER_10_150
*645 FILLER_10_153
*646 FILLER_10_156
*647 FILLER_10_159
*648 FILLER_10_166
*649 FILLER_10_169
*650 FILLER_10_172
*651 FILLER_10_175
*652 FILLER_10_178
*653 FILLER_10_209
*654 FILLER_10_26
*655 FILLER_10_29
*656 FILLER_10_45
*657 FILLER_10_48
*658 FILLER_10_51
*659 FILLER_10_54
*660 FILLER_10_57
*661 FILLER_10_60
*662 FILLER_10_63
*663 FILLER_10_66
*664 FILLER_10_69
*665 FILLER_10_72
*666 FILLER_10_75
*667 FILLER_10_78
*668 FILLER_10_81
*669 FILLER_10_85
*670 FILLER_10_88
*671 FILLER_10_91
*672 FILLER_10_94
*673 FILLER_10_97
*674 FILLER_11_102
*675 FILLER_11_105
*676 FILLER_11_108
*677 FILLER_11_111
*678 FILLER_11_113
*679 FILLER_11_116
*680 FILLER_11_132
*681 FILLER_11_135
*682 FILLER_11_138
*683 FILLER_11_141
*684 FILLER_11_144
*685 FILLER_11_147
*686 FILLER_11_150
*687 FILLER_11_153
*688 FILLER_11_164
*689 FILLER_11_167
*690 FILLER_11_178
*691 FILLER_11_181
*692 FILLER_11_184
*693 FILLER_11_195
*694 FILLER_11_198
*695 FILLER_11_28
*696 FILLER_11_3
*697 FILLER_11_37
*698 FILLER_11_51
*699 FILLER_11_54
*700 FILLER_11_57
*701 FILLER_11_60
*702 FILLER_11_63
*703 FILLER_11_66
*704 FILLER_11_69
*705 FILLER_11_72
*706 FILLER_11_75
*707 FILLER_11_78
*708 FILLER_11_81
*709 FILLER_11_84
*710 FILLER_11_87
*711 FILLER_11_90
*712 FILLER_11_93
*713 FILLER_12_100
*714 FILLER_12_103
*715 FILLER_12_106
*716 FILLER_12_109
*717 FILLER_12_112
*718 FILLER_12_139
*719 FILLER_12_141
*720 FILLER_12_144
*721 FILLER_12_147
*722 FILLER_12_150
*723 FILLER_12_174
*724 FILLER_12_177
*725 FILLER_12_210
*726 FILLER_12_29
*727 FILLER_12_46
*728 FILLER_12_49
*729 FILLER_12_52
*730 FILLER_12_55
*731 FILLER_12_58
*732 FILLER_12_61
*733 FILLER_12_64
*734 FILLER_12_67
*735 FILLER_12_70
*736 FILLER_12_73
*737 FILLER_12_76
*738 FILLER_12_79
*739 FILLER_12_82
*740 FILLER_12_85
*741 FILLER_12_88
*742 FILLER_12_91
*743 FILLER_12_94
*744 FILLER_12_97
*745 FILLER_13_102
*746 FILLER_13_105
*747 FILLER_13_108
*748 FILLER_13_11
*749 FILLER_13_111
*750 FILLER_13_113
*751 FILLER_13_116
*752 FILLER_13_125
*753 FILLER_13_136
*754 FILLER_13_139
*755 FILLER_13_142
*756 FILLER_13_145
*757 FILLER_13_148
*758 FILLER_13_151
*759 FILLER_13_154
*760 FILLER_13_157
*761 FILLER_13_165
*762 FILLER_13_182
*763 FILLER_13_209
*764 FILLER_13_47
*765 FILLER_13_50
*766 FILLER_13_53
*767 FILLER_13_57
*768 FILLER_13_60
*769 FILLER_13_63
*770 FILLER_13_66
*771 FILLER_13_69
*772 FILLER_13_72
*773 FILLER_13_75
*774 FILLER_13_78
*775 FILLER_13_81
*776 FILLER_13_84
*777 FILLER_13_87
*778 FILLER_13_90
*779 FILLER_13_93
*780 FILLER_13_96
*781 FILLER_13_99
*782 FILLER_14_100
*783 FILLER_14_103
*784 FILLER_14_106
*785 FILLER_14_109
*786 FILLER_14_112
*787 FILLER_14_115
*788 FILLER_14_118
*789 FILLER_14_121
*790 FILLER_14_124
*791 FILLER_14_127
*792 FILLER_14_130
*793 FILLER_14_133
*794 FILLER_14_136
*795 FILLER_14_139
*796 FILLER_14_141
*797 FILLER_14_144
*798 FILLER_14_147
*799 FILLER_14_150
*800 FILLER_14_153
*801 FILLER_14_156
*802 FILLER_14_166
*803 FILLER_14_177
*804 FILLER_14_197
*805 FILLER_14_207
*806 FILLER_14_210
*807 FILLER_14_26
*808 FILLER_14_51
*809 FILLER_14_54
*810 FILLER_14_57
*811 FILLER_14_60
*812 FILLER_14_63
*813 FILLER_14_79
*814 FILLER_14_82
*815 FILLER_14_85
*816 FILLER_14_88
*817 FILLER_14_91
*818 FILLER_14_94
*819 FILLER_14_97
*820 FILLER_15_100
*821 FILLER_15_103
*822 FILLER_15_106
*823 FILLER_15_109
*824 FILLER_15_113
*825 FILLER_15_116
*826 FILLER_15_119
*827 FILLER_15_122
*828 FILLER_15_125
*829 FILLER_15_128
*830 FILLER_15_131
*831 FILLER_15_134
*832 FILLER_15_137
*833 FILLER_15_140
*834 FILLER_15_143
*835 FILLER_15_146
*836 FILLER_15_149
*837 FILLER_15_152
*838 FILLER_15_155
*839 FILLER_15_158
*840 FILLER_15_161
*841 FILLER_15_164
*842 FILLER_15_167
*843 FILLER_15_169
*844 FILLER_15_185
*845 FILLER_15_197
*846 FILLER_15_200
*847 FILLER_15_39
*848 FILLER_15_42
*849 FILLER_15_45
*850 FILLER_15_53
*851 FILLER_15_57
*852 FILLER_15_79
*853 FILLER_15_82
*854 FILLER_15_85
*855 FILLER_15_88
*856 FILLER_15_91
*857 FILLER_16_106
*858 FILLER_16_109
*859 FILLER_16_112
*860 FILLER_16_115
*861 FILLER_16_118
*862 FILLER_16_121
*863 FILLER_16_124
*864 FILLER_16_127
*865 FILLER_16_130
*866 FILLER_16_133
*867 FILLER_16_136
*868 FILLER_16_139
*869 FILLER_16_141
*870 FILLER_16_144
*871 FILLER_16_147
*872 FILLER_16_150
*873 FILLER_16_153
*874 FILLER_16_156
*875 FILLER_16_159
*876 FILLER_16_162
*877 FILLER_16_165
*878 FILLER_16_168
*879 FILLER_16_171
*880 FILLER_16_174
*881 FILLER_16_177
*882 FILLER_16_192
*883 FILLER_16_195
*884 FILLER_16_27
*885 FILLER_16_29
*886 FILLER_16_32
*887 FILLER_16_35
*888 FILLER_16_57
*889 FILLER_16_60
*890 FILLER_16_77
*891 FILLER_16_80
*892 FILLER_16_83
*893 FILLER_16_85
*894 FILLER_16_88
*895 FILLER_16_91
*896 FILLER_17_101
*897 FILLER_17_104
*898 FILLER_17_107
*899 FILLER_17_110
*900 FILLER_17_113
*901 FILLER_17_116
*902 FILLER_17_119
*903 FILLER_17_134
*904 FILLER_17_137
*905 FILLER_17_140
*906 FILLER_17_143
*907 FILLER_17_146
*908 FILLER_17_149
*909 FILLER_17_152
*910 FILLER_17_155
*911 FILLER_17_169
*912 FILLER_17_172
*913 FILLER_17_175
*914 FILLER_17_178
*915 FILLER_17_39
*916 FILLER_17_57
*917 FILLER_17_60
*918 FILLER_17_67
*919 FILLER_17_70
*920 FILLER_17_73
*921 FILLER_17_76
*922 FILLER_17_82
*923 FILLER_17_85
*924 FILLER_18_112
*925 FILLER_18_115
*926 FILLER_18_118
*927 FILLER_18_121
*928 FILLER_18_124
*929 FILLER_18_127
*930 FILLER_18_137
*931 FILLER_18_141
*932 FILLER_18_144
*933 FILLER_18_173
*934 FILLER_18_176
*935 FILLER_18_202
*936 FILLER_18_209
*937 FILLER_18_3
*938 FILLER_18_40
*939 FILLER_18_43
*940 FILLER_18_53
*941 FILLER_18_56
*942 FILLER_18_59
*943 FILLER_18_62
*944 FILLER_18_65
*945 FILLER_18_68
*946 FILLER_18_71
*947 FILLER_18_74
*948 FILLER_18_77
*949 FILLER_18_80
*950 FILLER_18_83
*951 FILLER_18_85
*952 FILLER_18_88
*953 FILLER_18_94
*954 FILLER_18_97
*955 FILLER_19_110
*956 FILLER_19_147
*957 FILLER_19_150
*958 FILLER_19_169
*959 FILLER_19_172
*960 FILLER_19_175
*961 FILLER_19_178
*962 FILLER_19_181
*963 FILLER_19_190
*964 FILLER_19_193
*965 FILLER_19_31
*966 FILLER_19_41
*967 FILLER_19_44
*968 FILLER_19_47
*969 FILLER_19_50
*970 FILLER_19_53
*971 FILLER_19_57
*972 FILLER_19_68
*973 FILLER_19_80
*974 FILLER_19_83
*975 FILLER_19_90
*976 FILLER_1_117
*977 FILLER_1_12
*978 FILLER_1_120
*979 FILLER_1_139
*980 FILLER_1_149
*981 FILLER_1_15
*982 FILLER_1_164
*983 FILLER_1_167
*984 FILLER_1_169
*985 FILLER_1_172
*986 FILLER_1_199
*987 FILLER_1_202
*988 FILLER_1_205
*989 FILLER_1_208
*990 FILLER_1_3
*991 FILLER_1_39
*992 FILLER_1_6
*993 FILLER_1_67
*994 FILLER_1_70
*995 FILLER_1_9
*996 FILLER_20_119
*997 FILLER_20_122
*998 FILLER_20_147
*999 FILLER_20_150
*1000 FILLER_20_169
*1001 FILLER_20_177
*1002 FILLER_20_180
*1003 FILLER_20_183
*1004 FILLER_20_186
*1005 FILLER_20_189
*1006 FILLER_20_192
*1007 FILLER_20_195
*1008 FILLER_20_197
*1009 FILLER_20_200
*1010 FILLER_20_207
*1011 FILLER_20_210
*1012 FILLER_20_25
*1013 FILLER_20_29
*1014 FILLER_20_3
*1015 FILLER_20_32
*1016 FILLER_20_49
*1017 FILLER_20_52
*1018 FILLER_20_55
*1019 FILLER_20_6
*1020 FILLER_20_81
*1021 FILLER_20_85
*1022 FILLER_20_93
*1023 FILLER_20_96
*1024 FILLER_20_99
*1025 FILLER_21_100
*1026 FILLER_21_103
*1027 FILLER_21_106
*1028 FILLER_21_109
*1029 FILLER_21_113
*1030 FILLER_21_116
*1031 FILLER_21_129
*1032 FILLER_21_158
*1033 FILLER_21_161
*1034 FILLER_21_164
*1035 FILLER_21_167
*1036 FILLER_21_169
*1037 FILLER_21_172
*1038 FILLER_21_193
*1039 FILLER_21_196
*1040 FILLER_21_206
*1041 FILLER_21_209
*1042 FILLER_21_27
*1043 FILLER_21_3
*1044 FILLER_21_30
*1045 FILLER_21_52
*1046 FILLER_21_55
*1047 FILLER_21_57
*1048 FILLER_21_6
*1049 FILLER_21_60
*1050 FILLER_21_77
*1051 FILLER_21_80
*1052 FILLER_21_83
*1053 FILLER_21_9
*1054 FILLER_21_94
*1055 FILLER_21_97
*1056 FILLER_22_100
*1057 FILLER_22_103
*1058 FILLER_22_106
*1059 FILLER_22_109
*1060 FILLER_22_112
*1061 FILLER_22_115
*1062 FILLER_22_118
*1063 FILLER_22_121
*1064 FILLER_22_124
*1065 FILLER_22_127
*1066 FILLER_22_132
*1067 FILLER_22_141
*1068 FILLER_22_149
*1069 FILLER_22_152
*1070 FILLER_22_155
*1071 FILLER_22_158
*1072 FILLER_22_161
*1073 FILLER_22_164
*1074 FILLER_22_167
*1075 FILLER_22_170
*1076 FILLER_22_173
*1077 FILLER_22_176
*1078 FILLER_22_179
*1079 FILLER_22_182
*1080 FILLER_22_19
*1081 FILLER_22_193
*1082 FILLER_22_29
*1083 FILLER_22_37
*1084 FILLER_22_44
*1085 FILLER_22_63
*1086 FILLER_22_66
*1087 FILLER_22_69
*1088 FILLER_22_72
*1089 FILLER_22_75
*1090 FILLER_22_78
*1091 FILLER_22_81
*1092 FILLER_22_85
*1093 FILLER_22_88
*1094 FILLER_22_91
*1095 FILLER_22_94
*1096 FILLER_22_97
*1097 FILLER_23_108
*1098 FILLER_23_111
*1099 FILLER_23_113
*1100 FILLER_23_116
*1101 FILLER_23_126
*1102 FILLER_23_129
*1103 FILLER_23_132
*1104 FILLER_23_135
*1105 FILLER_23_138
*1106 FILLER_23_141
*1107 FILLER_23_144
*1108 FILLER_23_147
*1109 FILLER_23_150
*1110 FILLER_23_153
*1111 FILLER_23_156
*1112 FILLER_23_159
*1113 FILLER_23_162
*1114 FILLER_23_165
*1115 FILLER_23_169
*1116 FILLER_23_172
*1117 FILLER_23_175
*1118 FILLER_23_178
*1119 FILLER_23_181
*1120 FILLER_23_184
*1121 FILLER_23_187
*1122 FILLER_23_30
*1123 FILLER_23_33
*1124 FILLER_23_36
*1125 FILLER_23_39
*1126 FILLER_23_42
*1127 FILLER_23_45
*1128 FILLER_23_48
*1129 FILLER_23_51
*1130 FILLER_23_54
*1131 FILLER_23_57
*1132 FILLER_23_60
*1133 FILLER_23_68
*1134 FILLER_23_71
*1135 FILLER_23_84
*1136 FILLER_23_87
*1137 FILLER_23_90
*1138 FILLER_23_93
*1139 FILLER_24_108
*1140 FILLER_24_111
*1141 FILLER_24_114
*1142 FILLER_24_117
*1143 FILLER_24_141
*1144 FILLER_24_144
*1145 FILLER_24_147
*1146 FILLER_24_150
*1147 FILLER_24_153
*1148 FILLER_24_156
*1149 FILLER_24_159
*1150 FILLER_24_16
*1151 FILLER_24_162
*1152 FILLER_24_165
*1153 FILLER_24_168
*1154 FILLER_24_171
*1155 FILLER_24_174
*1156 FILLER_24_177
*1157 FILLER_24_180
*1158 FILLER_24_183
*1159 FILLER_24_186
*1160 FILLER_24_197
*1161 FILLER_24_200
*1162 FILLER_24_27
*1163 FILLER_24_34
*1164 FILLER_24_37
*1165 FILLER_24_55
*1166 FILLER_24_58
*1167 FILLER_24_74
*1168 FILLER_24_82
*1169 FILLER_24_85
*1170 FILLER_25_100
*1171 FILLER_25_104
*1172 FILLER_25_107
*1173 FILLER_25_110
*1174 FILLER_25_12
*1175 FILLER_25_120
*1176 FILLER_25_123
*1177 FILLER_25_150
*1178 FILLER_25_166
*1179 FILLER_25_169
*1180 FILLER_25_172
*1181 FILLER_25_175
*1182 FILLER_25_178
*1183 FILLER_25_18
*1184 FILLER_25_193
*1185 FILLER_25_204
*1186 FILLER_25_207
*1187 FILLER_25_210
*1188 FILLER_25_53
*1189 FILLER_25_57
*1190 FILLER_25_60
*1191 FILLER_25_63
*1192 FILLER_25_66
*1193 FILLER_25_73
*1194 FILLER_25_80
*1195 FILLER_25_97
*1196 FILLER_26_100
*1197 FILLER_26_103
*1198 FILLER_26_106
*1199 FILLER_26_109
*1200 FILLER_26_112
*1201 FILLER_26_115
*1202 FILLER_26_118
*1203 FILLER_26_121
*1204 FILLER_26_124
*1205 FILLER_26_127
*1206 FILLER_26_130
*1207 FILLER_26_139
*1208 FILLER_26_155
*1209 FILLER_26_158
*1210 FILLER_26_174
*1211 FILLER_26_210
*1212 FILLER_26_29
*1213 FILLER_26_3
*1214 FILLER_26_32
*1215 FILLER_26_40
*1216 FILLER_26_43
*1217 FILLER_26_51
*1218 FILLER_26_54
*1219 FILLER_26_57
*1220 FILLER_26_60
*1221 FILLER_26_63
*1222 FILLER_26_66
*1223 FILLER_26_69
*1224 FILLER_26_72
*1225 FILLER_26_75
*1226 FILLER_26_78
*1227 FILLER_26_81
*1228 FILLER_26_85
*1229 FILLER_26_88
*1230 FILLER_26_91
*1231 FILLER_26_94
*1232 FILLER_26_97
*1233 FILLER_27_102
*1234 FILLER_27_105
*1235 FILLER_27_108
*1236 FILLER_27_111
*1237 FILLER_27_120
*1238 FILLER_27_123
*1239 FILLER_27_126
*1240 FILLER_27_129
*1241 FILLER_27_132
*1242 FILLER_27_135
*1243 FILLER_27_138
*1244 FILLER_27_141
*1245 FILLER_27_160
*1246 FILLER_27_163
*1247 FILLER_27_166
*1248 FILLER_27_169
*1249 FILLER_27_172
*1250 FILLER_27_175
*1251 FILLER_27_178
*1252 FILLER_27_184
*1253 FILLER_27_20
*1254 FILLER_27_23
*1255 FILLER_27_26
*1256 FILLER_27_29
*1257 FILLER_27_32
*1258 FILLER_27_35
*1259 FILLER_27_38
*1260 FILLER_27_41
*1261 FILLER_27_44
*1262 FILLER_27_47
*1263 FILLER_27_50
*1264 FILLER_27_53
*1265 FILLER_27_57
*1266 FILLER_27_60
*1267 FILLER_27_63
*1268 FILLER_27_66
*1269 FILLER_27_69
*1270 FILLER_27_72
*1271 FILLER_27_75
*1272 FILLER_27_78
*1273 FILLER_27_96
*1274 FILLER_27_99
*1275 FILLER_28_100
*1276 FILLER_28_108
*1277 FILLER_28_119
*1278 FILLER_28_135
*1279 FILLER_28_138
*1280 FILLER_28_141
*1281 FILLER_28_144
*1282 FILLER_28_152
*1283 FILLER_28_167
*1284 FILLER_28_170
*1285 FILLER_28_173
*1286 FILLER_28_191
*1287 FILLER_28_194
*1288 FILLER_28_206
*1289 FILLER_28_209
*1290 FILLER_28_24
*1291 FILLER_28_27
*1292 FILLER_28_36
*1293 FILLER_28_39
*1294 FILLER_28_42
*1295 FILLER_28_45
*1296 FILLER_28_52
*1297 FILLER_28_55
*1298 FILLER_28_78
*1299 FILLER_28_81
*1300 FILLER_28_85
*1301 FILLER_28_88
*1302 FILLER_28_91
*1303 FILLER_28_94
*1304 FILLER_28_97
*1305 FILLER_29_113
*1306 FILLER_29_136
*1307 FILLER_29_139
*1308 FILLER_29_148
*1309 FILLER_29_151
*1310 FILLER_29_154
*1311 FILLER_29_157
*1312 FILLER_29_16
*1313 FILLER_29_160
*1314 FILLER_29_163
*1315 FILLER_29_166
*1316 FILLER_29_169
*1317 FILLER_29_172
*1318 FILLER_29_183
*1319 FILLER_29_195
*1320 FILLER_29_41
*1321 FILLER_29_55
*1322 FILLER_29_57
*1323 FILLER_29_60
*1324 FILLER_29_70
*1325 FILLER_29_90
*1326 FILLER_2_120
*1327 FILLER_2_123
*1328 FILLER_2_141
*1329 FILLER_2_152
*1330 FILLER_2_173
*1331 FILLER_2_176
*1332 FILLER_2_194
*1333 FILLER_2_202
*1334 FILLER_2_205
*1335 FILLER_2_208
*1336 FILLER_2_27
*1337 FILLER_2_29
*1338 FILLER_2_3
*1339 FILLER_2_44
*1340 FILLER_2_47
*1341 FILLER_2_6
*1342 FILLER_2_72
*1343 FILLER_2_75
*1344 FILLER_2_9
*1345 FILLER_2_91
*1346 FILLER_30_100
*1347 FILLER_30_113
*1348 FILLER_30_119
*1349 FILLER_30_122
*1350 FILLER_30_125
*1351 FILLER_30_139
*1352 FILLER_30_141
*1353 FILLER_30_144
*1354 FILLER_30_147
*1355 FILLER_30_157
*1356 FILLER_30_160
*1357 FILLER_30_163
*1358 FILLER_30_166
*1359 FILLER_30_169
*1360 FILLER_30_172
*1361 FILLER_30_175
*1362 FILLER_30_185
*1363 FILLER_30_188
*1364 FILLER_30_195
*1365 FILLER_30_25
*1366 FILLER_30_35
*1367 FILLER_30_38
*1368 FILLER_30_41
*1369 FILLER_30_49
*1370 FILLER_30_52
*1371 FILLER_30_55
*1372 FILLER_30_58
*1373 FILLER_30_80
*1374 FILLER_30_83
*1375 FILLER_30_85
*1376 FILLER_30_88
*1377 FILLER_30_91
*1378 FILLER_30_94
*1379 FILLER_30_97
*1380 FILLER_31_108
*1381 FILLER_31_111
*1382 FILLER_31_117
*1383 FILLER_31_120
*1384 FILLER_31_123
*1385 FILLER_31_137
*1386 FILLER_31_140
*1387 FILLER_31_143
*1388 FILLER_31_165
*1389 FILLER_31_169
*1390 FILLER_31_172
*1391 FILLER_31_175
*1392 FILLER_31_180
*1393 FILLER_31_183
*1394 FILLER_31_186
*1395 FILLER_31_189
*1396 FILLER_31_192
*1397 FILLER_31_195
*1398 FILLER_31_198
*1399 FILLER_31_201
*1400 FILLER_31_27
*1401 FILLER_31_3
*1402 FILLER_31_30
*1403 FILLER_31_33
*1404 FILLER_31_36
*1405 FILLER_31_44
*1406 FILLER_31_47
*1407 FILLER_31_6
*1408 FILLER_31_64
*1409 FILLER_31_67
*1410 FILLER_31_70
*1411 FILLER_31_73
*1412 FILLER_31_76
*1413 FILLER_31_84
*1414 FILLER_31_9
*1415 FILLER_32_114
*1416 FILLER_32_117
*1417 FILLER_32_16
*1418 FILLER_32_164
*1419 FILLER_32_189
*1420 FILLER_32_19
*1421 FILLER_32_192
*1422 FILLER_32_195
*1423 FILLER_32_197
*1424 FILLER_32_200
*1425 FILLER_32_203
*1426 FILLER_32_206
*1427 FILLER_32_209
*1428 FILLER_32_22
*1429 FILLER_32_25
*1430 FILLER_32_29
*1431 FILLER_32_32
*1432 FILLER_32_45
*1433 FILLER_32_48
*1434 FILLER_32_58
*1435 FILLER_32_61
*1436 FILLER_32_85
*1437 FILLER_32_95
*1438 FILLER_33_110
*1439 FILLER_33_113
*1440 FILLER_33_145
*1441 FILLER_33_15
*1442 FILLER_33_165
*1443 FILLER_33_169
*1444 FILLER_33_18
*1445 FILLER_33_193
*1446 FILLER_33_196
*1447 FILLER_33_199
*1448 FILLER_33_202
*1449 FILLER_33_205
*1450 FILLER_33_208
*1451 FILLER_33_21
*1452 FILLER_33_24
*1453 FILLER_33_45
*1454 FILLER_33_55
*1455 FILLER_33_57
*1456 FILLER_33_74
*1457 FILLER_34_114
*1458 FILLER_34_138
*1459 FILLER_34_141
*1460 FILLER_34_15
*1461 FILLER_34_165
*1462 FILLER_34_18
*1463 FILLER_34_197
*1464 FILLER_34_200
*1465 FILLER_34_203
*1466 FILLER_34_206
*1467 FILLER_34_209
*1468 FILLER_34_21
*1469 FILLER_34_24
*1470 FILLER_34_27
*1471 FILLER_34_29
*1472 FILLER_34_52
*1473 FILLER_34_68
*1474 FILLER_34_81
*1475 FILLER_34_94
*1476 FILLER_35_113
*1477 FILLER_35_12
*1478 FILLER_35_147
*1479 FILLER_35_15
*1480 FILLER_35_165
*1481 FILLER_35_18
*1482 FILLER_35_194
*1483 FILLER_35_197
*1484 FILLER_35_200
*1485 FILLER_35_203
*1486 FILLER_35_206
*1487 FILLER_35_209
*1488 FILLER_35_21
*1489 FILLER_35_24
*1490 FILLER_35_27
*1491 FILLER_35_29
*1492 FILLER_35_3
*1493 FILLER_35_32
*1494 FILLER_35_35
*1495 FILLER_35_38
*1496 FILLER_35_57
*1497 FILLER_35_6
*1498 FILLER_35_85
*1499 FILLER_35_9
*1500 FILLER_35_97
*1501 FILLER_3_121
*1502 FILLER_3_147
*1503 FILLER_3_150
*1504 FILLER_3_169
*1505 FILLER_3_178
*1506 FILLER_3_195
*1507 FILLER_3_198
*1508 FILLER_3_201
*1509 FILLER_3_204
*1510 FILLER_3_207
*1511 FILLER_3_210
*1512 FILLER_3_3
*1513 FILLER_3_42
*1514 FILLER_3_54
*1515 FILLER_3_64
*1516 FILLER_3_86
*1517 FILLER_4_11
*1518 FILLER_4_113
*1519 FILLER_4_116
*1520 FILLER_4_134
*1521 FILLER_4_137
*1522 FILLER_4_14
*1523 FILLER_4_141
*1524 FILLER_4_144
*1525 FILLER_4_147
*1526 FILLER_4_150
*1527 FILLER_4_153
*1528 FILLER_4_156
*1529 FILLER_4_172
*1530 FILLER_4_175
*1531 FILLER_4_178
*1532 FILLER_4_181
*1533 FILLER_4_184
*1534 FILLER_4_187
*1535 FILLER_4_190
*1536 FILLER_4_193
*1537 FILLER_4_197
*1538 FILLER_4_200
*1539 FILLER_4_203
*1540 FILLER_4_206
*1541 FILLER_4_209
*1542 FILLER_4_27
*1543 FILLER_4_29
*1544 FILLER_4_48
*1545 FILLER_4_51
*1546 FILLER_4_63
*1547 FILLER_4_66
*1548 FILLER_4_69
*1549 FILLER_4_72
*1550 FILLER_4_98
*1551 FILLER_5_101
*1552 FILLER_5_109
*1553 FILLER_5_113
*1554 FILLER_5_116
*1555 FILLER_5_119
*1556 FILLER_5_134
*1557 FILLER_5_137
*1558 FILLER_5_140
*1559 FILLER_5_148
*1560 FILLER_5_151
*1561 FILLER_5_154
*1562 FILLER_5_157
*1563 FILLER_5_160
*1564 FILLER_5_163
*1565 FILLER_5_166
*1566 FILLER_5_176
*1567 FILLER_5_179
*1568 FILLER_5_182
*1569 FILLER_5_185
*1570 FILLER_5_188
*1571 FILLER_5_195
*1572 FILLER_5_210
*1573 FILLER_5_22
*1574 FILLER_5_25
*1575 FILLER_5_3
*1576 FILLER_5_44
*1577 FILLER_5_6
*1578 FILLER_5_68
*1579 FILLER_5_71
*1580 FILLER_5_74
*1581 FILLER_5_77
*1582 FILLER_5_80
*1583 FILLER_5_83
*1584 FILLER_5_86
*1585 FILLER_5_89
*1586 FILLER_5_92
*1587 FILLER_5_95
*1588 FILLER_5_98
*1589 FILLER_6_119
*1590 FILLER_6_129
*1591 FILLER_6_132
*1592 FILLER_6_135
*1593 FILLER_6_138
*1594 FILLER_6_141
*1595 FILLER_6_155
*1596 FILLER_6_164
*1597 FILLER_6_167
*1598 FILLER_6_170
*1599 FILLER_6_182
*1600 FILLER_6_185
*1601 FILLER_6_188
*1602 FILLER_6_210
*1603 FILLER_6_26
*1604 FILLER_6_29
*1605 FILLER_6_32
*1606 FILLER_6_44
*1607 FILLER_6_79
*1608 FILLER_6_82
*1609 FILLER_6_98
*1610 FILLER_7_100
*1611 FILLER_7_103
*1612 FILLER_7_106
*1613 FILLER_7_109
*1614 FILLER_7_11
*1615 FILLER_7_136
*1616 FILLER_7_139
*1617 FILLER_7_163
*1618 FILLER_7_166
*1619 FILLER_7_169
*1620 FILLER_7_190
*1621 FILLER_7_28
*1622 FILLER_7_31
*1623 FILLER_7_45
*1624 FILLER_7_53
*1625 FILLER_7_57
*1626 FILLER_7_60
*1627 FILLER_7_66
*1628 FILLER_7_69
*1629 FILLER_7_80
*1630 FILLER_7_97
*1631 FILLER_8_102
*1632 FILLER_8_105
*1633 FILLER_8_108
*1634 FILLER_8_111
*1635 FILLER_8_125
*1636 FILLER_8_128
*1637 FILLER_8_141
*1638 FILLER_8_147
*1639 FILLER_8_150
*1640 FILLER_8_153
*1641 FILLER_8_156
*1642 FILLER_8_178
*1643 FILLER_8_181
*1644 FILLER_8_184
*1645 FILLER_8_187
*1646 FILLER_8_193
*1647 FILLER_8_202
*1648 FILLER_8_25
*1649 FILLER_8_29
*1650 FILLER_8_55
*1651 FILLER_8_58
*1652 FILLER_8_61
*1653 FILLER_8_64
*1654 FILLER_8_81
*1655 FILLER_8_85
*1656 FILLER_8_88
*1657 FILLER_9_101
*1658 FILLER_9_104
*1659 FILLER_9_107
*1660 FILLER_9_110
*1661 FILLER_9_136
*1662 FILLER_9_139
*1663 FILLER_9_142
*1664 FILLER_9_145
*1665 FILLER_9_148
*1666 FILLER_9_151
*1667 FILLER_9_154
*1668 FILLER_9_157
*1669 FILLER_9_160
*1670 FILLER_9_163
*1671 FILLER_9_166
*1672 FILLER_9_169
*1673 FILLER_9_179
*1674 FILLER_9_182
*1675 FILLER_9_193
*1676 FILLER_9_196
*1677 FILLER_9_20
*1678 FILLER_9_210
*1679 FILLER_9_46
*1680 FILLER_9_49
*1681 FILLER_9_52
*1682 FILLER_9_55
*1683 FILLER_9_57
*1684 FILLER_9_60
*1685 FILLER_9_63
*1686 FILLER_9_66
*1687 FILLER_9_69
*1688 FILLER_9_76
*1689 FILLER_9_79
*1690 FILLER_9_82
*1691 FILLER_9_85
*1692 FILLER_9_95
*1693 FILLER_9_98
*1694 PHY_EDGE_ROW_0_Left_36
*1695 PHY_EDGE_ROW_0_Right_0
*1696 PHY_EDGE_ROW_10_Left_46
*1697 PHY_EDGE_ROW_10_Right_10
*1698 PHY_EDGE_ROW_11_Left_47
*1699 PHY_EDGE_ROW_11_Right_11
*1700 PHY_EDGE_ROW_12_Left_48
*1701 PHY_EDGE_ROW_12_Right_12
*1702 PHY_EDGE_ROW_13_Left_49
*1703 PHY_EDGE_ROW_13_Right_13
*1704 PHY_EDGE_ROW_14_Left_50
*1705 PHY_EDGE_ROW_14_Right_14
*1706 PHY_EDGE_ROW_15_Left_51
*1707 PHY_EDGE_ROW_15_Right_15
*1708 PHY_EDGE_ROW_16_Left_52
*1709 PHY_EDGE_ROW_16_Right_16
*1710 PHY_EDGE_ROW_17_Left_53
*1711 PHY_EDGE_ROW_17_Right_17
*1712 PHY_EDGE_ROW_18_Left_54
*1713 PHY_EDGE_ROW_18_Right_18
*1714 PHY_EDGE_ROW_19_Left_55
*1715 PHY_EDGE_ROW_19_Right_19
*1716 PHY_EDGE_ROW_1_Left_37
*1717 PHY_EDGE_ROW_1_Right_1
*1718 PHY_EDGE_ROW_20_Left_56
*1719 PHY_EDGE_ROW_20_Right_20
*1720 PHY_EDGE_ROW_21_Left_57
*1721 PHY_EDGE_ROW_21_Right_21
*1722 PHY_EDGE_ROW_22_Left_58
*1723 PHY_EDGE_ROW_22_Right_22
*1724 PHY_EDGE_ROW_23_Left_59
*1725 PHY_EDGE_ROW_23_Right_23
*1726 PHY_EDGE_ROW_24_Left_60
*1727 PHY_EDGE_ROW_24_Right_24
*1728 PHY_EDGE_ROW_25_Left_61
*1729 PHY_EDGE_ROW_25_Right_25
*1730 PHY_EDGE_ROW_26_Left_62
*1731 PHY_EDGE_ROW_26_Right_26
*1732 PHY_EDGE_ROW_27_Left_63
*1733 PHY_EDGE_ROW_27_Right_27
*1734 PHY_EDGE_ROW_28_Left_64
*1735 PHY_EDGE_ROW_28_Right_28
*1736 PHY_EDGE_ROW_29_Left_65
*1737 PHY_EDGE_ROW_29_Right_29
*1738 PHY_EDGE_ROW_2_Left_38
*1739 PHY_EDGE_ROW_2_Right_2
*1740 PHY_EDGE_ROW_30_Left_66
*1741 PHY_EDGE_ROW_30_Right_30
*1742 PHY_EDGE_ROW_31_Left_67
*1743 PHY_EDGE_ROW_31_Right_31
*1744 PHY_EDGE_ROW_32_Left_68
*1745 PHY_EDGE_ROW_32_Right_32
*1746 PHY_EDGE_ROW_33_Left_69
*1747 PHY_EDGE_ROW_33_Right_33
*1748 PHY_EDGE_ROW_34_Left_70
*1749 PHY_EDGE_ROW_34_Right_34
*1750 PHY_EDGE_ROW_35_Left_71
*1751 PHY_EDGE_ROW_35_Right_35
*1752 PHY_EDGE_ROW_3_Left_39
*1753 PHY_EDGE_ROW_3_Right_3
*1754 PHY_EDGE_ROW_4_Left_40
*1755 PHY_EDGE_ROW_4_Right_4
*1756 PHY_EDGE_ROW_5_Left_41
*1757 PHY_EDGE_ROW_5_Right_5
*1758 PHY_EDGE_ROW_6_Left_42
*1759 PHY_EDGE_ROW_6_Right_6
*1760 PHY_EDGE_ROW_7_Left_43
*1761 PHY_EDGE_ROW_7_Right_7
*1762 PHY_EDGE_ROW_8_Left_44
*1763 PHY_EDGE_ROW_8_Right_8
*1764 PHY_EDGE_ROW_9_Left_45
*1765 PHY_EDGE_ROW_9_Right_9
*1766 TAP_TAPCELL_ROW_0_72
*1767 TAP_TAPCELL_ROW_0_73
*1768 TAP_TAPCELL_ROW_0_74
*1769 TAP_TAPCELL_ROW_0_75
*1770 TAP_TAPCELL_ROW_0_76
*1771 TAP_TAPCELL_ROW_0_77
*1772 TAP_TAPCELL_ROW_0_78
*1773 TAP_TAPCELL_ROW_10_110
*1774 TAP_TAPCELL_ROW_10_111
*1775 TAP_TAPCELL_ROW_10_112
*1776 TAP_TAPCELL_ROW_10_113
*1777 TAP_TAPCELL_ROW_11_114
*1778 TAP_TAPCELL_ROW_11_115
*1779 TAP_TAPCELL_ROW_11_116
*1780 TAP_TAPCELL_ROW_12_117
*1781 TAP_TAPCELL_ROW_12_118
*1782 TAP_TAPCELL_ROW_12_119
*1783 TAP_TAPCELL_ROW_12_120
*1784 TAP_TAPCELL_ROW_13_121
*1785 TAP_TAPCELL_ROW_13_122
*1786 TAP_TAPCELL_ROW_13_123
*1787 TAP_TAPCELL_ROW_14_124
*1788 TAP_TAPCELL_ROW_14_125
*1789 TAP_TAPCELL_ROW_14_126
*1790 TAP_TAPCELL_ROW_14_127
*1791 TAP_TAPCELL_ROW_15_128
*1792 TAP_TAPCELL_ROW_15_129
*1793 TAP_TAPCELL_ROW_15_130
*1794 TAP_TAPCELL_ROW_16_131
*1795 TAP_TAPCELL_ROW_16_132
*1796 TAP_TAPCELL_ROW_16_133
*1797 TAP_TAPCELL_ROW_16_134
*1798 TAP_TAPCELL_ROW_17_135
*1799 TAP_TAPCELL_ROW_17_136
*1800 TAP_TAPCELL_ROW_17_137
*1801 TAP_TAPCELL_ROW_18_138
*1802 TAP_TAPCELL_ROW_18_139
*1803 TAP_TAPCELL_ROW_18_140
*1804 TAP_TAPCELL_ROW_18_141
*1805 TAP_TAPCELL_ROW_19_142
*1806 TAP_TAPCELL_ROW_19_143
*1807 TAP_TAPCELL_ROW_19_144
*1808 TAP_TAPCELL_ROW_1_79
*1809 TAP_TAPCELL_ROW_1_80
*1810 TAP_TAPCELL_ROW_1_81
*1811 TAP_TAPCELL_ROW_20_145
*1812 TAP_TAPCELL_ROW_20_146
*1813 TAP_TAPCELL_ROW_20_147
*1814 TAP_TAPCELL_ROW_20_148
*1815 TAP_TAPCELL_ROW_21_149
*1816 TAP_TAPCELL_ROW_21_150
*1817 TAP_TAPCELL_ROW_21_151
*1818 TAP_TAPCELL_ROW_22_152
*1819 TAP_TAPCELL_ROW_22_153
*1820 TAP_TAPCELL_ROW_22_154
*1821 TAP_TAPCELL_ROW_22_155
*1822 TAP_TAPCELL_ROW_23_156
*1823 TAP_TAPCELL_ROW_23_157
*1824 TAP_TAPCELL_ROW_23_158
*1825 TAP_TAPCELL_ROW_24_159
*1826 TAP_TAPCELL_ROW_24_160
*1827 TAP_TAPCELL_ROW_24_161
*1828 TAP_TAPCELL_ROW_24_162
*1829 TAP_TAPCELL_ROW_25_163
*1830 TAP_TAPCELL_ROW_25_164
*1831 TAP_TAPCELL_ROW_25_165
*1832 TAP_TAPCELL_ROW_26_166
*1833 TAP_TAPCELL_ROW_26_167
*1834 TAP_TAPCELL_ROW_26_168
*1835 TAP_TAPCELL_ROW_26_169
*1836 TAP_TAPCELL_ROW_27_170
*1837 TAP_TAPCELL_ROW_27_171
*1838 TAP_TAPCELL_ROW_27_172
*1839 TAP_TAPCELL_ROW_28_173
*1840 TAP_TAPCELL_ROW_28_174
*1841 TAP_TAPCELL_ROW_28_175
*1842 TAP_TAPCELL_ROW_28_176
*1843 TAP_TAPCELL_ROW_29_177
*1844 TAP_TAPCELL_ROW_29_178
*1845 TAP_TAPCELL_ROW_29_179
*1846 TAP_TAPCELL_ROW_2_82
*1847 TAP_TAPCELL_ROW_2_83
*1848 TAP_TAPCELL_ROW_2_84
*1849 TAP_TAPCELL_ROW_2_85
*1850 TAP_TAPCELL_ROW_30_180
*1851 TAP_TAPCELL_ROW_30_181
*1852 TAP_TAPCELL_ROW_30_182
*1853 TAP_TAPCELL_ROW_30_183
*1854 TAP_TAPCELL_ROW_31_184
*1855 TAP_TAPCELL_ROW_31_185
*1856 TAP_TAPCELL_ROW_31_186
*1857 TAP_TAPCELL_ROW_32_187
*1858 TAP_TAPCELL_ROW_32_188
*1859 TAP_TAPCELL_ROW_32_189
*1860 TAP_TAPCELL_ROW_32_190
*1861 TAP_TAPCELL_ROW_33_191
*1862 TAP_TAPCELL_ROW_33_192
*1863 TAP_TAPCELL_ROW_33_193
*1864 TAP_TAPCELL_ROW_34_194
*1865 TAP_TAPCELL_ROW_34_195
*1866 TAP_TAPCELL_ROW_34_196
*1867 TAP_TAPCELL_ROW_34_197
*1868 TAP_TAPCELL_ROW_35_198
*1869 TAP_TAPCELL_ROW_35_199
*1870 TAP_TAPCELL_ROW_35_200
*1871 TAP_TAPCELL_ROW_35_201
*1872 TAP_TAPCELL_ROW_35_202
*1873 TAP_TAPCELL_ROW_35_203
*1874 TAP_TAPCELL_ROW_35_204
*1875 TAP_TAPCELL_ROW_3_86
*1876 TAP_TAPCELL_ROW_3_87
*1877 TAP_TAPCELL_ROW_3_88
*1878 TAP_TAPCELL_ROW_4_89
*1879 TAP_TAPCELL_ROW_4_90
*1880 TAP_TAPCELL_ROW_4_91
*1881 TAP_TAPCELL_ROW_4_92
*1882 TAP_TAPCELL_ROW_5_93
*1883 TAP_TAPCELL_ROW_5_94
*1884 TAP_TAPCELL_ROW_5_95
*1885 TAP_TAPCELL_ROW_6_96
*1886 TAP_TAPCELL_ROW_6_97
*1887 TAP_TAPCELL_ROW_6_98
*1888 TAP_TAPCELL_ROW_6_99
*1889 TAP_TAPCELL_ROW_7_100
*1890 TAP_TAPCELL_ROW_7_101
*1891 TAP_TAPCELL_ROW_7_102
*1892 TAP_TAPCELL_ROW_8_103
*1893 TAP_TAPCELL_ROW_8_104
*1894 TAP_TAPCELL_ROW_8_105
*1895 TAP_TAPCELL_ROW_8_106
*1896 TAP_TAPCELL_ROW_9_107
*1897 TAP_TAPCELL_ROW_9_108
*1898 TAP_TAPCELL_ROW_9_109
*1899 _349_
*1900 _350_
*1901 _351_
*1902 _352_
*1903 _353_
*1904 _354_
*1905 _355_
*1906 _356_
*1907 _357_
*1908 _358_
*1909 _359_
*1910 _360_
*1911 _361_
*1912 _362_
*1913 _363_
*1914 _364_
*1915 _365_
*1916 _366_
*1917 _367_
*1918 _368_
*1919 _369_
*1920 _370_
*1921 _371_
*1922 _372_
*1923 _373_
*1924 _374_
*1925 _375_
*1926 _376_
*1927 _377_
*1928 _378_
*1929 _379_
*1930 _380_
*1931 _381_
*1932 _382_
*1933 _383_
*1934 _384_
*1935 _385_
*1936 _386_
*1937 _387_
*1938 _388_
*1939 _389_
*1940 _390_
*1941 _391_
*1942 _392_
*1943 _393_
*1944 _394_
*1945 _395_
*1946 _396_
*1947 _397_
*1948 _398_
*1949 _399_
*1950 _400_
*1951 _401_
*1952 _402_
*1953 _403_
*1954 _404_
*1955 _405_
*1956 _406_
*1957 _407_
*1958 _408_
*1959 _409_
*1960 _410_
*1961 _411_
*1962 _412_
*1963 _413_
*1964 _414_
*1965 _415_
*1966 _416_
*1967 _417_
*1968 _418_
*1969 _419_
*1970 _420_
*1971 _421_
*1972 _422_
*1973 _423_
*1974 _424_
*1975 _425_
*1976 _426_
*1977 _427_
*1978 _428_
*1979 _429_
*1980 _430_
*1981 _431_
*1982 _432_
*1983 _433_
*1984 _434_
*1985 _435_
*1986 _436_
*1987 _437_
*1988 _438_
*1989 _439_
*1990 _440_
*1991 _441_
*1992 _442_
*1993 _443_
*1994 _444_
*1995 _445_
*1996 _446_
*1997 _447_
*1998 _448_
*1999 _449_
*2000 _450_
*2001 _451_
*2002 _452_
*2003 _453_
*2004 _454_
*2005 _455_
*2006 _456_
*2007 _457_
*2008 _458_
*2009 _459_
*2010 _460_
*2011 _461_
*2012 _462_
*2013 _463_
*2014 _464_
*2015 _465_
*2016 _466_
*2017 _467_
*2018 _468_
*2019 _469_
*2020 _470_
*2021 _471_
*2022 _472_
*2023 _473_
*2024 _474_
*2025 _475_
*2026 _476_
*2027 _477_
*2028 _478_
*2029 _479_
*2030 _480_
*2031 _481_
*2032 _482_
*2033 _483_
*2034 _484_
*2035 _485_
*2036 _486_
*2037 _487_
*2038 _488_
*2039 _489_
*2040 _490_
*2041 _491_
*2042 _492_
*2043 _493_
*2044 _494_
*2045 _495_
*2046 _496_
*2047 _497_
*2048 _498_
*2049 _499_
*2050 _500_
*2051 _501_
*2052 _502_
*2053 _503_
*2054 _504_
*2055 _505_
*2056 _506_
*2057 _507_
*2058 _508_
*2059 _509_
*2060 _510_
*2061 _511_
*2062 _512_
*2063 _513_
*2064 _514_
*2065 _515_
*2066 _516_
*2067 _517_
*2068 _518_
*2069 _519_
*2070 _520_
*2071 _521_
*2072 _522_
*2073 _523_
*2074 _524_
*2075 _525_
*2076 _526_
*2077 _527_
*2078 _528_
*2079 _529_
*2080 _530_
*2081 _531_
*2082 _532_
*2083 _533_
*2084 _534_
*2085 _535_
*2086 _536_
*2087 _537_
*2088 _538_
*2089 _539_
*2090 _540_
*2091 _541_
*2092 _542_
*2093 _543_
*2094 _544_
*2095 _545_
*2096 _546_
*2097 _547_
*2098 _548_
*2099 _549_
*2100 _550_
*2101 _551_
*2102 _552_
*2103 _553_
*2104 _554_
*2105 _555_
*2106 _556_
*2107 _557_
*2108 _558_
*2109 _559_
*2110 _560_
*2111 _561_
*2112 _562_
*2113 _563_
*2114 _564_
*2115 _565_
*2116 _566_
*2117 _567_
*2118 _568_
*2119 _569_
*2120 _570_
*2121 _571_
*2122 _572_
*2123 _573_
*2124 _574_
*2125 _575_
*2126 _576_
*2127 _577_
*2128 _578_
*2129 _579_
*2130 _580_
*2131 _581_
*2132 _582_
*2133 _583_
*2134 _584_
*2135 _585_
*2136 _586_
*2137 _587_
*2138 _588_
*2139 _589_
*2140 _590_
*2141 _591_
*2142 _592_
*2143 _593_
*2144 _594_
*2145 _595_
*2146 _596_
*2147 _597_
*2148 _598_
*2149 _599_
*2150 _600_
*2151 _601_
*2152 _602_
*2153 _603_
*2154 _604_
*2155 _605_
*2156 _606_
*2157 _607_
*2158 _608_
*2159 _609_
*2160 _610_
*2161 _611_
*2162 _612_
*2163 _613_
*2164 _614_
*2165 _615_
*2166 _616_
*2167 _617_
*2168 _618_
*2169 _619_
*2170 _620_
*2171 _621_
*2172 _622_
*2173 _623_
*2174 _624_
*2175 _625_
*2176 _626_
*2177 _627_
*2178 _628_
*2179 _629_
*2180 _630_
*2181 _631_
*2182 _632_
*2183 _633_
*2184 _634_
*2185 _635_
*2186 _636_
*2187 _637_
*2188 _638_
*2189 _639_
*2190 _640_
*2191 _641_
*2192 _642_
*2193 _643_
*2194 _644_
*2195 _645_
*2196 _646_
*2197 _647_
*2198 _648_
*2199 _649_
*2200 _650_
*2201 _651_
*2202 _652_
*2203 _653_
*2204 _654_
*2205 _655_
*2206 _656_
*2207 _657_
*2208 _658_
*2209 _659_
*2210 _660_
*2211 _661_
*2212 _662_
*2213 _663_
*2214 _664_
*2215 _665_
*2216 _666_
*2217 _667_
*2218 _668_
*2219 _669_
*2220 _670_
*2221 _671_
*2222 _672_
*2223 _673_
*2224 _674_
*2225 _675_
*2226 _676_
*2227 _677_
*2228 _678_
*2229 _679_
*2230 _680_
*2231 _681_
*2232 _682_
*2233 _683_
*2234 _684_
*2235 _685_
*2236 _686_
*2237 _687_
*2238 _688_
*2239 _689_
*2240 _690_
*2241 _691_
*2242 _692_
*2243 _693_
*2244 _694_
*2245 _695_
*2246 _696_
*2247 _697_
*2248 _698_
*2249 _699_
*2250 _700_
*2251 _701_
*2252 _702_
*2253 _703_
*2254 _704_
*2255 _705_
*2256 _706_
*2257 _707_
*2258 _708_
*2259 _709_
*2260 _710_
*2261 _711_
*2262 _712_
*2263 _713_
*2264 _714_
*2265 _715_
*2266 _716_
*2267 _717_
*2268 _718_
*2269 _719_
*2270 _720_
*2271 _721_
*2272 _722_
*2273 _723_
*2274 _724_
*2275 _725_
*2276 _726_
*2277 _727_
*2278 _728_
*2279 _729_
*2280 _730_
*2281 fanout101
*2282 fanout103
*2283 fanout105
*2284 fanout106
*2285 fanout108
*2286 fanout109
*2287 fanout111
*2288 fanout112
*2289 fanout114
*2290 fanout116
*2291 fanout117
*2292 fanout119
*2293 fanout121
*2294 input1
*2295 input10
*2296 input11
*2297 input12
*2298 input13
*2299 input14
*2300 input15
*2301 input16
*2302 input17
*2303 input18
*2304 input19
*2305 input2
*2306 input20
*2307 input21
*2308 input22
*2309 input23
*2310 input24
*2311 input25
*2312 input26
*2313 input27
*2314 input28
*2315 input29
*2316 input3
*2317 input30
*2318 input31
*2319 input32
*2320 input33
*2321 input34
*2322 input35
*2323 input36
*2324 input37
*2325 input38
*2326 input39
*2327 input4
*2328 input40
*2329 input41
*2330 input42
*2331 input43
*2332 input44
*2333 input45
*2334 input46
*2335 input47
*2336 input48
*2337 input49
*2338 input5
*2339 input50
*2340 input51
*2341 input52
*2342 input53
*2343 input54
*2344 input55
*2345 input56
*2346 input57
*2347 input58
*2348 input59
*2349 input6
*2350 input60
*2351 input61
*2352 input62
*2353 input63
*2354 input64
*2355 input65
*2356 input7
*2357 input8
*2358 input9
*2359 load_slew102
*2360 load_slew104
*2361 load_slew107
*2362 load_slew110
*2363 load_slew113
*2364 load_slew115
*2365 load_slew118
*2366 load_slew120
*2367 max_cap100
*2368 max_cap99
*2369 output66
*2370 output67
*2371 output68
*2372 output69
*2373 output70
*2374 output71
*2375 output72
*2376 output73
*2377 output74
*2378 output75
*2379 output76
*2380 output77
*2381 output78
*2382 output79
*2383 output80
*2384 output81
*2385 output82
*2386 output83
*2387 output84
*2388 output85
*2389 output86
*2390 output87
*2391 output88
*2392 output89
*2393 output90
*2394 output91
*2395 output92
*2396 output93
*2397 output94
*2398 output95
*2399 output96
*2400 output97
*2401 output98
*2402 rebuffer122
*2403 rebuffer123
*2404 rebuffer124
*2405 rebuffer125
*2406 rebuffer126
*2407 rebuffer127
*2408 rebuffer128
*2409 rebuffer129
*2410 rebuffer130
*2411 rebuffer131
*2412 rebuffer132
*2413 rebuffer133
*2414 rebuffer134
*2415 rebuffer135
*2416 rebuffer136
*2417 rebuffer137
*2418 rebuffer138
*2419 rebuffer139
*2420 rebuffer140
*2421 rebuffer141
*2422 rebuffer142
*2423 rebuffer147
*2424 rebuffer154
*2425 rebuffer155
*2426 rebuffer156
*2427 rebuffer157
*2428 rebuffer158
*2429 rebuffer201
*2430 rebuffer211
*2431 rebuffer212
*2432 rebuffer213

*PORTS
A[0] I
A[10] I
A[11] I
A[12] I
A[13] I
A[14] I
A[15] I
A[16] I
A[17] I
A[18] I
A[19] I
A[1] I
A[20] I
A[21] I
A[22] I
A[23] I
A[24] I
A[25] I
A[26] I
A[27] I
A[28] I
A[29] I
A[2] I
A[30] I
A[31] I
A[3] I
A[4] I
A[5] I
A[6] I
A[7] I
A[8] I
A[9] I
B[0] I
B[10] I
B[11] I
B[12] I
B[13] I
B[14] I
B[15] I
B[16] I
B[17] I
B[18] I
B[19] I
B[1] I
B[20] I
B[21] I
B[22] I
B[23] I
B[24] I
B[25] I
B[26] I
B[27] I
B[28] I
B[29] I
B[2] I
B[30] I
B[31] I
B[3] I
B[4] I
B[5] I
B[6] I
B[7] I
B[8] I
B[9] I
S[0] O
S[10] O
S[11] O
S[12] O
S[13] O
S[14] O
S[15] O
S[16] O
S[17] O
S[18] O
S[19] O
S[1] O
S[20] O
S[21] O
S[22] O
S[23] O
S[24] O
S[25] O
S[26] O
S[27] O
S[28] O
S[29] O
S[2] O
S[30] O
S[31] O
S[3] O
S[4] O
S[5] O
S[6] O
S[7] O
S[8] O
S[9] O
carryOut O
sub I

*D_NET *1 0.00109952
*CONN
*P A[0] I
*I *2294:A I *D sky130_fd_sc_hd__clkdlybuf4s25_1
*CAP
1 A[0] 0.000499231
2 *2294:A 0.000499231
3 *2294:A S[0] 5.11015e-05
4 *2294:A *2320:A 4.99538e-05
*RES
1 A[0] *2294:A 11.2172 
*END

*D_NET *2 0.00209184
*CONN
*P A[10] I
*I *2305:A I *D sky130_fd_sc_hd__clkdlybuf4s25_1
*CAP
1 A[10] 0.000505422
2 *2305:A 0.000505422
3 *2305:A S[11] 0.000323188
4 *2305:A *2321:A 0.000365163
5 *2305:A *2323:A 0.00037231
6 *2305:A *2338:A 0
7 *2305:A *2371:A 2.03321e-05
8 *2305:A *547:10 0
*RES
1 A[10] *2305:A 12.413 
*END

*D_NET *3 0.00205439
*CONN
*P A[11] I
*I *2316:A I *D sky130_fd_sc_hd__clkdlybuf4s25_1
*CAP
1 A[11] 0.000510301
2 *2316:A 0.000510301
3 *2316:A *2318:A 0
4 *2316:A *2322:A 0.000450933
5 *2316:A *2353:A 0.000115779
6 *2316:A *562:8 0.000467074
*RES
1 A[11] *2316:A 17.295 
*END

*D_NET *4 0.00137132
*CONN
*P A[12] I
*I *2327:A I *D sky130_fd_sc_hd__clkdlybuf4s25_1
*CAP
1 A[12] 0.000389891
2 *2327:A 0.000389891
3 *2327:A S[12] 0
4 *2327:A *2321:A 0.000512671
5 *2327:A *2324:A 0
6 *2327:A *2372:A 1.67513e-05
7 *2327:A *547:10 6.21133e-05
*RES
1 A[12] *2327:A 6.1326 
*END

*D_NET *5 0.00239832
*CONN
*P A[13] I
*I *2338:A I *D sky130_fd_sc_hd__clkdlybuf4s25_1
*CAP
1 A[13] 0.001011
2 *2338:A 0.001011
3 *2338:A S[13] 0.000188156
4 *2338:A *2324:A 0.000188156
5 *2338:A *115:12 0
6 *2305:A *2338:A 0
*RES
1 A[13] *2338:A 20.1669 
*END

*D_NET *6 0.000753019
*CONN
*P A[14] I
*I *2349:A I *D sky130_fd_sc_hd__clkdlybuf4s25_1
*CAP
1 A[14] 0.000271616
2 *2349:A 0.000271616
3 *2349:A S[16] 0.000209787
4 *2349:A S[18] 0
5 *2349:A *471:58 0
*RES
1 A[14] *2349:A 5.273 
*END

*D_NET *7 0.0012714
*CONN
*P A[15] I
*I *2356:A I *D sky130_fd_sc_hd__clkdlybuf4s25_1
*CAP
1 A[15] 0.000313899
2 *2356:A 0.000313899
3 *2356:A S[15] 0.000379429
4 *2356:A *2210:B 0.000118504
5 *2356:A *2306:A 0
6 *2356:A *2326:A 0.000120855
7 *2356:A *2341:A 0
8 *2356:A *471:52 2.48159e-05
*RES
1 A[15] *2356:A 8.078 
*END

*D_NET *8 0.00198197
*CONN
*P A[16] I
*I *2357:A I *D sky130_fd_sc_hd__clkdlybuf4s25_1
*CAP
1 A[16] 0.000602577
2 *2357:A 0.000602577
3 *2357:A S[3] 0.000188914
4 *2357:A *2281:A 0
5 *2357:A *2312:A 0.000365912
6 *2357:A *2328:A 0
7 *2357:A *2329:A 8.77298e-05
8 *2357:A *2347:A 4.90655e-05
9 *2357:A *513:12 8.5193e-05
*RES
1 A[16] *2357:A 6.9139 
*END

*D_NET *9 0.00168318
*CONN
*P A[17] I
*I *2358:A I *D sky130_fd_sc_hd__clkdlybuf4s25_1
*CAP
1 A[17] 0.000508325
2 *2358:A 0.000508325
3 *2358:A *2307:A 5.72429e-05
4 *2358:A *2308:A 0
5 *2358:A *2329:A 0.000278748
6 *2358:A *2342:A 0.000155684
7 *2358:A *2343:A 0.000124895
8 *2358:A *552:14 4.99619e-05
*RES
1 A[17] *2358:A 11.0868 
*END

*D_NET *10 0.00101907
*CONN
*P A[18] I
*I *2295:A I *D sky130_fd_sc_hd__clkdlybuf4s25_1
*CAP
1 A[18] 0.000411008
2 *2295:A 0.000411008
3 *2295:A S[28] 5.51545e-05
4 *2295:A *2296:A 0
5 *2295:A *2330:A 0.0001419
*RES
1 A[18] *2295:A 9.94223 
*END

*D_NET *11 0.000862789
*CONN
*P A[19] I
*I *2296:A I *D sky130_fd_sc_hd__clkdlybuf4s25_1
*CAP
1 A[19] 0.000335324
2 *2296:A 0.000335324
3 *2296:A S[28] 0
4 *2296:A *2331:A 0.000192142
5 *2295:A *2296:A 0
*RES
1 A[19] *2296:A 8.09377 
*END

*D_NET *12 0.00177635
*CONN
*P A[1] I
*I *2297:A I *D sky130_fd_sc_hd__clkdlybuf4s25_1
*CAP
1 A[1] 0.000421921
2 *2297:A 0.000421921
3 *2297:A S[1] 0
4 *2297:A *1903:A 0.000187187
5 *2297:A *1909:A1 0.000181376
6 *2297:A *2178:A2 4.66108e-05
7 *2297:A *2332:A 0.000517329
8 *2297:A *2350:A 0
*RES
1 A[1] *2297:A 15.345 
*END

*D_NET *13 0.00130527
*CONN
*P A[20] I
*I *2298:A I *D sky130_fd_sc_hd__clkdlybuf4s25_1
*CAP
1 A[20] 0.00039665
2 *2298:A 0.00039665
3 *2298:A *2333:A 0.000507043
4 *2298:A *543:8 4.9253e-06
*RES
1 A[20] *2298:A 13.7738 
*END

*D_NET *14 0.0013295
*CONN
*P A[21] I
*I *2299:A I *D sky130_fd_sc_hd__clkdlybuf4s25_1
*CAP
1 A[21] 0.000400622
2 *2299:A 0.000400622
3 *2299:A S[21] 0
4 *2299:A *2334:A 0.000478296
5 *2299:A *2381:A 4.99619e-05
*RES
1 A[21] *2299:A 13.7738 
*END

*D_NET *15 0.00162624
*CONN
*P A[22] I
*I *2300:A I *D sky130_fd_sc_hd__clkdlybuf4s25_1
*CAP
1 A[22] 0.000485258
2 *2300:A 0.000485258
3 *2300:A S[19] 0
4 *2300:A *2301:A 0.000505176
5 *2300:A *2384:A 0.00011964
6 *2300:A *500:12 3.09088e-05
*RES
1 A[22] *2300:A 15.8438 
*END

*D_NET *16 0.00247474
*CONN
*P A[23] I
*I *2301:A I *D sky130_fd_sc_hd__clkdlybuf4s25_1
*CAP
1 A[23] 0.000830857
2 *2301:A 0.000830857
3 *2301:A S[23] 0.000109267
4 *2301:A *2293:A 0.000198581
5 *2301:A *2335:A 0
6 *2301:A *500:12 0
7 *2300:A *2301:A 0.000505176
*RES
1 A[23] *2301:A 21.3487 
*END

*D_NET *17 0.00250598
*CONN
*P A[24] I
*I *2302:A I *D sky130_fd_sc_hd__clkdlybuf4s25_1
*CAP
1 A[24] 0.000421733
2 *2302:A 0.000421733
3 *2302:A S[23] 0.000670773
4 *2302:A S[24] 0.0005133
5 *2302:A *2336:A 0.000198945
6 *2302:A *2425:A 0
7 *2302:A *545:10 0.000279498
*RES
1 A[24] *2302:A 18.5287 
*END

*D_NET *18 0.0016022
*CONN
*P A[25] I
*I *2303:A I *D sky130_fd_sc_hd__clkdlybuf4s25_1
*CAP
1 A[25] 0.000466099
2 *2303:A 0.000466099
3 *2303:A S[25] 0.000146149
4 *2303:A *2339:A 0.000451385
5 *2303:A *2386:A 5.53249e-06
6 *2303:A *508:10 6.69341e-05
*RES
1 A[25] *2303:A 15.4987 
*END

*D_NET *19 0.00164047
*CONN
*P A[26] I
*I *2304:A I *D sky130_fd_sc_hd__clkdlybuf4s25_1
*CAP
1 A[26] 0.00032637
2 *2304:A 0.00032637
3 *2304:A S[26] 0.000617341
4 *2304:A *2097:A 0
5 *2304:A *2340:A 0.000370394
*RES
1 A[26] *2304:A 8.843 
*END

*D_NET *20 0.00170134
*CONN
*P A[27] I
*I *2306:A I *D sky130_fd_sc_hd__clkdlybuf4s25_1
*CAP
1 A[27] 0.000627779
2 *2306:A 0.000627779
3 *2306:A S[15] 0
4 *2306:A S[27] 0.000281812
5 *2306:A *2211:A 0
6 *2306:A *2341:A 0.000163969
7 *2306:A *471:46 0
8 *2306:A *511:8 0
9 *2356:A *2306:A 0
*RES
1 A[27] *2306:A 6.75913 
*END

*D_NET *21 0.00235367
*CONN
*P A[28] I
*I *2307:A I *D sky130_fd_sc_hd__clkdlybuf4s25_1
*CAP
1 A[28] 0.000683738
2 *2307:A 0.000683738
3 *2307:A S[29] 0
4 *2307:A S[3] 0
5 *2307:A *2134:B 9.84372e-05
6 *2307:A *2308:A 9.70043e-06
7 *2307:A *2312:A 0.000367424
8 *2307:A *2329:A 0
9 *2307:A *2342:A 0.000251627
10 *2307:A *2343:A 0.000165407
11 *2307:A *2347:A 3.63514e-05
12 *2307:A *552:14 0
13 *2358:A *2307:A 5.72429e-05
*RES
1 A[28] *2307:A 14.3966 
*END

*D_NET *22 0.0018201
*CONN
*P A[29] I
*I *2308:A I *D sky130_fd_sc_hd__clkdlybuf4s25_1
*CAP
1 A[29] 0.000406821
2 *2308:A 0.000406821
3 *2308:A S[29] 0.000188914
4 *2308:A *2134:B 0
5 *2308:A *2342:A 0.00024282
6 *2308:A *2343:A 0.000565029
7 *2307:A *2308:A 9.70043e-06
8 *2358:A *2308:A 0
*RES
1 A[29] *2308:A 12.6838 
*END

*D_NET *23 0.00189272
*CONN
*P A[2] I
*I *2309:A I *D sky130_fd_sc_hd__clkdlybuf4s25_1
*CAP
1 A[2] 0.000393236
2 *2309:A 0.000393236
3 *2309:A S[2] 0.000197607
4 *2309:A *1948:B1 0.000143266
5 *2309:A *2312:A 0.000216254
6 *2309:A *2344:A 0.000353461
7 *2309:A *478:25 0.000195659
*RES
1 A[2] *2309:A 11.5916 
*END

*D_NET *24 0.000832299
*CONN
*P A[30] I
*I *2310:A I *D sky130_fd_sc_hd__clkdlybuf4s25_1
*CAP
1 A[30] 0.000305421
2 *2310:A 0.000305421
3 *2310:A S[30] 0
4 *2310:A *2311:A 9.48869e-05
5 *2310:A *2345:A 0.00012657
*RES
1 A[30] *2310:A 8.7307 
*END

*D_NET *25 0.00208835
*CONN
*P A[31] I
*I *2311:A I *D sky130_fd_sc_hd__clkdlybuf4s25_1
*CAP
1 A[31] 0.000685765
2 *2311:A 0.000685765
3 *2311:A carryOut 0.000346039
4 *2311:A *2157:B 7.38415e-05
5 *2311:A *2345:A 6.71331e-05
6 *2311:A *421:8 0.00013492
7 *2311:A *520:8 0
8 *2310:A *2311:A 9.48869e-05
*RES
1 A[31] *2311:A 14.1416 
*END

*D_NET *26 0.00319729
*CONN
*P A[3] I
*I *2312:A I *D sky130_fd_sc_hd__clkdlybuf4s25_1
*CAP
1 A[3] 0.000583354
2 *2312:A 0.000583354
3 *2312:A S[3] 0
4 *2312:A *2329:A 0.000369161
5 *2312:A *2347:A 0
6 *2312:A *234:12 0
7 *2312:A *478:25 0.000711829
8 *2307:A *2312:A 0.000367424
9 *2309:A *2312:A 0.000216254
10 *2357:A *2312:A 0.000365912
*RES
1 A[3] *2312:A 16.1799 
*END

*D_NET *27 0.00226129
*CONN
*P A[4] I
*I *2313:A I *D sky130_fd_sc_hd__clkdlybuf4s25_1
*CAP
1 A[4] 0.00055503
2 *2313:A 0.00055503
3 *2313:A S[5] 0
4 *2313:A *1909:A1 8.57024e-05
5 *2313:A *2179:B 9.50342e-06
6 *2313:A *2348:A 0.000440154
7 *2313:A *522:10 0.000518027
8 *2313:A *557:10 9.78429e-05
*RES
1 A[4] *2313:A 17.985 
*END

*D_NET *28 0.00243896
*CONN
*P A[5] I
*I *2314:A I *D sky130_fd_sc_hd__clkdlybuf4s25_1
*CAP
1 A[5] 0.00092834
2 *2314:A 0.00092834
3 *2314:A S[1] 0.000328846
4 *2314:A *1905:A1 0
5 *2314:A *1906:A1 9.50342e-06
6 *2314:A *2350:A 0.000243926
*RES
1 A[5] *2314:A 26.35 
*END

*D_NET *29 0.00126092
*CONN
*P A[6] I
*I *2315:A I *D sky130_fd_sc_hd__clkdlybuf4s25_1
*CAP
1 A[6] 0.000587165
2 *2315:A 0.000587165
3 *2315:A *2317:A 8.65905e-05
4 *2315:A *2351:A 0
*RES
1 A[6] *2315:A 13.845 
*END

*D_NET *30 0.00139664
*CONN
*P A[7] I
*I *2317:A I *D sky130_fd_sc_hd__clkdlybuf4s25_1
*CAP
1 A[7] 0.000561383
2 *2317:A 0.000561383
3 *2317:A S[4] 0.000187283
4 *2317:A *2351:A 0
5 *2317:A *2352:A 0
6 *2315:A *2317:A 8.65905e-05
*RES
1 A[7] *2317:A 14.775 
*END

*D_NET *31 0.00254908
*CONN
*P A[8] I
*I *2318:A I *D sky130_fd_sc_hd__clkdlybuf4s25_1
*CAP
1 A[8] 0.000612567
2 *2318:A 0.000612567
3 *2318:A *2251:B 7.05652e-05
4 *2318:A *2252:A 0
5 *2318:A *2253:B 0.000183043
6 *2318:A *2254:B1 9.428e-05
7 *2318:A *2256:C 5.12017e-06
8 *2318:A *2322:A 0
9 *2318:A *2353:A 0.00080594
10 *2318:A *449:26 0
11 *2318:A *466:12 0
12 *2318:A *466:14 0
13 *2318:A *527:10 7.00066e-05
14 *2318:A *562:12 9.49958e-05
15 *2316:A *2318:A 0
*RES
1 A[8] *2318:A 19.53 
*END

*D_NET *32 0.00108367
*CONN
*P A[9] I
*I *2319:A I *D sky130_fd_sc_hd__clkdlybuf4s25_1
*CAP
1 A[9] 0.000541837
2 *2319:A 0.000541837
3 *2319:A *2354:A 0
*RES
1 A[9] *2319:A 13.05 
*END

*D_NET *33 0.00221144
*CONN
*P B[0] I
*I *2320:A I *D sky130_fd_sc_hd__dlygate4sd1_1
*CAP
1 B[0] 0.00100125
2 *2320:A 0.00100125
3 *2320:A S[0] 4.78735e-05
4 *2320:A *1940:B1 2.35678e-05
5 *2320:A *2281:A 0
6 *2320:A *453:21 8.75474e-05
7 *2320:A *529:10 0
8 *2294:A *2320:A 4.99538e-05
*RES
1 B[0] *2320:A 8.64063 
*END

*D_NET *34 0.00202241
*CONN
*P B[10] I
*I *2321:A I *D sky130_fd_sc_hd__clkdlybuf4s25_1
*CAP
1 B[10] 0.000479115
2 *2321:A 0.000479115
3 *2321:A *2323:A 0.000186346
4 *2321:A *2324:A 0
5 *2305:A *2321:A 0.000365163
6 *2327:A *2321:A 0.000512671
*RES
1 B[10] *2321:A 6.20527 
*END

*D_NET *35 0.00215203
*CONN
*P B[11] I
*I *2322:A I *D sky130_fd_sc_hd__clkdlybuf4s25_1
*CAP
1 B[11] 0.00068176
2 *2322:A 0.00068176
3 *2322:A *2184:B2 8.38943e-05
4 *2322:A *2253:B 0
5 *2322:A *2256:B 8.77073e-05
6 *2322:A *2256:C 0
7 *2322:A *438:10 0
8 *2322:A *449:26 0.000162325
9 *2322:A *527:10 3.64998e-06
10 *2316:A *2322:A 0.000450933
11 *2318:A *2322:A 0
*RES
1 B[11] *2322:A 19.425 
*END

*D_NET *36 0.0017825
*CONN
*P B[12] I
*I *2323:A I *D sky130_fd_sc_hd__clkdlybuf4s25_1
*CAP
1 B[12] 0.000601689
2 *2323:A 0.000601689
3 *2323:A *2264:A1 2.04694e-05
4 *2323:A *530:27 0
5 *2305:A *2323:A 0.00037231
6 *2321:A *2323:A 0.000186346
*RES
1 B[12] *2323:A 6.402 
*END

*D_NET *37 0.00180972
*CONN
*P B[13] I
*I *2324:A I *D sky130_fd_sc_hd__clkdlybuf4s25_1
*CAP
1 B[13] 0.00043982
2 *2324:A 0.00043982
3 *2324:A S[12] 0.000438923
4 *2324:A S[13] 0.000214906
5 *2324:A *2220:A1 8.3907e-05
6 *2324:A *2220:B1_N 0
7 *2324:A *2221:B 4.18603e-06
8 *2321:A *2324:A 0
9 *2327:A *2324:A 0
10 *2338:A *2324:A 0.000188156
*RES
1 B[13] *2324:A 6.93393 
*END

*D_NET *38 0.00100289
*CONN
*P B[14] I
*I *2325:A I *D sky130_fd_sc_hd__clkdlybuf4s25_1
*CAP
1 B[14] 0.000300715
2 *2325:A 0.000300715
3 *2325:A S[15] 0
4 *2325:A S[18] 0.000382841
5 *2325:A *471:52 1.86206e-05
*RES
1 B[14] *2325:A 6.293 
*END

*D_NET *39 0.00125226
*CONN
*P B[15] I
*I *2326:A I *D sky130_fd_sc_hd__clkdlybuf4s25_1
*CAP
1 B[15] 0.00049147
2 *2326:A 0.00049147
3 *2326:A *2341:A 0.000148466
4 *2356:A *2326:A 0.000120855
*RES
1 B[15] *2326:A 12.1021 
*END

*D_NET *40 0.00208347
*CONN
*P B[16] I
*I *2328:A I *D sky130_fd_sc_hd__clkdlybuf4s25_1
*CAP
1 B[16] 0.000762856
2 *2328:A 0.000762856
3 *2328:A *2173:B 8.23457e-05
4 *2328:A *2344:A 0
5 *2328:A *2347:A 0.000279041
6 *2328:A *234:12 5.53249e-06
7 *2328:A *431:14 0.000190837
8 *2357:A *2328:A 0
*RES
1 B[16] *2328:A 8.2991 
*END

*D_NET *41 0.00201428
*CONN
*P B[17] I
*I *2329:A I *D sky130_fd_sc_hd__clkdlybuf4s25_1
*CAP
1 B[17] 0.000617303
2 *2329:A 0.000617303
3 *2329:A *513:12 0
4 *2329:A *551:12 1.83847e-05
5 *2329:A *552:14 2.56523e-05
6 *2307:A *2329:A 0
7 *2312:A *2329:A 0.000369161
8 *2357:A *2329:A 8.77298e-05
9 *2358:A *2329:A 0.000278748
*RES
1 B[17] *2329:A 8.77103 
*END

*D_NET *42 0.00247615
*CONN
*P B[18] I
*I *2330:A I *D sky130_fd_sc_hd__clkdlybuf4s25_1
*CAP
1 B[18] 0.000610062
2 *2330:A 0.000610062
3 *2330:A S[29] 0.000529137
4 *2330:A *2389:A 5.6361e-05
5 *2330:A *2390:A 5.20981e-05
6 *2330:A *401:10 0.000236253
7 *2330:A *402:10 0.000240274
8 *2295:A *2330:A 0.0001419
*RES
1 B[18] *2330:A 10.8843 
*END

*D_NET *43 0.000981962
*CONN
*P B[19] I
*I *2331:A I *D sky130_fd_sc_hd__clkdlybuf4s25_1
*CAP
1 B[19] 0.00039491
2 *2331:A 0.00039491
3 *2331:A S[30] 0
4 *2331:A S[31] 0
5 *2331:A *399:10 0
6 *2331:A *552:14 0
7 *2296:A *2331:A 0.000192142
*RES
1 B[19] *2331:A 6.74663 
*END

*D_NET *44 0.00239877
*CONN
*P B[1] I
*I *2332:A I *D sky130_fd_sc_hd__clkdlybuf4s25_1
*CAP
1 B[1] 0.000559629
2 *2332:A 0.000559629
3 *2332:A *1909:A1 0.000160658
4 *2332:A *1910:C1 2.81759e-05
5 *2332:A *2178:A2 4.0843e-05
6 *2332:A *186:6 0.000421056
7 *2332:A *473:10 1.61831e-05
8 *2332:A *522:10 0
9 *2332:A *523:31 9.52646e-05
10 *2297:A *2332:A 0.000517329
*RES
1 B[1] *2332:A 18.9 
*END

*D_NET *45 0.001895
*CONN
*P B[20] I
*I *2333:A I *D sky130_fd_sc_hd__clkdlybuf4s25_1
*CAP
1 B[20] 0.000629964
2 *2333:A 0.000629964
3 *2333:A *2022:A 0
4 *2333:A *2381:A 0
5 *2333:A *286:10 4.99619e-05
6 *2333:A *464:10 0
7 *2333:A *542:6 4.82919e-05
8 *2333:A *542:26 2.97746e-05
9 *2298:A *2333:A 0.000507043
*RES
1 B[20] *2333:A 17.8538 
*END

*D_NET *46 0.00163595
*CONN
*P B[21] I
*I *2334:A I *D sky130_fd_sc_hd__clkdlybuf4s25_1
*CAP
1 B[21] 0.000527526
2 *2334:A 0.000527526
3 *2334:A *2022:A 4.80285e-05
4 *2334:A *2022:B 3.00381e-05
5 *2334:A *2381:A 2.45351e-05
6 *2299:A *2334:A 0.000478296
*RES
1 B[21] *2334:A 15.2587 
*END

*D_NET *47 0.0022615
*CONN
*P B[22] I
*I *2335:A I *D sky130_fd_sc_hd__clkdlybuf4s25_1
*CAP
1 B[22] 0.00102067
2 *2335:A 0.00102067
3 *2335:A S[23] 0.000107399
4 *2335:A *2043:A2 0
5 *2335:A *2043:B1_N 0
6 *2335:A *2292:A 6.35535e-05
7 *2335:A *2336:A 0
8 *2335:A *2417:A 0
9 *2335:A *315:18 4.92096e-05
10 *2335:A *500:12 0
11 *2335:A *545:10 0
12 *2301:A *2335:A 0
*RES
1 B[22] *2335:A 21.9338 
*END

*D_NET *48 0.00256263
*CONN
*P B[23] I
*I *2336:A I *D sky130_fd_sc_hd__clkdlybuf4s25_1
*CAP
1 B[23] 0.000908628
2 *2336:A 0.000908628
3 *2336:A S[23] 4.82863e-05
4 *2336:A *2384:A 4.04522e-05
5 *2336:A *472:10 0.000416053
6 *2336:A *545:10 4.16388e-05
7 *2302:A *2336:A 0.000198945
8 *2335:A *2336:A 0
*RES
1 B[23] *2336:A 20.8838 
*END

*D_NET *49 0.00259403
*CONN
*P B[24] I
*I *2337:A I *D sky130_fd_sc_hd__clkdlybuf4s25_1
*CAP
1 B[24] 0.000637086
2 *2337:A 0.000637086
3 *2337:A S[24] 0.000364552
4 *2337:A S[25] 0.000629227
5 *2337:A *2074:B 0
6 *2337:A *2075:C 9.50342e-06
7 *2337:A *2089:A1 1.26626e-05
8 *2337:A *2385:A 0.000162318
9 *2337:A *507:12 0
10 *2337:A *507:23 0.000141599
*RES
1 B[24] *2337:A 24.7188 
*END

*D_NET *50 0.00203332
*CONN
*P B[25] I
*I *2339:A I *D sky130_fd_sc_hd__clkdlybuf4s25_1
*CAP
1 B[25] 0.000615818
2 *2339:A 0.000615818
3 *2339:A S[25] 0.000256998
4 *2339:A *508:10 9.3305e-05
5 *2303:A *2339:A 0.000451385
*RES
1 B[25] *2339:A 17.8838 
*END

*D_NET *51 0.00149732
*CONN
*P B[26] I
*I *2340:A I *D sky130_fd_sc_hd__clkdlybuf4s25_1
*CAP
1 B[26] 0.000553699
2 *2340:A 0.000553699
3 *2340:A S[26] 1.09934e-05
4 *2340:A *2106:A 8.53113e-06
5 *2340:A *471:8 0
6 *2340:A *549:8 0
7 *2304:A *2340:A 0.000370394
*RES
1 B[26] *2340:A 6.75913 
*END

*D_NET *52 0.00175092
*CONN
*P B[27] I
*I *2341:A I *D sky130_fd_sc_hd__clkdlybuf4s25_1
*CAP
1 B[27] 0.000719244
2 *2341:A 0.000719244
3 *2306:A *2341:A 0.000163969
4 *2326:A *2341:A 0.000148466
5 *2356:A *2341:A 0
*RES
1 B[27] *2341:A 15.8636 
*END

*D_NET *53 0.00163972
*CONN
*P B[28] I
*I *2342:A I *D sky130_fd_sc_hd__clkdlybuf4s25_1
*CAP
1 B[28] 0.000494793
2 *2342:A 0.000494793
3 *2307:A *2342:A 0.000251627
4 *2308:A *2342:A 0.00024282
5 *2358:A *2342:A 0.000155684
*RES
1 B[28] *2342:A 11.6286 
*END

*D_NET *54 0.00185359
*CONN
*P B[29] I
*I *2343:A I *D sky130_fd_sc_hd__clkdlybuf4s25_1
*CAP
1 B[29] 0.00049913
2 *2343:A 0.00049913
3 *2307:A *2343:A 0.000165407
4 *2308:A *2343:A 0.000565029
5 *2358:A *2343:A 0.000124895
*RES
1 B[29] *2343:A 13.7355 
*END

*D_NET *55 0.00203148
*CONN
*P B[2] I
*I *2344:A I *D sky130_fd_sc_hd__clkdlybuf4s25_1
*CAP
1 B[2] 0.000778657
2 *2344:A 0.000778657
3 *2344:A S[2] 0
4 *2344:A *1955:A2 6.03517e-05
5 *2344:A *553:10 6.03517e-05
6 *2309:A *2344:A 0.000353461
7 *2328:A *2344:A 0
*RES
1 B[2] *2344:A 6.71717 
*END

*D_NET *56 0.00182159
*CONN
*P B[30] I
*I *2345:A I *D sky130_fd_sc_hd__clkdlybuf4s25_1
*CAP
1 B[30] 0.00051613
2 *2345:A 0.00051613
3 *2345:A carryOut 0.00028294
4 *2345:A *2346:A 0.000282647
5 *2345:A *422:16 0
6 *2345:A *519:10 3.00381e-05
7 *2310:A *2345:A 0.00012657
8 *2311:A *2345:A 6.71331e-05
*RES
1 B[30] *2345:A 12.3618 
*END

*D_NET *57 0.0018789
*CONN
*P B[31] I
*I *2346:A I *D sky130_fd_sc_hd__clkdlybuf4s25_1
*CAP
1 B[31] 0.000644675
2 *2346:A 0.000644675
3 *2346:A carryOut 0.000131323
4 *2346:A *2285:A 0.000175583
5 *2345:A *2346:A 0.000282647
*RES
1 B[31] *2346:A 7.9339 
*END

*D_NET *58 0.00191028
*CONN
*P B[3] I
*I *2347:A I *D sky130_fd_sc_hd__clkdlybuf4s25_1
*CAP
1 B[3] 0.000596852
2 *2347:A 0.000596852
3 *2347:A S[3] 0.000352112
4 *2307:A *2347:A 3.63514e-05
5 *2312:A *2347:A 0
6 *2328:A *2347:A 0.000279041
7 *2357:A *2347:A 4.90655e-05
*RES
1 B[3] *2347:A 12.7068 
*END

*D_NET *59 0.00133635
*CONN
*P B[4] I
*I *2348:A I *D sky130_fd_sc_hd__clkdlybuf4s25_1
*CAP
1 B[4] 0.000432431
2 *2348:A 0.000432431
3 *2348:A S[5] 0
4 *2348:A *2179:B 2.75145e-05
5 *2348:A *557:10 3.82323e-06
6 *2313:A *2348:A 0.000440154
*RES
1 B[4] *2348:A 13.5 
*END

*D_NET *60 0.00302276
*CONN
*P B[5] I
*I *2350:A I *D sky130_fd_sc_hd__clkdlybuf4s25_1
*CAP
1 B[5] 0.000985424
2 *2350:A 0.000985424
3 *2350:A S[1] 0.000432899
4 *2350:A *1903:A 1.61831e-05
5 *2350:A *1905:A1 1.31297e-05
6 *2350:A *1905:A2 5.06989e-05
7 *2350:A *1905:B1_N 4.8854e-05
8 *2350:A *1909:A1 2.75145e-05
9 *2350:A *559:8 7.776e-05
10 *2350:A *559:19 8.80542e-05
11 *2350:A *559:34 5.28974e-05
12 *2297:A *2350:A 0
13 *2314:A *2350:A 0.000243926
*RES
1 B[5] *2350:A 21.585 
*END

*D_NET *61 0.0013745
*CONN
*P B[6] I
*I *2351:A I *D sky130_fd_sc_hd__clkdlybuf4s25_1
*CAP
1 B[6] 0.000578724
2 *2351:A 0.000578724
3 *2351:A S[4] 0.000217054
4 *2351:A S[7] 0
5 *2351:A *2280:A2 0
6 *2351:A *524:12 0
7 *2315:A *2351:A 0
8 *2317:A *2351:A 0
*RES
1 B[6] *2351:A 14.895 
*END

*D_NET *62 0.0013216
*CONN
*P B[7] I
*I *2352:A I *D sky130_fd_sc_hd__clkdlybuf4s25_1
*CAP
1 B[7] 0.000430786
2 *2352:A 0.000430786
3 *2352:A S[4] 0.000441643
4 *2352:A *526:10 1.83847e-05
5 *2317:A *2352:A 0
*RES
1 B[7] *2352:A 13.05 
*END

*D_NET *63 0.00235703
*CONN
*P B[8] I
*I *2353:A I *D sky130_fd_sc_hd__clkdlybuf4s25_1
*CAP
1 B[8] 0.000602135
2 *2353:A 0.000602135
3 *2353:A *2253:B 0.000163204
4 *2353:A *562:8 3.52525e-05
5 *2353:A *562:12 3.25831e-05
6 *2316:A *2353:A 0.000115779
7 *2318:A *2353:A 0.00080594
*RES
1 B[8] *2353:A 18.015 
*END

*D_NET *64 0.00172817
*CONN
*P B[9] I
*I *2354:A I *D sky130_fd_sc_hd__clkdlybuf4s25_1
*CAP
1 B[9] 0.000706725
2 *2354:A 0.000706725
3 *2354:A *468:80 0.000115779
4 *2354:A *528:8 0
5 *2354:A *528:25 0
6 *2354:A *563:8 0.000198945
7 *2319:A *2354:A 0
*RES
1 B[9] *2354:A 16.725 
*END

*D_NET *65 0.000920616
*CONN
*P S[0] O
*I *2369:X O *D sky130_fd_sc_hd__clkdlybuf4s25_1
*CAP
1 S[0] 0.00041082
2 *2369:X 0.00041082
3 *2294:A S[0] 5.11015e-05
4 *2320:A S[0] 4.78735e-05
*RES
1 *2369:X S[0] 10.0692 
*END

*D_NET *66 0.00180934
*CONN
*P S[10] O
*I *2370:X O *D sky130_fd_sc_hd__dlymetal6s4s_1
*CAP
1 S[10] 0.000650891
2 *2370:X 0.000650891
3 S[10] S[11] 0.000402935
4 S[10] *2189:A 0.000104619
5 S[10] *2370:A 0
*RES
1 *2370:X S[10] 7.10873 
*END

*D_NET *67 0.00167575
*CONN
*P S[11] O
*I *2371:X O *D sky130_fd_sc_hd__clkbuf_2
*CAP
1 S[11] 0.000360058
2 *2371:X 0.000360058
3 S[11] *2371:A 0.000229515
4 S[10] S[11] 0.000402935
5 *2305:A S[11] 0.000323188
*RES
1 *2371:X S[11] 9.66627 
*END

*D_NET *68 0.00171459
*CONN
*P S[12] O
*I *2372:X O *D sky130_fd_sc_hd__dlymetal6s4s_1
*CAP
1 S[12] 0.000464309
2 *2372:X 0.000464309
3 S[12] *2220:B1_N 1.17036e-05
4 S[12] *115:12 0.000162047
5 S[12] *547:10 0.000173298
6 *2324:A S[12] 0.000438923
7 *2327:A S[12] 0
*RES
1 *2372:X S[12] 9.0178 
*END

*D_NET *69 0.00228027
*CONN
*P S[13] O
*I *2373:X O *D sky130_fd_sc_hd__dlymetal6s4s_1
*CAP
1 S[13] 0.000763251
2 *2373:X 0.000763251
3 S[13] S[14] 0.000306728
4 S[13] S[17] 4.39735e-05
5 S[13] *2195:A1 0
6 *2324:A S[13] 0.000214906
7 *2338:A S[13] 0.000188156
*RES
1 *2373:X S[13] 6.43833 
*END

*D_NET *70 0.00250316
*CONN
*P S[14] O
*I *2374:X O *D sky130_fd_sc_hd__clkbuf_4
*CAP
1 S[14] 0.000880722
2 *2374:X 0.000880722
3 S[14] S[17] 0.000305689
4 S[14] *2213:B 3.45679e-05
5 S[14] *111:12 1.7386e-05
6 S[14] *471:58 6.69341e-05
7 S[14] *558:14 1.04138e-05
8 S[13] S[14] 0.000306728
*RES
1 *2374:X S[14] 14.8182 
*END

*D_NET *71 0.00138995
*CONN
*P S[15] O
*I *2375:X O *D sky130_fd_sc_hd__clkbuf_2
*CAP
1 S[15] 0.000412839
2 *2375:X 0.000412839
3 S[15] S[18] 0
4 S[15] *2212:A 0
5 S[15] *2212:B 9.26907e-06
6 S[15] *2375:A 0
7 S[15] *471:52 0.000175577
8 *2306:A S[15] 0
9 *2325:A S[15] 0
10 *2356:A S[15] 0.000379429
*RES
1 *2375:X S[15] 7.29107 
*END

*D_NET *72 0.000991211
*CONN
*P S[16] O
*I *2376:X O *D sky130_fd_sc_hd__buf_6
*CAP
1 S[16] 0.000196375
2 *2376:X 0.000196375
3 S[16] S[17] 0.000388674
4 S[16] *2214:A 0
5 *2349:A S[16] 0.000209787
*RES
1 *2376:X S[16] 5.33127 
*END

*D_NET *73 0.00116009
*CONN
*P S[17] O
*I *2377:X O *D sky130_fd_sc_hd__buf_6
*CAP
1 S[17] 0.000210875
2 *2377:X 0.000210875
3 S[13] S[17] 4.39735e-05
4 S[14] S[17] 0.000305689
5 S[16] S[17] 0.000388674
*RES
1 *2377:X S[17] 6.09627 
*END

*D_NET *74 0.00127248
*CONN
*P S[18] O
*I *2378:X O *D sky130_fd_sc_hd__clkbuf_4
*CAP
1 S[18] 0.000364329
2 *2378:X 0.000364329
3 S[18] *471:52 4.24632e-05
4 S[18] *471:58 0.00011852
5 S[15] S[18] 0
6 *2325:A S[18] 0.000382841
7 *2349:A S[18] 0
*RES
1 *2378:X S[18] 6.9778 
*END

*D_NET *75 0.00296384
*CONN
*P S[19] O
*I *2379:X O *D sky130_fd_sc_hd__clkbuf_4
*CAP
1 S[19] 0.0010926
2 *2379:X 0.0010926
3 S[19] *2056:C 0
4 S[19] *2061:C1 7.24866e-05
5 S[19] *2062:B1 0.000185405
6 S[19] *2063:A 6.02202e-05
7 S[19] *2063:B 0.000170535
8 S[19] *2064:D1 7.99094e-05
9 S[19] *2379:A 4.82863e-05
10 S[19] *2384:A 0
11 S[19] *2428:A 4.70475e-05
12 S[19] *317:12 0.000114753
13 S[19] *500:12 0
14 S[19] *506:14 0
15 *2300:A S[19] 0
*RES
1 *2379:X S[19] 25.7738 
*END

*D_NET *76 0.00262136
*CONN
*P S[1] O
*I *2380:X O *D sky130_fd_sc_hd__buf_6
*CAP
1 S[1] 0.000695124
2 *2380:X 0.000695124
3 S[1] *1903:A 0
4 S[1] *1907:A2 5.16418e-05
5 S[1] *523:31 0.000170535
6 S[1] *559:34 0.000105599
7 S[1] *559:75 0.000141592
8 *2297:A S[1] 0
9 *2314:A S[1] 0.000328846
10 *2350:A S[1] 0.000432899
*RES
1 *2380:X S[1] 24.655 
*END

*D_NET *77 0.00154612
*CONN
*P S[20] O
*I *2381:X O *D sky130_fd_sc_hd__buf_6
*CAP
1 S[20] 0.000499725
2 *2381:X 0.000499725
3 S[20] S[21] 0.000493607
4 S[20] *2381:A 5.30673e-05
*RES
1 *2381:X S[20] 15.2437 
*END

*D_NET *78 0.00182459
*CONN
*P S[21] O
*I *2382:X O *D sky130_fd_sc_hd__buf_8
*CAP
1 S[21] 0.000593321
2 *2382:X 0.000593321
3 S[21] *2022:B 0
4 S[21] *2293:A 6.47326e-05
5 S[21] *2382:A 2.75229e-05
6 S[21] *297:8 0
7 S[21] *495:10 5.2089e-05
8 S[20] S[21] 0.000493607
9 *2299:A S[21] 0
*RES
1 *2382:X S[21] 17.2987 
*END

*D_NET *79 0.00126456
*CONN
*P S[22] O
*I *2383:X O *D sky130_fd_sc_hd__buf_6
*CAP
1 S[22] 0.000594231
2 *2383:X 0.000594231
3 S[22] *2056:A 7.60965e-05
*RES
1 *2383:X S[22] 14.2087 
*END

*D_NET *80 0.00251622
*CONN
*P S[23] O
*I *2384:X O *D sky130_fd_sc_hd__buf_4
*CAP
1 S[23] 0.000790249
2 *2384:X 0.000790249
3 *2301:A S[23] 0.000109267
4 *2302:A S[23] 0.000670773
5 *2335:A S[23] 0.000107399
6 *2336:A S[23] 4.82863e-05
*RES
1 *2384:X S[23] 24.9737 
*END

*D_NET *81 0.00272726
*CONN
*P S[24] O
*I *2385:X O *D sky130_fd_sc_hd__buf_6
*CAP
1 S[24] 0.000515988
2 *2385:X 0.000515988
3 S[24] *2072:B 4.82863e-05
4 S[24] *2074:B 0
5 S[24] *2074:C 7.73569e-05
6 S[24] *2076:A2 4.01778e-05
7 S[24] *2385:A 4.66108e-05
8 S[24] *2425:A 0
9 S[24] *475:25 0.000541118
10 S[24] *507:12 6.38806e-05
11 *2302:A S[24] 0.0005133
12 *2337:A S[24] 0.000364552
*RES
1 *2385:X S[24] 20.2987 
*END

*D_NET *82 0.00253211
*CONN
*P S[25] O
*I *2386:X O *D sky130_fd_sc_hd__buf_6
*CAP
1 S[25] 0.000749869
2 *2386:X 0.000749869
3 *2303:A S[25] 0.000146149
4 *2337:A S[25] 0.000629227
5 *2339:A S[25] 0.000256998
*RES
1 *2386:X S[25] 25.5588 
*END

*D_NET *83 0.00163744
*CONN
*P S[26] O
*I *2387:X O *D sky130_fd_sc_hd__buf_6
*CAP
1 S[26] 0.000504555
2 *2387:X 0.000504555
3 S[26] *2097:A 0
4 S[26] *2097:B 0
5 S[26] *366:8 0
6 *2304:A S[26] 0.000617341
7 *2340:A S[26] 1.09934e-05
*RES
1 *2387:X S[26] 10.1763 
*END

*D_NET *84 0.00132517
*CONN
*P S[27] O
*I *2388:X O *D sky130_fd_sc_hd__buf_6
*CAP
1 S[27] 0.000521681
2 *2388:X 0.000521681
3 S[27] *2104:B 0
4 S[27] *511:8 0
5 *2306:A S[27] 0.000281812
*RES
1 *2388:X S[27] 6.24913 
*END

*D_NET *85 0.000902774
*CONN
*P S[28] O
*I *2389:X O *D sky130_fd_sc_hd__buf_6
*CAP
1 S[28] 0.00042381
2 *2389:X 0.00042381
3 *2295:A S[28] 5.51545e-05
4 *2296:A S[28] 0
*RES
1 *2389:X S[28] 10.0957 
*END

*D_NET *86 0.00215257
*CONN
*P S[29] O
*I *2390:X O *D sky130_fd_sc_hd__buf_6
*CAP
1 S[29] 0.000476294
2 *2390:X 0.000476294
3 S[29] *401:10 1.17701e-05
4 S[29] *402:10 0.00029265
5 S[29] *552:14 0.000177513
6 *2307:A S[29] 0
7 *2308:A S[29] 0.000188914
8 *2330:A S[29] 0.000529137
*RES
1 *2390:X S[29] 9.25277 
*END

*D_NET *87 0.00215472
*CONN
*P S[2] O
*I *2391:X O *D sky130_fd_sc_hd__buf_4
*CAP
1 S[2] 0.000834758
2 *2391:X 0.000834758
3 S[2] *1946:A2 0.00013757
4 S[2] *1946:B1_N 0
5 S[2] *1948:A2 1.00941e-05
6 S[2] *2394:A 0
7 S[2] *2404:A 0
8 S[2] *431:14 0.000139936
9 S[2] *478:25 0
10 *2309:A S[2] 0.000197607
11 *2344:A S[2] 0
*RES
1 *2391:X S[2] 11.4676 
*END

*D_NET *88 0.00112551
*CONN
*P S[30] O
*I *2392:X O *D sky130_fd_sc_hd__buf_6
*CAP
1 S[30] 0.0004683
2 *2392:X 0.0004683
3 S[30] S[31] 0.000188914
4 S[30] *2393:A 0
5 S[30] *461:12 0
6 *2310:A S[30] 0
7 *2331:A S[30] 0
*RES
1 *2392:X S[30] 7.8249 
*END

*D_NET *89 0.0008272
*CONN
*P S[31] O
*I *2393:X O *D sky130_fd_sc_hd__buf_6
*CAP
1 S[31] 0.000319143
2 *2393:X 0.000319143
3 S[30] S[31] 0.000188914
4 *2331:A S[31] 0
*RES
1 *2393:X S[31] 7.67377 
*END

*D_NET *90 0.0014682
*CONN
*P S[3] O
*I *2394:X O *D sky130_fd_sc_hd__buf_6
*CAP
1 S[3] 0.000463585
2 *2394:X 0.000463585
3 *2307:A S[3] 0
4 *2312:A S[3] 0
5 *2347:A S[3] 0.000352112
6 *2357:A S[3] 0.000188914
*RES
1 *2394:X S[3] 11.7538 
*END

*D_NET *91 0.00226955
*CONN
*P S[4] O
*I *2395:X O *D sky130_fd_sc_hd__clkbuf_2
*CAP
1 S[4] 0.000685737
2 *2395:X 0.000685737
3 S[4] S[7] 0
4 S[4] *526:10 5.20968e-05
5 *2317:A S[4] 0.000187283
6 *2351:A S[4] 0.000217054
7 *2352:A S[4] 0.000441643
*RES
1 *2395:X S[4] 23.77 
*END

*D_NET *92 0.00181137
*CONN
*P S[5] O
*I *2396:X O *D sky130_fd_sc_hd__buf_2
*CAP
1 S[5] 0.00076847
2 *2396:X 0.00076847
3 S[5] S[6] 0
4 S[5] S[7] 0
5 S[5] *1900:A2 8.23457e-05
6 S[5] *1910:A2 6.36578e-05
7 S[5] *1957:B1 0.000116853
8 S[5] *2178:B1 1.15688e-05
9 S[5] *2179:A 0
10 S[5] *190:10 0
11 *2313:A S[5] 0
12 *2348:A S[5] 0
*RES
1 *2396:X S[5] 16.965 
*END

*D_NET *93 0.00123531
*CONN
*P S[6] O
*I *2397:X O *D sky130_fd_sc_hd__buf_6
*CAP
1 S[6] 0.000611826
2 *2397:X 0.000611826
3 S[6] S[7] 0
4 S[6] *2397:A 1.16578e-05
5 S[5] S[6] 0
*RES
1 *2397:X S[6] 13.935 
*END

*D_NET *94 0.00253844
*CONN
*P S[7] O
*I *2398:X O *D sky130_fd_sc_hd__buf_2
*CAP
1 S[7] 0.000796517
2 *2398:X 0.000796517
3 S[7] *1900:A1 4.82863e-05
4 S[7] *1900:A2 3.94429e-05
5 S[7] *1910:A1 0.000117832
6 S[7] *2280:A1 5.83121e-06
7 S[7] *176:6 0.000158072
8 S[7] *177:12 0.000341885
9 S[7] *178:23 8.59365e-05
10 S[7] *190:10 0
11 S[7] *459:61 7.73272e-05
12 S[7] *524:12 0
13 S[7] *560:12 7.07957e-05
14 S[4] S[7] 0
15 S[5] S[7] 0
16 S[6] S[7] 0
17 *2351:A S[7] 0
*RES
1 *2398:X S[7] 20.4 
*END

*D_NET *95 0.00106046
*CONN
*P S[8] O
*I *2399:X O *D sky130_fd_sc_hd__clkbuf_2
*CAP
1 S[8] 0.000530231
2 *2399:X 0.000530231
*RES
1 *2399:X S[8] 12.795 
*END

*D_NET *96 0.00137443
*CONN
*P S[9] O
*I *2400:X O *D sky130_fd_sc_hd__clkbuf_2
*CAP
1 S[9] 0.000672198
2 *2400:X 0.000672198
3 S[9] *2400:A 3.00381e-05
*RES
1 *2400:X S[9] 14.265 
*END

*D_NET *99 0.00202736
*CONN
*P carryOut O
*I *2401:X O *D sky130_fd_sc_hd__buf_6
*CAP
1 carryOut 0.000382796
2 *2401:X 0.000382796
3 carryOut *2157:A 0.000152071
4 carryOut *461:12 0.000140711
5 carryOut *520:8 0.000208683
6 *2311:A carryOut 0.000346039
7 *2345:A carryOut 0.00028294
8 *2346:A carryOut 0.000131323
*RES
1 *2401:X carryOut 9.50777 
*END

*D_NET *100 0.000748316
*CONN
*P sub I
*I *2355:A I *D sky130_fd_sc_hd__buf_8
*CAP
1 sub 0.000374158
2 *2355:A 0.000374158
*RES
1 sub *2355:A 8.41223 
*END

*D_NET *101 0.000575034
*CONN
*I *1908:A I *D sky130_fd_sc_hd__nand3_4
*I *2203:Y O *D sky130_fd_sc_hd__inv_2
*CAP
1 *1908:A 0.000209695
2 *2203:Y 0.000209695
3 *1908:A *1908:B 4.69765e-05
4 *1908:A *2167:B 0.000108668
5 *1908:A *454:12 0
*RES
1 *2203:Y *1908:A 10.77 
*END

*D_NET *102 0.000696722
*CONN
*I *2208:A1 I *D sky130_fd_sc_hd__o21bai_4
*I *2207:A_N I *D sky130_fd_sc_hd__nand3b_2
*I *2204:Y O *D sky130_fd_sc_hd__nor2_8
*CAP
1 *2208:A1 0.000122142
2 *2207:A_N 0.000154699
3 *2204:Y 0.000276841
4 *2207:A_N *2204:B 5.34747e-05
5 *2207:A_N *2207:B 9.3062e-06
6 *2207:A_N *2207:C 0
7 *2207:A_N *2208:A2 5.02217e-05
8 *2208:A1 *2207:B 0
9 *2208:A1 *2208:A2 0
10 *2208:A1 *106:10 3.00381e-05
*RES
1 *2204:Y *2207:A_N 9.72 
2 *2204:Y *2208:A1 9.03 
*END

*D_NET *103 0.000908403
*CONN
*I *2208:A2 I *D sky130_fd_sc_hd__o21bai_4
*I *2205:X O *D sky130_fd_sc_hd__and2_4
*CAP
1 *2208:A2 0.000295938
2 *2205:X 0.000295938
3 *2208:A2 *2207:B 0.000183738
4 *2208:A2 *2207:C 7.22354e-05
5 *2208:A2 *2208:B1_N 0
6 *2208:A2 *258:16 1.03323e-05
7 *2207:A_N *2208:A2 5.02217e-05
8 *2208:A1 *2208:A2 0
*RES
1 *2205:X *2208:A2 12.615 
*END

*D_NET *104 0.00123977
*CONN
*I *2207:B I *D sky130_fd_sc_hd__nand3b_2
*I *2206:Y O *D sky130_fd_sc_hd__nand2_2
*CAP
1 *2207:B 0.000279591
2 *2206:Y 0.000279591
3 *2207:B *2204:A 1.47256e-05
4 *2207:B *2204:B 0.000302194
5 *2207:B *2206:B 4.82919e-05
6 *2207:B *580:8 0.000122331
7 *2207:A_N *2207:B 9.3062e-06
8 *2208:A1 *2207:B 0
9 *2208:A2 *2207:B 0.000183738
*RES
1 *2206:Y *2207:B 13.5 
*END

*D_NET *105 0.00239827
*CONN
*I *1992:A I *D sky130_fd_sc_hd__nand2_2
*I *2209:A I *D sky130_fd_sc_hd__nand2_2
*I *1982:A1 I *D sky130_fd_sc_hd__a21bo_2
*I *1991:A I *D sky130_fd_sc_hd__and4_2
*I *2207:Y O *D sky130_fd_sc_hd__nand3b_2
*CAP
1 *1992:A 0
2 *2209:A 0.000100437
3 *1982:A1 0.000195257
4 *1991:A 0
5 *2207:Y 0.000136873
6 *105:23 0.000372708
7 *105:16 0.000265154
8 *105:12 0.000325013
9 *1982:A1 *106:10 1.22676e-05
10 *1982:A1 *106:27 0.000147543
11 *2209:A *1991:B 8.49205e-05
12 *2209:A *2014:A 4.82919e-05
13 *2209:A *2209:B 3.57349e-05
14 *2209:A *269:10 2.8185e-05
15 *105:12 *258:16 0.000225836
16 *105:16 *1991:D 8.34281e-06
17 *105:16 *258:16 4.66108e-05
18 *105:16 *258:25 0.000188312
19 *105:16 *259:8 5.83121e-06
20 *105:23 *1991:B 0.000124895
21 *105:23 *258:25 4.60584e-05
*RES
1 *2207:Y *105:12 8.285 
2 *105:12 *105:16 3.915 
3 *105:16 *1991:A 1.6 
4 *105:16 *105:23 1.83 
5 *105:23 *1982:A1 9.785 
6 *105:23 *2209:A 3.79 
7 *105:12 *1992:A 1.6 
*END

*D_NET *106 0.00264937
*CONN
*I *2209:B I *D sky130_fd_sc_hd__nand2_2
*I *1991:B I *D sky130_fd_sc_hd__and4_2
*I *1982:B1_N I *D sky130_fd_sc_hd__a21bo_2
*I *2208:Y O *D sky130_fd_sc_hd__o21bai_4
*CAP
1 *2209:B 1.49104e-05
2 *1991:B 5.14891e-05
3 *1982:B1_N 1.33565e-05
4 *2208:Y 0.000684437
5 *106:27 0.000245691
6 *106:10 0.000877085
7 *1982:B1_N *1982:A2 2.41437e-05
8 *1991:B *1991:D 2.30292e-05
9 *1991:B *258:25 4.99619e-05
10 *1991:B *269:10 2.75145e-05
11 *2209:B *269:10 2.49909e-05
12 *106:27 *1983:A 5.83169e-05
13 *106:27 *1983:B 6.74079e-05
14 *106:27 *2014:A 5.16348e-05
15 *106:27 *2377:A 0
16 *1982:A1 *106:10 1.22676e-05
17 *1982:A1 *106:27 0.000147543
18 *2208:A1 *106:10 3.00381e-05
19 *2209:A *1991:B 8.49205e-05
20 *2209:A *2209:B 3.57349e-05
21 *105:23 *1991:B 0.000124895
*RES
1 *2208:Y *106:10 14.13 
2 *106:10 *1982:B1_N 3.8325 
3 *106:10 *106:27 6.74 
4 *106:27 *1991:B 3.43 
5 *106:27 *2209:B 2.05 
*END

*D_NET *107 0.00189258
*CONN
*I *1975:A I *D sky130_fd_sc_hd__xor2_2
*I *2014:A I *D sky130_fd_sc_hd__nor4_4
*I *2209:Y O *D sky130_fd_sc_hd__nand2_2
*CAP
1 *1975:A 0.000478743
2 *2014:A 0.000224667
3 *2209:Y 0.00070341
4 *1975:A *269:10 9.91257e-05
5 *2014:A *1981:A 0
6 *2014:A *1983:A 0.000122877
7 *2014:A *2014:B 2.05661e-05
8 *2014:A *274:10 0.000143266
9 *2209:A *2014:A 4.82919e-05
10 *106:27 *2014:A 5.16348e-05
*RES
1 *2209:Y *2014:A 12.345 
2 *2209:Y *1975:A 10.895 
*END

*D_NET *108 0.000677306
*CONN
*I *2231:A1 I *D sky130_fd_sc_hd__o21bai_2
*I *2212:B I *D sky130_fd_sc_hd__or3b_4
*I *2210:Y O *D sky130_fd_sc_hd__nor2_2
*CAP
1 *2231:A1 0
2 *2212:B 0.000126831
3 *2210:Y 0.000124848
4 *108:8 0.000251679
5 *2212:B *2212:A 0.000164679
6 *2212:B *471:52 0
7 *108:8 *109:14 0
8 S[15] *2212:B 9.26907e-06
*RES
1 *2210:Y *108:8 3.445 
2 *108:8 *2212:B 8.285 
3 *108:8 *2231:A1 1.6 
*END

*D_NET *109 0.00120108
*CONN
*I *2212:A I *D sky130_fd_sc_hd__or3b_4
*I *2231:A2 I *D sky130_fd_sc_hd__o21bai_2
*I *2211:X O *D sky130_fd_sc_hd__and2_4
*CAP
1 *2212:A 0.000107809
2 *2231:A2 0
3 *2211:X 0.000308227
4 *109:14 0.000416036
5 *2212:A *2212:C_N 0
6 *2212:A *2375:A 0
7 *2212:A *129:12 6.55406e-05
8 *2212:A *569:10 0
9 *109:14 *2375:A 0.000138791
10 *109:14 *569:10 0
11 S[15] *2212:A 0
12 *2212:B *2212:A 0.000164679
13 *108:8 *109:14 0
*RES
1 *2211:X *109:14 10.895 
2 *109:14 *2231:A2 1.6 
3 *109:14 *2212:A 8.195 
*END

*D_NET *110 0.00469142
*CONN
*I *2199:A1 I *D sky130_fd_sc_hd__a22oi_2
*I *2198:A I *D sky130_fd_sc_hd__and4_2
*I *2243:A3 I *D sky130_fd_sc_hd__a41o_2
*I *2234:B1_N I *D sky130_fd_sc_hd__a21boi_2
*I *2235:B1 I *D sky130_fd_sc_hd__o21ai_4
*I *2242:A I *D sky130_fd_sc_hd__and4_4
*I *2212:X O *D sky130_fd_sc_hd__or3b_4
*CAP
1 *2199:A1 1.60636e-05
2 *2198:A 0
3 *2243:A3 0
4 *2234:B1_N 0
5 *2235:B1 0.000201749
6 *2242:A 9.89173e-05
7 *2212:X 0.000175432
8 *110:41 0.000421311
9 *110:33 0.000597717
10 *110:20 0.000603274
11 *110:12 0.000388971
12 *110:6 0.000454265
13 *2199:A1 *2199:A2 0
14 *2199:A1 *2199:B1 4.00541e-06
15 *2199:A1 *2199:B2 0
16 *2235:B1 *1972:B 5.4256e-05
17 *2235:B1 *2235:A2 0
18 *2235:B1 *133:52 0
19 *2242:A *2196:A2 2.30292e-05
20 *2242:A *2242:C 4.82919e-05
21 *2242:A *2242:D 8.49205e-05
22 *110:6 *2200:B 3.00381e-05
23 *110:6 *129:12 0.000164352
24 *110:6 *129:23 4.36241e-05
25 *110:12 *2198:B 0.000277223
26 *110:12 *2199:B2 4.00541e-06
27 *110:12 *2200:B 3.00381e-05
28 *110:12 *128:38 7.49327e-05
29 *110:12 *129:23 7.68414e-06
30 *110:12 *129:29 2.36716e-05
31 *110:20 *446:12 2.65814e-06
32 *110:20 *475:45 0.000182467
33 *110:33 *2196:A2 8.65961e-05
34 *110:33 *2242:D 0
35 *110:33 *2243:A1 0.000352156
36 *110:33 *140:12 5.30775e-05
37 *110:41 *1972:B 3.45679e-05
38 *110:41 *2243:A4 0.000152123
39 *110:41 *129:29 0
40 *110:41 *129:31 0
*RES
1 *2212:X *110:6 5.5 
2 *110:6 *110:12 5.055 
3 *110:12 *110:20 6.595 
4 *110:20 *2242:A 3.775 
5 *110:20 *110:33 7.2 
6 *110:33 *110:41 7.72 
7 *110:41 *2235:B1 9.05 
8 *110:41 *2234:B1_N 1.6 
9 *110:33 *2243:A3 1.6 
10 *110:12 *2198:A 1.6 
11 *110:6 *2199:A1 1.96 
*END

*D_NET *111 0.00235325
*CONN
*I *2215:A I *D sky130_fd_sc_hd__nor2_2
*I *2238:A1 I *D sky130_fd_sc_hd__o21a_2
*I *2240:A2 I *D sky130_fd_sc_hd__o2111a_2
*I *2229:A1 I *D sky130_fd_sc_hd__o211ai_2
*I *2230:A1 I *D sky130_fd_sc_hd__o21bai_2
*I *2213:X O *D sky130_fd_sc_hd__and2_4
*CAP
1 *2215:A 8.08156e-05
2 *2238:A1 0.000148395
3 *2240:A2 0.000249924
4 *2229:A1 6.48887e-05
5 *2230:A1 0
6 *2213:X 8.13624e-05
7 *111:32 0.000398319
8 *111:21 0.000107495
9 *111:19 0.000133221
10 *111:12 9.11613e-05
11 *2215:A *2230:A2 6.67725e-05
12 *2215:A *2378:A 0.000114433
13 *2229:A1 *2230:A2 1.37328e-05
14 *2229:A1 *2240:D1 7.00889e-06
15 *2229:A1 *2378:A 7.67415e-06
16 *2229:A1 *113:22 0.000160635
17 *2229:A1 *128:6 6.52265e-05
18 *2238:A1 *128:38 1.01661e-05
19 *2238:A1 *558:14 0
20 *2238:A1 *558:22 7.48946e-05
21 *2240:A2 *2197:A 0
22 *2240:A2 *2240:A1 3.72916e-05
23 *2240:A2 *2374:A 7.70828e-05
24 *2240:A2 *112:10 0
25 *2240:A2 *558:14 0
26 *2240:A2 *558:22 1.22676e-05
27 *2240:A2 *558:36 4.11281e-05
28 *111:12 *112:10 8.09021e-06
29 *111:12 *558:14 6.20952e-05
30 *111:19 *2230:A2 9.42091e-06
31 *111:21 *2230:A2 5.05437e-05
32 *111:21 *2378:A 0.00011964
33 *111:21 *113:22 4.21757e-05
34 S[14] *111:12 1.7386e-05
*RES
1 *2213:X *111:12 7.685 
2 *111:12 *2230:A1 1.6 
3 *111:12 *111:19 0.36 
4 *111:19 *111:21 1.83 
5 *111:21 *2229:A1 3.7 
6 *111:21 *111:32 2 
7 *111:32 *2240:A2 7.65 
8 *111:32 *2238:A1 6.3 
9 *111:19 *2215:A 3.79 
*END

*D_NET *112 0.0011948
*CONN
*I *2215:B I *D sky130_fd_sc_hd__nor2_2
*I *2230:A2 I *D sky130_fd_sc_hd__o21bai_2
*I *2214:Y O *D sky130_fd_sc_hd__nor2_2
*CAP
1 *2215:B 0
2 *2230:A2 7.05921e-05
3 *2214:Y 0.00014057
4 *112:10 0.000211162
5 *2230:A2 *113:22 0.00019637
6 *112:10 *2214:B 0.000163985
7 *112:10 *2374:A 0
8 *112:10 *534:12 0.000149759
9 *112:10 *558:14 0.000113797
10 *2215:A *2230:A2 6.67725e-05
11 *2229:A1 *2230:A2 1.37328e-05
12 *2240:A2 *112:10 0
13 *111:12 *112:10 8.09021e-06
14 *111:19 *2230:A2 9.42091e-06
15 *111:21 *2230:A2 5.05437e-05
*RES
1 *2214:Y *112:10 9.275 
2 *112:10 *2230:A2 4.15 
3 *112:10 *2215:B 1.6 
*END

*D_NET *113 0.0036792
*CONN
*I *2233:A2 I *D sky130_fd_sc_hd__o21ai_2
*I *2232:A2 I *D sky130_fd_sc_hd__o21a_2
*I *2228:A1 I *D sky130_fd_sc_hd__a22oi_2
*I *2215:Y O *D sky130_fd_sc_hd__nor2_2
*CAP
1 *2233:A2 0
2 *2232:A2 0.000141521
3 *2228:A1 6.80846e-05
4 *2215:Y 0.000993149
5 *113:24 0.000209605
6 *113:22 0.000993149
7 *2228:A1 *2228:A2 1.94805e-05
8 *2228:A1 *2228:B1 4.18603e-06
9 *2228:A1 *2232:A1 2.88436e-05
10 *2228:A1 *2233:A1 0.000116165
11 *2228:A1 *2233:B1 1.52184e-05
12 *2228:A1 *2235:A2 0
13 *2232:A2 *2232:B1 5.05437e-05
14 *2232:A2 *2233:A1 2.30797e-05
15 *2232:A2 *2233:B1 7.63282e-05
16 *113:22 *2196:A1 4.18147e-05
17 *113:22 *2229:C1 9.0707e-05
18 *113:22 *2232:A1 1.93765e-05
19 *113:22 *2233:B1 8.49205e-05
20 *113:22 *2240:A1 4.66742e-05
21 *113:22 *2240:D1 9.80943e-06
22 *113:22 *2241:C 5.83121e-06
23 *113:22 *2242:C 0
24 *113:22 *2378:A 0.000223587
25 *113:22 *475:45 1.79483e-05
26 *2229:A1 *113:22 0.000160635
27 *2230:A2 *113:22 0.00019637
28 *111:21 *113:22 4.21757e-05
*RES
1 *2215:Y *113:22 17.5776 
2 *113:22 *113:24 2 
3 *113:24 *2228:A1 5.49 
4 *113:24 *2232:A2 6.39 
5 *113:22 *2233:A2 1.6 
*END

*D_NET *114 0.0021554
*CONN
*I *2238:A2 I *D sky130_fd_sc_hd__o21a_2
*I *2240:A1 I *D sky130_fd_sc_hd__o2111a_2
*I *2229:A2 I *D sky130_fd_sc_hd__o211ai_2
*I *2216:Y O *D sky130_fd_sc_hd__o21ai_2
*CAP
1 *2238:A2 0
2 *2240:A1 0.000148603
3 *2229:A2 0
4 *2216:Y 0.0001632
5 *114:14 0.000359113
6 *114:6 0.00037371
7 *2240:A1 *2240:B1 4.99619e-05
8 *2240:A1 *2240:D1 0.000204907
9 *2240:A1 *2378:A 1.92187e-05
10 *2240:A1 *558:36 0.000111554
11 *114:6 *558:14 2.05056e-05
12 *114:6 *558:22 0.000315527
13 *114:14 *2197:A 0.000163992
14 *114:14 *2240:D1 2.92496e-05
15 *114:14 *128:25 4.92014e-05
16 *114:14 *136:6 1.4399e-05
17 *114:14 *558:22 4.82919e-05
18 *2240:A2 *2240:A1 3.72916e-05
19 *113:22 *2240:A1 4.66742e-05
*RES
1 *2216:Y *114:6 4.81 
2 *114:6 *114:14 7.72 
3 *114:14 *2229:A2 1.6 
4 *114:14 *2240:A1 9.77 
5 *114:6 *2238:A2 1.6 
*END

*D_NET *115 0.00122121
*CONN
*I *2220:A1 I *D sky130_fd_sc_hd__o21bai_2
*I *2221:A_N I *D sky130_fd_sc_hd__nand3b_2
*I *2217:Y O *D sky130_fd_sc_hd__nor2_2
*CAP
1 *2220:A1 0.000346647
2 *2221:A_N 0
3 *2217:Y 0.000114448
4 *115:12 0.000461095
5 *2220:A1 *2220:A2 0
6 *2220:A1 *2220:B1_N 0
7 *2220:A1 *119:14 5.30673e-05
8 S[12] *115:12 0.000162047
9 *2324:A *2220:A1 8.3907e-05
10 *2338:A *115:12 0
*RES
1 *2217:Y *115:12 7.94 
2 *115:12 *2221:A_N 1.6 
3 *115:12 *2220:A1 10.805 
*END

*D_NET *116 0.00101675
*CONN
*I *2220:A2 I *D sky130_fd_sc_hd__o21bai_2
*I *2218:X O *D sky130_fd_sc_hd__and2_4
*CAP
1 *2220:A2 0.000412266
2 *2218:X 0.000412266
3 *2220:A2 *2194:B 0
4 *2220:A2 *2218:A 0
5 *2220:A2 *118:6 0.000192218
6 *2220:A2 *533:12 0
7 *2220:A2 *536:34 0
8 *2220:A1 *2220:A2 0
*RES
1 *2218:X *2220:A2 14.205 
*END

*D_NET *117 0.000912529
*CONN
*I *2221:B I *D sky130_fd_sc_hd__nand3b_2
*I *2219:Y O *D sky130_fd_sc_hd__nand2_2
*CAP
1 *2221:B 0.000137929
2 *2219:Y 0.000137929
3 *2221:B *2217:A 0.000279787
4 *2221:B *2217:B 0.000278111
5 *2221:B *2218:A 0
6 *2221:B *547:10 7.45881e-05
7 *2324:A *2221:B 4.18603e-06
*RES
1 *2219:Y *2221:B 11.865 
*END

*D_NET *118 0.00500674
*CONN
*I *2240:C1 I *D sky130_fd_sc_hd__o2111a_2
*I *2241:C I *D sky130_fd_sc_hd__and3_2
*I *2228:B2 I *D sky130_fd_sc_hd__a22oi_2
*I *2239:A I *D sky130_fd_sc_hd__nand2_2
*I *2227:A I *D sky130_fd_sc_hd__nand3_2
*I *2220:Y O *D sky130_fd_sc_hd__o21bai_2
*CAP
1 *2240:C1 5.22075e-05
2 *2241:C 0.000128154
3 *2228:B2 0.00021317
4 *2239:A 1.04051e-05
5 *2227:A 0.00012642
6 *2220:Y 0.000408876
7 *118:36 0.000560802
8 *118:30 0.00045112
9 *118:8 0.000154601
10 *118:6 0.000606086
11 *2227:A *2226:B1 2.8185e-05
12 *2227:A *2227:C 2.75145e-05
13 *2228:B2 *2233:A1 0.000160635
14 *2228:B2 *2235:A2 3.00381e-05
15 *2228:B2 *558:36 3.57349e-05
16 *2239:A *2194:A 0
17 *2240:C1 *2240:B1 3.38425e-05
18 *2240:C1 *2240:D1 4.82863e-05
19 *2240:C1 *558:36 9.42236e-05
20 *2241:C *2228:A2 2.92496e-05
21 *2241:C *2232:A1 7.23602e-05
22 *2241:C *2378:A 2.04748e-05
23 *2241:C *475:45 9.14049e-05
24 *118:6 *2194:A 0.0001249
25 *118:6 *137:6 4.82863e-05
26 *118:8 *2194:A 0
27 *118:30 *2195:A1 8.97642e-05
28 *118:30 *2197:A 0.00018305
29 *118:30 *2197:B 6.23206e-05
30 *118:30 *119:36 8.97486e-05
31 *118:30 *119:51 0.000257611
32 *118:30 *119:66 5.23362e-05
33 *118:36 *2240:B1 2.49909e-05
34 *118:36 *558:36 0.000491893
35 *2220:A2 *118:6 0.000192218
36 *113:22 *2241:C 5.83121e-06
*RES
1 *2220:Y *118:6 8.605 
2 *118:6 *118:8 0.36 
3 *118:8 *2227:A 3.79 
4 *118:8 *2239:A 1.96 
5 *118:6 *118:30 9.97 
6 *118:30 *118:36 5.055 
7 *118:36 *2228:B2 5.515 
8 *118:36 *2241:C 7.88 
9 *118:30 *2240:C1 3.1 
*END

*D_NET *119 0.00562822
*CONN
*I *2241:B I *D sky130_fd_sc_hd__and3_2
*I *2229:B1 I *D sky130_fd_sc_hd__o211ai_2
*I *2240:B1 I *D sky130_fd_sc_hd__o2111a_2
*I *2195:B1 I *D sky130_fd_sc_hd__o211ai_2
*I *2239:B I *D sky130_fd_sc_hd__nand2_2
*I *2226:B1 I *D sky130_fd_sc_hd__o21ai_2
*I *2221:Y O *D sky130_fd_sc_hd__nand3b_2
*CAP
1 *2241:B 0.000211722
2 *2229:B1 0
3 *2240:B1 0.000146916
4 *2195:B1 9.73191e-06
5 *2239:B 0
6 *2226:B1 0.000437565
7 *2221:Y 0.000547802
8 *119:66 0.000318555
9 *119:51 0.000441238
10 *119:36 0.000328056
11 *119:27 0.000164816
12 *119:14 0.00101935
13 *2195:B1 *2195:A2 4.82863e-05
14 *2195:B1 *2377:A 4.82863e-05
15 *2226:B1 *2226:A2 0
16 *2226:B1 *2227:C 0.000232999
17 *2240:B1 *2240:D1 4.99619e-05
18 *2240:B1 *558:36 9.27255e-06
19 *2241:B *2196:A1 0
20 *2241:B *2242:C 5.16348e-05
21 *2241:B *2378:A 0.00038396
22 *2241:B *127:12 0.000164874
23 *119:14 *2194:B 4.43682e-05
24 *119:14 *2218:A 4.35348e-05
25 *119:14 *2218:B 8.8266e-05
26 *119:14 *2227:C 5.02217e-05
27 *119:14 *536:34 5.05437e-05
28 *119:27 *2194:B 0
29 *119:27 *2227:C 1.07797e-05
30 *119:27 *442:10 0
31 *119:36 *2194:B 0
32 *119:36 *2195:A1 0
33 *119:36 *2229:C1 0
34 *119:36 *125:8 0
35 *119:36 *442:10 0
36 *119:51 *2229:C1 0
37 *119:66 *2197:A 1.79098e-05
38 *119:66 *2229:C1 0
39 *119:66 *2242:C 0.000117825
40 *2220:A1 *119:14 5.30673e-05
41 *2227:A *2226:B1 2.8185e-05
42 *2240:A1 *2240:B1 4.99619e-05
43 *2240:C1 *2240:B1 3.38425e-05
44 *118:30 *119:36 8.97486e-05
45 *118:30 *119:51 0.000257611
46 *118:30 *119:66 5.23362e-05
47 *118:36 *2240:B1 2.49909e-05
*RES
1 *2221:Y *119:14 12.795 
2 *119:14 *2226:B1 8.895 
3 *119:14 *119:27 0.615 
4 *119:27 *2239:B 3.6 
5 *119:27 *119:36 2.4 
6 *119:36 *2195:B1 4.05 
7 *119:36 *119:51 4.23 
8 *119:51 *2240:B1 6.24 
9 *119:51 *119:66 2.4 
10 *119:66 *2229:B1 3.6 
11 *119:66 *2241:B 8.235 
*END

*D_NET *120 0.00130338
*CONN
*I *2224:A I *D sky130_fd_sc_hd__nor2_2
*I *2236:A1 I *D sky130_fd_sc_hd__o21bai_2
*I *2222:Y O *D sky130_fd_sc_hd__nor2_2
*CAP
1 *2224:A 0.000194514
2 *2236:A1 2.42846e-05
3 *2222:Y 0.000249051
4 *120:8 0.00046785
5 *2224:A *2224:B 0.000161529
6 *2224:A *2226:A1 4.43871e-06
7 *2224:A *121:19 0.000103119
8 *2224:A *475:45 0
9 *2236:A1 *536:12 2.75229e-05
10 *120:8 *2225:A2 0
11 *120:8 *121:10 6.55328e-05
12 *120:8 *121:19 5.53249e-06
13 *120:8 *244:18 0
14 *120:8 *475:51 0
15 *120:8 *532:12 0
*RES
1 *2222:Y *120:8 7.53 
2 *120:8 *2236:A1 4.05 
3 *120:8 *2224:A 7.485 
*END

*D_NET *121 0.00233267
*CONN
*I *2226:A1 I *D sky130_fd_sc_hd__o21ai_2
*I *2224:B I *D sky130_fd_sc_hd__nor2_2
*I *2237:A1 I *D sky130_fd_sc_hd__o21a_2
*I *2236:A2 I *D sky130_fd_sc_hd__o21bai_2
*I *2223:X O *D sky130_fd_sc_hd__and2_2
*CAP
1 *2226:A1 0.000129523
2 *2224:B 0.000122201
3 *2237:A1 9.07281e-05
4 *2236:A2 0
5 *2223:X 0.000191726
6 *121:21 0.000212929
7 *121:19 0.000226472
8 *121:10 0.000288675
9 *2224:B *135:8 0.000342246
10 *2226:A1 *2226:A2 0
11 *2226:A1 *475:45 0
12 *2237:A1 *2237:A2 3.00381e-05
13 *2237:A1 *442:6 5.41685e-05
14 *121:10 *2225:A2 0
15 *121:10 *475:51 8.8266e-05
16 *121:10 *475:61 0.00012657
17 *121:19 *2225:A1 0
18 *121:19 *2226:A2 0
19 *121:19 *2237:B1 8.89751e-05
20 *2224:A *2224:B 0.000161529
21 *2224:A *2226:A1 4.43871e-06
22 *2224:A *121:19 0.000103119
23 *120:8 *121:10 6.55328e-05
24 *120:8 *121:19 5.53249e-06
*RES
1 *2223:X *121:10 6.81 
2 *121:10 *2236:A2 3.6 
3 *121:10 *121:19 2.4 
4 *121:19 *121:21 2 
5 *121:21 *2237:A1 3.43 
6 *121:21 *2224:B 5.185 
7 *121:19 *2226:A1 5.49 
*END

*D_NET *122 0.000682949
*CONN
*I *2193:A2 I *D sky130_fd_sc_hd__a22o_2
*I *2227:B I *D sky130_fd_sc_hd__nand3_2
*I *2224:Y O *D sky130_fd_sc_hd__nor2_2
*CAP
1 *2193:A2 0.000130739
2 *2227:B 3.61434e-05
3 *2224:Y 0.000166883
4 *2193:A2 *2193:B2 4.82919e-05
5 *2193:A2 *442:32 2.36616e-05
6 *2193:A2 *536:34 4.6303e-05
7 *2227:B *135:14 0.000115464
8 *2227:B *442:10 0.000115464
*RES
1 *2224:Y *2227:B 8.58 
2 *2224:Y *2193:A2 5.51375 
*END

*D_NET *123 0.000836791
*CONN
*I *2226:A2 I *D sky130_fd_sc_hd__o21ai_2
*I *2237:A2 I *D sky130_fd_sc_hd__o21a_2
*I *2225:Y O *D sky130_fd_sc_hd__o21ai_2
*CAP
1 *2226:A2 0.000259158
2 *2237:A2 2.36281e-05
3 *2225:Y 7.72927e-05
4 *123:8 0.000360079
5 *2226:A2 *1971:B1 0
6 *2226:A2 *2237:B1 0
7 *2237:A2 *442:6 8.65961e-05
8 *123:8 *1971:B1 0
9 *123:8 *2237:B1 0
10 *2226:A1 *2226:A2 0
11 *2226:B1 *2226:A2 0
12 *2237:A1 *2237:A2 3.00381e-05
13 *121:19 *2226:A2 0
*RES
1 *2225:Y *123:8 4.725 
2 *123:8 *2237:A2 4.395 
3 *123:8 *2226:A2 7.59 
*END

*D_NET *124 0.000738776
*CONN
*I *2228:B1 I *D sky130_fd_sc_hd__a22oi_2
*I *2226:Y O *D sky130_fd_sc_hd__o21ai_2
*CAP
1 *2228:B1 0.000367295
2 *2226:Y 0.000367295
3 *2228:B1 *2235:A2 0
4 *2228:B1 *475:45 0
5 *2228:A1 *2228:B1 4.18603e-06
*RES
1 *2226:Y *2228:B1 13.17 
*END

*D_NET *125 0.00125526
*CONN
*I *2229:C1 I *D sky130_fd_sc_hd__o211ai_2
*I *2195:C1 I *D sky130_fd_sc_hd__o211ai_2
*I *2227:Y O *D sky130_fd_sc_hd__nand3_2
*CAP
1 *2229:C1 0.000294481
2 *2195:C1 0
3 *2227:Y 7.34888e-05
4 *125:8 0.00036797
5 *2229:C1 *2196:A1 0.000255644
6 *2229:C1 *2378:A 8.65961e-05
7 *125:8 *2196:A1 5.53249e-06
8 *125:8 *442:10 8.08439e-05
9 *113:22 *2229:C1 9.0707e-05
10 *119:36 *2229:C1 0
11 *119:36 *125:8 0
12 *119:51 *2229:C1 0
13 *119:66 *2229:C1 0
*RES
1 *2227:Y *125:8 5.235 
2 *125:8 *2195:C1 3.6 
3 *125:8 *2229:C1 10.365 
*END

*D_NET *126 0.00048194
*CONN
*I *2235:A2 I *D sky130_fd_sc_hd__o21ai_4
*I *2228:Y O *D sky130_fd_sc_hd__a22oi_2
*CAP
1 *2235:A2 0.000225951
2 *2228:Y 0.000225951
3 *2235:A2 *1971:B1 0
4 *2235:A2 *2233:A1 0
5 *2228:A1 *2235:A2 0
6 *2228:B1 *2235:A2 0
7 *2228:B2 *2235:A2 3.00381e-05
8 *2235:B1 *2235:A2 0
*RES
1 *2228:Y *2235:A2 10.83 
*END

*D_NET *127 0.00222303
*CONN
*I *2196:B1 I *D sky130_fd_sc_hd__a21o_2
*I *2234:A1 I *D sky130_fd_sc_hd__a21boi_2
*I *2229:Y O *D sky130_fd_sc_hd__o211ai_2
*CAP
1 *2196:B1 6.30162e-05
2 *2234:A1 0.000179477
3 *2229:Y 0.000210902
4 *127:12 0.000453396
5 *2196:B1 *2196:A1 4.50017e-05
6 *2196:B1 *475:45 0.000134092
7 *2234:A1 *2232:B1 8.65905e-05
8 *2234:A1 *2234:A2 7.60965e-05
9 *2234:A1 *2243:A4 0.000574284
10 *2234:A1 *475:45 8.63479e-05
11 *127:12 *2196:A1 9.66186e-05
12 *127:12 *2242:C 0
13 *127:12 *475:45 5.23362e-05
14 *2241:B *127:12 0.000164874
*RES
1 *2229:Y *127:12 7.425 
2 *127:12 *2234:A1 9.24 
3 *127:12 *2196:B1 5.235 
*END

*D_NET *128 0.00258171
*CONN
*I *2199:B2 I *D sky130_fd_sc_hd__a22oi_2
*I *2198:B I *D sky130_fd_sc_hd__and4_2
*I *2238:B1 I *D sky130_fd_sc_hd__o21a_2
*I *2240:D1 I *D sky130_fd_sc_hd__o2111a_2
*I *2230:Y O *D sky130_fd_sc_hd__o21bai_2
*CAP
1 *2199:B2 9.48747e-06
2 *2198:B 6.6956e-05
3 *2238:B1 0
4 *2240:D1 0.000129834
5 *2230:Y 3.11318e-05
6 *128:38 0.000357863
7 *128:25 0.000342456
8 *128:6 0.000222003
9 *2198:B *2199:B1 0.000125055
10 *2198:B *129:23 9.80032e-06
11 *2198:B *129:29 2.11084e-05
12 *2199:B2 *2199:B1 9.53428e-06
13 *2240:D1 *2197:A 9.15582e-05
14 *2240:D1 *2378:A 4.80285e-05
15 *2240:D1 *558:22 4.24292e-06
16 *128:6 *2378:A 6.97118e-05
17 *128:25 *2197:A 0
18 *128:25 *558:22 0.00015997
19 *128:38 *2197:A 0
20 *128:38 *2199:B1 3.00381e-05
21 *128:38 *2242:C 0
22 *128:38 *129:23 1.34503e-05
23 *128:38 *446:12 0
24 *128:38 *558:22 9.50342e-06
25 *2199:A1 *2199:B2 0
26 *2229:A1 *2240:D1 7.00889e-06
27 *2229:A1 *128:6 6.52265e-05
28 *2238:A1 *128:38 1.01661e-05
29 *2240:A1 *2240:D1 0.000204907
30 *2240:B1 *2240:D1 4.99619e-05
31 *2240:C1 *2240:D1 4.82863e-05
32 *110:12 *2198:B 0.000277223
33 *110:12 *2199:B2 4.00541e-06
34 *110:12 *128:38 7.49327e-05
35 *113:22 *2240:D1 9.80943e-06
36 *114:14 *2240:D1 2.92496e-05
37 *114:14 *128:25 4.92014e-05
*RES
1 *2230:Y *128:6 2.74 
2 *128:6 *2240:D1 9.245 
3 *128:6 *128:25 3.89 
4 *128:25 *2238:B1 3.6 
5 *128:25 *128:38 6.98 
6 *128:38 *2198:B 4.48 
7 *128:38 *2199:B2 1.96 
*END

*D_NET *129 0.00515003
*CONN
*I *2198:C I *D sky130_fd_sc_hd__and4_2
*I *2242:B I *D sky130_fd_sc_hd__and4_4
*I *2243:A2 I *D sky130_fd_sc_hd__a41o_2
*I *2232:B1 I *D sky130_fd_sc_hd__o21a_2
*I *2233:B1 I *D sky130_fd_sc_hd__o21ai_2
*I *2199:A2 I *D sky130_fd_sc_hd__a22oi_2
*I *2231:Y O *D sky130_fd_sc_hd__o21bai_2
*CAP
1 *2198:C 0
2 *2242:B 0
3 *2243:A2 0.000227901
4 *2232:B1 1.71225e-05
5 *2233:B1 0.000235583
6 *2199:A2 2.08101e-05
7 *2231:Y 0.000204701
8 *129:53 0.000227901
9 *129:31 0.000329595
10 *129:29 0.000659232
11 *129:23 0.000960108
12 *129:12 0.000603275
13 *2199:A2 *2199:B1 0
14 *2233:B1 *2232:A1 0.000225182
15 *2233:B1 *2235:A1 4.99619e-05
16 *2233:B1 *2378:A 3.79763e-05
17 *2243:A2 *2242:D 8.65905e-05
18 *2243:A2 *2243:A1 5.98073e-05
19 *2243:A2 *140:12 5.30673e-05
20 *129:12 *2375:A 6.36656e-05
21 *129:23 *2199:B1 0.000238919
22 *129:23 *2200:B 8.65905e-05
23 *129:29 *139:10 3.67779e-05
24 *129:29 *342:10 0
25 *129:29 *475:45 0
26 *129:31 *2232:A1 8.53113e-06
27 *129:31 *139:10 5.38986e-05
28 *2198:B *129:23 9.80032e-06
29 *2198:B *129:29 2.11084e-05
30 *2199:A1 *2199:A2 0
31 *2212:A *129:12 6.55406e-05
32 *2228:A1 *2233:B1 1.52184e-05
33 *2232:A2 *2232:B1 5.05437e-05
34 *2232:A2 *2233:B1 7.63282e-05
35 *2234:A1 *2232:B1 8.65905e-05
36 *110:6 *129:12 0.000164352
37 *110:6 *129:23 4.36241e-05
38 *110:12 *129:23 7.68414e-06
39 *110:12 *129:29 2.36716e-05
40 *110:41 *129:29 0
41 *110:41 *129:31 0
42 *113:22 *2233:B1 8.49205e-05
43 *128:38 *129:23 1.34503e-05
*RES
1 *2231:Y *129:12 9.845 
2 *129:12 *2199:A2 1.96 
3 *129:12 *129:23 5.295 
4 *129:23 *129:29 9.665 
5 *129:29 *129:31 1.38 
6 *129:31 *2233:B1 8.43 
7 *129:31 *2232:B1 4.395 
8 *129:29 *129:53 2 
9 *129:53 *2243:A2 4.825 
10 *129:53 *2242:B 1.6 
11 *129:23 *2198:C 1.6 
*END

*D_NET *130 0.000175536
*CONN
*I *2234:A2 I *D sky130_fd_sc_hd__a21boi_2
*I *2232:X O *D sky130_fd_sc_hd__o21a_2
*CAP
1 *2234:A2 4.97198e-05
2 *2232:X 4.97198e-05
3 *2234:A1 *2234:A2 7.60965e-05
*RES
1 *2232:X *2234:A2 4.34 
*END

*D_NET *131 0.000147129
*CONN
*I *2235:A1 I *D sky130_fd_sc_hd__o21ai_4
*I *2233:Y O *D sky130_fd_sc_hd__o21ai_2
*CAP
1 *2235:A1 2.205e-05
2 *2233:Y 2.205e-05
3 *2235:A1 *2378:A 5.30673e-05
4 *2233:B1 *2235:A1 4.99619e-05
*RES
1 *2233:Y *2235:A1 3.995 
*END

*D_NET *132 0.00159368
*CONN
*I *1972:B I *D sky130_fd_sc_hd__nand2_4
*I *2234:Y O *D sky130_fd_sc_hd__a21boi_2
*CAP
1 *1972:B 0.000331312
2 *2234:Y 0.000331312
3 *1972:B *2378:A 0.000656025
4 *1972:B *133:10 0.000186204
5 *2235:B1 *1972:B 5.4256e-05
6 *110:41 *1972:B 3.45679e-05
*RES
1 *2234:Y *1972:B 15.96 
*END

*D_NET *133 0.00578259
*CONN
*I *2070:A2 I *D sky130_fd_sc_hd__o221ai_4
*I *2243:B1 I *D sky130_fd_sc_hd__a41o_2
*I *1971:B1 I *D sky130_fd_sc_hd__a31oi_2
*I *1974:A2 I *D sky130_fd_sc_hd__o22ai_4
*I *2124:A1 I *D sky130_fd_sc_hd__o221ai_4
*I *2235:Y O *D sky130_fd_sc_hd__o21ai_4
*CAP
1 *2070:A2 0.000119812
2 *2243:B1 0.000128886
3 *1971:B1 0.00117834
4 *1974:A2 0.000365321
5 *2124:A1 0.00011485
6 *2235:Y 0
7 *133:52 0.000363548
8 *133:10 0.000646033
9 *133:4 0.00145905
10 *1971:B1 *1973:D 3.72916e-05
11 *1971:B1 *2225:A1 0
12 *1971:B1 *2410:A 0.000201508
13 *1971:B1 *244:18 0.00041967
14 *1974:A2 *1974:A1 5.062e-06
15 *1974:A2 *1994:A1 0
16 *1974:A2 *2124:A2 4.70256e-05
17 *1974:A2 *141:14 6.62095e-05
18 *1974:A2 *245:24 2.75145e-05
19 *1974:A2 *252:10 2.4997e-05
20 *1974:A2 *252:23 5.02217e-05
21 *2070:A2 *2070:B2 7.16263e-05
22 *2070:A2 *2124:A2 0
23 *2070:A2 *140:25 0
24 *2243:B1 *1974:A1 1.12578e-05
25 *2243:B1 *140:12 4.99619e-05
26 *2243:B1 *141:14 0.000142669
27 *133:10 *1974:B1 0
28 *133:10 *252:10 6.55328e-05
29 *133:52 *2124:A2 0
30 *133:52 *2243:A4 0
31 *1972:B *133:10 0.000186204
32 *2226:A2 *1971:B1 0
33 *2235:A2 *1971:B1 0
34 *2235:B1 *133:52 0
35 *123:8 *1971:B1 0
*RES
1 *2235:Y *133:4 1.6 
2 *133:4 *133:10 7.265 
3 *133:10 *2124:A1 3.6 
4 *133:10 *1974:A2 9.06 
5 *133:4 *1971:B1 26.735 
6 *2124:A1 *133:52 5.49 
7 *133:52 *2243:B1 6.465 
8 *133:52 *2070:A2 6 
*END

*D_NET *134 0.000300548
*CONN
*I *2237:B1 I *D sky130_fd_sc_hd__o21a_2
*I *2236:Y O *D sky130_fd_sc_hd__o21bai_2
*CAP
1 *2237:B1 0.000105786
2 *2236:Y 0.000105786
3 *2237:B1 *2225:A1 0
4 *2226:A2 *2237:B1 0
5 *121:19 *2237:B1 8.89751e-05
6 *123:8 *2237:B1 0
*RES
1 *2236:Y *2237:B1 9.09 
*END

*D_NET *135 0.00508365
*CONN
*I *2193:B2 I *D sky130_fd_sc_hd__a22o_2
*I *2192:A I *D sky130_fd_sc_hd__xor2_2
*I *2241:A I *D sky130_fd_sc_hd__and3_2
*I *2242:D I *D sky130_fd_sc_hd__and4_4
*I *2191:B I *D sky130_fd_sc_hd__nand2_2
*I *2237:X O *D sky130_fd_sc_hd__o21a_2
*CAP
1 *2193:B2 3.77957e-05
2 *2192:A 0.000243655
3 *2241:A 1.6277e-05
4 *2242:D 0.000277404
5 *2191:B 0
6 *2237:X 9.80891e-05
7 *135:23 0.000498036
8 *135:14 0.000362314
9 *135:10 0.000401614
10 *135:8 0.000135885
11 *2192:A *2192:B 0.00012657
12 *2192:A *442:10 7.30547e-05
13 *2192:A *475:45 7.08403e-05
14 *2192:A *475:51 2.97004e-06
15 *2192:A *536:12 8.96017e-05
16 *2193:B2 *442:6 1.19928e-05
17 *2193:B2 *442:32 1.83847e-05
18 *2241:A *2196:A1 2.56236e-05
19 *2242:D *2196:A1 0.000298569
20 *2242:D *2242:C 0.000100377
21 *2242:D *2243:A1 2.30292e-05
22 *2242:D *139:10 6.81159e-05
23 *2242:D *475:45 0.000205224
24 *135:8 *2193:B1 0
25 *135:8 *442:6 0.000347922
26 *135:14 *442:10 0.000136959
27 *135:14 *475:45 0.000205376
28 *135:23 *2196:A1 0.000264743
29 *135:23 *442:10 5.53249e-06
30 *135:23 *475:45 0.000260184
31 *2193:A2 *2193:B2 4.82919e-05
32 *2224:B *135:8 0.000342246
33 *2227:B *135:14 0.000115464
34 *2242:A *2242:D 8.49205e-05
35 *2243:A2 *2242:D 8.65905e-05
36 *110:33 *2242:D 0
*RES
1 *2237:X *135:8 5.425 
2 *135:8 *135:10 2 
3 *135:10 *135:14 4.635 
4 *135:14 *2191:B 3.6 
5 *135:14 *135:23 5.715 
6 *135:23 *2242:D 10.62 
7 *135:23 *2241:A 4.05 
8 *135:10 *2192:A 8.52 
9 *135:8 *2193:B2 2.395 
*END

*D_NET *136 0.00383745
*CONN
*I *2197:A I *D sky130_fd_sc_hd__xor2_2
*I *2243:A4 I *D sky130_fd_sc_hd__a41o_2
*I *2238:X O *D sky130_fd_sc_hd__o21a_2
*CAP
1 *2197:A 0.000238783
2 *2243:A4 0.000824857
3 *2238:X 6.89504e-05
4 *136:6 0.00113259
5 *2197:A *2242:C 0.000362965
6 *2197:A *2374:A 0
7 *2243:A4 *475:45 1.19928e-05
8 *2234:A1 *2243:A4 0.000574284
9 *2240:A2 *2197:A 0
10 *2240:D1 *2197:A 9.15582e-05
11 *110:41 *2243:A4 0.000152123
12 *114:14 *2197:A 0.000163992
13 *114:14 *136:6 1.4399e-05
14 *118:30 *2197:A 0.00018305
15 *119:66 *2197:A 1.79098e-05
16 *128:25 *2197:A 0
17 *128:38 *2197:A 0
18 *133:52 *2243:A4 0
*RES
1 *2238:X *136:6 2.395 
2 *136:6 *2243:A4 16.4 
3 *136:6 *2197:A 12.335 
*END

*D_NET *137 0.000696586
*CONN
*I *2194:A I *D sky130_fd_sc_hd__xnor2_2
*I *2195:A1 I *D sky130_fd_sc_hd__o211ai_2
*I *2239:Y O *D sky130_fd_sc_hd__nand2_2
*CAP
1 *2194:A 6.91979e-05
2 *2195:A1 0.000101427
3 *2239:Y 1.91908e-05
4 *137:6 0.000189816
5 *2195:A1 *2197:B 5.4003e-05
6 S[13] *2195:A1 0
7 *2239:A *2194:A 0
8 *118:6 *2194:A 0.0001249
9 *118:6 *137:6 4.82863e-05
10 *118:8 *2194:A 0
11 *118:30 *2195:A1 8.97642e-05
12 *119:36 *2195:A1 0
*RES
1 *2239:Y *137:6 2.05 
2 *137:6 *2195:A1 7.745 
3 *137:6 *2194:A 3.1 
*END

*D_NET *138 0.00226046
*CONN
*I *2242:C I *D sky130_fd_sc_hd__and4_4
*I *2240:X O *D sky130_fd_sc_hd__o2111a_2
*CAP
1 *2242:C 0.000701207
2 *2240:X 0.000701207
3 *2242:C *2196:A2 3.57349e-05
4 *2242:C *2243:A1 0.000122331
5 *2242:C *139:10 1.88904e-05
6 *2242:C *475:45 0
7 *2197:A *2242:C 0.000362965
8 *2241:B *2242:C 5.16348e-05
9 *2242:A *2242:C 4.82919e-05
10 *2242:D *2242:C 0.000100377
11 *113:22 *2242:C 0
12 *119:66 *2242:C 0.000117825
13 *127:12 *2242:C 0
14 *128:38 *2242:C 0
*RES
1 *2240:X *2242:C 15.9872 
*END

*D_NET *139 0.00165817
*CONN
*I *2196:A2 I *D sky130_fd_sc_hd__a21o_2
*I *2243:A1 I *D sky130_fd_sc_hd__a41o_2
*I *2241:X O *D sky130_fd_sc_hd__and3_2
*CAP
1 *2196:A2 3.69149e-05
2 *2243:A1 5.8145e-05
3 *2241:X 0.000137134
4 *139:10 0.000232194
5 *2243:A1 *140:12 4.99619e-05
6 *139:10 *2232:A1 0.000143266
7 *139:10 *475:45 0.000120186
8 *2242:A *2196:A2 2.30292e-05
9 *2242:C *2196:A2 3.57349e-05
10 *2242:C *2243:A1 0.000122331
11 *2242:C *139:10 1.88904e-05
12 *2242:D *2243:A1 2.30292e-05
13 *2242:D *139:10 6.81159e-05
14 *2243:A2 *2243:A1 5.98073e-05
15 *110:33 *2196:A2 8.65961e-05
16 *110:33 *2243:A1 0.000352156
17 *129:29 *139:10 3.67779e-05
18 *129:31 *139:10 5.38986e-05
*RES
1 *2241:X *139:10 9.275 
2 *139:10 *2243:A1 4.81 
3 *139:10 *2196:A2 2.755 
*END

*D_NET *140 0.00354477
*CONN
*I *2414:A I *D sky130_fd_sc_hd__buf_4
*I *2413:A I *D sky130_fd_sc_hd__buf_4
*I *1974:A1 I *D sky130_fd_sc_hd__o22ai_4
*I *2242:X O *D sky130_fd_sc_hd__and4_4
*CAP
1 *2414:A 0.000230941
2 *2413:A 0.000106497
3 *1974:A1 0.000601068
4 *2242:X 0.000165962
5 *140:25 0.000466766
6 *140:12 0.000896359
7 *1974:A1 *141:14 0.000760678
8 *1974:A1 *245:24 0
9 *2413:A *2070:A1 4.82919e-05
10 *2413:A *342:10 4.58166e-05
11 *2414:A *342:10 0
12 *140:25 *342:10 0
13 *1974:A2 *1974:A1 5.062e-06
14 *2070:A2 *140:25 0
15 *2243:A1 *140:12 4.99619e-05
16 *2243:A2 *140:12 5.30673e-05
17 *2243:B1 *1974:A1 1.12578e-05
18 *2243:B1 *140:12 4.99619e-05
19 *110:33 *140:12 5.30775e-05
*RES
1 *2242:X *140:12 5.2 
2 *140:12 *1974:A1 9.91 
3 *140:12 *140:25 3.89 
4 *140:25 *2413:A 5.445 
5 *140:25 *2414:A 7.065 
*END

*D_NET *141 0.00411439
*CONN
*I *1997:C I *D sky130_fd_sc_hd__nand4b_2
*I *2128:A1 I *D sky130_fd_sc_hd__a31oi_2
*I *1994:A1 I *D sky130_fd_sc_hd__a31oi_4
*I *2243:X O *D sky130_fd_sc_hd__a41o_2
*CAP
1 *1997:C 0.000287249
2 *2128:A1 0
3 *1994:A1 0.000599274
4 *2243:X 0.000455112
5 *141:14 0.000767137
6 *1994:A1 *1994:B1 3.95724e-05
7 *1994:A1 *2127:B 7.25122e-05
8 *1994:A1 *2138:A2 0.000164352
9 *1994:A1 *254:10 0.00016676
10 *1994:A1 *290:10 0
11 *1997:C *1994:A3 0
12 *1997:C *1995:B 0
13 *1997:C *2128:A2 8.53113e-06
14 *1997:C *253:25 0.000293355
15 *1997:C *269:10 0
16 *1997:C *290:10 0
17 *141:14 *2124:B2 0
18 *141:14 *2124:C1 5.72004e-05
19 *141:14 *2128:A2 4.82919e-05
20 *141:14 *2128:B1 0.000107424
21 *141:14 *2411:A 5.05521e-05
22 *141:14 *245:24 2.75145e-05
23 *1974:A1 *141:14 0.000760678
24 *1974:A2 *1994:A1 0
25 *1974:A2 *141:14 6.62095e-05
26 *2243:B1 *141:14 0.000142669
*RES
1 *2243:X *141:14 17.105 
2 *141:14 *1994:A1 12.47 
3 *141:14 *2128:A1 1.6 
4 *1994:A1 *1997:C 12.39 
*END

*D_NET *142 0.00109366
*CONN
*I *2247:A1 I *D sky130_fd_sc_hd__o21bai_4
*I *2246:A1 I *D sky130_fd_sc_hd__o21ba_2
*I *2244:Y O *D sky130_fd_sc_hd__nor2_2
*CAP
1 *2247:A1 0
2 *2246:A1 0.000242904
3 *2244:Y 0.000187351
4 *142:8 0.000430255
5 *2246:A1 *2246:B1_N 0
6 *2246:A1 *2247:A2 0.00011852
7 *2246:A1 *528:25 4.10476e-05
8 *142:8 *2244:A 7.35813e-05
*RES
1 *2244:Y *142:8 4.48 
2 *142:8 *2246:A1 9.155 
3 *142:8 *2247:A1 1.6 
*END

*D_NET *143 0.000538015
*CONN
*I *2246:A2 I *D sky130_fd_sc_hd__o21ba_2
*I *2247:A2 I *D sky130_fd_sc_hd__o21bai_4
*I *2245:X O *D sky130_fd_sc_hd__and2_4
*CAP
1 *2246:A2 0.000101557
2 *2247:A2 0.000108191
3 *2245:X 0
4 *143:4 0.000209748
5 *2246:A2 *1962:A2 0
6 *2247:A2 *2245:A 0
7 *2247:A2 *2246:B1_N 0
8 *2247:A2 *468:80 0
9 *2246:A1 *2247:A2 0.00011852
*RES
1 *2245:X *143:4 1.6 
2 *143:4 *2247:A2 7.745 
3 *143:4 *2246:A2 3.1 
*END

*D_NET *144 0.000436335
*CONN
*I *1962:A2 I *D sky130_fd_sc_hd__o21ai_2
*I *2246:X O *D sky130_fd_sc_hd__o21ba_2
*CAP
1 *1962:A2 0.000193186
2 *2246:X 0.000193186
3 *1962:A2 *2246:B1_N 4.99619e-05
4 *2246:A2 *1962:A2 0
*RES
1 *2246:X *1962:A2 6.335 
*END

*D_NET *145 0.00252286
*CONN
*I *2258:A I *D sky130_fd_sc_hd__and4_2
*I *2259:A I *D sky130_fd_sc_hd__nand4_4
*I *2250:A I *D sky130_fd_sc_hd__nand2_2
*I *2247:Y O *D sky130_fd_sc_hd__o21bai_4
*CAP
1 *2258:A 0.000181503
2 *2259:A 0
3 *2250:A 0.000186899
4 *2247:Y 0.000359542
5 *145:21 0.000263983
6 *145:6 0.00062892
7 *2250:A *2183:A 4.99619e-05
8 *2250:A *2183:B 0
9 *2250:A *2186:A1 6.47326e-05
10 *2250:A *438:23 6.96579e-05
11 *2258:A *2183:A 7.07879e-05
12 *2258:A *2257:B 0.000123225
13 *2258:A *2258:B 4.82919e-05
14 *2258:A *147:12 9.50342e-06
15 *2258:A *153:23 0.00012657
16 *2258:A *153:34 1.46744e-05
17 *2258:A *154:44 3.47837e-05
18 *145:6 *2183:A 3.96653e-05
19 *145:6 *2186:A1 3.24055e-05
20 *145:6 *2247:B1_N 5.30673e-05
21 *145:21 *2250:B 0
22 *145:21 *2258:B 0
23 *145:21 *147:12 0.000164686
*RES
1 *2247:Y *145:6 6.88 
2 *145:6 *2250:A 5.53 
3 *145:6 *145:21 3.89 
4 *145:21 *2259:A 3.6 
5 *145:21 *2258:A 7.755 
*END

*D_NET *146 0.000298865
*CONN
*I *2249:B1 I *D sky130_fd_sc_hd__o21ai_2
*I *2248:Y O *D sky130_fd_sc_hd__a21boi_2
*CAP
1 *2249:B1 9.87147e-05
2 *2248:Y 9.87147e-05
3 *2249:B1 *2249:A2 4.60584e-05
4 *2249:B1 *563:8 5.53774e-05
*RES
1 *2248:Y *2249:B1 4.7 
*END

*D_NET *147 0.00269084
*CONN
*I *2258:B I *D sky130_fd_sc_hd__and4_2
*I *2250:B I *D sky130_fd_sc_hd__nand2_2
*I *1962:B1 I *D sky130_fd_sc_hd__o21ai_2
*I *2259:B I *D sky130_fd_sc_hd__nand4_4
*I *2249:Y O *D sky130_fd_sc_hd__o21ai_2
*CAP
1 *2258:B 0.000154354
2 *2250:B 0.000148139
3 *1962:B1 0.000114583
4 *2259:B 0.000151513
5 *2249:Y 0.000391463
6 *147:37 0.000302494
7 *147:12 0.000657559
8 *2250:B *2275:B 1.43521e-05
9 *2250:B *153:10 0
10 *2250:B *525:10 0
11 *2258:B *2275:B 3.68967e-05
12 *2258:B *154:44 6.57653e-06
13 *2259:B *154:44 4.99619e-05
14 *147:12 *2183:A 0.000206824
15 *147:12 *2249:A1 0.000226633
16 *147:12 *2249:A2 7.00889e-06
17 *147:12 *2399:A 0
18 *147:12 *2400:A 0
19 *2258:A *2258:B 4.82919e-05
20 *2258:A *147:12 9.50342e-06
21 *145:21 *2250:B 0
22 *145:21 *2258:B 0
23 *145:21 *147:12 0.000164686
*RES
1 *2249:Y *147:12 13.85 
2 *147:12 *2259:B 4.15 
3 *147:12 *1962:B1 3.085 
4 *2259:B *147:37 3.6 
5 *147:37 *2250:B 6 
6 *147:37 *2258:B 5.985 
*END

*D_NET *148 0.000279747
*CONN
*I *2185:A I *D sky130_fd_sc_hd__xnor2_2
*I *2250:Y O *D sky130_fd_sc_hd__nand2_2
*CAP
1 *2185:A 6.94211e-05
2 *2250:Y 6.94211e-05
3 *2185:A *525:10 0.000140905
*RES
1 *2250:Y *2185:A 8.835 
*END

*D_NET *149 0.0016804
*CONN
*I *2255:B I *D sky130_fd_sc_hd__nand2_4
*I *2184:A2 I *D sky130_fd_sc_hd__a22o_2
*I *2251:Y O *D sky130_fd_sc_hd__nand2_2
*CAP
1 *2255:B 4.32874e-05
2 *2184:A2 0.000112351
3 *2251:Y 0.000247899
4 *149:6 0.000403537
5 *2184:A2 *2184:B1 1.26548e-05
6 *2184:A2 *2255:A 0.000139245
7 *2184:A2 *438:10 1.1561e-05
8 *2184:A2 *525:10 0
9 *2255:B *154:25 0.0001249
10 *2255:B *438:23 4.7101e-05
11 *149:6 *154:6 8.65905e-05
12 *149:6 *154:25 0.000148089
13 *149:6 *438:23 2.76356e-05
14 *149:6 *449:26 0.000275553
*RES
1 *2251:Y *149:6 6.88 
2 *149:6 *2184:A2 7.86875 
3 *149:6 *2255:B 3.1 
*END

*D_NET *150 0.00103037
*CONN
*I *2256:B I *D sky130_fd_sc_hd__nand3b_2
*I *2252:Y O *D sky130_fd_sc_hd__nand2_2
*CAP
1 *2256:B 0.000294352
2 *2252:Y 0.000294352
3 *2256:B *2253:B 0.000146408
4 *2256:B *2256:C 0.000119285
5 *2256:B *466:33 8.8266e-05
6 *2322:A *2256:B 8.77073e-05
*RES
1 *2252:Y *2256:B 13.155 
*END

*D_NET *151 0.000576747
*CONN
*I *2256:C I *D sky130_fd_sc_hd__nand3b_2
*I *2253:Y O *D sky130_fd_sc_hd__nand2b_4
*CAP
1 *2256:C 0.000106808
2 *2253:Y 0.000106808
3 *2256:C *2253:B 6.28765e-05
4 *2256:C *2254:B1 0.000166346
5 *2256:C *527:10 9.50342e-06
6 *2256:B *2256:C 0.000119285
7 *2318:A *2256:C 5.12017e-06
8 *2322:A *2256:C 0
*RES
1 *2253:Y *2256:C 10.62 
*END

*D_NET *152 0.000699957
*CONN
*I *2184:A1 I *D sky130_fd_sc_hd__a22o_2
*I *2255:A I *D sky130_fd_sc_hd__nand2_4
*I *2254:X O *D sky130_fd_sc_hd__o21a_4
*CAP
1 *2184:A1 0
2 *2255:A 3.98243e-05
3 *2254:X 0.000166644
4 *152:6 0.000206468
5 *2255:A *2184:B1 9.37731e-05
6 *2255:A *438:10 5.4003e-05
7 *2184:A2 *2255:A 0.000139245
*RES
1 *2254:X *152:6 3.775 
2 *152:6 *2255:A 7.235 
3 *152:6 *2184:A1 1.6 
*END

*D_NET *153 0.00252006
*CONN
*I *1962:A1 I *D sky130_fd_sc_hd__o21ai_2
*I *2257:A I *D sky130_fd_sc_hd__nand2_2
*I *2258:C I *D sky130_fd_sc_hd__and4_2
*I *2259:C I *D sky130_fd_sc_hd__nand4_4
*I *2255:Y O *D sky130_fd_sc_hd__nand2_4
*CAP
1 *1962:A1 0.000161098
2 *2257:A 0
3 *2258:C 0
4 *2259:C 0
5 *2255:Y 0.000215912
6 *153:34 0.000322855
7 *153:23 0.000344519
8 *153:10 0.000398674
9 *1962:A1 *2186:A1 9.05377e-05
10 *1962:A1 *242:8 9.24049e-05
11 *153:10 *2275:B 3.25831e-05
12 *153:10 *154:25 8.65905e-05
13 *153:10 *438:23 1.20373e-05
14 *153:10 *525:10 0.000141599
15 *153:23 *2275:B 0.000162318
16 *153:23 *525:10 0.000154481
17 *153:34 *2257:B 0.000163204
18 *2250:B *153:10 0
19 *2258:A *153:23 0.00012657
20 *2258:A *153:34 1.46744e-05
*RES
1 *2255:Y *153:10 7.065 
2 *153:10 *2259:C 3.6 
3 *153:10 *153:23 6.41 
4 *153:23 *2258:C 1.6 
5 *153:23 *153:34 3.24 
6 *153:34 *2257:A 1.6 
7 *153:34 *1962:A1 8.975 
*END

*D_NET *154 0.0029704
*CONN
*I *2257:B I *D sky130_fd_sc_hd__nand2_2
*I *2258:D I *D sky130_fd_sc_hd__and4_2
*I *2259:D I *D sky130_fd_sc_hd__nand4_4
*I *2184:B2 I *D sky130_fd_sc_hd__a22o_2
*I *2256:Y O *D sky130_fd_sc_hd__nand3b_2
*CAP
1 *2257:B 3.572e-05
2 *2258:D 0
3 *2259:D 0
4 *2184:B2 7.47648e-05
5 *2256:Y 4.23943e-05
6 *154:44 0.000512727
7 *154:25 0.000749893
8 *154:6 0.000390045
9 *2184:B2 *2184:B1 6.47594e-05
10 *2184:B2 *438:10 4.92128e-05
11 *154:25 *438:10 0
12 *154:25 *438:23 5.33172e-05
13 *154:25 *525:10 8.97486e-05
14 *154:44 *2275:B 0
15 *2255:B *154:25 0.0001249
16 *2258:A *2257:B 0.000123225
17 *2258:A *154:44 3.47837e-05
18 *2258:B *154:44 6.57653e-06
19 *2259:B *154:44 4.99619e-05
20 *2322:A *2184:B2 8.38943e-05
21 *149:6 *154:6 8.65905e-05
22 *149:6 *154:25 0.000148089
23 *153:10 *154:25 8.65905e-05
24 *153:34 *2257:B 0.000163204
*RES
1 *2256:Y *154:6 2.395 
2 *154:6 *2184:B2 8 
3 *154:6 *154:25 9.79 
4 *154:25 *2259:D 1.6 
5 *154:25 *154:44 10.105 
6 *154:44 *2258:D 1.6 
7 *154:44 *2257:B 3.085 
*END

*D_NET *155 0.00116621
*CONN
*I *2183:A I *D sky130_fd_sc_hd__xnor2_2
*I *2257:Y O *D sky130_fd_sc_hd__nand2_2
*CAP
1 *2183:A 0.000159976
2 *2257:Y 0.000159976
3 *2183:A *2186:A1 7.22354e-05
4 *2183:A *2249:A1 0.000406784
5 *2250:A *2183:A 4.99619e-05
6 *2258:A *2183:A 7.07879e-05
7 *145:6 *2183:A 3.96653e-05
8 *147:12 *2183:A 0.000206824
*RES
1 *2257:Y *2183:A 13.035 
*END

*D_NET *156 0.000395453
*CONN
*I *2186:A2 I *D sky130_fd_sc_hd__a21oi_2
*I *2258:X O *D sky130_fd_sc_hd__and4_2
*CAP
1 *2186:A2 0.000189176
2 *2258:X 0.000189176
3 *2186:A2 *2249:A1 0
4 *2186:A2 *2275:B 0
5 *2186:A2 *166:12 1.71013e-05
*RES
1 *2258:X *2186:A2 10.065 
*END

*D_NET *157 0.00125573
*CONN
*I *2275:B I *D sky130_fd_sc_hd__nor2_4
*I *2259:Y O *D sky130_fd_sc_hd__nand4_4
*CAP
1 *2275:B 0.000403038
2 *2259:Y 0.000403038
3 *2275:B *2270:B1 7.89767e-05
4 *2275:B *166:12 0
5 *2275:B *525:10 0.000124532
6 *2275:B *531:32 0
7 *2186:A2 *2275:B 0
8 *2250:B *2275:B 1.43521e-05
9 *2258:B *2275:B 3.68967e-05
10 *153:10 *2275:B 3.25831e-05
11 *153:23 *2275:B 0.000162318
12 *154:44 *2275:B 0
*RES
1 *2259:Y *2275:B 15.72 
*END

*D_NET *158 0.00121059
*CONN
*I *2263:B I *D sky130_fd_sc_hd__nand3b_2
*I *2260:Y O *D sky130_fd_sc_hd__nand2b_2
*CAP
1 *2263:B 0.000330071
2 *2260:Y 0.000330071
3 *2263:B *2263:C 2.97004e-06
4 *2263:B *2264:A2 0.000157343
5 *2263:B *2264:B1 0
6 *2263:B *162:14 0.000238137
7 *2263:B *530:21 0.000119631
8 *2263:B *530:27 0
9 *2263:B *532:6 3.23663e-05
*RES
1 *2260:Y *2263:B 14.22 
*END

*D_NET *159 0.000365384
*CONN
*I *2263:C I *D sky130_fd_sc_hd__nand3b_2
*I *2261:Y O *D sky130_fd_sc_hd__nand2_2
*CAP
1 *2263:C 0.000128287
2 *2261:Y 0.000128287
3 *2263:C *161:10 0
4 *2263:C *510:8 0.000105841
5 *2263:C *530:27 0
6 *2263:B *2263:C 2.97004e-06
*RES
1 *2261:Y *2263:C 9.795 
*END

*D_NET *160 0.00108906
*CONN
*I *1963:A1 I *D sky130_fd_sc_hd__a31o_2
*I *2265:B I *D sky130_fd_sc_hd__nand2_4
*I *2262:Y O *D sky130_fd_sc_hd__nand2_2
*CAP
1 *1963:A1 0.00022404
2 *2265:B 0.000326507
3 *2262:Y 0.000102467
4 *1963:A1 *1963:A2 4.82863e-05
5 *1963:A1 *1963:A3 0.000184866
6 *1963:A1 *1964:B1 3.09088e-05
7 *2265:B *1963:A3 4.82863e-05
8 *2265:B *2262:A 0
9 *2265:B *163:8 4.91189e-05
10 *2265:B *530:27 7.45794e-05
*RES
1 *2262:Y *2265:B 9.795 
2 *2265:B *1963:A1 7.475 
*END

*D_NET *161 0.0042822
*CONN
*I *2274:C1 I *D sky130_fd_sc_hd__o2111ai_2
*I *2273:C1 I *D sky130_fd_sc_hd__o2111a_2
*I *2266:A I *D sky130_fd_sc_hd__nand2_2
*I *2263:Y O *D sky130_fd_sc_hd__nand3b_2
*CAP
1 *2274:C1 0.000528473
2 *2273:C1 0.000378617
3 *2266:A 4.46462e-05
4 *2263:Y 0.00029611
5 *161:16 0.000659323
6 *161:10 0.00106064
7 *2266:A *2188:A1 9.14049e-05
8 *2266:A *2266:B 0.00011379
9 *2273:C1 *2266:B 8.40213e-05
10 *2273:C1 *2273:B1 5.98073e-05
11 *2273:C1 *163:23 9.21168e-05
12 *2273:C1 *166:18 0.000203178
13 *2274:C1 *2189:A 1.86399e-05
14 *2274:C1 *2272:B1 1.09159e-05
15 *2274:C1 *2274:B1 0.000346541
16 *2274:C1 *169:8 0
17 *2274:C1 *169:27 3.03684e-05
18 *161:10 *1963:A3 1.08758e-05
19 *161:10 *163:8 0
20 *161:10 *530:27 0.000164686
21 *161:16 *2188:A1 4.14369e-05
22 *161:16 *2188:A2 1.07797e-05
23 *161:16 *2189:A 6.57653e-06
24 *161:16 *2266:B 2.92496e-05
25 *161:16 *163:12 0
26 *2263:C *161:10 0
*RES
1 *2263:Y *161:10 8.595 
2 *161:10 *161:16 3.975 
3 *161:16 *2266:A 4.98 
4 *161:16 *2273:C1 8.88 
5 *161:10 *2274:C1 10.635 
*END

*D_NET *162 0.00251397
*CONN
*I *2265:A I *D sky130_fd_sc_hd__nand2_4
*I *1963:A3 I *D sky130_fd_sc_hd__a31o_2
*I *2264:X O *D sky130_fd_sc_hd__o21a_4
*CAP
1 *2265:A 0
2 *1963:A3 0.000341593
3 *2264:X 0.000549795
4 *162:14 0.000891388
5 *1963:A3 *1964:B1 8.65961e-05
6 *162:14 *2264:A2 1.47347e-05
7 *162:14 *2264:B1 2.75145e-05
8 *162:14 *530:27 0.000120186
9 *1963:A1 *1963:A3 0.000184866
10 *2263:B *162:14 0.000238137
11 *2265:B *1963:A3 4.82863e-05
12 *161:10 *1963:A3 1.08758e-05
*RES
1 *2264:X *162:14 12.965 
2 *162:14 *1963:A3 7.945 
3 *162:14 *2265:A 1.6 
*END

*D_NET *163 0.00288396
*CONN
*I *2274:B1 I *D sky130_fd_sc_hd__o2111ai_2
*I *2188:B1 I *D sky130_fd_sc_hd__o21ai_2
*I *2266:B I *D sky130_fd_sc_hd__nand2_2
*I *2273:B1 I *D sky130_fd_sc_hd__o2111a_2
*I *2265:Y O *D sky130_fd_sc_hd__nand2_4
*CAP
1 *2274:B1 7.59022e-05
2 *2188:B1 0
3 *2266:B 0.000152384
4 *2273:B1 0.000126377
5 *2265:Y 0.000157778
6 *163:23 0.000210749
7 *163:12 0.00039992
8 *163:8 0.000448859
9 *2266:B *2187:A 4.82919e-05
10 *2266:B *2188:A1 4.66108e-05
11 *2266:B *2188:A2 9.37731e-05
12 *2273:B1 *2273:A2 3.00381e-05
13 *2273:B1 *166:18 7.60965e-05
14 *2274:B1 *2272:A1 0.000125313
15 *2274:B1 *2272:A2 1.61831e-05
16 *2274:B1 *2272:B1 2.20632e-05
17 *163:8 *1963:A2 0
18 *163:8 *2262:A 7.89767e-05
19 *163:8 *530:27 0
20 *163:12 *2274:A1 0
21 *163:12 *165:10 0
22 *163:12 *166:22 0
23 *2265:B *163:8 4.91189e-05
24 *2266:A *2266:B 0.00011379
25 *2273:C1 *2266:B 8.40213e-05
26 *2273:C1 *2273:B1 5.98073e-05
27 *2273:C1 *163:23 9.21168e-05
28 *2274:C1 *2274:B1 0.000346541
29 *161:10 *163:8 0
30 *161:16 *2266:B 2.92496e-05
31 *161:16 *163:12 0
*RES
1 *2265:Y *163:8 6.765 
2 *163:8 *163:12 4.655 
3 *163:12 *2273:B1 4.48 
4 *163:12 *163:23 1.485 
5 *163:23 *2266:B 9.185 
6 *163:23 *2188:B1 1.6 
7 *163:8 *2274:B1 6.825 
*END

*D_NET *164 0.0010425
*CONN
*I *2187:A I *D sky130_fd_sc_hd__xor2_2
*I *2188:A1 I *D sky130_fd_sc_hd__o21ai_2
*I *2266:Y O *D sky130_fd_sc_hd__nand2_2
*CAP
1 *2187:A 0.000116928
2 *2188:A1 0.000120849
3 *2266:Y 0
4 *164:4 0.000237778
5 *2187:A *2187:B 0.000219442
6 *2187:A *440:6 0.000119762
7 *2266:A *2188:A1 9.14049e-05
8 *2266:B *2187:A 4.82919e-05
9 *2266:B *2188:A1 4.66108e-05
10 *161:16 *2188:A1 4.14369e-05
*RES
1 *2266:Y *164:4 1.6 
2 *164:4 *2188:A1 7.685 
3 *164:4 *2187:A 4.825 
*END

*D_NET *165 0.00210735
*CONN
*I *2274:A2 I *D sky130_fd_sc_hd__o2111ai_2
*I *2272:A1 I *D sky130_fd_sc_hd__o21a_2
*I *2273:A2 I *D sky130_fd_sc_hd__o2111a_2
*I *2267:X O *D sky130_fd_sc_hd__and2_4
*CAP
1 *2274:A2 0
2 *2272:A1 7.17557e-05
3 *2273:A2 0.00010929
4 *2267:X 0.000242249
5 *165:23 7.17557e-05
6 *165:10 0.00035154
7 *2272:A1 *2272:A2 8.65961e-05
8 *2272:A1 *2272:B1 6.92319e-05
9 *2273:A2 *1963:A2 4.20983e-05
10 *2273:A2 *1964:A1 2.37234e-05
11 *2273:A2 *2274:A1 1.73877e-05
12 *2273:A2 *166:22 3.39151e-05
13 *165:10 *1963:A2 6.73424e-05
14 *165:10 *1964:A1 3.96653e-05
15 *165:10 *1964:A2 4.82919e-05
16 *165:10 *1964:B1 4.99619e-05
17 *165:10 *2261:A 0.000533411
18 *165:10 *2267:A 8.95932e-05
19 *165:10 *2274:A1 4.18603e-06
20 *2273:B1 *2273:A2 3.00381e-05
21 *2274:B1 *2272:A1 0.000125313
22 *163:12 *165:10 0
*RES
1 *2267:X *165:10 10.17 
2 *165:10 *2273:A2 5.685 
3 *165:10 *165:23 2 
4 *165:23 *2272:A1 4.15 
5 *165:23 *2274:A2 1.6 
*END

*D_NET *166 0.00317893
*CONN
*I *2269:B1 I *D sky130_fd_sc_hd__a21oi_2
*I *2273:A1 I *D sky130_fd_sc_hd__o2111a_2
*I *2274:A1 I *D sky130_fd_sc_hd__o2111ai_2
*I *2272:A2 I *D sky130_fd_sc_hd__o21a_2
*I *2268:Y O *D sky130_fd_sc_hd__o21ai_2
*CAP
1 *2269:B1 0
2 *2273:A1 0
3 *2274:A1 3.0757e-05
4 *2272:A2 2.02142e-05
5 *2268:Y 0.000565575
6 *166:22 0.000166146
7 *166:18 0.000381939
8 *166:12 0.000832339
9 *2272:A2 *2272:B1 0.0001249
10 *166:12 *2249:A1 0
11 *166:12 *2268:B1 0.000145117
12 *166:12 *468:14 0
13 *166:18 *1963:B1 0.00012256
14 *166:18 *2269:A1 0.000238137
15 *166:18 *2273:D1 9.66021e-05
16 *166:22 *1964:A1 0
17 *2186:A2 *166:12 1.71013e-05
18 *2272:A1 *2272:A2 8.65961e-05
19 *2273:A2 *2274:A1 1.73877e-05
20 *2273:A2 *166:22 3.39151e-05
21 *2273:B1 *166:18 7.60965e-05
22 *2273:C1 *166:18 0.000203178
23 *2274:B1 *2272:A2 1.61831e-05
24 *2275:B *166:12 0
25 *163:12 *2274:A1 0
26 *163:12 *166:22 0
27 *165:10 *2274:A1 4.18603e-06
*RES
1 *2268:Y *166:12 14.315 
2 *166:12 *166:18 7.035 
3 *166:18 *166:22 3.89 
4 *166:22 *2272:A2 4.74 
5 *166:22 *2274:A1 4.215 
6 *166:18 *2273:A1 1.6 
7 *166:12 *2269:B1 1.6 
*END

*D_NET *167 0.0016848
*CONN
*I *1963:B1 I *D sky130_fd_sc_hd__a31o_2
*I *2269:Y O *D sky130_fd_sc_hd__a21oi_2
*CAP
1 *1963:B1 0.000428071
2 *2269:Y 0.000428071
3 *1963:B1 *1963:A2 0
4 *1963:B1 *1964:A1 1.61717e-05
5 *1963:B1 *1964:A2 0.00029067
6 *1963:B1 *2269:A1 1.17309e-05
7 *1963:B1 *2273:D1 0.000142065
8 *1963:B1 *169:12 7.47284e-05
9 *1963:B1 *468:12 0.000118504
10 *1963:B1 *468:14 5.22283e-05
11 *166:18 *1963:B1 0.00012256
*RES
1 *2269:Y *1963:B1 16.725 
*END

*D_NET *168 0.000324491
*CONN
*I *2271:B1 I *D sky130_fd_sc_hd__o21ai_4
*I *2270:Y O *D sky130_fd_sc_hd__a21oi_4
*CAP
1 *2271:B1 7.90725e-05
2 *2270:Y 7.90725e-05
3 *2271:B1 *449:16 0
4 *2271:B1 *531:32 0.000166346
*RES
1 *2270:Y *2271:B1 9.09 
*END

*D_NET *169 0.00410644
*CONN
*I *2274:D1 I *D sky130_fd_sc_hd__o2111ai_2
*I *2272:B1 I *D sky130_fd_sc_hd__o21a_2
*I *1963:A2 I *D sky130_fd_sc_hd__a31o_2
*I *2273:D1 I *D sky130_fd_sc_hd__o2111a_2
*I *2271:Y O *D sky130_fd_sc_hd__o21ai_4
*CAP
1 *2274:D1 0
2 *2272:B1 0.000308549
3 *1963:A2 0.000326812
4 *2273:D1 0.000104548
5 *2271:Y 0.000344554
6 *169:27 0.00080347
7 *169:12 0.000296483
8 *169:8 0.000368381
9 *1963:A2 *1964:A1 0.000248261
10 *1963:A2 *2262:A 0
11 *1963:A2 *468:12 0
12 *2273:D1 *468:14 6.47594e-05
13 *169:8 *2275:A 0.000207887
14 *169:8 *173:10 0.000241483
15 *169:12 *468:14 3.76596e-05
16 *169:27 *2275:A 2.49909e-05
17 *1963:A1 *1963:A2 4.82863e-05
18 *1963:B1 *1963:A2 0
19 *1963:B1 *2273:D1 0.000142065
20 *1963:B1 *169:12 7.47284e-05
21 *2272:A1 *2272:B1 6.92319e-05
22 *2272:A2 *2272:B1 0.0001249
23 *2273:A2 *1963:A2 4.20983e-05
24 *2274:B1 *2272:B1 2.20632e-05
25 *2274:C1 *2272:B1 1.09159e-05
26 *2274:C1 *169:8 0
27 *2274:C1 *169:27 3.03684e-05
28 *163:8 *1963:A2 0
29 *165:10 *1963:A2 6.73424e-05
30 *166:18 *2273:D1 9.66021e-05
*RES
1 *2271:Y *169:8 8.275 
2 *169:8 *169:12 2.87 
3 *169:12 *2273:D1 6.465 
4 *169:12 *169:27 3.83 
5 *169:27 *1963:A2 11.51 
6 *169:27 *2272:B1 5.77 
7 *169:8 *2274:D1 1.6 
*END

*D_NET *170 0.000930971
*CONN
*I *2189:A I *D sky130_fd_sc_hd__xor2_2
*I *2272:X O *D sky130_fd_sc_hd__o21a_2
*CAP
1 *2189:A 0.000361011
2 *2272:X 0.000361011
3 *2189:A *2188:A2 5.53249e-06
4 *2189:A *2189:B 7.35813e-05
5 S[10] *2189:A 0.000104619
6 *2274:C1 *2189:A 1.86399e-05
7 *161:16 *2189:A 6.57653e-06
*RES
1 *2272:X *2189:A 12.495 
*END

*D_NET *171 0.000755251
*CONN
*I *1964:A2 I *D sky130_fd_sc_hd__a21oi_4
*I *2273:X O *D sky130_fd_sc_hd__o2111a_2
*CAP
1 *1964:A2 0.000104129
2 *2273:X 0.000104129
3 *1964:A2 *1964:A1 0.000208031
4 *1963:B1 *1964:A2 0.00029067
5 *165:10 *1964:A2 4.82919e-05
*RES
1 *2273:X *1964:A2 11.07 
*END

*D_NET *172 0.000616659
*CONN
*I *2275:A I *D sky130_fd_sc_hd__nor2_4
*I *2274:Y O *D sky130_fd_sc_hd__o2111ai_2
*CAP
1 *2275:A 0.00019189
2 *2274:Y 0.00019189
3 *169:8 *2275:A 0.000207887
4 *169:27 *2275:A 2.49909e-05
*RES
1 *2274:Y *2275:A 7.115 
*END

*D_NET *173 0.0049637
*CONN
*I *1970:C I *D sky130_fd_sc_hd__nand3_2
*I *1971:A1 I *D sky130_fd_sc_hd__a31oi_2
*I *1960:D I *D sky130_fd_sc_hd__nand4_4
*I *1961:B I *D sky130_fd_sc_hd__nand3_4
*I *2275:Y O *D sky130_fd_sc_hd__nor2_4
*CAP
1 *1970:C 0.000296809
2 *1971:A1 0
3 *1960:D 0.000107174
4 *1961:B 0
5 *2275:Y 0.0010592
6 *173:34 0.000392083
7 *173:23 0.000435273
8 *173:10 0.00129203
9 *1960:D *1960:B 8.65905e-05
10 *1970:C *1970:B 5.12772e-05
11 *1970:C *1973:A 0.000138551
12 *1970:C *2190:A 0.000264847
13 *1970:C *2190:B 0
14 *1970:C *207:23 1.01661e-05
15 *1970:C *241:10 0
16 *1970:C *250:8 1.91597e-05
17 *1970:C *253:12 0
18 *173:10 *1924:A1 3.45679e-05
19 *173:10 *1924:A2 2.66586e-05
20 *173:10 *1961:C 0
21 *173:10 *2202:A 0
22 *173:10 *2271:A1 6.71882e-05
23 *173:10 *2271:A2 0.000201503
24 *173:10 *2288:A 5.20968e-05
25 *173:10 *239:10 0
26 *173:10 *241:10 1.71013e-05
27 *173:23 *207:10 0
28 *173:23 *241:10 9.24049e-05
29 *173:34 *207:23 7.75412e-05
30 *173:34 *241:10 0
31 *169:8 *173:10 0.000241483
*RES
1 *2275:Y *173:10 17.73 
2 *173:10 *1961:B 3.6 
3 *173:10 *173:23 6.065 
4 *173:23 *1960:D 3.43 
5 *173:23 *173:34 4.145 
6 *173:34 *1971:A1 3.6 
7 *173:34 *1970:C 10.005 
*END

*D_NET *174 0.000390545
*CONN
*I *2279:B I *D sky130_fd_sc_hd__nand3b_2
*I *2276:Y O *D sky130_fd_sc_hd__nand2b_4
*CAP
1 *2279:B 0.000151139
2 *2276:Y 0.000151139
3 *2279:B *2280:A2 8.8266e-05
4 *2279:B *524:12 0
*RES
1 *2276:Y *2279:B 9.63 
*END

*D_NET *175 0.000315807
*CONN
*I *2279:C I *D sky130_fd_sc_hd__nand3b_2
*I *2277:Y O *D sky130_fd_sc_hd__nand2_2
*CAP
1 *2279:C 3.42036e-05
2 *2277:Y 3.42036e-05
3 *2279:C *2280:B1 3.25635e-05
4 *2279:C *178:8 0.00012657
5 *2279:C *524:12 8.8266e-05
*RES
1 *2277:Y *2279:C 4.7 
*END

*D_NET *176 0.00201886
*CONN
*I *1957:A1 I *D sky130_fd_sc_hd__o21ai_2
*I *1910:A2 I *D sky130_fd_sc_hd__o2111ai_4
*I *1900:A1 I *D sky130_fd_sc_hd__o21ai_2
*I *2278:X O *D sky130_fd_sc_hd__and2_2
*CAP
1 *1957:A1 7.42137e-05
2 *1910:A2 0.000150497
3 *1900:A1 0.000139791
4 *2278:X 3.44534e-05
5 *176:15 0.000224711
6 *176:6 0.000174244
7 *1900:A1 *1900:A2 0.000195558
8 *1900:A1 *2179:A 0.000158066
9 *1900:A1 *177:12 0.000212324
10 *1910:A2 *1957:B1 2.46007e-05
11 *1910:A2 *190:10 0.000101325
12 *1957:A1 *1957:B1 5.55458e-05
13 *1957:A1 *190:10 8.17796e-05
14 *176:6 *1900:A2 3.7712e-05
15 *176:6 *2398:A 8.40213e-05
16 S[5] *1910:A2 6.36578e-05
17 S[7] *1900:A1 4.82863e-05
18 S[7] *176:6 0.000158072
*RES
1 *2278:X *176:6 3.085 
2 *176:6 *1900:A1 6.19 
3 *176:6 *176:15 2 
4 *176:15 *1910:A2 6.885 
5 *176:15 *1957:A1 5.49 
*END

*D_NET *177 0.00522753
*CONN
*I *1958:B1 I *D sky130_fd_sc_hd__a2bb2oi_2
*I *2180:A1_N I *D sky130_fd_sc_hd__o2bb2a_2
*I *1956:C I *D sky130_fd_sc_hd__nand4_2
*I *1900:B1 I *D sky130_fd_sc_hd__o21ai_2
*I *1910:D1 I *D sky130_fd_sc_hd__o2111ai_4
*I *2279:Y O *D sky130_fd_sc_hd__nand3b_2
*CAP
1 *1958:B1 6.93654e-05
2 *2180:A1_N 0.000459296
3 *1956:C 0
4 *1900:B1 0
5 *1910:D1 7.63157e-05
6 *2279:Y 5.48394e-05
7 *177:43 0.000590492
8 *177:34 0.000162898
9 *177:12 0.000825266
10 *177:6 0.000904857
11 *1910:D1 *1910:C1 4.80285e-05
12 *1910:D1 *2178:B1 8.65905e-05
13 *1910:D1 *522:10 5.63318e-05
14 *1910:D1 *557:10 7.3664e-05
15 *1958:B1 *1956:B 2.59981e-05
16 *1958:B1 *1958:B2 0.000122337
17 *1958:B1 *2181:A 0.000122337
18 *2180:A1_N *1958:B2 0.000168209
19 *2180:A1_N *2181:A 8.65905e-05
20 *2180:A1_N *2181:B 0.000191355
21 *177:6 *2280:A1 7.66083e-05
22 *177:12 *2280:A1 0.00028646
23 *177:12 *522:10 3.77199e-05
24 *177:12 *557:10 5.20968e-05
25 *177:34 *1956:B 5.53249e-06
26 *177:34 *2277:A 2.97004e-06
27 *177:34 *178:23 0
28 *177:34 *449:65 2.16389e-05
29 *177:43 *1956:B 6.5525e-05
30 S[7] *177:12 0.000341885
31 *1900:A1 *177:12 0.000212324
*RES
1 *2279:Y *177:6 2.395 
2 *177:6 *177:12 12.545 
3 *177:12 *1910:D1 6.03 
4 *177:12 *1900:B1 3.6 
5 *177:6 *177:34 3.635 
6 *177:34 *1956:C 3.6 
7 *177:34 *177:43 1.38 
8 *177:43 *2180:A1_N 10.6125 
9 *177:43 *1958:B1 5.355 
*END

*D_NET *178 0.00455453
*CONN
*I *1900:A2 I *D sky130_fd_sc_hd__o21ai_2
*I *1899:B1 I *D sky130_fd_sc_hd__a21o_2
*I *1957:A2 I *D sky130_fd_sc_hd__o21ai_2
*I *1910:A1 I *D sky130_fd_sc_hd__o2111ai_4
*I *2280:Y O *D sky130_fd_sc_hd__o21ai_4
*CAP
1 *1900:A2 0.000558431
2 *1899:B1 0
3 *1957:A2 0.000141383
4 *1910:A1 4.29983e-05
5 *2280:Y 0.000447915
6 *178:23 0.000330002
7 *178:10 0.000231618
8 *178:8 0.00100635
9 *1900:A2 *2179:A 0.000126219
10 *1900:A2 *2280:A1 3.57349e-05
11 *1900:A2 *2398:A 8.57024e-05
12 *1900:A2 *459:61 4.82863e-05
13 *1910:A1 *2277:B 9.37731e-05
14 *1910:A1 *524:12 0
15 *1957:A2 *1899:A1 8.67294e-05
16 *1957:A2 *1956:A 0.00030615
17 *178:8 *2277:A 1.47256e-05
18 *178:8 *2277:B 2.75229e-05
19 *178:8 *2280:A1 2.86776e-05
20 *178:8 *2280:B1 0.000109101
21 *178:8 *524:12 2.0514e-05
22 *178:23 *2277:A 0
23 *178:23 *2277:B 4.9968e-05
24 *178:23 *459:61 7.73409e-05
25 S[5] *1900:A2 8.23457e-05
26 S[7] *1900:A2 3.94429e-05
27 S[7] *1910:A1 0.000117832
28 S[7] *178:23 8.59365e-05
29 *1900:A1 *1900:A2 0.000195558
30 *2279:C *178:8 0.00012657
31 *176:6 *1900:A2 3.7712e-05
32 *177:34 *178:23 0
*RES
1 *2280:Y *178:8 7.585 
2 *178:8 *178:10 2 
3 *178:10 *1910:A1 4.98 
4 *178:10 *178:23 4.91 
5 *178:23 *1957:A2 5.185 
6 *178:23 *1899:B1 1.6 
7 *178:8 *1900:A2 11.53 
*END

*D_NET *179 0.000122413
*CONN
*I *1956:D I *D sky130_fd_sc_hd__nand4_2
*I *1899:X O *D sky130_fd_sc_hd__a21o_2
*CAP
1 *1956:D 3.4673e-05
2 *1899:X 3.4673e-05
3 *1956:D *1956:A 5.30673e-05
*RES
1 *1899:X *1956:D 3.995 
*END

*D_NET *180 0.00105946
*CONN
*I *2179:A I *D sky130_fd_sc_hd__xnor2_2
*I *1900:Y O *D sky130_fd_sc_hd__o21ai_2
*CAP
1 *2179:A 0.000229102
2 *1900:Y 0.000229102
3 *2179:A *2178:B1 0
4 *2179:A *2179:B 2.75538e-05
5 *2179:A *2396:A 4.43871e-06
6 *2179:A *557:10 0.000284976
7 S[5] *2179:A 0
8 *1900:A1 *2179:A 0.000158066
9 *1900:A2 *2179:A 0.000126219
*RES
1 *1900:Y *2179:A 12.87 
*END

*D_NET *181 0.00223747
*CONN
*I *1908:B I *D sky130_fd_sc_hd__nand3_4
*I *2178:A1 I *D sky130_fd_sc_hd__a22oi_2
*I *1909:B2 I *D sky130_fd_sc_hd__a22oi_4
*I *1901:Y O *D sky130_fd_sc_hd__nand2b_4
*CAP
1 *1908:B 0.00022816
2 *2178:A1 0.000311698
3 *1909:B2 2.08101e-05
4 *1901:Y 0.000516613
5 *181:6 0.000620962
6 *1908:B *1908:C 0
7 *1908:B *541:10 0
8 *2178:A1 *1909:A1 5.12942e-05
9 *2178:A1 *189:14 0.000131069
10 *2178:A1 *522:10 0
11 *181:6 *559:38 0.000109603
12 *181:6 *559:46 0.000200288
13 *1908:A *1908:B 4.69765e-05
*RES
1 *1901:Y *181:6 6.19 
2 *181:6 *1909:B2 1.96 
3 *181:6 *2178:A1 10.445 
4 *1901:Y *1908:B 10.8 
*END

*D_NET *182 0.000308699
*CONN
*I *1908:C I *D sky130_fd_sc_hd__nand3_4
*I *1902:Y O *D sky130_fd_sc_hd__nand2b_4
*CAP
1 *1908:C 0.000111054
2 *1902:Y 0.000111054
3 *1908:C *1902:B 8.65905e-05
4 *1908:B *1908:C 0
*RES
1 *1902:Y *1908:C 5.045 
*END

*D_NET *183 0.00147908
*CONN
*I *1909:A1 I *D sky130_fd_sc_hd__a22oi_4
*I *1903:Y O *D sky130_fd_sc_hd__nand2_2
*CAP
1 *1909:A1 0.000301764
2 *1903:Y 0.000301764
3 *1909:A1 *1903:A 0.000352983
4 *1909:A1 *1909:A2 0
5 *1909:A1 *522:10 1.60203e-05
6 *2178:A1 *1909:A1 5.12942e-05
7 *2297:A *1909:A1 0.000181376
8 *2313:A *1909:A1 8.57024e-05
9 *2332:A *1909:A1 0.000160658
10 *2350:A *1909:A1 2.75145e-05
*RES
1 *1903:Y *1909:A1 14.685 
*END

*D_NET *184 0.000209354
*CONN
*I *1909:A2 I *D sky130_fd_sc_hd__a22oi_4
*I *1904:X O *D sky130_fd_sc_hd__o21a_2
*CAP
1 *1909:A2 8.11554e-05
2 *1904:X 8.11554e-05
3 *1909:A2 *1903:A 0
4 *1909:A2 *189:14 4.7043e-05
5 *1909:A2 *522:10 0
6 *1909:A1 *1909:A2 0
*RES
1 *1904:X *1909:A2 8.835 
*END

*D_NET *185 0.000472467
*CONN
*I *1906:B1 I *D sky130_fd_sc_hd__o21ai_4
*I *1905:Y O *D sky130_fd_sc_hd__a21boi_2
*CAP
1 *1906:B1 0.000107404
2 *1905:Y 0.000107404
3 *1906:B1 *1905:B1_N 0.000159964
4 *1906:B1 *186:6 4.88478e-05
5 *1906:B1 *523:19 4.88478e-05
*RES
1 *1905:Y *1906:B1 9.885 
*END

*D_NET *186 0.00419725
*CONN
*I *1910:B1 I *D sky130_fd_sc_hd__o2111ai_4
*I *1957:B1 I *D sky130_fd_sc_hd__o21ai_2
*I *2178:B2 I *D sky130_fd_sc_hd__a22oi_2
*I *1906:Y O *D sky130_fd_sc_hd__o21ai_4
*CAP
1 *1910:B1 0
2 *1957:B1 0.000150749
3 *2178:B2 5.83531e-05
4 *1906:Y 0.000546229
5 *186:21 0.000437748
6 *186:6 0.000891581
7 *1957:B1 *2178:B1 0.00035352
8 *1957:B1 *190:10 0
9 *1957:B1 *435:23 8.53113e-06
10 *2178:B2 *1910:C1 8.8266e-05
11 *2178:B2 *2178:A2 0
12 *2178:B2 *2178:B1 7.22613e-05
13 *186:6 *1910:C1 6.10013e-05
14 *186:6 *523:19 6.07575e-06
15 *186:6 *523:31 0.000116875
16 *186:21 *1910:C1 0
17 *186:21 *2178:B1 0.000540219
18 *186:21 *2179:B 0.000198939
19 S[5] *1957:B1 0.000116853
20 *1906:B1 *186:6 4.88478e-05
21 *1910:A2 *1957:B1 2.46007e-05
22 *1957:A1 *1957:B1 5.55458e-05
23 *2332:A *186:6 0.000421056
*RES
1 *1906:Y *186:6 11.02 
2 *186:6 *2178:B2 3.625 
3 *186:6 *186:21 6.585 
4 *186:21 *1957:B1 10.235 
5 *186:21 *1910:B1 1.6 
*END

*D_NET *187 0.00139441
*CONN
*I *1909:B1 I *D sky130_fd_sc_hd__a22oi_4
*I *2178:A2 I *D sky130_fd_sc_hd__a22oi_2
*I *1907:Y O *D sky130_fd_sc_hd__a21oi_2
*CAP
1 *1909:B1 0
2 *2178:A2 9.88427e-05
3 *1907:Y 8.8234e-05
4 *187:8 0.000187077
5 *2178:A2 *1903:A 0.000136884
6 *2178:A2 *1910:C1 0.000236821
7 *2178:A2 *523:31 7.21296e-06
8 *187:8 *1903:A 0.000316118
9 *187:8 *1910:C1 0.000150453
10 *187:8 *473:10 8.53177e-05
11 *2178:B2 *2178:A2 0
12 *2297:A *2178:A2 4.66108e-05
13 *2332:A *2178:A2 4.0843e-05
*RES
1 *1907:Y *187:8 7.275 
2 *187:8 *2178:A2 6.735 
3 *187:8 *1909:B1 3.6 
*END

*D_NET *188 0.00331753
*CONN
*I *1910:C1 I *D sky130_fd_sc_hd__o2111ai_4
*I *1908:Y O *D sky130_fd_sc_hd__nand3_4
*CAP
1 *1910:C1 0.00101522
2 *1908:Y 0.00101522
3 *1910:C1 *1904:A2 0.000192125
4 *1910:C1 *2178:B1 0.000130903
5 *1910:C1 *473:10 0.000268973
6 *1910:C1 *523:31 8.23457e-05
7 *1910:D1 *1910:C1 4.80285e-05
8 *2178:A2 *1910:C1 0.000236821
9 *2178:B2 *1910:C1 8.8266e-05
10 *2332:A *1910:C1 2.81759e-05
11 *186:6 *1910:C1 6.10013e-05
12 *186:21 *1910:C1 0
13 *187:8 *1910:C1 0.000150453
*RES
1 *1908:Y *1910:C1 23.625 
*END

*D_NET *189 0.00383108
*CONN
*I *1956:A I *D sky130_fd_sc_hd__nand4_2
*I *2177:A I *D sky130_fd_sc_hd__xnor2_2
*I *1909:Y O *D sky130_fd_sc_hd__a22oi_4
*CAP
1 *1956:A 0.000449165
2 *2177:A 3.55506e-05
3 *1909:Y 0.000462939
4 *189:14 0.000947655
5 *1956:A *1899:A1 8.72229e-05
6 *1956:A *1925:B1 3.26889e-05
7 *1956:A *2177:B 6.13486e-05
8 *1956:A *2396:A 4.82919e-05
9 *1956:A *449:65 0.000978561
10 *189:14 *1899:A1 0.000115378
11 *189:14 *1903:A 0
12 *189:14 *1904:A1 2.66586e-05
13 *189:14 *1904:B1 4.82919e-05
14 *189:14 *522:10 0
15 *1909:A2 *189:14 4.7043e-05
16 *1956:D *1956:A 5.30673e-05
17 *1957:A2 *1956:A 0.00030615
18 *2178:A1 *189:14 0.000131069
*RES
1 *1909:Y *189:14 13.655 
2 *189:14 *2177:A 2.215 
3 *189:14 *1956:A 13.705 
*END

*D_NET *190 0.00599528
*CONN
*I *1927:B I *D sky130_fd_sc_hd__nor2_4
*I *1928:A I *D sky130_fd_sc_hd__or2_4
*I *2180:B1 I *D sky130_fd_sc_hd__o2bb2a_2
*I *1910:Y O *D sky130_fd_sc_hd__o2111ai_4
*CAP
1 *1927:B 0.000228257
2 *1928:A 0
3 *2180:B1 0.000129695
4 *1910:Y 0.000321227
5 *190:29 0.00111957
6 *190:10 0.00134224
7 *1927:B *1927:A 0.000136406
8 *1927:B *1961:A 0
9 *1927:B *1961:C 0
10 *1927:B *2182:B1 0.000138551
11 *1927:B *2395:A 0.000109009
12 *1927:B *239:10 0
13 *2180:B1 *1958:B2 0.000201503
14 *2180:B1 *2180:B2 8.65905e-05
15 *2180:B1 *435:12 0.000190633
16 *2180:B1 *449:65 3.64998e-06
17 *190:10 *2181:B 2.78732e-05
18 *190:10 *2398:A 0.000324037
19 *190:10 *237:10 0
20 *190:10 *435:23 0
21 *190:10 *560:12 0
22 *190:29 *1922:B1_N 0
23 *190:29 *1926:D 5.92849e-05
24 *190:29 *1958:B2 0.000722651
25 *190:29 *2181:A 6.79087e-05
26 *190:29 *2395:A 0.000499089
27 *190:29 *199:14 9.52646e-05
28 *190:29 *201:8 8.73389e-06
29 *190:29 *239:10 0
30 S[5] *190:10 0
31 S[7] *190:10 0
32 *1910:A2 *190:10 0.000101325
33 *1957:A1 *190:10 8.17796e-05
34 *1957:B1 *190:10 0
*RES
1 *1910:Y *190:10 12.335 
2 *190:10 *2180:B1 5.17 
3 *190:10 *190:29 18.98 
4 *190:29 *1928:A 3.6 
5 *190:29 *1927:B 8.925 
*END

*D_NET *191 0.00130062
*CONN
*I *2176:A1 I *D sky130_fd_sc_hd__o22a_4
*I *1918:A1 I *D sky130_fd_sc_hd__o21a_2
*I *1911:X O *D sky130_fd_sc_hd__and2_2
*CAP
1 *2176:A1 0.000105347
2 *1918:A1 0.000193567
3 *1911:X 0.000100427
4 *191:10 0.00039934
5 *1918:A1 *1915:B1 1.22676e-05
6 *1918:A1 *1918:A2 8.69088e-05
7 *1918:A1 *1918:B1 0
8 *1918:A1 *194:14 0.000220174
9 *1918:A1 *434:10 0
10 *2176:A1 *2176:A2 8.40269e-05
11 *2176:A1 *2176:B2 2.16833e-05
12 *2176:A1 *194:14 8.7373e-06
13 *191:10 *1915:A2 2.11084e-05
14 *191:10 *1915:B1 4.70343e-05
15 *191:10 *435:12 0
*RES
1 *1911:X *191:10 5.43 
2 *191:10 *1918:A1 8.04 
3 *191:10 *2176:A1 5.535 
*END

*D_NET *192 0.000910673
*CONN
*I *1917:B I *D sky130_fd_sc_hd__nand3b_2
*I *1916:B I *D sky130_fd_sc_hd__and3b_2
*I *1912:Y O *D sky130_fd_sc_hd__nand2_2
*CAP
1 *1917:B 2.56208e-05
2 *1916:B 0.000146139
3 *1912:Y 9.78645e-05
4 *192:8 0.000269625
5 *1916:B *1916:C 1.4399e-05
6 *1916:B *1917:C 0.000141606
7 *1916:B *193:8 0.000100156
8 *1916:B *435:12 0
9 *1917:B *194:8 1.83847e-05
10 *192:8 *1912:B 9.68787e-05
*RES
1 *1912:Y *192:8 5.745 
2 *192:8 *1916:B 6.705 
3 *192:8 *1917:B 4.05 
*END

*D_NET *193 0.000860407
*CONN
*I *1917:C I *D sky130_fd_sc_hd__nand3b_2
*I *1916:C I *D sky130_fd_sc_hd__and3b_2
*I *1913:Y O *D sky130_fd_sc_hd__nand2b_2
*CAP
1 *1917:C 3.59893e-05
2 *1916:C 6.16518e-05
3 *1913:Y 5.16901e-05
4 *193:8 0.000149331
5 *1917:C *1912:B 5.16348e-05
6 *1917:C *557:39 8.76033e-05
7 *193:8 *435:12 0
8 *193:8 *557:39 0.000166346
9 *1916:B *1916:C 1.4399e-05
10 *1916:B *1917:C 0.000141606
11 *1916:B *193:8 0.000100156
*RES
1 *1913:Y *193:8 5.49 
2 *193:8 *1916:C 4.42875 
3 *193:8 *1917:C 5.235 
*END

*D_NET *194 0.00365801
*CONN
*I *1918:A2 I *D sky130_fd_sc_hd__o21a_2
*I *2176:A2 I *D sky130_fd_sc_hd__o22a_4
*I *1915:B1 I *D sky130_fd_sc_hd__a21oi_2
*I *1914:Y O *D sky130_fd_sc_hd__o21ai_2
*CAP
1 *1918:A2 3.30629e-05
2 *2176:A2 3.33962e-05
3 *1915:B1 0.000275863
4 *1914:Y 0.000537951
5 *194:14 0.000439942
6 *194:8 0.000701696
7 *1915:B1 *1915:A1 0.000119285
8 *1915:B1 *1926:B 0.000323226
9 *1915:B1 *195:8 4.99619e-05
10 *1915:B1 *435:12 0
11 *1918:A2 *1918:B1 3.68682e-05
12 *2176:A2 *2176:B2 0.000122331
13 *194:8 *1917:A_N 3.1835e-05
14 *194:8 *197:8 0.00035215
15 *194:8 *522:25 1.83756e-05
16 *194:14 *1918:B1 7.21296e-06
17 *194:14 *1926:B 9.73199e-05
18 *1917:B *194:8 1.83847e-05
19 *1918:A1 *1915:B1 1.22676e-05
20 *1918:A1 *1918:A2 8.69088e-05
21 *1918:A1 *194:14 0.000220174
22 *2176:A1 *2176:A2 8.40269e-05
23 *2176:A1 *194:14 8.7373e-06
24 *191:10 *1915:B1 4.70343e-05
*RES
1 *1914:Y *194:8 10.26 
2 *194:8 *194:14 3.555 
3 *194:14 *1915:B1 9.405 
4 *194:14 *2176:A2 4.74 
5 *194:8 *1918:A2 4.725 
*END

*D_NET *195 0.00116142
*CONN
*I *1926:A_N I *D sky130_fd_sc_hd__nand4b_4
*I *1956:B I *D sky130_fd_sc_hd__nand4_2
*I *1915:Y O *D sky130_fd_sc_hd__a21oi_2
*CAP
1 *1926:A_N 0
2 *1956:B 0.000301751
3 *1915:Y 0.000100544
4 *195:8 0.000402295
5 *1956:B *1959:B 0.000143244
6 *1956:B *201:23 0
7 *195:8 *1926:B 6.6564e-05
8 *1915:B1 *195:8 4.99619e-05
9 *1958:B1 *1956:B 2.59981e-05
10 *177:34 *1956:B 5.53249e-06
11 *177:43 *1956:B 6.5525e-05
*RES
1 *1915:Y *195:8 3.445 
2 *195:8 *1956:B 11.57 
3 *195:8 *1926:A_N 1.6 
*END

*D_NET *196 0.000439898
*CONN
*I *2176:B1 I *D sky130_fd_sc_hd__o22a_4
*I *1916:X O *D sky130_fd_sc_hd__and3b_2
*CAP
1 *2176:B1 0.000219949
2 *1916:X 0.000219949
*RES
1 *1916:X *2176:B1 6.41 
*END

*D_NET *197 0.00261678
*CONN
*I *1918:B1 I *D sky130_fd_sc_hd__o21a_2
*I *1926:B I *D sky130_fd_sc_hd__nand4b_4
*I *1917:Y O *D sky130_fd_sc_hd__nand3b_2
*CAP
1 *1918:B1 9.72466e-05
2 *1926:B 0.000473133
3 *1917:Y 0.000206597
4 *197:8 0.000776977
5 *1918:B1 *2175:A 9.54469e-05
6 *1918:B1 *434:10 0
7 *1926:B *1915:A1 3.00381e-05
8 *1926:B *2175:A 5.39961e-05
9 *1926:B *2176:B2 0
10 *1915:B1 *1926:B 0.000323226
11 *1918:A1 *1918:B1 0
12 *1918:A2 *1918:B1 3.68682e-05
13 *194:8 *197:8 0.00035215
14 *194:14 *1918:B1 7.21296e-06
15 *194:14 *1926:B 9.73199e-05
16 *195:8 *1926:B 6.6564e-05
*RES
1 *1917:Y *197:8 7.845 
2 *197:8 *1926:B 13.335 
3 *197:8 *1918:B1 5.685 
*END

*D_NET *198 0.000286929
*CONN
*I *2175:A I *D sky130_fd_sc_hd__xnor2_2
*I *1918:X O *D sky130_fd_sc_hd__o21a_2
*CAP
1 *2175:A 6.87428e-05
2 *1918:X 6.87428e-05
3 *2175:A *2176:B2 0
4 *2175:A *434:10 0
5 *1918:B1 *2175:A 9.54469e-05
6 *1926:B *2175:A 5.39961e-05
*RES
1 *1918:X *2175:A 8.835 
*END

*D_NET *199 0.00183124
*CONN
*I *1921:A2 I *D sky130_fd_sc_hd__o21bai_4
*I *1958:A2_N I *D sky130_fd_sc_hd__a2bb2oi_2
*I *1925:A1 I *D sky130_fd_sc_hd__o21ai_2
*I *1919:Y O *D sky130_fd_sc_hd__nor2_2
*CAP
1 *1921:A2 0.000132731
2 *1958:A2_N 0
3 *1925:A1 6.71134e-05
4 *1919:Y 3.37559e-05
5 *199:14 0.00022258
6 *199:10 0.000321953
7 *1921:A2 *201:8 9.04136e-05
8 *1925:A1 *1925:B1 0.000160658
9 *1925:A1 *2395:A 7.37282e-05
10 *1925:A1 *201:23 3.09233e-05
11 *199:10 *1922:B1_N 0.000141606
12 *199:10 *561:26 0.000141606
13 *199:14 *1922:B1_N 4.82863e-05
14 *199:14 *201:8 0.000107415
15 *199:14 *526:25 0.000163204
16 *190:29 *199:14 9.52646e-05
*RES
1 *1919:Y *199:10 7.235 
2 *199:10 *199:14 3.915 
3 *199:14 *1925:A1 7.745 
4 *199:14 *1958:A2_N 1.6 
5 *199:10 *1921:A2 3.895 
*END

*D_NET *200 0.000201609
*CONN
*I *1921:A1 I *D sky130_fd_sc_hd__o21bai_4
*I *1920:X O *D sky130_fd_sc_hd__and2_4
*CAP
1 *1921:A1 0.000100804
2 *1920:X 0.000100804
3 *1921:A1 *1920:A 0
4 *1921:A1 *449:26 0
*RES
1 *1920:X *1921:A1 8.835 
*END

*D_NET *201 0.00429038
*CONN
*I *1961:C I *D sky130_fd_sc_hd__nand3_4
*I *2182:A1_N I *D sky130_fd_sc_hd__o2bb2ai_2
*I *1926:C I *D sky130_fd_sc_hd__nand4b_4
*I *1925:B1 I *D sky130_fd_sc_hd__o21ai_2
*I *1921:Y O *D sky130_fd_sc_hd__o21bai_4
*CAP
1 *1961:C 0.00016088
2 *2182:A1_N 0
3 *1926:C 3.37454e-05
4 *1925:B1 0.000155562
5 *1921:Y 0.000285469
6 *201:42 0.000539195
7 *201:23 0.00068339
8 *201:8 0.000712361
9 *1925:B1 *1958:A1_N 0.000141606
10 *1925:B1 *2181:A 5.30673e-05
11 *1925:B1 *203:6 4.82863e-05
12 *1961:C *1961:A 0
13 *1961:C *2182:A2_N 3.83041e-05
14 *1961:C *438:10 8.65905e-05
15 *201:8 *1922:B1_N 3.83041e-05
16 *201:8 *526:25 0.000163204
17 *201:23 *1958:A1_N 2.30797e-05
18 *201:23 *1959:A 0
19 *201:23 *1959:B 0
20 *201:23 *2395:A 0
21 *201:42 *1927:A 3.98865e-05
22 *201:42 *2182:A2_N 8.65961e-05
23 *201:42 *2182:B2 0.000197269
24 *201:42 *2395:A 0.00015896
25 *201:42 *206:8 8.97832e-05
26 *201:42 *438:10 0.000124007
27 *1921:A2 *201:8 9.04136e-05
28 *1925:A1 *1925:B1 0.000160658
29 *1925:A1 *201:23 3.09233e-05
30 *1927:B *1961:C 0
31 *1956:A *1925:B1 3.26889e-05
32 *1956:B *201:23 0
33 *173:10 *1961:C 0
34 *190:29 *201:8 8.73389e-06
35 *199:14 *201:8 0.000107415
*RES
1 *1921:Y *201:8 8.535 
2 *201:8 *1925:B1 7.68 
3 *201:8 *201:23 4.44 
4 *201:23 *1926:C 4.05 
5 *201:23 *201:42 10.55 
6 *201:42 *2182:A1_N 1.6 
7 *201:42 *1961:C 8.54 
*END

*D_NET *202 0.000687605
*CONN
*I *1924:B1 I *D sky130_fd_sc_hd__o21ai_2
*I *1922:Y O *D sky130_fd_sc_hd__a21boi_2
*CAP
1 *1924:B1 0.000235276
2 *1922:Y 0.000235276
3 *1924:B1 *1922:A2 0.000162311
4 *1924:B1 *2202:A 0
5 *1924:B1 *2288:A 5.53249e-06
6 *1924:B1 *239:10 0
7 *1924:B1 *465:10 4.92096e-05
*RES
1 *1922:Y *1924:B1 11.265 
*END

*D_NET *203 0.000623339
*CONN
*I *1925:A2 I *D sky130_fd_sc_hd__o21ai_2
*I *1958:A1_N I *D sky130_fd_sc_hd__a2bb2oi_2
*I *1923:X O *D sky130_fd_sc_hd__a21bo_2
*CAP
1 *1925:A2 0
2 *1958:A1_N 5.00393e-05
3 *1923:X 9.67141e-05
4 *203:6 0.000146753
5 *1958:A1_N *1959:B 0
6 *1958:A1_N *2181:A 0.00011686
7 *1925:B1 *1958:A1_N 0.000141606
8 *1925:B1 *203:6 4.82863e-05
9 *201:23 *1958:A1_N 2.30797e-05
*RES
1 *1923:X *203:6 3.085 
2 *203:6 *1958:A1_N 7.49 
3 *203:6 *1925:A2 1.6 
*END

*D_NET *204 0.00128331
*CONN
*I *1926:D I *D sky130_fd_sc_hd__nand4b_4
*I *1924:Y O *D sky130_fd_sc_hd__o21ai_2
*CAP
1 *1926:D 0.000385571
2 *1924:Y 0.000385571
3 *1926:D *1924:A2 0.000311294
4 *1926:D *239:10 0.000141592
5 *190:29 *1926:D 5.92849e-05
*RES
1 *1924:Y *1926:D 13.08 
*END

*D_NET *205 0.00121489
*CONN
*I *2181:A I *D sky130_fd_sc_hd__xor2_2
*I *1925:Y O *D sky130_fd_sc_hd__o21ai_2
*CAP
1 *2181:A 0.000339942
2 *1925:Y 0.000339942
3 *2181:A *1958:B2 8.82473e-05
4 *2181:A *1959:B 0
5 *1925:B1 *2181:A 5.30673e-05
6 *1958:A1_N *2181:A 0.00011686
7 *1958:B1 *2181:A 0.000122337
8 *2180:A1_N *2181:A 8.65905e-05
9 *190:29 *2181:A 6.79087e-05
*RES
1 *1925:Y *2181:A 13.98 
*END

*D_NET *206 0.000990312
*CONN
*I *1927:A I *D sky130_fd_sc_hd__nor2_4
*I *1928:B I *D sky130_fd_sc_hd__or2_4
*I *1926:Y O *D sky130_fd_sc_hd__nand4b_4
*CAP
1 *1927:A 0.000155537
2 *1928:B 0
3 *1926:Y 5.26125e-05
4 *206:8 0.000208149
5 *1927:A *2395:A 9.5433e-05
6 *206:8 *2395:A 0.000212505
7 *1927:B *1927:A 0.000136406
8 *201:42 *1927:A 3.98865e-05
9 *201:42 *206:8 8.97832e-05
*RES
1 *1926:Y *206:8 6 
2 *206:8 *1928:B 3.6 
3 *206:8 *1927:A 7.53 
*END

*D_NET *207 0.00180351
*CONN
*I *1970:B I *D sky130_fd_sc_hd__nand3_2
*I *1971:A2 I *D sky130_fd_sc_hd__a31oi_2
*I *1960:B I *D sky130_fd_sc_hd__nand4_4
*I *1927:Y O *D sky130_fd_sc_hd__nor2_4
*CAP
1 *1970:B 0.00016201
2 *1971:A2 0
3 *1960:B 0.000250568
4 *1927:Y 0.000116325
5 *207:23 0.00026551
6 *207:10 0.000470393
7 *1960:B *1960:C 3.95724e-05
8 *1970:B *2190:A 0.000127816
9 *1970:B *240:10 5.93674e-05
10 *1970:B *253:12 0
11 *207:10 *1961:A 3.00381e-05
12 *207:23 *240:10 5.63405e-05
13 *1960:D *1960:B 8.65905e-05
14 *1970:C *1970:B 5.12772e-05
15 *1970:C *207:23 1.01661e-05
16 *173:23 *207:10 0
17 *173:34 *207:23 7.75412e-05
*RES
1 *1927:Y *207:10 5.43 
2 *207:10 *1960:B 7.515 
3 *207:10 *207:23 2.655 
4 *207:23 *1971:A2 3.6 
5 *207:23 *1970:B 7.785 
*END

*D_NET *208 0.000332842
*CONN
*I *2182:B1 I *D sky130_fd_sc_hd__o2bb2ai_2
*I *1928:X O *D sky130_fd_sc_hd__or2_4
*CAP
1 *2182:B1 6.89756e-05
2 *1928:X 6.89756e-05
3 *2182:B1 *1961:A 1.01661e-05
4 *2182:B1 *239:10 4.61744e-05
5 *1927:B *2182:B1 0.000138551
*RES
1 *1928:X *2182:B1 8.835 
*END

*D_NET *209 0.000663591
*CONN
*I *1935:B I *D sky130_fd_sc_hd__nand3b_4
*I *1929:Y O *D sky130_fd_sc_hd__nand2b_4
*CAP
1 *1935:B 0.000196139
2 *1929:Y 0.000196139
3 *1935:B *1929:A_N 8.65961e-05
4 *1935:B *449:71 0.000184717
5 *1935:B *459:10 0
*RES
1 *1929:Y *1935:B 11.175 
*END

*D_NET *210 0.000251124
*CONN
*I *1935:C I *D sky130_fd_sc_hd__nand3b_4
*I *1930:Y O *D sky130_fd_sc_hd__nand2_2
*CAP
1 *1935:C 4.73668e-05
2 *1930:Y 4.73668e-05
3 *1935:C *1931:A 7.81954e-05
4 *1935:C *213:8 7.81954e-05
*RES
1 *1930:Y *1935:C 8.835 
*END

*D_NET *211 0.000464468
*CONN
*I *1933:A I *D sky130_fd_sc_hd__nand2_4
*I *1931:Y O *D sky130_fd_sc_hd__nand2_2
*CAP
1 *1933:A 6.73215e-05
2 *1931:Y 6.73215e-05
3 *1933:A *1929:A_N 4.66108e-05
4 *1933:A *1931:A 0.000139238
5 *1933:A *541:21 0.000114196
6 *1933:A *541:40 2.97802e-05
*RES
1 *1931:Y *1933:A 9.285 
*END

*D_NET *212 0.0013892
*CONN
*I *1934:A I *D sky130_fd_sc_hd__nor2_2
*I *1966:A1 I *D sky130_fd_sc_hd__o22ai_2
*I *1936:A2 I *D sky130_fd_sc_hd__o21ai_4
*I *1932:Y O *D sky130_fd_sc_hd__nor2_4
*CAP
1 *1934:A 2.9853e-05
2 *1966:A1 0.000222736
3 *1936:A2 0.000164923
4 *1932:Y 2.9853e-05
5 *212:4 0.00038766
6 *1936:A2 *2429:A 8.23457e-05
7 *1936:A2 *2430:A 0.000118513
8 *1936:A2 *215:31 0.000115614
9 *1966:A1 *1932:A 1.08758e-05
10 *1966:A1 *1966:A2 0.000218844
11 *1966:A1 *2430:A 0
12 *1966:A1 *215:31 0
13 *1966:A1 *215:60 0
14 *1966:A1 *496:21 7.98745e-06
*RES
1 *1932:Y *212:4 1.6 
2 *212:4 *1936:A2 8.465 
3 *212:4 *1966:A1 9.305 
4 *1932:Y *1934:A 3.65 
*END

*D_NET *213 0.00249505
*CONN
*I *1934:B I *D sky130_fd_sc_hd__nor2_2
*I *1966:A2 I *D sky130_fd_sc_hd__o22ai_2
*I *1936:A1 I *D sky130_fd_sc_hd__o21ai_4
*I *1933:Y O *D sky130_fd_sc_hd__nand2_4
*CAP
1 *1934:B 0.000168226
2 *1966:A2 0.000220074
3 *1936:A1 5.53735e-05
4 *1933:Y 0.000143526
5 *213:12 0.000405163
6 *213:8 0.000441468
7 *1934:B *1931:A 0
8 *1934:B *449:71 1.0183e-05
9 *1934:B *496:21 0
10 *1966:A2 *1932:B 0.000148664
11 *1966:A2 *1966:B2 4.00541e-06
12 *1966:A2 *2168:B1 0.000121019
13 *1966:A2 *496:21 9.1436e-05
14 *1966:A2 *541:40 2.97802e-05
15 *213:8 *1931:A 0
16 *213:8 *1935:A_N 0.000133763
17 *213:8 *449:71 8.35126e-05
18 *213:8 *473:10 9.50342e-06
19 *213:12 *1930:A 4.82863e-05
20 *213:12 *1930:B 8.40269e-05
21 *1935:C *213:8 7.81954e-05
22 *1966:A1 *1966:A2 0.000218844
*RES
1 *1933:Y *213:8 7.53 
2 *213:8 *213:12 4.175 
3 *213:12 *1936:A1 2.395 
4 *213:12 *1966:A2 11.285 
5 *213:8 *1934:B 6.195 
*END

*D_NET *214 0.00159452
*CONN
*I *2168:B1 I *D sky130_fd_sc_hd__a211o_2
*I *1934:Y O *D sky130_fd_sc_hd__nor2_2
*CAP
1 *2168:B1 0.000548973
2 *1934:Y 0.000548973
3 *2168:B1 *1966:B1 9.0881e-05
4 *2168:B1 *1966:B2 0.000240482
5 *2168:B1 *2168:A2 4.41928e-05
6 *2168:B1 *2284:A 0
7 *2168:B1 *496:21 0
8 *1966:A2 *2168:B1 0.000121019
*RES
1 *1934:Y *2168:B1 17.475 
*END

*D_NET *215 0.00383077
*CONN
*I *2169:A1 I *D sky130_fd_sc_hd__a211o_4
*I *1967:A1 I *D sky130_fd_sc_hd__a21oi_2
*I *2168:A2 I *D sky130_fd_sc_hd__a211o_2
*I *1936:B1 I *D sky130_fd_sc_hd__o21ai_4
*I *1935:Y O *D sky130_fd_sc_hd__nand3b_4
*CAP
1 *2169:A1 0
2 *1967:A1 0.000121544
3 *2168:A2 0.000209672
4 *1936:B1 5.45033e-05
5 *1935:Y 0.000431789
6 *215:60 0.000361922
7 *215:31 0.000687448
8 *215:14 0.00072369
9 *1936:B1 *216:10 8.64421e-05
10 *1967:A1 *1967:A2 0.000103976
11 *1967:A1 *1967:B1 0.000102421
12 *1967:A1 *1968:A 2.49909e-05
13 *1967:A1 *2169:A2 4.99524e-05
14 *1967:A1 *246:8 4.1652e-06
15 *2168:A2 *1966:B1 0.000190263
16 *2168:A2 *1966:B2 2.67184e-05
17 *2168:A2 *220:10 4.99524e-05
18 *215:14 *2429:A 0.000158385
19 *215:14 *216:10 3.6355e-05
20 *215:31 *2430:A 3.34493e-05
21 *215:31 *223:12 0
22 *215:60 *2168:C1 3.72413e-05
23 *215:60 *2169:B1 4.82863e-05
24 *215:60 *2169:C1 1.16578e-05
25 *215:60 *223:29 4.06096e-05
26 *215:60 *246:8 7.55313e-05
27 *1936:A2 *215:31 0.000115614
28 *1966:A1 *215:31 0
29 *1966:A1 *215:60 0
30 *2168:B1 *2168:A2 4.41928e-05
*RES
1 *1935:Y *215:14 12.185 
2 *215:14 *1936:B1 2.755 
3 *215:14 *215:31 6.23 
4 *215:31 *2168:A2 11.2 
5 *215:31 *215:60 6.35 
6 *215:60 *1967:A1 8.45 
7 *215:60 *2169:A1 1.6 
*END

*D_NET *216 0.00133667
*CONN
*I *2431:A I *D sky130_fd_sc_hd__buf_6
*I *1943:B I *D sky130_fd_sc_hd__nor2_4
*I *1936:Y O *D sky130_fd_sc_hd__o21ai_4
*CAP
1 *2431:A 5.71034e-05
2 *1943:B 0.000249568
3 *1936:Y 0.000141651
4 *216:10 0.000448322
5 *1943:B *2429:A 0.000164062
6 *1943:B *223:12 0
7 *216:10 *2429:A 1.15688e-05
8 *216:10 *2430:A 0.000141599
9 *216:10 *223:12 0
10 *1936:B1 *216:10 8.64421e-05
11 *215:14 *216:10 3.6355e-05
*RES
1 *1936:Y *216:10 6.63 
2 *216:10 *1943:B 7.77 
3 *216:10 *2431:A 4.395 
*END

*D_NET *217 0.00127537
*CONN
*I *1941:A1 I *D sky130_fd_sc_hd__o21bai_4
*I *1937:X O *D sky130_fd_sc_hd__and2_4
*CAP
1 *1941:A1 0.000473919
2 *1937:X 0.000473919
3 *1941:A1 *1937:A 7.35813e-05
4 *1941:A1 *1941:A2 0.000253949
5 *1941:A1 *529:18 0
6 *1941:A1 *529:24 0
*RES
1 *1937:X *1941:A1 14.67 
*END

*D_NET *218 0.000822978
*CONN
*I *1941:A2 I *D sky130_fd_sc_hd__o21bai_4
*I *1938:Y O *D sky130_fd_sc_hd__nor2_2
*CAP
1 *1941:A2 0.000218199
2 *1938:Y 0.000218199
3 *1941:A2 *529:18 0.000132631
4 *1941:A1 *1941:A2 0.000253949
*RES
1 *1938:Y *1941:A2 12.36 
*END

*D_NET *219 0.00172967
*CONN
*I *1940:B1 I *D sky130_fd_sc_hd__a21oi_2
*I *1942:A2 I *D sky130_fd_sc_hd__o211ai_2
*I *1939:Y O *D sky130_fd_sc_hd__o21ai_2
*CAP
1 *1940:B1 0.000166613
2 *1942:A2 0
3 *1939:Y 0.000470098
4 *219:10 0.000636711
5 *1940:B1 *1943:A 5.56629e-05
6 *1940:B1 *220:10 1.34503e-05
7 *1940:B1 *223:12 0
8 *1940:B1 *453:6 5.05521e-05
9 *1940:B1 *453:21 0
10 *219:10 *1902:B 4.82863e-05
11 *219:10 *1939:A1 8.40213e-05
12 *219:10 *1943:A 0.000162332
13 *219:10 *450:16 1.83756e-05
14 *219:10 *453:23 0
15 *219:10 *453:25 0
16 *219:10 *454:10 0
17 *2320:A *1940:B1 2.35678e-05
*RES
1 *1939:Y *219:10 12 
2 *219:10 *1942:A2 3.6 
3 *219:10 *1940:B1 6.885 
*END

*D_NET *220 0.00351882
*CONN
*I *1967:A2 I *D sky130_fd_sc_hd__a21oi_2
*I *2169:A2 I *D sky130_fd_sc_hd__a211o_4
*I *2168:A1 I *D sky130_fd_sc_hd__a211o_2
*I *1940:Y O *D sky130_fd_sc_hd__a21oi_2
*CAP
1 *1967:A2 0.000119278
2 *2169:A2 3.036e-05
3 *2168:A1 0
4 *1940:Y 0.000619223
5 *220:25 0.000561099
6 *220:10 0.00103068
7 *1967:A2 *1968:A 4.89295e-05
8 *1967:A2 *1969:B1 6.69608e-06
9 *220:10 *1940:A1 1.16578e-05
10 *220:10 *2168:C1 3.60024e-06
11 *220:10 *2281:A 5.05437e-05
12 *220:10 *223:12 0.000129687
13 *220:10 *453:6 0.000124007
14 *220:25 *1955:A1 3.09233e-05
15 *220:25 *1966:B2 0.000158297
16 *220:25 *2168:C1 5.54401e-05
17 *220:25 *223:12 5.93261e-05
18 *220:25 *223:25 2.83649e-05
19 *220:25 *223:29 0.00023337
20 *1940:B1 *220:10 1.34503e-05
21 *1967:A1 *1967:A2 0.000103976
22 *1967:A1 *2169:A2 4.99524e-05
23 *2168:A2 *220:10 4.99524e-05
*RES
1 *1940:Y *220:10 12.555 
2 *220:10 *2168:A1 3.6 
3 *220:10 *220:25 10.555 
4 *220:25 *2169:A2 4.215 
5 *220:25 *1967:A2 5.88 
*END

*D_NET *221 0.00030051
*CONN
*I *1942:C1 I *D sky130_fd_sc_hd__o211ai_2
*I *1941:Y O *D sky130_fd_sc_hd__o21bai_4
*CAP
1 *1942:C1 7.97989e-05
2 *1941:Y 7.97989e-05
3 *1942:C1 *2165:A 0
4 *1942:C1 *453:23 0.000140912
*RES
1 *1941:Y *1942:C1 8.835 
*END

*D_NET *222 0.000617643
*CONN
*I *1943:A I *D sky130_fd_sc_hd__nor2_4
*I *1942:Y O *D sky130_fd_sc_hd__o211ai_2
*CAP
1 *1943:A 0.000199824
2 *1942:Y 0.000199824
3 *1943:A *223:12 0
4 *1940:B1 *1943:A 5.56629e-05
5 *219:10 *1943:A 0.000162332
*RES
1 *1942:Y *1943:A 11.085 
*END

*D_NET *223 0.00662706
*CONN
*I *2169:C1 I *D sky130_fd_sc_hd__a211o_4
*I *2174:A1 I *D sky130_fd_sc_hd__a21oi_2
*I *1960:C I *D sky130_fd_sc_hd__nand4_4
*I *2168:C1 I *D sky130_fd_sc_hd__a211o_2
*I *1943:Y O *D sky130_fd_sc_hd__nor2_4
*CAP
1 *2169:C1 1.33067e-05
2 *2174:A1 7.1455e-05
3 *1960:C 0.000301239
4 *2168:C1 9.11559e-05
5 *1943:Y 0.000502172
6 *223:29 0.00187979
7 *223:25 0.00155799
8 *223:12 0.000630916
9 *1960:C *1960:A 4.82919e-05
10 *2174:A1 *1960:A 8.97642e-05
11 *2174:A1 *249:12 0
12 *2174:A1 *434:10 6.36656e-05
13 *223:12 *1966:B2 6.28765e-05
14 *223:12 *2281:A 0.000515106
15 *223:12 *2430:A 0
16 *223:12 *227:19 4.80285e-05
17 *223:12 *431:14 8.49205e-05
18 *223:29 *2169:B1 2.75145e-05
19 *1940:B1 *223:12 0
20 *1943:A *223:12 0
21 *1943:B *223:12 0
22 *1960:B *1960:C 3.95724e-05
23 *215:31 *223:12 0
24 *215:60 *2168:C1 3.72413e-05
25 *215:60 *2169:C1 1.16578e-05
26 *215:60 *223:29 4.06096e-05
27 *216:10 *223:12 0
28 *220:10 *2168:C1 3.60024e-06
29 *220:10 *223:12 0.000129687
30 *220:25 *2168:C1 5.54401e-05
31 *220:25 *223:12 5.93261e-05
32 *220:25 *223:25 2.83649e-05
33 *220:25 *223:29 0.00023337
*RES
1 *1943:Y *223:12 17.315 
2 *223:12 *2168:C1 7.49 
3 *223:12 *223:25 0.795 
4 *223:25 *223:29 22.11 
5 *223:29 *1960:C 6.565 
6 *223:29 *2174:A1 7.49 
7 *223:25 *2169:C1 2.05 
*END

*D_NET *224 0.00214807
*CONN
*I *1946:A2 I *D sky130_fd_sc_hd__o21bai_4
*I *1944:Y O *D sky130_fd_sc_hd__nor2_2
*CAP
1 *1946:A2 0.000556455
2 *1944:Y 0.000556455
3 *1946:A2 *1944:B 0.000352004
4 *1946:A2 *1955:A2 2.39856e-05
5 *1946:A2 *1955:B1 4.66108e-05
6 *1946:A2 *235:10 8.50096e-05
7 *1946:A2 *431:14 7.18883e-05
8 *1946:A2 *553:10 0.000128537
9 *1946:A2 *556:8 0.00018955
10 S[2] *1946:A2 0.00013757
*RES
1 *1944:Y *1946:A2 17.91 
*END

*D_NET *225 0.00400332
*CONN
*I *1966:B1 I *D sky130_fd_sc_hd__o22ai_2
*I *1955:A2 I *D sky130_fd_sc_hd__o2111a_2
*I *1946:A1 I *D sky130_fd_sc_hd__o21bai_4
*I *1948:A1 I *D sky130_fd_sc_hd__o21a_2
*I *1945:X O *D sky130_fd_sc_hd__and2_4
*CAP
1 *1966:B1 0.000267142
2 *1955:A2 0.000197648
3 *1946:A1 0
4 *1948:A1 0.000167495
5 *1945:X 0.000303511
6 *225:23 0.000312167
7 *225:8 0.000318383
8 *1948:A1 *1945:B 4.43871e-06
9 *1948:A1 *1948:A2 5.50989e-05
10 *1948:A1 *2281:A 0
11 *1948:A1 *2391:A 3.09164e-05
12 *1948:A1 *529:10 3.31103e-05
13 *1955:A2 *1944:B 0.000234164
14 *1955:A2 *1951:A1 0.000493697
15 *1955:A2 *2173:A_N 8.08153e-06
16 *1955:A2 *2391:A 0.000194951
17 *1955:A2 *553:10 0.000295295
18 *1966:B1 *1945:B 5.30673e-05
19 *1966:B1 *2170:B 4.16262e-05
20 *225:8 *2170:B 8.49205e-05
21 *225:23 *1945:B 8.71079e-05
22 *225:23 *2391:A 0.000347364
23 *225:23 *553:10 0.000107658
24 *1946:A2 *1955:A2 2.39856e-05
25 *2168:A2 *1966:B1 0.000190263
26 *2168:B1 *1966:B1 9.0881e-05
27 *2344:A *1955:A2 6.03517e-05
*RES
1 *1945:X *225:8 4.395 
2 *225:8 *1948:A1 6.9 
3 *225:8 *225:23 4.185 
4 *225:23 *1946:A1 3.6 
5 *225:23 *1955:A2 10.935 
6 *1945:X *1966:B1 8.63 
*END

*D_NET *226 0.00302597
*CONN
*I *1955:C1 I *D sky130_fd_sc_hd__o2111a_2
*I *1968:A I *D sky130_fd_sc_hd__nand2_2
*I *2404:A I *D sky130_fd_sc_hd__buf_2
*I *1946:Y O *D sky130_fd_sc_hd__o21bai_4
*CAP
1 *1955:C1 8.86174e-05
2 *1968:A 0.000335037
3 *2404:A 0.000223663
4 *1946:Y 0.000638387
5 *226:24 0.000838378
6 *1955:C1 *1955:A1 0
7 *1955:C1 *1955:B1 9.35189e-05
8 *1968:A *1967:B1 2.75145e-05
9 *1968:A *1969:B1 7.39477e-05
10 *2404:A *1946:B1_N 7.42535e-05
11 *2404:A *1948:A2 0
12 *2404:A *518:10 9.05377e-05
13 *226:24 *1952:A2 0.000103546
14 *226:24 *1952:B1 4.89295e-05
15 *226:24 *2173:B 8.8266e-05
16 *226:24 *2394:A 0.000189287
17 *226:24 *456:68 2.47149e-05
18 *226:24 *456:74 1.34503e-05
19 S[2] *2404:A 0
20 *1967:A1 *1968:A 2.49909e-05
21 *1967:A2 *1968:A 4.89295e-05
*RES
1 *1946:Y *2404:A 11.415 
2 *1946:Y *226:24 9.295 
3 *226:24 *1968:A 6.925 
4 *226:24 *1955:C1 7.235 
*END

*D_NET *227 0.00335802
*CONN
*I *1955:A1 I *D sky130_fd_sc_hd__o2111a_2
*I *1966:B2 I *D sky130_fd_sc_hd__o22ai_2
*I *1948:A2 I *D sky130_fd_sc_hd__o21a_2
*I *1947:Y O *D sky130_fd_sc_hd__o21ai_4
*CAP
1 *1955:A1 0.000137697
2 *1966:B2 0.00030495
3 *1948:A2 0.000185083
4 *1947:Y 0
5 *227:19 0.000646842
6 *227:4 0.000389278
7 *1948:A2 *2170:A 0
8 *1948:A2 *2391:A 8.6099e-05
9 *1948:A2 *431:14 7.70758e-05
10 *1948:A2 *518:10 0
11 *1955:A1 *1952:B1 0.00016163
12 *1955:A1 *1967:B1 0
13 *1955:A1 *2281:A 0.000117875
14 *1966:B2 *2281:A 1.82476e-05
15 *227:19 *1947:A1 2.75145e-05
16 *227:19 *431:14 0.000150707
17 *227:19 *521:10 0.000418498
18 S[2] *1948:A2 1.00941e-05
19 *1948:A1 *1948:A2 5.50989e-05
20 *1955:C1 *1955:A1 0
21 *1966:A2 *1966:B2 4.00541e-06
22 *2168:A2 *1966:B2 2.67184e-05
23 *2168:B1 *1966:B2 0.000240482
24 *2404:A *1948:A2 0
25 *220:25 *1955:A1 3.09233e-05
26 *220:25 *1966:B2 0.000158297
27 *223:12 *1966:B2 6.28765e-05
28 *223:12 *227:19 4.80285e-05
*RES
1 *1947:Y *227:4 1.6 
2 *227:4 *1948:A2 9.785 
3 *227:4 *227:19 7.28 
4 *227:19 *1966:B2 8.97 
5 *227:19 *1955:A1 7.275 
*END

*D_NET *228 0.000330828
*CONN
*I *2170:A I *D sky130_fd_sc_hd__xor2_2
*I *1948:X O *D sky130_fd_sc_hd__o21a_2
*CAP
1 *2170:A 0.000145726
2 *1948:X 0.000145726
3 *2170:A *1948:B1 3.23663e-05
4 *2170:A *518:10 7.00889e-06
5 *1948:A2 *2170:A 0
*RES
1 *1948:X *2170:A 9.375 
*END

*D_NET *229 0.00199847
*CONN
*I *1953:A2 I *D sky130_fd_sc_hd__o21bai_4
*I *1954:A1 I *D sky130_fd_sc_hd__o21ai_2
*I *1969:A1 I *D sky130_fd_sc_hd__o22ai_4
*I *1949:X O *D sky130_fd_sc_hd__and2_4
*CAP
1 *1953:A2 0
2 *1954:A1 0.000153864
3 *1969:A1 9.96969e-05
4 *1949:X 0.000292779
5 *229:10 0.000253561
6 *229:8 0.000292779
7 *1954:A1 *1950:A 4.89295e-05
8 *1954:A1 *1950:B 4.77719e-05
9 *1954:A1 *1953:A1 4.77719e-05
10 *1954:A1 *1954:A2 0
11 *1954:A1 *1954:B1 0.000206706
12 *1954:A1 *233:12 3.09164e-05
13 *1954:A1 *580:8 0.00013046
14 *1954:A1 *591:10 3.10886e-05
15 *1969:A1 *1954:A2 0
16 *1969:A1 *233:12 0.00016163
17 *229:8 *1949:A 4.60061e-05
18 *229:8 *233:8 2.49909e-05
19 *229:8 *537:10 0.000129514
*RES
1 *1949:X *229:8 6.205 
2 *229:8 *229:10 2 
3 *229:10 *1969:A1 5.49 
4 *229:10 *1954:A1 8.265 
5 *229:8 *1953:A2 1.6 
*END

*D_NET *230 0.000666545
*CONN
*I *1953:A1 I *D sky130_fd_sc_hd__o21bai_4
*I *1950:Y O *D sky130_fd_sc_hd__nor2_2
*CAP
1 *1953:A1 0.000118186
2 *1950:Y 0.000118186
3 *1953:A1 *1950:B 0.000150669
4 *1953:A1 *1954:B1 0
5 *1953:A1 *580:8 0.00023173
6 *1954:A1 *1953:A1 4.77719e-05
*RES
1 *1950:Y *1953:A1 10.5 
*END

*D_NET *231 0.00196779
*CONN
*I *1969:A2 I *D sky130_fd_sc_hd__o22ai_4
*I *1952:B1 I *D sky130_fd_sc_hd__a21o_2
*I *1954:A2 I *D sky130_fd_sc_hd__o21ai_2
*I *1951:Y O *D sky130_fd_sc_hd__o21ai_4
*CAP
1 *1969:A2 7.24033e-05
2 *1952:B1 0.000230967
3 *1954:A2 0.000192118
4 *1951:Y 0
5 *231:19 0.000333108
6 *231:4 0.000221856
7 *1952:B1 *1955:B1 7.98007e-06
8 *1952:B1 *2281:A 0
9 *1952:B1 *456:68 0.000106637
10 *1954:A2 *1950:A 0
11 *1954:A2 *1954:B1 0
12 *1954:A2 *2281:A 0.000334476
13 *1954:A2 *556:42 4.82919e-05
14 *1969:A2 *556:42 0.000122801
15 *231:19 *556:42 8.65905e-05
16 *1954:A1 *1954:A2 0
17 *1955:A1 *1952:B1 0.00016163
18 *1969:A1 *1954:A2 0
19 *226:24 *1952:B1 4.89295e-05
*RES
1 *1951:Y *231:4 1.6 
2 *231:4 *1954:A2 9.98 
3 *231:4 *231:19 0.795 
4 *231:19 *1952:B1 10.49 
5 *231:19 *1969:A2 3.1 
*END

*D_NET *232 0.000456487
*CONN
*I *1955:B1 I *D sky130_fd_sc_hd__o2111a_2
*I *1952:X O *D sky130_fd_sc_hd__a21o_2
*CAP
1 *1955:B1 7.53882e-05
2 *1952:X 7.53882e-05
3 *1955:B1 *1944:B 4.66108e-05
4 *1955:B1 *456:68 0.00011099
5 *1946:A2 *1955:B1 4.66108e-05
6 *1952:B1 *1955:B1 7.98007e-06
7 *1955:C1 *1955:B1 9.35189e-05
*RES
1 *1952:X *1955:B1 9.285 
*END

*D_NET *233 0.00302025
*CONN
*I *1954:B1 I *D sky130_fd_sc_hd__o21ai_2
*I *1968:B I *D sky130_fd_sc_hd__nand2_2
*I *1955:D1 I *D sky130_fd_sc_hd__o2111a_2
*I *1953:Y O *D sky130_fd_sc_hd__o21bai_4
*CAP
1 *1954:B1 0.000165154
2 *1968:B 0.00014523
3 *1955:D1 1.2787e-05
4 *1953:Y 3.21436e-05
5 *233:12 0.00034196
6 *233:8 0.00038124
7 *1954:B1 *1950:A 5.65748e-05
8 *1954:B1 *1950:B 8.6076e-05
9 *1954:B1 *591:10 0.000234356
10 *1955:D1 *1944:B 8.77516e-05
11 *1955:D1 *456:60 8.6076e-05
12 *1968:B *1944:B 0.000111041
13 *1968:B *1969:B1 0.000155056
14 *1968:B *235:10 5.37207e-05
15 *1968:B *456:60 0.000194891
16 *1968:B *496:21 0.000183043
17 *233:8 *537:10 8.35068e-05
18 *233:12 *1950:B 0
19 *233:12 *1969:B2 0.000185405
20 *233:12 *456:47 0
21 *233:12 *556:42 0
22 *1953:A1 *1954:B1 0
23 *1954:A1 *1954:B1 0.000206706
24 *1954:A1 *233:12 3.09164e-05
25 *1954:A2 *1954:B1 0
26 *1969:A1 *233:12 0.00016163
27 *229:8 *233:8 2.49909e-05
*RES
1 *1953:Y *233:8 4.395 
2 *233:8 *233:12 6.185 
3 *233:12 *1955:D1 2.395 
4 *233:12 *1968:B 10.265 
5 *233:8 *1954:B1 8.175 
*END

*D_NET *234 0.0016419
*CONN
*I *2171:B1 I *D sky130_fd_sc_hd__a21oi_2
*I *2172:B I *D sky130_fd_sc_hd__nand3_2
*I *1954:Y O *D sky130_fd_sc_hd__o21ai_2
*CAP
1 *2171:B1 4.28427e-05
2 *2172:B 0
3 *1954:Y 0.000456632
4 *234:12 0.000499474
5 *2171:B1 *2171:A2 0.000201503
6 *2171:B1 *2172:A 4.99619e-05
7 *2171:B1 *2172:C 3.26889e-05
8 *2171:B1 *2173:A_N 1.12578e-05
9 *2171:B1 *2173:B 7.60965e-05
10 *234:12 *431:14 8.08153e-06
11 *234:12 *513:12 0
12 *234:12 *580:8 0.000122325
13 *234:12 *591:10 0.000135504
14 *2312:A *234:12 0
15 *2328:A *234:12 5.53249e-06
*RES
1 *1954:Y *234:12 12.77 
2 *234:12 *2172:B 1.6 
3 *234:12 *2171:B1 3.79 
*END

*D_NET *235 0.00466826
*CONN
*I *2174:A2 I *D sky130_fd_sc_hd__a21oi_2
*I *1960:A I *D sky130_fd_sc_hd__nand4_4
*I *1955:X O *D sky130_fd_sc_hd__o2111a_2
*CAP
1 *2174:A2 0
2 *1960:A 0.000146759
3 *1955:X 0.00203828
4 *235:10 0.00218504
5 *1960:A *434:10 0
6 *235:10 *1944:B 2.14005e-05
7 *235:10 *249:12 0
8 *1946:A2 *235:10 8.50096e-05
9 *1960:C *1960:A 4.82919e-05
10 *1968:B *235:10 5.37207e-05
11 *2174:A1 *1960:A 8.97642e-05
*RES
1 *1955:X *235:10 26.475 
2 *235:10 *1960:A 6.45 
3 *235:10 *2174:A2 3.6 
*END

*D_NET *236 0.000664715
*CONN
*I *1959:B I *D sky130_fd_sc_hd__nand2_2
*I *1956:Y O *D sky130_fd_sc_hd__nand4_2
*CAP
1 *1959:B 0.00022809
2 *1956:Y 0.00022809
3 *1959:B *1959:A 6.52906e-05
4 *1956:B *1959:B 0.000143244
5 *1958:A1_N *1959:B 0
6 *2181:A *1959:B 0
7 *201:23 *1959:B 0
*RES
1 *1956:Y *1959:B 11.835 
*END

*D_NET *237 0.00224634
*CONN
*I *2180:A2_N I *D sky130_fd_sc_hd__o2bb2a_2
*I *1958:B2 I *D sky130_fd_sc_hd__a2bb2oi_2
*I *1957:Y O *D sky130_fd_sc_hd__o21ai_2
*CAP
1 *2180:A2_N 0
2 *1958:B2 0.000250178
3 *1957:Y 5.87792e-05
4 *237:10 0.000308958
5 *1958:B2 *2181:B 0.000269724
6 *237:10 *2181:B 4.43871e-06
7 *237:10 *435:23 5.13155e-05
8 *1958:B1 *1958:B2 0.000122337
9 *2180:A1_N *1958:B2 0.000168209
10 *2180:B1 *1958:B2 0.000201503
11 *2181:A *1958:B2 8.82473e-05
12 *190:10 *237:10 0
13 *190:29 *1958:B2 0.000722651
*RES
1 *1957:Y *237:10 6.725 
2 *237:10 *1958:B2 11.665 
3 *237:10 *2180:A2_N 1.6 
*END

*D_NET *238 0.000271801
*CONN
*I *1959:A I *D sky130_fd_sc_hd__nand2_2
*I *1958:Y O *D sky130_fd_sc_hd__a2bb2oi_2
*CAP
1 *1959:A 0.000103255
2 *1958:Y 0.000103255
3 *1959:B *1959:A 6.52906e-05
4 *201:23 *1959:A 0
*RES
1 *1958:Y *1959:A 9.09 
*END

*D_NET *239 0.00255384
*CONN
*I *1961:A I *D sky130_fd_sc_hd__nand3_4
*I *2182:A2_N I *D sky130_fd_sc_hd__o2bb2ai_2
*I *1959:Y O *D sky130_fd_sc_hd__nand2_2
*CAP
1 *1961:A 0.000413007
2 *2182:A2_N 5.05305e-05
3 *1959:Y 0.000541447
4 *239:10 0.00100498
5 *239:10 *1922:B1_N 0.000118527
6 *239:10 *1924:A2 5.21458e-05
7 *239:10 *2288:A 0
8 *239:10 *465:10 0
9 *239:10 *561:35 2.03321e-05
10 *1924:B1 *239:10 0
11 *1926:D *239:10 0.000141592
12 *1927:B *1961:A 0
13 *1927:B *239:10 0
14 *1961:C *1961:A 0
15 *1961:C *2182:A2_N 3.83041e-05
16 *2182:B1 *1961:A 1.01661e-05
17 *2182:B1 *239:10 4.61744e-05
18 *173:10 *239:10 0
19 *190:29 *239:10 0
20 *201:42 *2182:A2_N 8.65961e-05
21 *207:10 *1961:A 3.00381e-05
*RES
1 *1959:Y *239:10 13.215 
2 *239:10 *2182:A2_N 4.74 
3 *239:10 *1961:A 10.005 
*END

*D_NET *240 0.00193796
*CONN
*I *1973:C I *D sky130_fd_sc_hd__nand4_2
*I *1965:C I *D sky130_fd_sc_hd__nand3_4
*I *2190:A I *D sky130_fd_sc_hd__nand4_2
*I *1960:Y O *D sky130_fd_sc_hd__nand4_4
*CAP
1 *1973:C 0
2 *1965:C 9.11742e-05
3 *2190:A 0.000146607
4 *1960:Y 0.000154134
5 *240:14 0.000393559
6 *240:10 0.000309912
7 *1965:C *1973:B 6.58423e-05
8 *1965:C *241:19 0
9 *2190:A *250:8 0.000122331
10 *240:10 *1973:D 0.00011852
11 *240:14 *1973:B 2.75145e-05
12 *1970:B *2190:A 0.000127816
13 *1970:B *240:10 5.93674e-05
14 *1970:C *2190:A 0.000264847
15 *207:23 *240:10 5.63405e-05
*RES
1 *1960:Y *240:10 9.02 
2 *240:10 *240:14 2.19 
3 *240:14 *2190:A 9.95 
4 *240:14 *1965:C 3.1 
5 *240:10 *1973:C 1.6 
*END

*D_NET *241 0.00178525
*CONN
*I *2190:B I *D sky130_fd_sc_hd__nand4_2
*I *1973:B I *D sky130_fd_sc_hd__nand4_2
*I *1965:B I *D sky130_fd_sc_hd__nand3_4
*I *1961:Y O *D sky130_fd_sc_hd__nand3_4
*CAP
1 *2190:B 0.000146228
2 *1973:B 0.000199863
3 *1965:B 0
4 *1961:Y 0.000366246
5 *241:19 0.000420198
6 *241:10 0.000440353
7 *2190:B *1972:A 9.50342e-06
8 *2190:B *1974:B1 0
9 *241:10 *1973:A 0
10 *241:10 *244:29 0
11 *1965:C *1973:B 6.58423e-05
12 *1965:C *241:19 0
13 *1970:C *2190:B 0
14 *1970:C *241:10 0
15 *173:10 *241:10 1.71013e-05
16 *173:23 *241:10 9.24049e-05
17 *173:34 *241:10 0
18 *240:14 *1973:B 2.75145e-05
*RES
1 *1961:Y *241:10 11.825 
2 *241:10 *1965:B 1.6 
3 *241:10 *241:19 1.155 
4 *241:19 *1973:B 4.825 
5 *241:19 *2190:B 7.745 
*END

*D_NET *242 0.00183774
*CONN
*I *1964:A1 I *D sky130_fd_sc_hd__a21oi_4
*I *2186:B1 I *D sky130_fd_sc_hd__a21oi_2
*I *1962:Y O *D sky130_fd_sc_hd__o21ai_2
*CAP
1 *1964:A1 0.000350204
2 *2186:B1 0
3 *1962:Y 0.00024896
4 *242:8 0.000599164
5 *1964:A1 *2249:A1 0
6 *1964:A1 *2267:A 1.11547e-05
7 *1964:A1 *468:14 0
8 *242:8 *2186:A1 0
9 *242:8 *2246:B1_N 0
10 *1962:A1 *242:8 9.24049e-05
11 *1963:A2 *1964:A1 0.000248261
12 *1963:B1 *1964:A1 1.61717e-05
13 *1964:A2 *1964:A1 0.000208031
14 *2273:A2 *1964:A1 2.37234e-05
15 *165:10 *1964:A1 3.96653e-05
16 *166:22 *1964:A1 0
*RES
1 *1962:Y *242:8 8.295 
2 *242:8 *2186:B1 3.6 
3 *242:8 *1964:A1 11.325 
*END

*D_NET *243 0.0010605
*CONN
*I *1964:B1 I *D sky130_fd_sc_hd__a21oi_4
*I *1963:X O *D sky130_fd_sc_hd__a31o_2
*CAP
1 *1964:B1 0.000351116
2 *1963:X 0.000351116
3 *1964:B1 *2267:A 4.82863e-05
4 *1964:B1 *244:18 0.00011686
5 *1964:B1 *468:12 1.71207e-05
6 *1964:B1 *468:14 8.53113e-06
7 *1963:A1 *1964:B1 3.09088e-05
8 *1963:A3 *1964:B1 8.65961e-05
9 *165:10 *1964:B1 4.99619e-05
*RES
1 *1963:X *1964:B1 13.095 
*END

*D_NET *244 0.00441792
*CONN
*I *2190:D I *D sky130_fd_sc_hd__nand4_2
*I *1965:A I *D sky130_fd_sc_hd__nand3_4
*I *2410:A I *D sky130_fd_sc_hd__buf_2
*I *1964:Y O *D sky130_fd_sc_hd__a21oi_4
*CAP
1 *2190:D 0.000132594
2 *1965:A 0
3 *2410:A 8.06797e-05
4 *1964:Y 0.000687145
5 *244:29 0.000249044
6 *244:18 0.000884275
7 *2190:D *1974:B1 0.00010506
8 *2190:D *442:6 1.83756e-05
9 *244:18 *2225:A1 4.66108e-05
10 *244:18 *2267:A 4.82919e-05
11 *244:18 *468:8 0.000195932
12 *244:18 *468:12 0.000294428
13 *244:18 *469:8 0.000339744
14 *244:18 *469:28 0.000237243
15 *244:18 *475:51 0.000177849
16 *244:18 *475:61 0.000182606
17 *1964:B1 *244:18 0.00011686
18 *1971:B1 *2410:A 0.000201508
19 *1971:B1 *244:18 0.00041967
20 *120:8 *244:18 0
21 *241:10 *244:29 0
*RES
1 *1964:Y *244:18 23.72 
2 *244:18 *2410:A 3.43 
3 *244:18 *244:29 3.89 
4 *244:29 *1965:A 3.6 
5 *244:29 *2190:D 6.45 
*END

*D_NET *245 0.00298047
*CONN
*I *2411:A I *D sky130_fd_sc_hd__buf_4
*I *2403:A I *D sky130_fd_sc_hd__buf_4
*I *1974:B1 I *D sky130_fd_sc_hd__o22ai_4
*I *1965:Y O *D sky130_fd_sc_hd__nand3_4
*CAP
1 *2411:A 3.48286e-05
2 *2403:A 0.00014695
3 *1974:B1 0.000902284
4 *1965:Y 0.0008677
5 *245:24 0.000216364
6 *1974:B1 *1972:A 0
7 *1974:B1 *1975:B 0
8 *1974:B1 *2124:B2 9.16237e-05
9 *1974:B1 *2124:C1 0
10 *1974:B1 *2376:A 0.000141606
11 *1974:B1 *252:10 5.50989e-05
12 *2403:A *2070:B1 0.000115839
13 *2403:A *2070:C1 0
14 *2403:A *2124:A2 0.0001369
15 *2403:A *2124:B2 5.50989e-05
16 *2403:A *252:23 5.53249e-06
17 *1974:A1 *245:24 0
18 *1974:A2 *245:24 2.75145e-05
19 *2190:B *1974:B1 0
20 *2190:D *1974:B1 0.00010506
21 *133:10 *1974:B1 0
22 *141:14 *2411:A 5.05521e-05
23 *141:14 *245:24 2.75145e-05
*RES
1 *1965:Y *1974:B1 23.37 
2 *1974:B1 *245:24 2.41 
3 *245:24 *2403:A 9.785 
4 *245:24 *2411:A 2.395 
*END

*D_NET *246 0.000874517
*CONN
*I *1967:B1 I *D sky130_fd_sc_hd__a21oi_2
*I *2169:B1 I *D sky130_fd_sc_hd__a211o_4
*I *1966:Y O *D sky130_fd_sc_hd__o22ai_2
*CAP
1 *1967:B1 0.000149655
2 *2169:B1 1.17533e-05
3 *1966:Y 0.000133134
4 *246:8 0.000294542
5 *1955:A1 *1967:B1 0
6 *1967:A1 *1967:B1 0.000102421
7 *1967:A1 *246:8 4.1652e-06
8 *1968:A *1967:B1 2.75145e-05
9 *215:60 *2169:B1 4.82863e-05
10 *215:60 *246:8 7.55313e-05
11 *223:29 *2169:B1 2.75145e-05
*RES
1 *1966:Y *246:8 5.745 
2 *246:8 *2169:B1 4.05 
3 *246:8 *1967:B1 6.45 
*END

*D_NET *247 0.000717549
*CONN
*I *1969:B2 I *D sky130_fd_sc_hd__o22ai_4
*I *1967:Y O *D sky130_fd_sc_hd__a21oi_2
*CAP
1 *1969:B2 0.000241645
2 *1967:Y 0.000241645
3 *1969:B2 *556:42 4.8854e-05
4 *233:12 *1969:B2 0.000185405
*RES
1 *1967:Y *1969:B2 11.67 
*END

*D_NET *248 0.00101235
*CONN
*I *1969:B1 I *D sky130_fd_sc_hd__o22ai_4
*I *1968:Y O *D sky130_fd_sc_hd__nand2_2
*CAP
1 *1969:B1 0.000254028
2 *1968:Y 0.000254028
3 *1969:B1 *1944:A 4.99524e-05
4 *1969:B1 *456:47 0.000136296
5 *1969:B1 *496:21 8.23458e-05
6 *1967:A2 *1969:B1 6.69608e-06
7 *1968:A *1969:B1 7.39477e-05
8 *1968:B *1969:B1 0.000155056
*RES
1 *1968:Y *1969:B1 12.705 
*END

*D_NET *249 0.00522846
*CONN
*I *1970:A I *D sky130_fd_sc_hd__nand3_2
*I *2174:B1 I *D sky130_fd_sc_hd__a21oi_2
*I *1971:A3 I *D sky130_fd_sc_hd__a31oi_2
*I *1969:Y O *D sky130_fd_sc_hd__o22ai_4
*CAP
1 *1970:A 0.00055087
2 *2174:B1 0
3 *1971:A3 0.000547809
4 *1969:Y 0.00123757
5 *249:12 0.000785094
6 *249:6 0.00202572
7 *1971:A3 *1973:D 3.31103e-05
8 *1971:A3 *434:10 4.82863e-05
9 *2174:A1 *249:12 0
10 *235:10 *249:12 0
*RES
1 *1969:Y *249:6 18.61 
2 *249:6 *249:12 7.675 
3 *249:12 *1971:A3 10 
4 *249:12 *2174:B1 1.6 
5 *249:6 *1970:A 9.91 
*END

*D_NET *250 0.00194464
*CONN
*I *2190:C I *D sky130_fd_sc_hd__nand4_2
*I *1972:A I *D sky130_fd_sc_hd__nand2_4
*I *1970:Y O *D sky130_fd_sc_hd__nand3_2
*CAP
1 *2190:C 5.12763e-05
2 *1972:A 0.000552376
3 *1970:Y 0.000216391
4 *250:8 0.000820043
5 *1972:A *1975:B 9.428e-05
6 *1972:A *1982:A2 0
7 *1972:A *2376:A 5.92849e-05
8 *1970:C *250:8 1.91597e-05
9 *1974:B1 *1972:A 0
10 *2190:A *250:8 0.000122331
11 *2190:B *1972:A 9.50342e-06
*RES
1 *1970:Y *250:8 5.17 
2 *250:8 *1972:A 15.65 
3 *250:8 *2190:C 2.395 
*END

*D_NET *251 0.000395871
*CONN
*I *1973:A I *D sky130_fd_sc_hd__nand4_2
*I *1971:Y O *D sky130_fd_sc_hd__a31oi_2
*CAP
1 *1973:A 0.000104514
2 *1971:Y 0.000104514
3 *1973:A *1973:D 4.82919e-05
4 *1970:C *1973:A 0.000138551
5 *241:10 *1973:A 0
*RES
1 *1971:Y *1973:A 9.285 
*END

*D_NET *252 0.00136993
*CONN
*I *2070:B1 I *D sky130_fd_sc_hd__o221ai_4
*I *1974:B2 I *D sky130_fd_sc_hd__o22ai_4
*I *2124:B1 I *D sky130_fd_sc_hd__o221ai_4
*I *1972:Y O *D sky130_fd_sc_hd__nand2_4
*CAP
1 *2070:B1 5.77155e-05
2 *1974:B2 0
3 *2124:B1 8.42005e-05
4 *1972:Y 0.000109734
5 *252:23 0.000108333
6 *252:10 0.000244552
7 *2070:B1 *2124:B2 0.000198279
8 *252:10 *2124:B2 3.09164e-05
9 *252:10 *2378:A 8.8266e-05
10 *252:23 *2124:A2 0
11 *252:23 *2124:B2 0.000130714
12 *1974:A2 *252:10 2.4997e-05
13 *1974:A2 *252:23 5.02217e-05
14 *1974:B1 *252:10 5.50989e-05
15 *2403:A *2070:B1 0.000115839
16 *2403:A *252:23 5.53249e-06
17 *133:10 *252:10 6.55328e-05
*RES
1 *1972:Y *252:10 6.285 
2 *252:10 *2124:B1 4.755 
3 *252:10 *252:23 1.635 
4 *252:23 *1974:B2 3.6 
5 *252:23 *2070:B1 6 
*END

*D_NET *253 0.00415037
*CONN
*I *2128:A2 I *D sky130_fd_sc_hd__a31oi_2
*I *1994:A2 I *D sky130_fd_sc_hd__a31oi_4
*I *1997:D I *D sky130_fd_sc_hd__nand4b_2
*I *1973:Y O *D sky130_fd_sc_hd__nand4_2
*CAP
1 *2128:A2 0.000588945
2 *1994:A2 2.43262e-05
3 *1997:D 0
4 *1973:Y 0.000837228
5 *253:25 0.000853779
6 *253:12 0.00107774
7 *1994:A2 *1994:B1 8.49205e-05
8 *1994:A2 *2138:A2 3.1835e-05
9 *2128:A2 *2014:D 7.18817e-05
10 *2128:A2 *2128:B1 0.00013979
11 *2128:A2 *290:10 0
12 *253:12 *1982:A2 0
13 *253:25 *1994:A3 0
14 *253:25 *2014:D 8.97486e-05
15 *1970:B *253:12 0
16 *1970:C *253:12 0
17 *1997:C *2128:A2 8.53113e-06
18 *1997:C *253:25 0.000293355
19 *141:14 *2128:A2 4.82919e-05
*RES
1 *1973:Y *253:12 19.01 
2 *253:12 *1997:D 1.6 
3 *253:12 *253:25 7.085 
4 *253:25 *1994:A2 4.395 
5 *253:25 *2128:A2 11.835 
*END

*D_NET *254 0.00837073
*CONN
*I *1982:A2 I *D sky130_fd_sc_hd__a21bo_2
*I *1975:B I *D sky130_fd_sc_hd__xor2_2
*I *2402:A I *D sky130_fd_sc_hd__buf_2
*I *2020:B1 I *D sky130_fd_sc_hd__o22ai_4
*I *1974:Y O *D sky130_fd_sc_hd__o22ai_4
*CAP
1 *1982:A2 0.000879779
2 *1975:B 0.00110653
3 *2402:A 0.00042457
4 *2020:B1 0.000796288
5 *1974:Y 0
6 *254:10 0.00196129
7 *254:4 0.000967187
8 *1975:B *2124:C1 0.000210839
9 *1975:B *2127:B 0.000233918
10 *1975:B *2378:A 5.3023e-05
11 *1982:A2 *2377:A 0.00041515
12 *2020:B1 *2015:A 0.000616046
13 *2020:B1 *2020:B2 0.000118207
14 *2020:B1 *2080:A2 0
15 *2020:B1 *339:8 2.58017e-05
16 *2402:A *2067:B1 0
17 *2402:A *2080:A1 0
18 *2402:A *2126:A2 8.65905e-05
19 *2402:A *2405:A 0
20 *2402:A *2412:A 1.22762e-05
21 *254:10 *2015:A 0
22 *254:10 *2067:A2 0
23 *254:10 *2068:B 7.45794e-05
24 *254:10 *2127:B 0
25 *254:10 *2128:B1 0
26 *254:10 *2138:A2 3.39151e-05
27 *254:10 *2412:A 6.95591e-05
28 *254:10 *290:10 0
29 *254:10 *290:19 0
30 *254:10 *391:8 0
31 *1972:A *1975:B 9.428e-05
32 *1972:A *1982:A2 0
33 *1974:B1 *1975:B 0
34 *1982:B1_N *1982:A2 2.41437e-05
35 *1994:A1 *254:10 0.00016676
36 *253:12 *1982:A2 0
*RES
1 *1974:Y *254:4 1.6 
2 *254:4 *254:10 13.625 
3 *254:10 *2020:B1 14.7 
4 *254:10 *2402:A 10.095 
5 *254:4 *1975:B 10.48 
6 *1975:B *1982:A2 21.305 
*END

*D_NET *255 0.000705102
*CONN
*I *1980:A1 I *D sky130_fd_sc_hd__o21bai_4
*I *1979:A_N I *D sky130_fd_sc_hd__nand3b_2
*I *1976:Y O *D sky130_fd_sc_hd__nor2_4
*CAP
1 *1980:A1 0
2 *1979:A_N 0.000195097
3 *1976:Y 7.83361e-05
4 *255:8 0.000273433
5 *1979:A_N *1976:B 6.9451e-05
6 *1979:A_N *1979:C 3.66303e-05
7 *1979:A_N *2284:A 0
8 *1979:A_N *258:16 0
9 *255:8 *1976:B 5.21545e-05
10 *255:8 *2284:A 0
11 *255:8 *460:33 0
*RES
1 *1976:Y *255:8 5.235 
2 *255:8 *1979:A_N 7.35 
3 *255:8 *1980:A1 3.6 
*END

*D_NET *256 0.000405714
*CONN
*I *1980:A2 I *D sky130_fd_sc_hd__o21bai_4
*I *1977:X O *D sky130_fd_sc_hd__and2_4
*CAP
1 *1980:A2 0.000110332
2 *1977:X 0.000110332
3 *1980:A2 *1976:B 0.000105841
4 *1980:A2 *259:8 4.82919e-05
5 *1980:A2 *456:41 3.09164e-05
*RES
1 *1977:X *1980:A2 9.795 
*END

*D_NET *257 0.000217872
*CONN
*I *1979:B I *D sky130_fd_sc_hd__nand3b_2
*I *1978:Y O *D sky130_fd_sc_hd__nand2_2
*CAP
1 *1979:B 7.89723e-05
2 *1978:Y 7.89723e-05
3 *1979:B *1976:B 8.66976e-06
4 *1979:B *1978:B 5.12575e-05
5 *1979:B *2205:A 0
*RES
1 *1978:Y *1979:B 8.835 
*END

*D_NET *258 0.00319119
*CONN
*I *1991:C I *D sky130_fd_sc_hd__and4_2
*I *1981:A I *D sky130_fd_sc_hd__nand2_2
*I *1992:B I *D sky130_fd_sc_hd__nand2_2
*I *1979:Y O *D sky130_fd_sc_hd__nand3b_2
*CAP
1 *1991:C 0
2 *1981:A 0.000106991
3 *1992:B 0
4 *1979:Y 0.00077303
5 *258:25 0.000189635
6 *258:16 0.000855674
7 *258:16 *1991:D 1.91597e-05
8 *258:16 *2205:A 3.45679e-05
9 *258:16 *2205:B 1.56428e-05
10 *258:16 *2207:C 0.000142669
11 *258:16 *270:10 5.16348e-05
12 *258:25 *1991:D 0.000429658
13 *258:25 *259:8 5.4155e-06
14 *1979:A_N *258:16 0
15 *1991:B *258:25 4.99619e-05
16 *2014:A *1981:A 0
17 *2208:A2 *258:16 1.03323e-05
18 *105:12 *258:16 0.000225836
19 *105:16 *258:16 4.66108e-05
20 *105:16 *258:25 0.000188312
21 *105:23 *258:25 4.60584e-05
*RES
1 *1979:Y *258:16 16.085 
2 *258:16 *1992:B 1.6 
3 *258:16 *258:25 4.26 
4 *258:25 *1981:A 7.235 
5 *258:25 *1991:C 1.6 
*END

*D_NET *259 0.004442
*CONN
*I *1991:D I *D sky130_fd_sc_hd__and4_2
*I *1993:A I *D sky130_fd_sc_hd__and2_2
*I *2018:B2 I *D sky130_fd_sc_hd__a22oi_2
*I *1981:B I *D sky130_fd_sc_hd__nand2_2
*I *1980:Y O *D sky130_fd_sc_hd__o21bai_4
*CAP
1 *1991:D 0.000356148
2 *1993:A 9.33385e-05
3 *2018:B2 0
4 *1981:B 0.000268594
5 *1980:Y 0.000807795
6 *259:25 0.000199908
7 *259:12 0.000448013
8 *259:8 0.00123679
9 *1993:A *1993:B 0.000152328
10 *1993:A *2018:B1 8.49205e-05
11 *259:8 *2407:A 4.82919e-05
12 *259:8 *481:10 2.50702e-05
13 *259:12 *270:10 6.36578e-05
14 *259:25 *270:10 0.00011741
15 *259:25 *451:20 0
16 *1980:A2 *259:8 4.82919e-05
17 *1991:B *1991:D 2.30292e-05
18 *105:16 *1991:D 8.34281e-06
19 *105:16 *259:8 5.83121e-06
20 *258:16 *1991:D 1.91597e-05
21 *258:25 *1991:D 0.000429658
22 *258:25 *259:8 5.4155e-06
*RES
1 *1980:Y *259:8 13.105 
2 *259:8 *259:12 3.38 
3 *259:12 *1981:B 7.5 
4 *259:12 *259:25 4.4 
5 *259:25 *2018:B2 1.6 
6 *259:25 *1993:A 3.775 
7 *259:8 *1991:D 6.535 
*END

*D_NET *260 0.00135724
*CONN
*I *2014:B I *D sky130_fd_sc_hd__nor4_4
*I *1983:A I *D sky130_fd_sc_hd__xor2_2
*I *1981:Y O *D sky130_fd_sc_hd__nand2_2
*CAP
1 *2014:B 8.89257e-05
2 *1983:A 0.000283499
3 *1981:Y 0.000120758
4 *260:8 0.000493182
5 *1983:A *1994:A3 0
6 *1983:A *269:10 0
7 *2014:B *1997:A_N 0
8 *2014:B *274:10 0.000141599
9 *260:8 *274:10 2.75145e-05
10 *2014:A *1983:A 0.000122877
11 *2014:A *2014:B 2.05661e-05
12 *106:27 *1983:A 5.83169e-05
*RES
1 *1981:Y *260:8 5.43 
2 *260:8 *1983:A 8.685 
3 *260:8 *2014:B 5.745 
*END

*D_NET *261 0.000189331
*CONN
*I *1983:B I *D sky130_fd_sc_hd__xor2_2
*I *1982:X O *D sky130_fd_sc_hd__a21bo_2
*CAP
1 *1983:B 6.09617e-05
2 *1982:X 6.09617e-05
3 *1983:B *2377:A 0
4 *106:27 *1983:B 6.74079e-05
*RES
1 *1982:X *1983:B 6.98 
*END

*D_NET *262 0.00198408
*CONN
*I *1988:A_N I *D sky130_fd_sc_hd__nand3b_2
*I *1989:A1 I *D sky130_fd_sc_hd__o21bai_4
*I *1987:A I *D sky130_fd_sc_hd__nor2_2
*I *1984:Y O *D sky130_fd_sc_hd__nor2_4
*CAP
1 *1988:A_N 0.000266263
2 *1989:A1 0
3 *1987:A 0.000302024
4 *1984:Y 9.22024e-05
5 *262:27 0.000298145
6 *262:10 0.000426109
7 *1987:A *1987:B 0.000115444
8 *1987:A *1988:B 5.03301e-05
9 *1987:A *1989:B1_N 8.49205e-05
10 *1987:A *2018:A2 0.000158072
11 *1987:A *263:12 2.11084e-05
12 *1988:A_N *1986:A 0.000109533
13 *1988:A_N *1988:B 0
14 *1988:A_N *1988:C 0
15 *1988:A_N *263:12 0
16 *1988:A_N *451:20 0
17 *1988:A_N *464:24 5.53249e-06
18 *262:10 *1984:B 4.99619e-05
19 *262:27 *1984:B 0
20 *262:27 *1986:A 4.43871e-06
21 *262:27 *451:20 0
*RES
1 *1984:Y *262:10 4.92 
2 *262:10 *1987:A 9.015 
3 *262:10 *262:27 0.615 
4 *262:27 *1989:A1 3.6 
5 *262:27 *1988:A_N 8.175 
*END

*D_NET *263 0.00117196
*CONN
*I *1987:B I *D sky130_fd_sc_hd__nor2_2
*I *1989:A2 I *D sky130_fd_sc_hd__o21bai_4
*I *1985:X O *D sky130_fd_sc_hd__and2_4
*CAP
1 *1987:B 9.54242e-05
2 *1989:A2 2.08101e-05
3 *1985:X 0.000137525
4 *263:12 0.00025376
5 *1987:B *1988:B 0.000164874
6 *1987:B *1989:B1_N 8.49205e-05
7 *1987:B *2018:A2 1.61831e-05
8 *1987:B *2138:A2 1.46744e-05
9 *1987:B *267:6 0.000198945
10 *263:12 *1988:B 4.82919e-05
11 *1987:A *1987:B 0.000115444
12 *1987:A *263:12 2.11084e-05
13 *1988:A_N *263:12 0
*RES
1 *1985:X *263:12 7.94 
2 *263:12 *1989:A2 1.96 
3 *263:12 *1987:B 5.515 
*END

*D_NET *264 0.00133775
*CONN
*I *1988:B I *D sky130_fd_sc_hd__nand3b_2
*I *1986:Y O *D sky130_fd_sc_hd__nand2_2
*CAP
1 *1988:B 0.000218959
2 *1986:Y 0.000218959
3 *1988:B *1986:A 2.75145e-05
4 *1988:B *1988:C 0.000137571
5 *1988:B *2019:A2 9.3062e-06
6 *1988:B *2138:A2 0.000461941
7 *1987:A *1988:B 5.03301e-05
8 *1987:B *1988:B 0.000164874
9 *1988:A_N *1988:B 0
10 *263:12 *1988:B 4.82919e-05
*RES
1 *1986:Y *1988:B 13.695 
*END

*D_NET *265 0.000704785
*CONN
*I *2018:A2 I *D sky130_fd_sc_hd__a22oi_2
*I *1987:Y O *D sky130_fd_sc_hd__nor2_2
*CAP
1 *2018:A2 0.000206009
2 *1987:Y 0.000206009
3 *2018:A2 *451:20 0.000118513
4 *1987:A *2018:A2 0.000158072
5 *1987:B *2018:A2 1.61831e-05
*RES
1 *1987:Y *2018:A2 10.41 
*END

*D_NET *266 0.00115874
*CONN
*I *1990:A I *D sky130_fd_sc_hd__nand2_2
*I *1996:B1_N I *D sky130_fd_sc_hd__a21boi_2
*I *1988:Y O *D sky130_fd_sc_hd__nand3b_2
*CAP
1 *1990:A 0.000232462
2 *1996:B1_N 0
3 *1988:Y 0.000255392
4 *266:8 0.000487854
5 *1990:A *1996:A1 0.000173533
6 *1990:A *271:10 9.50342e-06
*RES
1 *1988:Y *266:8 5.17 
2 *266:8 *1996:B1_N 1.6 
3 *266:8 *1990:A 9.575 
*END

*D_NET *267 0.00254903
*CONN
*I *1996:A2 I *D sky130_fd_sc_hd__a21boi_2
*I *1990:B I *D sky130_fd_sc_hd__nand2_2
*I *2017:B1 I *D sky130_fd_sc_hd__o21ai_2
*I *1989:Y O *D sky130_fd_sc_hd__o21bai_4
*CAP
1 *1996:A2 0.000125729
2 *1990:B 3.55506e-05
3 *2017:B1 0.000288737
4 *1989:Y 3.54981e-05
5 *267:19 0.000288124
6 *267:6 0.000451079
7 *1996:A2 *1994:B1 2.75229e-05
8 *1996:A2 *1996:A1 0.000139238
9 *1996:A2 *2138:A2 0.00015806
10 *1996:A2 *274:10 0
11 *2017:B1 *2019:A2 0.000210246
12 *267:6 *2138:A2 0.000197269
13 *267:19 *2138:A2 0.000393029
14 *1987:B *267:6 0.000198945
*RES
1 *1989:Y *267:6 3.43 
2 *267:6 *2017:B1 11.57 
3 *267:6 *267:19 3.555 
4 *267:19 *1990:B 2.215 
5 *267:19 *1996:A2 8.72 
*END

*D_NET *268 0.00222995
*CONN
*I *2014:C I *D sky130_fd_sc_hd__nor4_4
*I *1995:A I *D sky130_fd_sc_hd__xor2_2
*I *1997:A_N I *D sky130_fd_sc_hd__nand4b_2
*I *1990:Y O *D sky130_fd_sc_hd__nand2_2
*CAP
1 *2014:C 0
2 *1995:A 0.000314704
3 *1997:A_N 0.000155174
4 *1990:Y 0.000253923
5 *268:23 0.000314704
6 *268:10 0.000409097
7 *1995:A *290:10 0.000161829
8 *1997:A_N *1994:A3 0.000100544
9 *1997:A_N *274:10 5.05437e-05
10 *268:10 *1994:A3 7.89689e-05
11 *268:10 *1994:B1 0.00039046
12 *268:10 *274:10 0
13 *2014:B *1997:A_N 0
*RES
1 *1990:Y *268:10 8.79 
2 *268:10 *1997:A_N 6.54 
3 *268:10 *268:23 2 
4 *268:23 *1995:A 6.895 
5 *268:23 *2014:C 1.6 
*END

*D_NET *269 0.00154056
*CONN
*I *1994:A3 I *D sky130_fd_sc_hd__a31oi_4
*I *1997:B I *D sky130_fd_sc_hd__nand4b_2
*I *1991:X O *D sky130_fd_sc_hd__and4_2
*CAP
1 *1994:A3 0.000183295
2 *1997:B 0
3 *1991:X 0.000374066
4 *269:10 0.000557361
5 *1994:A3 *2014:D 6.65066e-05
6 *1975:A *269:10 9.91257e-05
7 *1983:A *1994:A3 0
8 *1983:A *269:10 0
9 *1991:B *269:10 2.75145e-05
10 *1997:A_N *1994:A3 0.000100544
11 *1997:C *1994:A3 0
12 *1997:C *269:10 0
13 *2209:A *269:10 2.8185e-05
14 *2209:B *269:10 2.49909e-05
15 *253:25 *1994:A3 0
16 *268:10 *1994:A3 7.89689e-05
*RES
1 *1991:X *269:10 8.535 
2 *269:10 *1997:B 3.6 
3 *269:10 *1994:A3 7.785 
*END

*D_NET *270 0.00145765
*CONN
*I *1993:B I *D sky130_fd_sc_hd__and2_2
*I *2018:B1 I *D sky130_fd_sc_hd__a22oi_2
*I *1992:Y O *D sky130_fd_sc_hd__nand2_2
*CAP
1 *1993:B 0.000145068
2 *2018:B1 9.12127e-05
3 *1992:Y 0.000257567
4 *270:10 0.000493848
5 *2018:B1 *451:16 0
6 *270:10 *2019:A2 0
7 *270:10 *451:20 0
8 *1993:A *1993:B 0.000152328
9 *1993:A *2018:B1 8.49205e-05
10 *258:16 *270:10 5.16348e-05
11 *259:12 *270:10 6.36578e-05
12 *259:25 *270:10 0.00011741
*RES
1 *1992:Y *270:10 10.55 
2 *270:10 *2018:B1 3.1 
3 *270:10 *1993:B 4.135 
*END

*D_NET *271 0.00241702
*CONN
*I *1996:A1 I *D sky130_fd_sc_hd__a21boi_2
*I *1994:B1 I *D sky130_fd_sc_hd__a31oi_4
*I *1993:X O *D sky130_fd_sc_hd__and2_2
*CAP
1 *1996:A1 7.35122e-05
2 *1994:B1 0.000379449
3 *1993:X 0.000193182
4 *271:10 0.000646144
5 *1994:B1 *2138:A2 0.000259987
6 *1996:A1 *274:10 0
7 *271:10 *274:10 0
8 *1990:A *1996:A1 0.000173533
9 *1990:A *271:10 9.50342e-06
10 *1994:A1 *1994:B1 3.95724e-05
11 *1994:A2 *1994:B1 8.49205e-05
12 *1996:A2 *1994:B1 2.75229e-05
13 *1996:A2 *1996:A1 0.000139238
14 *268:10 *1994:B1 0.00039046
*RES
1 *1993:X *271:10 6.12 
2 *271:10 *1994:B1 12.465 
3 *271:10 *1996:A1 6 
*END

*D_NET *272 0.00023317
*CONN
*I *1995:B I *D sky130_fd_sc_hd__xor2_2
*I *1994:Y O *D sky130_fd_sc_hd__a31oi_4
*CAP
1 *1995:B 8.38146e-05
2 *1994:Y 8.38146e-05
3 *1995:B *2127:B 0
4 *1995:B *290:10 6.55406e-05
5 *1997:C *1995:B 0
*RES
1 *1994:Y *1995:B 7.235 
*END

*D_NET *273 0.00114174
*CONN
*I *2006:D I *D sky130_fd_sc_hd__nand4_2
*I *2016:A I *D sky130_fd_sc_hd__and2_2
*I *2005:B2 I *D sky130_fd_sc_hd__a22o_2
*I *1996:Y O *D sky130_fd_sc_hd__a21boi_2
*CAP
1 *2006:D 1.41735e-05
2 *2016:A 0
3 *2005:B2 0.000102407
4 *1996:Y 0.000228476
5 *273:21 0.000153389
6 *273:8 0.000470099
7 *2006:D *278:27 8.65961e-05
8 *2006:D *280:12 8.65961e-05
9 *273:8 *274:10 0
10 *273:21 *2006:A 0
11 *273:21 *2020:A1 0
*RES
1 *1996:Y *273:8 7.275 
2 *273:8 *2005:B2 5.085 
3 *273:8 *273:21 3.89 
4 *273:21 *2016:A 1.6 
5 *273:21 *2006:D 2.395 
*END

*D_NET *274 0.00256623
*CONN
*I *2006:A I *D sky130_fd_sc_hd__nand4_2
*I *2005:B1 I *D sky130_fd_sc_hd__a22o_2
*I *1997:Y O *D sky130_fd_sc_hd__nand4b_2
*CAP
1 *2006:A 0.000137044
2 *2005:B1 0
3 *1997:Y 0.000729774
4 *274:10 0.000866818
5 *2006:A *2007:B 6.26016e-05
6 *2006:A *2067:A2 9.80943e-06
7 *2006:A *278:27 4.66108e-05
8 *2006:A *278:33 0.000116151
9 *2006:A *280:29 3.25957e-05
10 *2006:A *393:18 0.00019637
11 *274:10 *2007:A 0
12 *274:10 *2014:D 0
13 *274:10 *280:29 5.53249e-06
14 *1996:A1 *274:10 0
15 *1996:A2 *274:10 0
16 *1997:A_N *274:10 5.05437e-05
17 *2014:A *274:10 0.000143266
18 *2014:B *274:10 0.000141599
19 *260:8 *274:10 2.75145e-05
20 *268:10 *274:10 0
21 *271:10 *274:10 0
22 *273:8 *274:10 0
23 *273:21 *2006:A 0
*RES
1 *1997:Y *274:10 15.57 
2 *274:10 *2005:B1 3.6 
3 *274:10 *2006:A 7.425 
*END

*D_NET *275 0.000667847
*CONN
*I *2000:A I *D sky130_fd_sc_hd__nor2_2
*I *2003:A1 I *D sky130_fd_sc_hd__o21bai_2
*I *1998:Y O *D sky130_fd_sc_hd__nor2_2
*CAP
1 *2000:A 0.000170882
2 *2003:A1 0
3 *1998:Y 6.04926e-05
4 *275:8 0.000231374
5 *2000:A *2000:B 8.47542e-05
6 *2000:A *464:14 0
7 *2000:A *464:20 0
8 *275:8 *1998:B 0.000116158
9 *275:8 *2000:B 4.18603e-06
10 *275:8 *462:19 0
*RES
1 *1998:Y *275:8 4.98 
2 *275:8 *2003:A1 3.6 
3 *275:8 *2000:A 6.795 
*END

*D_NET *276 0.000820686
*CONN
*I *2003:A2 I *D sky130_fd_sc_hd__o21bai_2
*I *2000:B I *D sky130_fd_sc_hd__nor2_2
*I *1999:X O *D sky130_fd_sc_hd__and2_2
*CAP
1 *2003:A2 0
2 *2000:B 0.000162566
3 *1999:X 0.000127757
4 *276:8 0.000290323
5 *2000:B *2001:B 0
6 *2000:B *462:19 0
7 *276:8 *1998:B 8.65905e-05
8 *276:8 *280:12 5.4155e-06
9 *276:8 *393:18 5.90938e-05
10 *2000:A *2000:B 8.47542e-05
11 *275:8 *2000:B 4.18603e-06
*RES
1 *1999:X *276:8 4.135 
2 *276:8 *2000:B 8.45 
3 *276:8 *2003:A2 1.6 
*END

*D_NET *277 0.00154993
*CONN
*I *2002:B I *D sky130_fd_sc_hd__nor2_2
*I *2017:A2 I *D sky130_fd_sc_hd__o21ai_2
*I *2001:A I *D sky130_fd_sc_hd__nand2_2
*I *2000:Y O *D sky130_fd_sc_hd__nor2_2
*CAP
1 *2002:B 9.2117e-05
2 *2017:A2 0.000153224
3 *2001:A 0
4 *2000:Y 0.000134323
5 *277:21 0.00046857
6 *277:8 0.000357552
7 *2002:B *2002:A 3.29384e-05
8 *2017:A2 *2002:A 9.80032e-06
9 *2017:A2 *2019:A1 4.82919e-05
10 *277:8 *2001:B 8.65961e-05
11 *277:21 *2001:B 0
12 *277:21 *2019:A1 7.3664e-05
13 *277:21 *2020:A1 0
14 *277:21 *278:12 6.23206e-05
15 *277:21 *296:10 3.05295e-05
*RES
1 *2000:Y *277:8 3.79 
2 *277:8 *2001:A 1.6 
3 *277:8 *277:21 8.125 
4 *277:21 *2017:A2 3.805 
5 *277:21 *2002:B 3.46 
*END

*D_NET *278 0.00277442
*CONN
*I *2016:B I *D sky130_fd_sc_hd__and2_2
*I *2006:B I *D sky130_fd_sc_hd__nand4_2
*I *2004:A I *D sky130_fd_sc_hd__nand2_2
*I *2005:A1 I *D sky130_fd_sc_hd__a22o_2
*I *2019:B1 I *D sky130_fd_sc_hd__o21ai_2
*I *2001:Y O *D sky130_fd_sc_hd__nand2_2
*CAP
1 *2016:B 0
2 *2006:B 0
3 *2004:A 0.000167464
4 *2005:A1 0
5 *2019:B1 0
6 *2001:Y 0.000122399
7 *278:33 0.000217107
8 *278:27 0.000136872
9 *278:19 0.000145451
10 *278:12 0.000180621
11 *2004:A *2004:B 0.000161262
12 *2004:A *2007:A 2.96334e-05
13 *2004:A *280:29 1.2818e-05
14 *278:12 *2020:A1 9.60047e-05
15 *278:12 *296:10 7.58604e-05
16 *278:19 *280:12 0.000352161
17 *278:19 *393:18 0.000203402
18 *278:27 *2006:C 9.53428e-06
19 *278:27 *280:12 6.07328e-05
20 *278:27 *280:29 0.000102611
21 *278:27 *393:18 0.000253593
22 *278:33 *280:29 0.00013521
23 *2006:A *278:27 4.66108e-05
24 *2006:A *278:33 0.000116151
25 *2006:D *278:27 8.65961e-05
26 *277:21 *278:12 6.23206e-05
*RES
1 *2001:Y *278:12 8.54 
2 *278:12 *2019:B1 1.6 
3 *278:12 *278:19 3.21 
4 *278:19 *278:27 3.69 
5 *278:27 *278:33 5.635 
6 *278:33 *2005:A1 1.6 
7 *278:33 *2004:A 4.48 
8 *278:27 *2006:B 1.6 
9 *278:19 *2016:B 1.6 
*END

*D_NET *279 0.000525185
*CONN
*I *2020:A1 I *D sky130_fd_sc_hd__o22ai_4
*I *2002:Y O *D sky130_fd_sc_hd__nor2_2
*CAP
1 *2020:A1 0.00021459
2 *2002:Y 0.00021459
3 *2020:A1 *2020:A2 0
4 *273:21 *2020:A1 0
5 *277:21 *2020:A1 0
6 *278:12 *2020:A1 9.60047e-05
*RES
1 *2002:Y *2020:A1 10.875 
*END

*D_NET *280 0.00293534
*CONN
*I *2004:B I *D sky130_fd_sc_hd__nand2_2
*I *2005:A2 I *D sky130_fd_sc_hd__a22o_2
*I *2006:C I *D sky130_fd_sc_hd__nand4_2
*I *2003:Y O *D sky130_fd_sc_hd__o21bai_2
*CAP
1 *2004:B 3.65223e-05
2 *2005:A2 0
3 *2006:C 1.85694e-05
4 *2003:Y 0.000317008
5 *280:29 0.000179078
6 *280:12 0.000478133
7 *2004:B *2007:A 5.30673e-05
8 *280:12 *2019:A2 4.66826e-05
9 *280:12 *2067:A2 0.000581093
10 *280:12 *393:18 9.75161e-05
11 *280:29 *2007:A 0
12 *280:29 *2067:A2 0.000163199
13 *2004:A *2004:B 0.000161262
14 *2004:A *280:29 1.2818e-05
15 *2006:A *280:29 3.25957e-05
16 *2006:D *280:12 8.65961e-05
17 *274:10 *280:29 5.53249e-06
18 *276:8 *280:12 5.4155e-06
19 *278:19 *280:12 0.000352161
20 *278:27 *2006:C 9.53428e-06
21 *278:27 *280:12 6.07328e-05
22 *278:27 *280:29 0.000102611
23 *278:33 *280:29 0.00013521
*RES
1 *2003:Y *280:12 10.81 
2 *280:12 *2006:C 1.96 
3 *280:12 *280:29 7.75375 
4 *280:29 *2005:A2 1.6 
5 *280:29 *2004:B 3.06625 
*END

*D_NET *281 0.00105071
*CONN
*I *2014:D I *D sky130_fd_sc_hd__nor4_4
*I *2004:Y O *D sky130_fd_sc_hd__nand2_2
*CAP
1 *2014:D 0.000402736
2 *2004:Y 0.000402736
3 *2014:D *2007:A 1.71013e-05
4 *1994:A3 *2014:D 6.65066e-05
5 *2128:A2 *2014:D 7.18817e-05
6 *253:25 *2014:D 8.97486e-05
7 *274:10 *2014:D 0
*RES
1 *2004:Y *2014:D 15.21 
*END

*D_NET *282 0.000601984
*CONN
*I *2007:A I *D sky130_fd_sc_hd__nand2_2
*I *2005:X O *D sky130_fd_sc_hd__a22o_2
*CAP
1 *2007:A 0.000251091
2 *2005:X 0.000251091
3 *2004:A *2007:A 2.96334e-05
4 *2004:B *2007:A 5.30673e-05
5 *2014:D *2007:A 1.71013e-05
6 *274:10 *2007:A 0
7 *280:29 *2007:A 0
*RES
1 *2005:X *2007:A 11.085 
*END

*D_NET *283 0.00027932
*CONN
*I *2007:B I *D sky130_fd_sc_hd__nand2_2
*I *2006:Y O *D sky130_fd_sc_hd__nand4_2
*CAP
1 *2007:B 3.69825e-05
2 *2006:Y 3.69825e-05
3 *2007:B *2067:A2 0.00012657
4 *2007:B *393:18 1.61831e-05
5 *2006:A *2007:B 6.26016e-05
*RES
1 *2006:Y *2007:B 4.7 
*END

*D_NET *284 0.00317942
*CONN
*I *2034:B2 I *D sky130_fd_sc_hd__o22a_2
*I *2012:A1 I *D sky130_fd_sc_hd__o21ba_2
*I *2029:B1 I *D sky130_fd_sc_hd__o2bb2ai_2
*I *2008:X O *D sky130_fd_sc_hd__and2_4
*CAP
1 *2034:B2 0.000156884
2 *2012:A1 0.000171328
3 *2029:B1 0.000201769
4 *2008:X 0.000210271
5 *284:23 0.000403249
6 *284:8 0.000487078
7 *2012:A1 *2012:B1_N 7.27003e-05
8 *2012:A1 *288:12 0.000196197
9 *2012:A1 *463:10 0.000121817
10 *2029:B1 *2011:A2 5.96203e-05
11 *2029:B1 *2029:A1_N 8.40213e-05
12 *2029:B1 *288:12 0.000315139
13 *2029:B1 *289:25 8.65961e-05
14 *2029:B1 *601:12 6.27438e-05
15 *2034:B2 *288:12 3.57349e-05
16 *2034:B2 *308:8 0.000124007
17 *284:8 *2008:A 7.08554e-05
18 *284:8 *2008:B 2.83579e-05
19 *284:23 *2011:A2 3.52241e-05
20 *284:23 *288:12 0.000186092
21 *284:23 *542:26 6.97358e-05
*RES
1 *2008:X *284:8 6.12 
2 *284:8 *2029:B1 8.76 
3 *284:8 *284:23 4.4 
4 *284:23 *2012:A1 5.515 
5 *284:23 *2034:B2 4.48 
*END

*D_NET *285 0.0010163
*CONN
*I *2012:A2 I *D sky130_fd_sc_hd__o21ba_2
*I *2009:Y O *D sky130_fd_sc_hd__nor2_2
*CAP
1 *2012:A2 0.000232305
2 *2009:Y 0.000232305
3 *2012:A2 *2009:B 0.000108156
4 *2012:A2 *2010:A1 0.000125262
5 *2012:A2 *2012:B1_N 0.000141599
6 *2012:A2 *2021:B 0.000164679
7 *2012:A2 *542:10 1.19928e-05
8 *2012:A2 *542:26 0
*RES
1 *2009:Y *2012:A2 12.3 
*END

*D_NET *286 0.00211148
*CONN
*I *2034:B1 I *D sky130_fd_sc_hd__o22a_2
*I *2011:B1 I *D sky130_fd_sc_hd__a21oi_2
*I *2029:B2 I *D sky130_fd_sc_hd__o2bb2ai_2
*I *2010:Y O *D sky130_fd_sc_hd__o21ai_4
*CAP
1 *2034:B1 0
2 *2011:B1 4.89032e-05
3 *2029:B2 0.000134491
4 *2010:Y 0.000247527
5 *286:12 0.000380501
6 *286:10 0.000444633
7 *2011:B1 *2031:B1 9.4087e-05
8 *2011:B1 *287:8 0.000199833
9 *2029:B2 *2031:B1 0
10 *2029:B2 *288:12 0
11 *2029:B2 *289:25 2.11084e-05
12 *2029:B2 *464:12 5.93844e-05
13 *2029:B2 *601:12 4.82863e-05
14 *286:10 *464:10 7.75325e-05
15 *286:10 *542:6 0.000150334
16 *286:10 *542:10 2.68464e-05
17 *286:12 *288:12 0
18 *286:12 *464:10 6.57118e-05
19 *286:12 *464:12 6.23375e-05
20 *2333:A *286:10 4.99619e-05
*RES
1 *2010:Y *286:10 8.955 
2 *286:10 *286:12 3.93 
3 *286:12 *2029:B2 6.3 
4 *286:12 *2011:B1 5.43 
5 *286:10 *2034:B1 3.6 
*END

*D_NET *287 0.00602674
*CONN
*I *2058:A1 I *D sky130_fd_sc_hd__o211ai_2
*I *2030:B1 I *D sky130_fd_sc_hd__a211o_4
*I *2013:A I *D sky130_fd_sc_hd__nor2_2
*I *2065:A I *D sky130_fd_sc_hd__nor4_4
*I *2035:A1 I *D sky130_fd_sc_hd__o21ai_2
*I *2011:Y O *D sky130_fd_sc_hd__a21oi_2
*CAP
1 *2058:A1 0
2 *2030:B1 0
3 *2013:A 0.000450539
4 *2065:A 0.000338992
5 *2035:A1 0
6 *2011:Y 0.000605521
7 *287:38 0.000670575
8 *287:21 0.000650615
9 *287:19 0.000249078
10 *287:8 0.000763012
11 *2013:A *2027:A1 0.0001249
12 *2013:A *2027:B1 4.99619e-05
13 *2013:A *2030:A2 0.000108137
14 *2065:A *2065:B 5.84828e-05
15 *2065:A *2065:C 7.35813e-05
16 *2065:A *296:10 0.000206123
17 *287:8 *2028:A1 0.000237249
18 *287:8 *2031:B1 8.4546e-05
19 *287:8 *300:37 9.80943e-06
20 *287:8 *302:25 0.000335497
21 *287:19 *2035:B1 5.05521e-05
22 *287:19 *296:27 0.000175207
23 *287:19 *300:37 2.75145e-05
24 *287:19 *309:10 0.00016063
25 *287:21 *296:10 0.000175214
26 *287:21 *296:27 8.53113e-06
27 *287:38 *2030:C1 4.82863e-05
28 *287:38 *2032:B 0.000164352
29 *2011:B1 *287:8 0.000199833
*RES
1 *2011:Y *287:8 12.07 
2 *287:8 *2035:A1 1.6 
3 *287:8 *287:19 5.975 
4 *287:19 *287:21 2.145 
5 *287:21 *2065:A 10.26 
6 *287:21 *287:38 6.245 
7 *287:38 *2013:A 8.89 
8 *287:38 *2030:B1 1.6 
9 *287:19 *2058:A1 3.6 
*END

*D_NET *288 0.00391098
*CONN
*I *2013:B I *D sky130_fd_sc_hd__nor2_2
*I *2065:D I *D sky130_fd_sc_hd__nor4_4
*I *2012:X O *D sky130_fd_sc_hd__o21ba_2
*CAP
1 *2013:B 0
2 *2065:D 0.000748276
3 *2012:X 0.000509185
4 *288:12 0.00125746
5 *2065:D *1984:A 0
6 *2065:D *2065:C 0.000354719
7 *2065:D *2392:A 7.58604e-05
8 *288:12 *1984:A 0
9 *288:12 *2031:B1 0.000117825
10 *288:12 *2143:A 0
11 *288:12 *289:12 0.000114492
12 *288:12 *464:12 0
13 *2012:A1 *288:12 0.000196197
14 *2029:B1 *288:12 0.000315139
15 *2029:B2 *288:12 0
16 *2034:B2 *288:12 3.57349e-05
17 *284:23 *288:12 0.000186092
18 *286:12 *288:12 0
*RES
1 *2012:X *288:12 13.98 
2 *288:12 *2065:D 16.29 
3 *288:12 *2013:B 3.6 
*END

*D_NET *289 0.00519284
*CONN
*I *2021:A I *D sky130_fd_sc_hd__xor2_4
*I *2033:C1 I *D sky130_fd_sc_hd__o211a_2
*I *2030:A2 I *D sky130_fd_sc_hd__a211o_4
*I *2029:A1_N I *D sky130_fd_sc_hd__o2bb2ai_2
*I *2013:Y O *D sky130_fd_sc_hd__nor2_2
*CAP
1 *2021:A 0.000260613
2 *2033:C1 4.77651e-05
3 *2030:A2 0.000170194
4 *2029:A1_N 4.764e-05
5 *2013:Y 0.000104801
6 *289:40 0.000469635
7 *289:25 0.000481156
8 *289:12 0.000302147
9 *2021:A *2024:A2 5.98004e-06
10 *2021:A *2025:A1 6.5525e-05
11 *2021:A *2293:A 4.35648e-05
12 *2021:A *2381:A 0.000124895
13 *2021:A *298:19 4.9968e-05
14 *2021:A *298:45 0.000133075
15 *2021:A *543:10 0.000307296
16 *2021:A *564:43 0.000187073
17 *2029:A1_N *1984:A 0.000122325
18 *2029:A1_N *601:12 1.33293e-05
19 *2030:A2 *2027:A1 1.16578e-05
20 *2030:A2 *2027:A2 0.00011852
21 *2030:A2 *2027:B1 4.82863e-05
22 *2030:A2 *302:12 4.99619e-05
23 *2033:C1 *2034:A1 0.000196376
24 *2033:C1 *308:8 0.000111909
25 *289:12 *1984:A 0
26 *289:25 *1984:A 0.000188957
27 *289:25 *601:12 7.70705e-05
28 *289:40 *2027:A2 0.000394225
29 *289:40 *2028:A1 0.000117832
30 *289:40 *2031:A1 1.01661e-05
31 *289:40 *2032:A 0.000139238
32 *289:40 *298:19 0.000217345
33 *289:40 *302:12 0
34 *289:40 *543:10 0.000159964
35 *2013:A *2030:A2 0.000108137
36 *2029:B1 *2029:A1_N 8.40213e-05
37 *2029:B1 *289:25 8.65961e-05
38 *2029:B2 *289:25 2.11084e-05
39 *288:12 *289:12 0.000114492
*RES
1 *2013:Y *289:12 7.43 
2 *289:12 *2029:A1_N 3.1 
3 *289:12 *289:25 5.555 
4 *289:25 *2030:A2 7.515 
5 *289:25 *289:40 6.48 
6 *289:40 *2033:C1 5.43 
7 *289:40 *2021:A 11.205 
*END

*D_NET *290 0.0034489
*CONN
*I *2015:A I *D sky130_fd_sc_hd__inv_2
*I *2069:B I *D sky130_fd_sc_hd__nand2_2
*I *2068:A I *D sky130_fd_sc_hd__and2_4
*I *2014:Y O *D sky130_fd_sc_hd__nor4_4
*CAP
1 *2015:A 0.000349123
2 *2069:B 0
3 *2068:A 0
4 *2014:Y 0.000668834
5 *290:19 0.000441307
6 *290:10 0.000761018
7 *2015:A *2067:A1 6.97118e-05
8 *2015:A *2067:A2 0
9 *2015:A *2067:B1 2.75145e-05
10 *2015:A *2068:B 3.09164e-05
11 *290:10 *2127:B 0
12 *290:10 *2138:A2 9.30787e-05
13 *290:19 *2068:B 0.000163985
14 *1994:A1 *290:10 0
15 *1995:A *290:10 0.000161829
16 *1995:B *290:10 6.55406e-05
17 *1997:C *290:10 0
18 *2020:B1 *2015:A 0.000616046
19 *2128:A2 *290:10 0
20 *254:10 *2015:A 0
21 *254:10 *290:10 0
22 *254:10 *290:19 0
*RES
1 *2014:Y *290:10 14.91 
2 *290:10 *2068:A 3.6 
3 *290:10 *290:19 2.145 
4 *290:19 *2069:B 3.6 
5 *290:19 *2015:A 11.73 
*END

*D_NET *291 0.000393606
*CONN
*I *2020:B2 I *D sky130_fd_sc_hd__o22ai_4
*I *2015:Y O *D sky130_fd_sc_hd__inv_2
*CAP
1 *2020:B2 0.000137699
2 *2015:Y 0.000137699
3 *2020:B1 *2020:B2 0.000118207
*RES
1 *2015:Y *2020:B2 6.065 
*END

*D_NET *292 0.000275017
*CONN
*I *2020:A2 I *D sky130_fd_sc_hd__o22ai_4
*I *2016:X O *D sky130_fd_sc_hd__and2_2
*CAP
1 *2020:A2 0.000137508
2 *2016:X 0.000137508
3 *2020:A2 *296:10 0
4 *2020:A1 *2020:A2 0
*RES
1 *2016:X *2020:A2 9.285 
*END

*D_NET *293 0.000448025
*CONN
*I *2019:A1 I *D sky130_fd_sc_hd__o21ai_2
*I *2017:Y O *D sky130_fd_sc_hd__o21ai_2
*CAP
1 *2019:A1 7.44942e-05
2 *2017:Y 7.44942e-05
3 *2019:A1 *2001:B 1.01661e-05
4 *2019:A1 *2002:A 3.00381e-05
5 *2019:A1 *2019:A2 0.000136877
6 *2017:A2 *2019:A1 4.82919e-05
7 *277:21 *2019:A1 7.3664e-05
*RES
1 *2017:Y *2019:A1 9.54 
*END

*D_NET *294 0.001698
*CONN
*I *2019:A2 I *D sky130_fd_sc_hd__o21ai_2
*I *2018:Y O *D sky130_fd_sc_hd__a22oi_2
*CAP
1 *2019:A2 0.000484918
2 *2018:Y 0.000484918
3 *2019:A2 *1988:C 9.59969e-05
4 *2019:A2 *2001:B 5.53249e-06
5 *2019:A2 *393:18 4.66826e-05
6 *2019:A2 *451:20 7.36484e-05
7 *2019:A2 *462:19 0.000103192
8 *1988:B *2019:A2 9.3062e-06
9 *2017:B1 *2019:A2 0.000210246
10 *2019:A1 *2019:A2 0.000136877
11 *270:10 *2019:A2 0
12 *280:12 *2019:A2 4.66826e-05
*RES
1 *2018:Y *2019:A2 17.79 
*END

*D_NET *295 0.00256458
*CONN
*I *2067:A2 I *D sky130_fd_sc_hd__a21oi_2
*I *2019:Y O *D sky130_fd_sc_hd__o21ai_2
*CAP
1 *2067:A2 0.000668723
2 *2019:Y 0.000668723
3 *2067:A2 *2379:A 4.99619e-05
4 *2067:A2 *337:16 0.000185176
5 *2067:A2 *393:18 0.000111321
6 *2006:A *2067:A2 9.80943e-06
7 *2007:B *2067:A2 0.00012657
8 *2015:A *2067:A2 0
9 *254:10 *2067:A2 0
10 *280:12 *2067:A2 0.000581093
11 *280:29 *2067:A2 0.000163199
*RES
1 *2019:Y *2067:A2 20.325 
*END

*D_NET *296 0.00526756
*CONN
*I *2057:A I *D sky130_fd_sc_hd__nand2_2
*I *2408:A I *D sky130_fd_sc_hd__buf_2
*I *2045:A1 I *D sky130_fd_sc_hd__a211o_4
*I *2423:A I *D sky130_fd_sc_hd__buf_2
*I *2368:A I *D sky130_fd_sc_hd__buf_6
*I *2020:Y O *D sky130_fd_sc_hd__o22ai_4
*CAP
1 *2057:A 0.000203088
2 *2408:A 0.000280105
3 *2045:A1 0
4 *2423:A 0.000107379
5 *2368:A 1.71225e-05
6 *2020:Y 0.000566202
7 *296:35 0.000164428
8 *296:31 0.000471141
9 *296:27 0.000624971
10 *296:10 0.000871221
11 *2057:A *2036:A 4.82863e-05
12 *2057:A *2044:A 4.99619e-05
13 *2057:A *2046:B 4.22057e-05
14 *2057:A *318:6 2.30292e-05
15 *2057:A *505:10 5.30318e-05
16 *2368:A *2058:A2 8.65905e-05
17 *2368:A *2058:C1 5.05437e-05
18 *2408:A *2045:C1 2.97004e-06
19 *2408:A *2047:A 0
20 *2408:A *2047:B 8.34426e-05
21 *2408:A *2056:A 0.000196571
22 *2408:A *2383:A 0
23 *2423:A *2025:B1_N 0
24 *296:10 *2058:C1 2.24423e-05
25 *296:10 *2065:C 0
26 *296:10 *303:8 0
27 *296:27 *2046:B 2.75145e-05
28 *296:27 *2047:B 5.53249e-06
29 *296:27 *2058:A2 0
30 *296:27 *2058:C1 5.00699e-05
31 *296:27 *300:30 0
32 *296:27 *309:10 0
33 *296:31 *2045:B1 0.0002954
34 *296:31 *2045:C1 8.08153e-06
35 *296:31 *2047:B 0.000208976
36 *296:31 *2059:A2 1.86911e-05
37 *296:31 *309:10 1.71013e-05
38 *2020:A2 *296:10 0
39 *2065:A *296:10 0.000206123
40 *277:21 *296:10 3.05295e-05
41 *278:12 *296:10 7.58604e-05
42 *287:19 *296:27 0.000175207
43 *287:21 *296:10 0.000175214
44 *287:21 *296:27 8.53113e-06
*RES
1 *2020:Y *296:10 14.205 
2 *296:10 *2368:A 4.395 
3 *296:10 *296:27 7.52 
4 *296:27 *296:31 6.44 
5 *296:31 *296:35 2.795 
6 *296:35 *2423:A 3.46 
7 *296:35 *2045:A1 1.6 
8 *296:31 *2408:A 9.27 
9 *296:27 *2057:A 5.62 
*END

*D_NET *297 0.00067357
*CONN
*I *2024:A1 I *D sky130_fd_sc_hd__o21ba_2
*I *2025:A1 I *D sky130_fd_sc_hd__o21bai_4
*I *2022:Y O *D sky130_fd_sc_hd__nor2_2
*CAP
1 *2024:A1 2.43002e-05
2 *2025:A1 6.09054e-05
3 *2022:Y 8.36313e-05
4 *297:8 0.000168837
5 *2024:A1 *2293:A 2.75145e-05
6 *2025:A1 *2024:A2 0.000163992
7 *2025:A1 *495:10 0
8 *2025:A1 *543:10 2.66939e-05
9 *297:8 *2022:B 1.22762e-05
10 *297:8 *495:10 0
11 *297:8 *543:10 3.98952e-05
12 S[21] *297:8 0
13 *2021:A *2025:A1 6.5525e-05
*RES
1 *2022:Y *297:8 5.235 
2 *297:8 *2025:A1 5.745 
3 *297:8 *2024:A1 4.05 
*END

*D_NET *298 0.00338143
*CONN
*I *2025:A2 I *D sky130_fd_sc_hd__o21bai_4
*I *2024:A2 I *D sky130_fd_sc_hd__o21ba_2
*I *2033:A1 I *D sky130_fd_sc_hd__o211a_2
*I *2034:A2 I *D sky130_fd_sc_hd__o22a_2
*I *2028:A1 I *D sky130_fd_sc_hd__o21ai_2
*I *2023:X O *D sky130_fd_sc_hd__and2_4
*CAP
1 *2025:A2 7.79233e-05
2 *2024:A2 5.51066e-05
3 *2033:A1 0.000131618
4 *2034:A2 9.39795e-05
5 *2028:A1 9.72769e-05
6 *2023:X 0
7 *298:45 0.0002345
8 *298:21 0.000225597
9 *298:19 0.000200472
10 *298:6 0.00019628
11 *2024:A2 *299:10 0.000141606
12 *2024:A2 *495:12 0
13 *2028:A1 *2031:A1 9.56283e-05
14 *2028:A1 *302:25 0.0001249
15 *2033:A1 *2034:A1 0.000288828
16 *2033:A1 *2037:A2_N 0
17 *2033:A1 *299:31 0.000194838
18 *2033:A1 *308:8 1.1733e-05
19 *2034:A2 *2034:A1 0.000119756
20 *2034:A2 *308:8 1.03423e-05
21 *298:19 *2031:A1 0.000103449
22 *298:45 *2031:A1 1.22762e-05
23 *298:45 *299:10 3.98782e-05
24 *2021:A *2024:A2 5.98004e-06
25 *2021:A *298:19 4.9968e-05
26 *2021:A *298:45 0.000133075
27 *2025:A1 *2024:A2 0.000163992
28 *287:8 *2028:A1 0.000237249
29 *289:40 *2028:A1 0.000117832
30 *289:40 *298:19 0.000217345
*RES
1 *2023:X *298:6 3.6 
2 *298:6 *2028:A1 7.155 
3 *298:6 *298:19 3.165 
4 *298:19 *298:21 2 
5 *298:21 *2034:A2 3.085 
6 *298:21 *2033:A1 5.15125 
7 *298:19 *298:45 4.43 
8 *298:45 *2024:A2 7.745 
9 *298:45 *2025:A2 2.755 
*END

*D_NET *299 0.00392562
*CONN
*I *2060:A1 I *D sky130_fd_sc_hd__o31a_2
*I *2037:B1 I *D sky130_fd_sc_hd__o2bb2ai_2
*I *2031:A1 I *D sky130_fd_sc_hd__o21ai_2
*I *2024:X O *D sky130_fd_sc_hd__o21ba_2
*CAP
1 *2060:A1 0.000244793
2 *2037:B1 2.08101e-05
3 *2031:A1 0.0002765
4 *2024:X 0.000143712
5 *299:31 0.000792834
6 *299:10 0.000947444
7 *2031:A1 *2026:B1 4.92014e-05
8 *2031:A1 *2033:B1 3.67779e-05
9 *2031:A1 *301:12 0
10 *2031:A1 *301:40 0
11 *2031:A1 *302:12 8.53113e-06
12 *2060:A1 *2045:C1 0
13 *2060:A1 *2057:B 0
14 *2060:A1 *2060:A2 9.38151e-05
15 *2060:A1 *2060:A3 8.65905e-05
16 *2060:A1 *2060:B1 4.18603e-06
17 *299:10 *2026:B1 1.94723e-05
18 *299:10 *2033:B1 6.36578e-05
19 *299:10 *2293:A 8.65961e-05
20 *299:10 *495:12 3.26735e-05
21 *299:31 *2060:A2 7.67415e-06
22 *299:31 *307:6 0.000124007
23 *299:31 *307:19 0.000275548
24 *299:31 *308:8 1.29523e-05
25 *2024:A2 *299:10 0.000141606
26 *2028:A1 *2031:A1 9.56283e-05
27 *2033:A1 *299:31 0.000194838
28 *289:40 *2031:A1 1.01661e-05
29 *298:19 *2031:A1 0.000103449
30 *298:45 *2031:A1 1.22762e-05
31 *298:45 *299:10 3.98782e-05
*RES
1 *2024:X *299:10 7.305 
2 *299:10 *2031:A1 9.555 
3 *299:10 *299:31 9.02 
4 *299:31 *2037:B1 1.96 
5 *299:31 *2060:A1 9.425 
*END

*D_NET *300 0.00285511
*CONN
*I *2035:B1 I *D sky130_fd_sc_hd__o21ai_2
*I *2058:C1 I *D sky130_fd_sc_hd__o211ai_2
*I *2028:B1 I *D sky130_fd_sc_hd__o21ai_2
*I *2033:B1 I *D sky130_fd_sc_hd__o211a_2
*I *2025:Y O *D sky130_fd_sc_hd__o21bai_4
*CAP
1 *2035:B1 4.01423e-05
2 *2058:C1 0.000345483
3 *2028:B1 0
4 *2033:B1 8.1412e-05
5 *2025:Y 0.000479338
6 *300:37 0.000494447
7 *300:30 0.000506747
8 *2033:B1 *2026:B1 0.000180675
9 *2033:B1 *2034:A1 4.66108e-05
10 *2033:B1 *308:8 2.75145e-05
11 *2058:C1 *2058:A2 0.000120036
12 *2058:C1 *2058:B1 2.30292e-05
13 *2058:C1 *2066:A3 4.99619e-05
14 *2058:C1 *303:8 0
15 *300:30 *2025:B1_N 1.4389e-05
16 *300:30 *2037:A1_N 4.11194e-05
17 *300:30 *2046:A 0
18 *300:30 *2047:B 0
19 *300:30 *2058:A2 1.22762e-05
20 *300:30 *2382:A 0
21 *300:30 *303:8 9.50342e-06
22 *300:37 *302:25 7.10578e-05
23 *2031:A1 *2033:B1 3.67779e-05
24 *2368:A *2058:C1 5.05437e-05
25 *287:8 *300:37 9.80943e-06
26 *287:19 *2035:B1 5.05521e-05
27 *287:19 *300:37 2.75145e-05
28 *296:10 *2058:C1 2.24423e-05
29 *296:27 *2058:C1 5.00699e-05
30 *296:27 *300:30 0
31 *299:10 *2033:B1 6.36578e-05
*RES
1 *2025:Y *2033:B1 9.795 
2 *2025:Y *300:30 12.02 
3 *300:30 *2028:B1 1.6 
4 *300:30 *300:37 1.83 
5 *300:37 *2058:C1 11.99 
6 *300:37 *2035:B1 2.395 
*END

*D_NET *301 0.00381436
*CONN
*I *2034:A1 I *D sky130_fd_sc_hd__o22a_2
*I *2033:A2 I *D sky130_fd_sc_hd__o211a_2
*I *2028:A2 I *D sky130_fd_sc_hd__o21ai_2
*I *2027:B1 I *D sky130_fd_sc_hd__a21oi_2
*I *2026:Y O *D sky130_fd_sc_hd__o21ai_2
*CAP
1 *2034:A1 0.000107297
2 *2033:A2 0
3 *2028:A2 4.3765e-05
4 *2027:B1 0.000197245
5 *2026:Y 0.000284133
6 *301:40 0.00017529
7 *301:12 0.000355086
8 *301:8 0.000466202
9 *2027:B1 *2027:A2 0
10 *2027:B1 *2030:A1 0.000141626
11 *2027:B1 *2382:A 0
12 *2027:B1 *302:12 0.000296088
13 *2027:B1 *302:25 0.000123225
14 *2027:B1 *464:12 0
15 *2028:A2 *302:25 3.95698e-05
16 *2034:A1 *2037:A2_N 0
17 *2034:A1 *308:8 4.9969e-05
18 *301:8 *2023:A 3.74161e-05
19 *301:8 *2026:A1 8.65905e-05
20 *301:8 *2026:A2 2.05056e-05
21 *301:8 *2026:B1 0.000115455
22 *301:12 *2382:A 0.000179015
23 *301:12 *302:12 0
24 *301:40 *2026:B1 0.000137578
25 *301:40 *2382:A 0.000208484
26 *2013:A *2027:B1 4.99619e-05
27 *2030:A2 *2027:B1 4.82863e-05
28 *2031:A1 *301:12 0
29 *2031:A1 *301:40 0
30 *2033:A1 *2034:A1 0.000288828
31 *2033:B1 *2034:A1 4.66108e-05
32 *2033:C1 *2034:A1 0.000196376
33 *2034:A2 *2034:A1 0.000119756
*RES
1 *2026:Y *301:8 8.19 
2 *301:8 *301:12 4.145 
3 *301:12 *2027:B1 11.12 
4 *301:12 *2028:A2 2.41 
5 *301:8 *301:40 4.4 
6 *301:40 *2033:A2 1.6 
7 *301:40 *2034:A1 5.515 
*END

*D_NET *302 0.00256213
*CONN
*I *2035:A2 I *D sky130_fd_sc_hd__o21ai_2
*I *2058:A2 I *D sky130_fd_sc_hd__o211ai_2
*I *2031:A2 I *D sky130_fd_sc_hd__o21ai_2
*I *2027:Y O *D sky130_fd_sc_hd__a21oi_2
*CAP
1 *2035:A2 0
2 *2058:A2 0.000282263
3 *2031:A2 0
4 *2027:Y 0.000163851
5 *302:25 0.000456221
6 *302:12 0.000337809
7 *2058:A2 *303:8 0
8 *302:12 *2032:A 5.4256e-05
9 *2027:B1 *302:12 0.000296088
10 *2027:B1 *302:25 0.000123225
11 *2028:A1 *302:25 0.0001249
12 *2028:A2 *302:25 3.95698e-05
13 *2030:A2 *302:12 4.99619e-05
14 *2031:A1 *302:12 8.53113e-06
15 *2058:C1 *2058:A2 0.000120036
16 *2368:A *2058:A2 8.65905e-05
17 *287:8 *302:25 0.000335497
18 *289:40 *302:12 0
19 *296:27 *2058:A2 0
20 *300:30 *2058:A2 1.22762e-05
21 *300:37 *302:25 7.10578e-05
22 *301:12 *302:12 0
*RES
1 *2027:Y *302:12 9.725 
2 *302:12 *2031:A2 1.6 
3 *302:12 *302:25 5.07 
4 *302:25 *2058:A2 10.46 
5 *302:25 *2035:A2 1.6 
*END

*D_NET *303 0.00182083
*CONN
*I *2030:C1 I *D sky130_fd_sc_hd__a211o_4
*I *2065:C I *D sky130_fd_sc_hd__nor4_4
*I *2028:Y O *D sky130_fd_sc_hd__o21ai_2
*CAP
1 *2030:C1 2.22788e-05
2 *2065:C 0.000380327
3 *2028:Y 0.000200248
4 *303:8 0.000602854
5 *2065:C *2030:A1 0
6 *2065:C *2065:B 0
7 *303:8 *2030:A1 0
8 *303:8 *2032:B 7.89689e-05
9 *303:8 *2382:A 5.00612e-05
10 *2058:A2 *303:8 0
11 *2058:C1 *303:8 0
12 *2065:A *2065:C 7.35813e-05
13 *2065:D *2065:C 0.000354719
14 *287:38 *2030:C1 4.82863e-05
15 *296:10 *2065:C 0
16 *296:10 *303:8 0
17 *300:30 *303:8 9.50342e-06
*RES
1 *2028:Y *303:8 7.53 
2 *303:8 *2065:C 10.185 
3 *303:8 *2030:C1 4.05 
*END

*D_NET *304 0.000857089
*CONN
*I *2031:B1 I *D sky130_fd_sc_hd__o21ai_2
*I *2029:Y O *D sky130_fd_sc_hd__o2bb2ai_2
*CAP
1 *2031:B1 0.000280315
2 *2029:Y 0.000280315
3 *2011:B1 *2031:B1 9.4087e-05
4 *2029:B2 *2031:B1 0
5 *287:8 *2031:B1 8.4546e-05
6 *288:12 *2031:B1 0.000117825
*RES
1 *2029:Y *2031:B1 12.135 
*END

*D_NET *305 0.000795255
*CONN
*I *2032:B I *D sky130_fd_sc_hd__nand2_4
*I *2030:X O *D sky130_fd_sc_hd__a211o_4
*CAP
1 *2032:B 0.000230752
2 *2030:X 0.000230752
3 *2032:B *2030:A1 3.47668e-05
4 *2032:B *2382:A 5.56629e-05
5 *287:38 *2032:B 0.000164352
6 *303:8 *2032:B 7.89689e-05
*RES
1 *2030:X *2032:B 11.355 
*END

*D_NET *306 0.000361644
*CONN
*I *2032:A I *D sky130_fd_sc_hd__nand2_4
*I *2031:Y O *D sky130_fd_sc_hd__o21ai_2
*CAP
1 *2032:A 7.03136e-05
2 *2031:Y 7.03136e-05
3 *2032:A *601:12 2.75229e-05
4 *289:40 *2032:A 0.000139238
5 *302:12 *2032:A 5.4256e-05
*RES
1 *2031:Y *2032:A 9.285 
*END

*D_NET *307 0.00276682
*CONN
*I *2056:A I *D sky130_fd_sc_hd__and3_2
*I *2045:A2 I *D sky130_fd_sc_hd__a211o_4
*I *2037:A2_N I *D sky130_fd_sc_hd__o2bb2ai_2
*I *2033:X O *D sky130_fd_sc_hd__o211a_2
*CAP
1 *2056:A 0.0004265
2 *2045:A2 0
3 *2037:A2_N 3.55506e-05
4 *2033:X 3.00116e-05
5 *307:19 0.0005692
6 *307:6 0.000208262
7 *2037:A2_N *2037:B2 0
8 *2056:A *2047:B 0.000163992
9 *2056:A *2061:A1 0.00036523
10 *307:6 *308:8 3.94592e-05
11 *307:19 *2046:A 3.45588e-05
12 *307:19 *2047:B 0.000159964
13 *307:19 *2060:A2 4.9253e-06
14 *307:19 *308:8 5.69446e-05
15 S[22] *2056:A 7.60965e-05
16 *2033:A1 *2037:A2_N 0
17 *2034:A1 *2037:A2_N 0
18 *2408:A *2056:A 0.000196571
19 *299:31 *307:6 0.000124007
20 *299:31 *307:19 0.000275548
*RES
1 *2033:X *307:6 2.74 
2 *307:6 *2037:A2_N 2.215 
3 *307:6 *307:19 6.41 
4 *307:19 *2045:A2 3.6 
5 *307:19 *2056:A 14.115 
*END

*D_NET *308 0.00294733
*CONN
*I *2060:A2 I *D sky130_fd_sc_hd__o31a_2
*I *2037:B2 I *D sky130_fd_sc_hd__o2bb2ai_2
*I *2034:X O *D sky130_fd_sc_hd__o22a_2
*CAP
1 *2060:A2 0.000173084
2 *2037:B2 2.08101e-05
3 *2034:X 0.000864091
4 *308:8 0.00105799
5 *2060:A2 *2059:A2 0.000158066
6 *2060:A2 *2060:A3 3.54536e-05
7 *308:8 *2046:A 8.65905e-05
8 *2033:A1 *308:8 1.1733e-05
9 *2033:B1 *308:8 2.75145e-05
10 *2033:C1 *308:8 0.000111909
11 *2034:A1 *308:8 4.9969e-05
12 *2034:A2 *308:8 1.03423e-05
13 *2034:B2 *308:8 0.000124007
14 *2037:A2_N *2037:B2 0
15 *2060:A1 *2060:A2 9.38151e-05
16 *299:31 *2060:A2 7.67415e-06
17 *299:31 *308:8 1.29523e-05
18 *307:6 *308:8 3.94592e-05
19 *307:19 *2060:A2 4.9253e-06
20 *307:19 *308:8 5.69446e-05
*RES
1 *2034:X *308:8 12.415 
2 *308:8 *2037:B2 1.96 
3 *308:8 *2060:A2 5.17 
*END

*D_NET *309 0.00224305
*CONN
*I *2059:A2 I *D sky130_fd_sc_hd__o21ai_2
*I *2036:A I *D sky130_fd_sc_hd__inv_2
*I *2035:Y O *D sky130_fd_sc_hd__o21ai_2
*CAP
1 *2059:A2 0.000384163
2 *2036:A 9.73191e-06
3 *2035:Y 0.000323409
4 *309:10 0.000717304
5 *2036:A *2046:B 4.82863e-05
6 *2059:A2 *2045:B1 7.23602e-05
7 *2059:A2 *2045:C1 9.14049e-05
8 *2059:A2 *2060:A3 0.000126567
9 *2059:A2 *2062:A2 6.12198e-05
10 *2059:A2 *480:18 5.83121e-06
11 *2059:A2 *480:42 0
12 *309:10 *2047:B 0
13 *309:10 *2058:B1 0
14 *2057:A *2036:A 4.82863e-05
15 *2060:A2 *2059:A2 0.000158066
16 *287:19 *309:10 0.00016063
17 *296:27 *309:10 0
18 *296:31 *2059:A2 1.86911e-05
19 *296:31 *309:10 1.71013e-05
*RES
1 *2035:Y *309:10 8.7 
2 *309:10 *2036:A 4.05 
3 *309:10 *2059:A2 9.945 
*END

*D_NET *310 0.000775306
*CONN
*I *2045:B1 I *D sky130_fd_sc_hd__a211o_4
*I *2036:Y O *D sky130_fd_sc_hd__inv_2
*CAP
1 *2045:B1 0.00011775
2 *2036:Y 0.00011775
3 *2045:B1 *2045:C1 0.000123759
4 *2045:B1 *2046:B 4.82863e-05
5 *2059:A2 *2045:B1 7.23602e-05
6 *296:31 *2045:B1 0.0002954
*RES
1 *2036:Y *2045:B1 11.07 
*END

*D_NET *311 0.000391145
*CONN
*I *2046:A I *D sky130_fd_sc_hd__nand2_2
*I *2037:Y O *D sky130_fd_sc_hd__o2bb2ai_2
*CAP
1 *2046:A 9.68456e-05
2 *2037:Y 9.68456e-05
3 *2046:A *2047:B 7.63047e-05
4 *300:30 *2046:A 0
5 *307:19 *2046:A 3.45588e-05
6 *308:8 *2046:A 8.65905e-05
*RES
1 *2037:Y *2046:A 9.63 
*END

*D_NET *312 0.00186509
*CONN
*I *2043:A2 I *D sky130_fd_sc_hd__o21bai_4
*I *2042:A1 I *D sky130_fd_sc_hd__o21ba_2
*I *2041:A_N I *D sky130_fd_sc_hd__nand3b_4
*I *2038:Y O *D sky130_fd_sc_hd__nor2_4
*CAP
1 *2043:A2 0.000113788
2 *2042:A1 0.00017365
3 *2041:A_N 0
4 *2038:Y 0.000108384
5 *312:19 0.000464589
6 *312:10 0.000285535
7 *2042:A1 *2041:C 0.000108937
8 *2042:A1 *2042:A2 5.03202e-05
9 *2042:A1 *315:18 1.47347e-05
10 *2042:A1 *500:25 3.26889e-05
11 *2043:A2 *2041:B 0.000187064
12 *2043:A2 *545:10 2.4997e-05
13 *312:10 *2038:B 0.000152821
14 *312:10 *2425:A 9.3062e-06
15 *312:10 *474:8 0
16 *312:10 *474:14 0
17 *312:10 *544:21 9.50342e-06
18 *312:19 *2039:A 7.00889e-06
19 *312:19 *2042:A2 2.51519e-05
20 *312:19 *474:14 9.66106e-05
21 *2335:A *2043:A2 0
*RES
1 *2038:Y *312:10 7.745 
2 *312:10 *2041:A_N 1.6 
3 *312:10 *312:19 2.88 
4 *312:19 *2042:A1 4.825 
5 *312:19 *2043:A2 8.255 
*END

*D_NET *313 0.00193793
*CONN
*I *2043:A1 I *D sky130_fd_sc_hd__o21bai_4
*I *2042:A2 I *D sky130_fd_sc_hd__o21ba_2
*I *2039:X O *D sky130_fd_sc_hd__and2_4
*CAP
1 *2043:A1 3.44611e-05
2 *2042:A2 0.000462279
3 *2039:X 0.000208502
4 *313:6 0.000705242
5 *2042:A2 *2041:C 1.91597e-05
6 *2042:A2 *315:18 0.000160641
7 *2042:A2 *474:14 5.05437e-05
8 *2042:A2 *500:25 5.39541e-05
9 *2043:A1 *474:20 3.86529e-05
10 *2043:A1 *545:10 2.66935e-05
11 *313:6 *2039:A 4.08514e-05
12 *313:6 *2039:B 1.34503e-05
13 *313:6 *474:14 4.80285e-05
14 *2042:A1 *2042:A2 5.03202e-05
15 *312:19 *2042:A2 2.51519e-05
*RES
1 *2039:X *313:6 4.12 
2 *313:6 *2042:A2 7.75 
3 *313:6 *2043:A1 6.47 
*END

*D_NET *314 0.000717839
*CONN
*I *2041:B I *D sky130_fd_sc_hd__nand3b_4
*I *2040:Y O *D sky130_fd_sc_hd__nand2_2
*CAP
1 *2041:B 0.000172685
2 *2040:Y 0.000172685
3 *2041:B *545:10 0.000185405
4 *2043:A2 *2041:B 0.000187064
*RES
1 *2040:Y *2041:B 11.175 
*END

*D_NET *315 0.00311686
*CONN
*I *2406:A I *D sky130_fd_sc_hd__buf_2
*I *2064:B1 I *D sky130_fd_sc_hd__o2111ai_4
*I *2041:Y O *D sky130_fd_sc_hd__nand3b_4
*CAP
1 *2406:A 0
2 *2064:B1 0.00043765
3 *2041:Y 0.000295431
4 *315:18 0.00073308
5 *2064:B1 *2054:A1 6.55328e-05
6 *2064:B1 *2061:C1 0
7 *2064:B1 *2062:B1 0.000320827
8 *2064:B1 *2064:A1 0.00011852
9 *2064:B1 *2064:A2 1.1392e-05
10 *2064:B1 *2064:C1 0
11 *2064:B1 *2066:A1 0.000172964
12 *2064:B1 *2066:A3 1.35742e-05
13 *2064:B1 *2379:A 5.39961e-05
14 *2064:B1 *324:14 0.000122331
15 *2064:B1 *506:14 1.94723e-05
16 *315:18 *2041:C 0.000104063
17 *315:18 *2043:B1_N 0.000136884
18 *315:18 *2063:B 1.16578e-05
19 *315:18 *317:12 0.000243067
20 *315:18 *480:6 3.1835e-05
21 *2042:A1 *315:18 1.47347e-05
22 *2042:A2 *315:18 0.000160641
23 *2335:A *315:18 4.92096e-05
*RES
1 *2041:Y *315:18 13.34 
2 *315:18 *2064:B1 18.54 
3 *315:18 *2406:A 1.6 
*END

*D_NET *316 0.00205409
*CONN
*I *2060:A3 I *D sky130_fd_sc_hd__o31a_2
*I *2059:A1 I *D sky130_fd_sc_hd__o21ai_2
*I *2042:X O *D sky130_fd_sc_hd__o21ba_2
*CAP
1 *2060:A3 7.86434e-05
2 *2059:A1 0.000578876
3 *2042:X 0.000500233
4 *2059:A1 *2056:B 5.71242e-05
5 *2059:A1 *2057:B 0.000187071
6 *2059:A1 *2061:B1 0.000142262
7 *2059:A1 *2062:A1 9.50342e-06
8 *2059:A1 *2063:A 1.58213e-05
9 *2059:A1 *329:10 5.56629e-05
10 *2059:A1 *500:25 5.37074e-05
11 *2060:A3 *2062:A2 0.00012657
12 *2059:A2 *2060:A3 0.000126567
13 *2060:A1 *2060:A3 8.65905e-05
14 *2060:A2 *2060:A3 3.54536e-05
*RES
1 *2042:X *2059:A1 15.84 
2 *2059:A1 *2060:A3 6.185 
*END

*D_NET *317 0.00331043
*CONN
*I *2428:A I *D sky130_fd_sc_hd__buf_2
*I *2064:D1 I *D sky130_fd_sc_hd__o2111ai_4
*I *2043:Y O *D sky130_fd_sc_hd__o21bai_4
*CAP
1 *2428:A 3.52229e-05
2 *2064:D1 0.000367056
3 *2043:Y 0.000510771
4 *317:12 0.00091305
5 *2064:D1 *2044:A 0
6 *2064:D1 *2057:B 9.8858e-05
7 *2064:D1 *2058:B1 0
8 *2064:D1 *2062:A1 2.69097e-05
9 *2064:D1 *2064:C1 9.24127e-05
10 *2064:D1 *2066:A3 8.8266e-05
11 *2064:D1 *2379:A 4.82863e-05
12 *2064:D1 *505:6 7.49327e-05
13 *2064:D1 *505:10 0.000272984
14 *317:12 *2061:C1 0.000203762
15 *317:12 *2063:B 8.49205e-05
16 *317:12 *480:6 8.22234e-06
17 S[19] *2064:D1 7.99094e-05
18 S[19] *2428:A 4.70475e-05
19 S[19] *317:12 0.000114753
20 *315:18 *317:12 0.000243067
*RES
1 *2043:Y *317:12 13.625 
2 *317:12 *2064:D1 14.39 
3 *317:12 *2428:A 2.38375 
*END

*D_NET *318 0.00115573
*CONN
*I *2045:C1 I *D sky130_fd_sc_hd__a211o_4
*I *2046:B I *D sky130_fd_sc_hd__nand2_2
*I *2044:Y O *D sky130_fd_sc_hd__nand2_2
*CAP
1 *2045:C1 0.000191964
2 *2046:B 9.66199e-05
3 *2044:Y 2.37813e-05
4 *318:6 0.000312365
5 *2045:C1 *2044:A 0
6 *2045:C1 *2047:A 0
7 *2045:C1 *2060:B1 0.000115464
8 *2036:A *2046:B 4.82863e-05
9 *2045:B1 *2045:C1 0.000123759
10 *2045:B1 *2046:B 4.82863e-05
11 *2057:A *2046:B 4.22057e-05
12 *2057:A *318:6 2.30292e-05
13 *2059:A2 *2045:C1 9.14049e-05
14 *2060:A1 *2045:C1 0
15 *2408:A *2045:C1 2.97004e-06
16 *296:27 *2046:B 2.75145e-05
17 *296:31 *2045:C1 8.08153e-06
*RES
1 *2044:Y *318:6 2.05 
2 *318:6 *2046:B 3.445 
3 *318:6 *2045:C1 9.98 
*END

*D_NET *319 0.000299575
*CONN
*I *2047:A I *D sky130_fd_sc_hd__nand2_4
*I *2045:X O *D sky130_fd_sc_hd__a211o_4
*CAP
1 *2047:A 0.000149788
2 *2045:X 0.000149788
3 *2047:A *2057:B 0
4 *2047:A *2061:A1 0
5 *2047:A *329:10 0
6 *2045:C1 *2047:A 0
7 *2408:A *2047:A 0
*RES
1 *2045:X *2047:A 9.6 
*END

*D_NET *320 0.00145617
*CONN
*I *2047:B I *D sky130_fd_sc_hd__nand2_4
*I *2046:Y O *D sky130_fd_sc_hd__nand2_2
*CAP
1 *2047:B 0.000317813
2 *2046:Y 0.000317813
3 *2047:B *2037:A1_N 0
4 *2047:B *2293:A 0.000122337
5 *2046:A *2047:B 7.63047e-05
6 *2056:A *2047:B 0.000163992
7 *2408:A *2047:B 8.34426e-05
8 *296:27 *2047:B 5.53249e-06
9 *296:31 *2047:B 0.000208976
10 *300:30 *2047:B 0
11 *307:19 *2047:B 0.000159964
12 *309:10 *2047:B 0
*RES
1 *2046:Y *2047:B 14.82 
*END

*D_NET *321 0.000404549
*CONN
*I *2050:A1 I *D sky130_fd_sc_hd__o21ba_2
*I *2051:A2 I *D sky130_fd_sc_hd__o21bai_4
*I *2048:Y O *D sky130_fd_sc_hd__nor2_2
*CAP
1 *2050:A1 0
2 *2051:A2 6.68463e-05
3 *2048:Y 3.17314e-05
4 *321:6 9.85777e-05
5 *2051:A2 *2050:A2 8.97486e-05
6 *2051:A2 *322:10 1.71013e-05
7 *2051:A2 *545:12 2.34423e-05
8 *2051:A2 *545:14 7.71016e-05
*RES
1 *2048:Y *321:6 2.05 
2 *321:6 *2051:A2 7.745 
3 *321:6 *2050:A1 1.6 
*END

*D_NET *322 0.00147898
*CONN
*I *2427:A I *D sky130_fd_sc_hd__buf_4
*I *2051:A1 I *D sky130_fd_sc_hd__o21bai_4
*I *2050:A2 I *D sky130_fd_sc_hd__o21ba_2
*I *2049:X O *D sky130_fd_sc_hd__and2_4
*CAP
1 *2427:A 8.37414e-05
2 *2051:A1 9.17107e-05
3 *2050:A2 0.000104279
4 *2049:X 1.17533e-05
5 *322:10 0.000312526
6 *322:6 0.000212031
7 *2050:A2 *2050:B1_N 0
8 *2050:A2 *2053:A1 0
9 *2050:A2 *2053:A2 0
10 *2050:A2 *545:14 0
11 *2051:A1 *2052:A2 0.000158965
12 *2427:A *474:40 0.000186388
13 *2427:A *504:10 0.000134938
14 *322:6 *474:40 4.82863e-05
15 *322:6 *504:10 2.75145e-05
16 *322:10 *2050:B1_N 0
17 *322:10 *474:40 0
18 *322:10 *545:12 0
19 *2051:A2 *2050:A2 8.97486e-05
20 *2051:A2 *322:10 1.71013e-05
*RES
1 *2049:X *322:6 2.05 
2 *322:6 *322:10 3.89 
3 *322:10 *2050:A2 5.745 
4 *322:10 *2051:A1 5.445 
5 *322:6 *2427:A 4.135 
*END

*D_NET *323 0.000408458
*CONN
*I *2066:B1 I *D sky130_fd_sc_hd__a31oi_2
*I *2050:X O *D sky130_fd_sc_hd__o21ba_2
*CAP
1 *2066:B1 0.000204229
2 *2050:X 0.000204229
*RES
1 *2050:X *2066:B1 6.095 
*END

*D_NET *324 0.00233229
*CONN
*I *2409:A I *D sky130_fd_sc_hd__buf_2
*I *2064:C1 I *D sky130_fd_sc_hd__o2111ai_4
*I *2051:Y O *D sky130_fd_sc_hd__o21bai_4
*CAP
1 *2409:A 0
2 *2064:C1 0.000185719
3 *2051:Y 0.000527196
4 *324:14 0.000712915
5 *2064:C1 *2379:A 0
6 *324:14 *2052:A2 0.000155418
7 *324:14 *2054:A1 0.000137571
8 *324:14 *2055:A2 0.000183488
9 *324:14 *2055:B1 8.40213e-05
10 *324:14 *2066:A3 2.31229e-05
11 *324:14 *506:14 4.82919e-05
12 *324:14 *506:22 5.98073e-05
13 *2064:B1 *2064:C1 0
14 *2064:B1 *324:14 0.000122331
15 *2064:D1 *2064:C1 9.24127e-05
*RES
1 *2051:Y *324:14 15.725 
2 *324:14 *2064:C1 8.975 
3 *324:14 *2409:A 1.6 
*END

*D_NET *325 0.00236213
*CONN
*I *2054:A2 I *D sky130_fd_sc_hd__o21a_2
*I *2055:A2 I *D sky130_fd_sc_hd__o21ai_2
*I *2064:A2 I *D sky130_fd_sc_hd__o2111ai_4
*I *2053:B1 I *D sky130_fd_sc_hd__a21o_2
*I *2052:Y O *D sky130_fd_sc_hd__o21ai_2
*CAP
1 *2054:A2 0
2 *2055:A2 0.000190118
3 *2064:A2 5.50477e-05
4 *2053:B1 0.000115907
5 *2052:Y 5.5803e-05
6 *325:27 0.000291308
7 *325:23 0.000271016
8 *325:8 0.000396583
9 *2053:B1 *2053:A1 0
10 *2053:B1 *2054:A1 0
11 *2053:B1 *2066:A1 1.22676e-05
12 *2053:B1 *2066:A2 0.000141599
13 *2053:B1 *2067:B1 4.7043e-05
14 *2053:B1 *337:10 1.01661e-05
15 *2055:A2 *2054:A1 3.84409e-05
16 *2055:A2 *2061:C1 0.000218317
17 *2064:A2 *2066:A3 4.66108e-05
18 *325:8 *2053:A1 0
19 *325:8 *2066:A1 3.39069e-05
20 *325:23 *2054:A1 2.75145e-05
21 *325:23 *2066:A2 5.05437e-05
22 *325:27 *2054:A1 6.10014e-05
23 *325:27 *2054:B1 1.26548e-05
24 *325:27 *2061:C1 9.14049e-05
25 *2064:B1 *2064:A2 1.1392e-05
26 *324:14 *2055:A2 0.000183488
*RES
1 *2052:Y *325:8 4.725 
2 *325:8 *2053:B1 6.45 
3 *325:8 *325:23 5.21 
4 *325:23 *325:27 3.38 
5 *325:27 *2064:A2 4.665 
6 *325:27 *2055:A2 8.1 
7 *325:23 *2054:A2 1.6 
*END

*D_NET *326 0.000415
*CONN
*I *2066:A2 I *D sky130_fd_sc_hd__a31oi_2
*I *2053:X O *D sky130_fd_sc_hd__a21o_2
*CAP
1 *2066:A2 0.000102881
2 *2053:X 0.000102881
3 *2066:A2 *337:10 1.70935e-05
4 *2053:B1 *2066:A2 0.000141599
5 *325:23 *2066:A2 5.05437e-05
*RES
1 *2053:X *2066:A2 9.63 
*END

*D_NET *327 0.00202358
*CONN
*I *2061:C1 I *D sky130_fd_sc_hd__a211oi_4
*I *2054:X O *D sky130_fd_sc_hd__o21a_2
*CAP
1 *2061:C1 0.000440775
2 *2054:X 0.000440775
3 *2061:C1 *2054:B1 0.00024756
4 *2061:C1 *2056:C 0.000173191
5 *2061:C1 *2062:A1 0
6 *2061:C1 *2062:B1 0
7 *2061:C1 *2379:A 0.000135312
8 S[19] *2061:C1 7.24866e-05
9 *2055:A2 *2061:C1 0.000218317
10 *2064:B1 *2061:C1 0
11 *317:12 *2061:C1 0.000203762
12 *325:27 *2061:C1 9.14049e-05
*RES
1 *2054:X *2061:C1 18.135 
*END

*D_NET *328 0.000717058
*CONN
*I *2062:B1 I *D sky130_fd_sc_hd__a21oi_2
*I *2055:Y O *D sky130_fd_sc_hd__o21ai_2
*CAP
1 *2062:B1 0.000105413
2 *2055:Y 0.000105413
3 S[19] *2062:B1 0.000185405
4 *2061:C1 *2062:B1 0
5 *2064:B1 *2062:B1 0.000320827
*RES
1 *2055:Y *2062:B1 10.875 
*END

*D_NET *329 0.00175055
*CONN
*I *2061:A2 I *D sky130_fd_sc_hd__a211oi_4
*I *2057:B I *D sky130_fd_sc_hd__nand2_2
*I *2056:X O *D sky130_fd_sc_hd__and3_2
*CAP
1 *2061:A2 0
2 *2057:B 0.000167471
3 *2056:X 0.000173141
4 *329:10 0.000340612
5 *2057:B *2044:A 0
6 *2057:B *2062:A1 0.000180787
7 *2057:B *480:18 6.03272e-05
8 *329:10 *2056:B 0.00015562
9 *329:10 *2056:C 3.72916e-05
10 *329:10 *2061:A1 0.000293712
11 *329:10 *2383:A 0
12 *2047:A *2057:B 0
13 *2047:A *329:10 0
14 *2059:A1 *2057:B 0.000187071
15 *2059:A1 *329:10 5.56629e-05
16 *2060:A1 *2057:B 0
17 *2064:D1 *2057:B 9.8858e-05
*RES
1 *2056:X *329:10 8.67 
2 *329:10 *2057:B 8.325 
3 *329:10 *2061:A2 3.6 
*END

*D_NET *330 0.00108411
*CONN
*I *2062:A1 I *D sky130_fd_sc_hd__a21oi_2
*I *2057:Y O *D sky130_fd_sc_hd__nand2_2
*CAP
1 *2062:A1 0.00029949
2 *2057:Y 0.00029949
3 *2062:A1 *2056:B 3.09164e-05
4 *2062:A1 *2056:C 3.49911e-05
5 *2062:A1 *2062:A2 8.23457e-05
6 *2062:A1 *2379:A 2.24423e-05
7 *2062:A1 *480:6 6.97118e-05
8 *2062:A1 *480:18 2.75229e-05
9 *2057:B *2062:A1 0.000180787
10 *2059:A1 *2062:A1 9.50342e-06
11 *2061:C1 *2062:A1 0
12 *2064:D1 *2062:A1 2.69097e-05
*RES
1 *2057:Y *2062:A1 13.125 
*END

*D_NET *331 0.00170787
*CONN
*I *2066:A3 I *D sky130_fd_sc_hd__a31oi_2
*I *2058:Y O *D sky130_fd_sc_hd__o211ai_2
*CAP
1 *2066:A3 0.000555337
2 *2058:Y 0.000555337
3 *2066:A3 *2054:A1 0.000116158
4 *2066:A3 *2058:B1 0.000164874
5 *2066:A3 *2065:B 5.05437e-05
6 *2066:A3 *2066:A1 4.40812e-05
7 *2058:C1 *2066:A3 4.99619e-05
8 *2064:A2 *2066:A3 4.66108e-05
9 *2064:B1 *2066:A3 1.35742e-05
10 *2064:D1 *2066:A3 8.8266e-05
11 *324:14 *2066:A3 2.31229e-05
*RES
1 *2058:Y *2066:A3 16.65 
*END

*D_NET *332 0.000369585
*CONN
*I *2061:B1 I *D sky130_fd_sc_hd__a211oi_4
*I *2059:Y O *D sky130_fd_sc_hd__o21ai_2
*CAP
1 *2061:B1 5.44017e-05
2 *2059:Y 5.44017e-05
3 *2061:B1 *2056:B 0.00011852
4 *2059:A1 *2061:B1 0.000142262
*RES
1 *2059:Y *2061:B1 7.3775 
*END

*D_NET *333 0.000666297
*CONN
*I *2062:A2 I *D sky130_fd_sc_hd__a21oi_2
*I *2060:X O *D sky130_fd_sc_hd__o31a_2
*CAP
1 *2062:A2 0.000181916
2 *2060:X 0.000181916
3 *2062:A2 *480:18 3.23284e-05
4 *2059:A2 *2062:A2 6.12198e-05
5 *2060:A3 *2062:A2 0.00012657
6 *2062:A1 *2062:A2 8.23457e-05
*RES
1 *2060:X *2062:A2 6.755 
*END

*D_NET *334 0.000249952
*CONN
*I *2063:A I *D sky130_fd_sc_hd__nor2_4
*I *2061:Y O *D sky130_fd_sc_hd__a211oi_4
*CAP
1 *2063:A 6.53491e-05
2 *2061:Y 6.53491e-05
3 *2063:A *2056:C 4.32126e-05
4 S[19] *2063:A 6.02202e-05
5 *2059:A1 *2063:A 1.58213e-05
*RES
1 *2061:Y *2063:A 8.7225 
*END

*D_NET *335 0.000717356
*CONN
*I *2063:B I *D sky130_fd_sc_hd__nor2_4
*I *2062:Y O *D sky130_fd_sc_hd__a21oi_2
*CAP
1 *2063:B 0.000164233
2 *2062:Y 0.000164233
3 *2063:B *480:6 1.74678e-05
4 *2063:B *500:12 0
5 *2063:B *506:14 0.000104309
6 S[19] *2063:B 0.000170535
7 *315:18 *2063:B 1.16578e-05
8 *317:12 *2063:B 8.49205e-05
*RES
1 *2062:Y *2063:B 11.67 
*END

*D_NET *336 0.000802631
*CONN
*I *2065:B I *D sky130_fd_sc_hd__nor4_4
*I *2064:Y O *D sky130_fd_sc_hd__o2111ai_4
*CAP
1 *2065:B 0.000346802
2 *2064:Y 0.000346802
3 *2065:B *2379:A 0
4 *2065:A *2065:B 5.84828e-05
5 *2065:C *2065:B 0
6 *2066:A3 *2065:B 5.05437e-05
*RES
1 *2064:Y *2065:B 12.66 
*END

*D_NET *337 0.00325207
*CONN
*I *2067:A1 I *D sky130_fd_sc_hd__a21oi_2
*I *2069:A I *D sky130_fd_sc_hd__nand2_2
*I *2068:B I *D sky130_fd_sc_hd__and2_4
*I *2065:Y O *D sky130_fd_sc_hd__nor4_4
*CAP
1 *2067:A1 5.86551e-05
2 *2069:A 3.60707e-05
3 *2068:B 7.1264e-05
4 *2065:Y 0.000850916
5 *337:16 0.000353206
6 *337:10 0.00115544
7 *2069:A *393:18 4.74237e-05
8 *337:10 *2067:B1 0
9 *337:10 *2379:A 0
10 *337:16 *2379:A 0
11 *337:16 *393:18 0.000127467
12 *2015:A *2067:A1 6.97118e-05
13 *2015:A *2068:B 3.09164e-05
14 *2053:B1 *337:10 1.01661e-05
15 *2066:A2 *337:10 1.70935e-05
16 *2067:A2 *337:16 0.000185176
17 *254:10 *2068:B 7.45794e-05
18 *290:19 *2068:B 0.000163985
*RES
1 *2065:Y *337:10 14.61 
2 *337:10 *337:16 7.01 
3 *337:16 *2068:B 7.745 
4 *337:16 *2069:A 2.41 
5 *337:10 *2067:A1 4.74 
*END

*D_NET *338 0.000782005
*CONN
*I *2067:B1 I *D sky130_fd_sc_hd__a21oi_2
*I *2066:Y O *D sky130_fd_sc_hd__a31oi_2
*CAP
1 *2067:B1 0.000320632
2 *2066:Y 0.000320632
3 *2067:B1 *2053:A1 3.86607e-05
4 *2067:B1 *339:8 2.75229e-05
5 *2015:A *2067:B1 2.75145e-05
6 *2053:B1 *2067:B1 4.7043e-05
7 *2402:A *2067:B1 0
8 *337:10 *2067:B1 0
*RES
1 *2066:Y *2067:B1 13.11 
*END

*D_NET *339 0.00202994
*CONN
*I *2367:A I *D sky130_fd_sc_hd__buf_6
*I *2405:A I *D sky130_fd_sc_hd__buf_2
*I *2067:Y O *D sky130_fd_sc_hd__a21oi_2
*CAP
1 *2367:A 0.000231511
2 *2405:A 0.000125014
3 *2067:Y 0.000394989
4 *339:8 0.000751515
5 *2367:A *2080:A2 0.000238919
6 *2367:A *2125:A1 5.30673e-05
7 *2367:A *2125:A2 4.66108e-05
8 *2367:A *2125:B1 7.67415e-06
9 *2367:A *390:6 7.68414e-06
10 *2405:A *2080:A2 0
11 *2405:A *2126:A2 0
12 *339:8 *2080:A2 9.21168e-05
13 *339:8 *2412:A 2.75145e-05
14 *2020:B1 *339:8 2.58017e-05
15 *2067:B1 *339:8 2.75229e-05
16 *2402:A *2405:A 0
*RES
1 *2067:Y *339:8 6.55 
2 *339:8 *2405:A 7.235 
3 *339:8 *2367:A 5.86 
*END

*D_NET *340 0.000972166
*CONN
*I *2070:C1 I *D sky130_fd_sc_hd__o221ai_4
*I *2068:X O *D sky130_fd_sc_hd__and2_4
*CAP
1 *2070:C1 0.000321005
2 *2068:X 0.000321005
3 *2070:C1 *2124:B2 0
4 *2070:C1 *2124:C1 1.26548e-05
5 *2070:C1 *2128:B1 0.0003175
6 *2403:A *2070:C1 0
*RES
1 *2068:X *2070:C1 13.305 
*END

*D_NET *341 0.000627012
*CONN
*I *2123:B I *D sky130_fd_sc_hd__nor2_4
*I *2412:A I *D sky130_fd_sc_hd__buf_2
*I *2069:Y O *D sky130_fd_sc_hd__nand2_2
*CAP
1 *2123:B 0
2 *2412:A 0.00013753
3 *2069:Y 5.71675e-05
4 *341:6 0.000194698
5 *2412:A *2126:A2 0
6 *2412:A *2128:B1 0
7 *2412:A *393:18 5.72091e-05
8 *341:6 *393:18 7.10578e-05
9 *2402:A *2412:A 1.22762e-05
10 *254:10 *2412:A 6.95591e-05
11 *339:8 *2412:A 2.75145e-05
*RES
1 *2069:Y *341:6 2.74 
2 *341:6 *2412:A 8.45 
3 *341:6 *2123:B 1.6 
*END

*D_NET *342 0.00420051
*CONN
*I *2092:A2 I *D sky130_fd_sc_hd__a21boi_2
*I *2079:A2 I *D sky130_fd_sc_hd__a21o_2
*I *2078:A1 I *D sky130_fd_sc_hd__a21oi_2
*I *2109:A1 I *D sky130_fd_sc_hd__a21oi_4
*I *2070:Y O *D sky130_fd_sc_hd__o221ai_4
*CAP
1 *2092:A2 0.000143718
2 *2079:A2 0.000202909
3 *2078:A1 0.000132051
4 *2109:A1 0
5 *2070:Y 0.000776721
6 *342:40 0.000390422
7 *342:25 0.000446814
8 *342:10 0.00104769
9 *2078:A1 *2078:B1 4.82863e-05
10 *2078:A1 *2089:A2 4.99619e-05
11 *2078:A1 *2108:A 4.82919e-05
12 *2078:A1 *2415:A 7.35729e-05
13 *2079:A2 *2079:B1 0.000198934
14 *2092:A2 *361:6 5.30673e-05
15 *342:10 *2070:A1 7.22354e-05
16 *342:10 *2109:A2 4.18603e-06
17 *342:10 *2109:B1 0
18 *342:25 *2080:B1 0
19 *342:25 *2092:A1 5.72004e-05
20 *342:25 *2108:A 3.83041e-05
21 *342:25 *2108:B 8.74151e-05
22 *342:25 *2109:A2 9.07342e-05
23 *342:25 *2109:B1 1.16578e-05
24 *342:40 *2108:B 6.36656e-05
25 *342:40 *349:12 0.00011686
26 *2413:A *342:10 4.58166e-05
27 *2414:A *342:10 0
28 *129:29 *342:10 0
29 *140:25 *342:10 0
*RES
1 *2070:Y *342:10 15.93 
2 *342:10 *2109:A1 3.6 
3 *342:10 *342:25 7.685 
4 *342:25 *2078:A1 4.135 
5 *342:25 *342:40 5.38 
6 *342:40 *2079:A2 4.81 
7 *342:40 *2092:A2 4.045 
*END

*D_NET *343 0.000738573
*CONN
*I *2075:A_N I *D sky130_fd_sc_hd__nand3b_2
*I *2074:A_N I *D sky130_fd_sc_hd__and3b_2
*I *2076:A1 I *D sky130_fd_sc_hd__o21bai_2
*I *2071:Y O *D sky130_fd_sc_hd__nor2_2
*CAP
1 *2075:A_N 3.62205e-05
2 *2074:A_N 4.50596e-05
3 *2076:A1 0
4 *2071:Y 0.000120108
5 *343:8 0.000128947
6 *2074:A_N *2072:B 0.000131401
7 *2074:A_N *2074:B 0
8 *2074:A_N *2076:A2 6.5525e-05
9 *2075:A_N *2073:A 3.72916e-05
10 *343:8 *2071:B 9.14049e-05
11 *343:8 *2072:B 7.70828e-05
12 *343:8 *2074:B 0
13 *343:8 *2076:A2 5.53249e-06
*RES
1 *2071:Y *343:8 5.49 
2 *343:8 *2076:A1 3.6 
3 *343:8 *2074:A_N 5.235 
4 *2071:Y *2075:A_N 3.995 
*END

*D_NET *344 0.000526233
*CONN
*I *2076:A2 I *D sky130_fd_sc_hd__o21bai_2
*I *2072:X O *D sky130_fd_sc_hd__and2_2
*CAP
1 *2076:A2 0.000170229
2 *2072:X 0.000170229
3 *2076:A2 *2072:B 2.75145e-05
4 *2076:A2 *2074:B 4.70256e-05
5 S[24] *2076:A2 4.01778e-05
6 *2074:A_N *2076:A2 6.5525e-05
7 *343:8 *2076:A2 5.53249e-06
*RES
1 *2072:X *2076:A2 10.065 
*END

*D_NET *345 0.00125841
*CONN
*I *2075:B I *D sky130_fd_sc_hd__nand3b_2
*I *2074:B I *D sky130_fd_sc_hd__and3b_2
*I *2073:Y O *D sky130_fd_sc_hd__nand2_2
*CAP
1 *2075:B 0
2 *2074:B 0.000284112
3 *2073:Y 7.80344e-05
4 *345:6 0.000362147
5 *2074:B *2071:B 0
6 *2074:B *2072:B 0
7 *2074:B *2075:C 4.82919e-05
8 *2074:B *2089:A1 0.000197415
9 *2074:B *475:25 4.82863e-05
10 *345:6 *2073:A 4.16262e-05
11 *345:6 *2075:C 8.57024e-05
12 *345:6 *2093:A1 1.91597e-05
13 *345:6 *347:12 4.66108e-05
14 S[24] *2074:B 0
15 *2074:A_N *2074:B 0
16 *2076:A2 *2074:B 4.70256e-05
17 *2337:A *2074:B 0
18 *343:8 *2074:B 0
*RES
1 *2073:Y *345:6 3.43 
2 *345:6 *2074:B 11.45 
3 *345:6 *2075:B 1.6 
*END

*D_NET *346 0.00159239
*CONN
*I *2089:A1 I *D sky130_fd_sc_hd__o21ai_2
*I *2074:X O *D sky130_fd_sc_hd__and3b_2
*CAP
1 *2089:A1 0.00037302
2 *2074:X 0.00037302
3 *2089:A1 *2075:C 0.000180689
4 *2089:A1 *2088:B 1.44259e-05
5 *2089:A1 *2090:B 0.00013687
6 *2089:A1 *2385:A 7.97734e-05
7 *2089:A1 *347:12 8.08439e-05
8 *2089:A1 *349:10 1.15688e-05
9 *2089:A1 *507:23 0.000132096
10 *2074:B *2089:A1 0.000197415
11 *2337:A *2089:A1 1.26626e-05
*RES
1 *2074:X *2089:A1 16.695 
*END

*D_NET *347 0.00166021
*CONN
*I *2093:A1 I *D sky130_fd_sc_hd__a21oi_2
*I *2077:A I *D sky130_fd_sc_hd__nand2_2
*I *2088:C I *D sky130_fd_sc_hd__nand3b_2
*I *2075:Y O *D sky130_fd_sc_hd__nand3b_2
*CAP
1 *2093:A1 0.000405844
2 *2077:A 0.000143044
3 *2088:C 0
4 *2075:Y 0
5 *347:12 0.000214983
6 *347:4 0.000477782
7 *2077:A *2088:A_N 4.66108e-05
8 *2077:A *2088:B 0
9 *2077:A *2386:A 6.18267e-05
10 *2093:A1 *2073:A 3.1562e-06
11 *2093:A1 *2093:A2 2.11084e-05
12 *2093:A1 *355:8 0
13 *347:12 *2385:A 0.000139245
14 *2089:A1 *347:12 8.08439e-05
15 *345:6 *2093:A1 1.91597e-05
16 *345:6 *347:12 4.66108e-05
*RES
1 *2075:Y *347:4 1.6 
2 *347:4 *347:12 6.085 
3 *347:12 *2088:C 1.6 
4 *347:12 *2077:A 4.15 
5 *347:4 *2093:A1 6.475 
*END

*D_NET *348 0.00117363
*CONN
*I *2077:B I *D sky130_fd_sc_hd__nand2_2
*I *2076:Y O *D sky130_fd_sc_hd__o21bai_2
*CAP
1 *2077:B 0.000310182
2 *2076:Y 0.000310182
3 *2077:B *2073:B 7.63047e-05
4 *2077:B *2385:A 1.1561e-05
5 *2077:B *2386:A 0
6 *2077:B *358:12 0.000354666
7 *2077:B *358:18 8.53113e-06
8 *2077:B *546:10 0.0001022
*RES
1 *2076:Y *2077:B 13.305 
*END

*D_NET *349 0.00356477
*CONN
*I *2091:A I *D sky130_fd_sc_hd__nor2_2
*I *2079:B1 I *D sky130_fd_sc_hd__a21o_2
*I *2108:A I *D sky130_fd_sc_hd__or3b_2
*I *2078:B1 I *D sky130_fd_sc_hd__a21oi_2
*I *2080:B1 I *D sky130_fd_sc_hd__o211ai_2
*I *2077:Y O *D sky130_fd_sc_hd__nand2_2
*CAP
1 *2091:A 0
2 *2079:B1 7.08045e-05
3 *2108:A 2.79406e-05
4 *2078:B1 2.12116e-05
5 *2080:B1 0.000218914
6 *2077:Y 0.00037049
7 *349:43 7.08045e-05
8 *349:27 4.91522e-05
9 *349:12 0.000287729
10 *349:10 0.000439304
11 *2079:B1 *351:10 2.11084e-05
12 *2080:B1 *2078:A2 0
13 *2080:B1 *2080:A1 0
14 *2080:B1 *2081:B 0
15 *2080:B1 *2108:B 3.25997e-05
16 *2080:B1 *2109:A2 9.61414e-05
17 *2080:B1 *2415:A 0.000100536
18 *2080:B1 *389:10 0.00011577
19 *2080:B1 *452:22 1.71013e-05
20 *2108:A *2108:B 4.9253e-06
21 *349:10 *2088:B 0.00012068
22 *349:10 *2089:A2 0.000356796
23 *349:10 *2090:B 9.5433e-05
24 *349:10 *2108:B 2.97004e-06
25 *349:10 *2385:A 0
26 *349:10 *2386:A 0.00030615
27 *349:10 *358:22 0.000147049
28 *349:12 *2078:A2 0
29 *349:12 *2089:A2 0.000114492
30 *349:12 *2108:B 1.44259e-05
31 *2078:A1 *2078:B1 4.82863e-05
32 *2078:A1 *2108:A 4.82919e-05
33 *2079:A2 *2079:B1 0.000198934
34 *2089:A1 *349:10 1.15688e-05
35 *342:25 *2080:B1 0
36 *342:25 *2108:A 3.83041e-05
37 *342:40 *349:12 0.00011686
*RES
1 *2077:Y *349:10 12.18 
2 *349:10 *349:12 1.89 
3 *349:12 *2080:B1 8.445 
4 *349:12 *349:27 2 
5 *349:27 *2078:B1 2.05 
6 *349:27 *2108:A 2.395 
7 *349:10 *349:43 2 
8 *349:43 *2079:B1 3.43 
9 *349:43 *2091:A 1.6 
*END

*D_NET *350 0.00121398
*CONN
*I *2089:A2 I *D sky130_fd_sc_hd__o21ai_2
*I *2078:Y O *D sky130_fd_sc_hd__a21oi_2
*CAP
1 *2089:A2 0.000195238
2 *2078:Y 0.000195238
3 *2089:A2 *2079:A1 0
4 *2089:A2 *2081:B 0
5 *2089:A2 *2088:B 0.000162325
6 *2089:A2 *351:10 0.000139933
7 *2078:A1 *2089:A2 4.99619e-05
8 *349:10 *2089:A2 0.000356796
9 *349:12 *2089:A2 0.000114492
*RES
1 *2078:Y *2089:A2 13.11 
*END

*D_NET *351 0.00154199
*CONN
*I *2088:B I *D sky130_fd_sc_hd__nand3b_2
*I *2081:A I *D sky130_fd_sc_hd__and2_2
*I *2079:X O *D sky130_fd_sc_hd__a21o_2
*CAP
1 *2088:B 0.000291982
2 *2081:A 6.56056e-05
3 *2079:X 0.000103649
4 *351:10 0.000461236
5 *2081:A *2385:A 9.66021e-05
6 *2088:B *2090:A 0
7 *2088:B *2090:B 6.44425e-05
8 *351:10 *2081:B 0
9 *2077:A *2088:B 0
10 *2079:B1 *351:10 2.11084e-05
11 *2089:A1 *2088:B 1.44259e-05
12 *2089:A2 *2088:B 0.000162325
13 *2089:A2 *351:10 0.000139933
14 *349:10 *2088:B 0.00012068
*RES
1 *2079:X *351:10 5.685 
2 *351:10 *2081:A 5.085 
3 *351:10 *2088:B 9.405 
*END

*D_NET *352 0.000832492
*CONN
*I *2081:B I *D sky130_fd_sc_hd__and2_2
*I *2080:Y O *D sky130_fd_sc_hd__o211ai_2
*CAP
1 *2081:B 0.000370109
2 *2080:Y 0.000370109
3 *2081:B *2048:A 0
4 *2081:B *2078:A2 3.05295e-05
5 *2081:B *2079:A1 3.4222e-05
6 *2081:B *2385:A 2.75229e-05
7 *2081:B *2415:A 0
8 *2080:B1 *2081:B 0
9 *2089:A2 *2081:B 0
10 *351:10 *2081:B 0
*RES
1 *2080:Y *2081:B 13.62 
*END

*D_NET *353 0.000863748
*CONN
*I *2084:A1 I *D sky130_fd_sc_hd__o21ba_2
*I *2082:Y O *D sky130_fd_sc_hd__nor2_2
*CAP
1 *2084:A1 0.000314585
2 *2082:Y 0.000314585
3 *2084:A1 *2082:B 4.65607e-05
4 *2084:A1 *2086:A1 0
5 *2084:A1 *2086:B1 5.0751e-05
6 *2084:A1 *2087:A1 8.89751e-05
7 *2084:A1 *2093:A2 4.82919e-05
*RES
1 *2082:Y *2084:A1 12.645 
*END

*D_NET *354 0.000553275
*CONN
*I *2084:A2 I *D sky130_fd_sc_hd__o21ba_2
*I *2087:A1 I *D sky130_fd_sc_hd__o21bai_2
*I *2083:X O *D sky130_fd_sc_hd__and2_4
*CAP
1 *2084:A2 0
2 *2087:A1 9.36607e-05
3 *2083:X 0.0001012
4 *354:8 0.00019486
5 *2087:A1 *2086:A1 0
6 *2087:A1 *475:31 7.45794e-05
7 *354:8 *355:8 0
8 *2084:A1 *2087:A1 8.89751e-05
*RES
1 *2083:X *354:8 3.1 
2 *354:8 *2087:A1 8 
3 *354:8 *2084:A2 1.6 
*END

*D_NET *355 0.00078642
*CONN
*I *2093:B1 I *D sky130_fd_sc_hd__a21oi_2
*I *2087:B1_N I *D sky130_fd_sc_hd__o21bai_2
*I *2084:X O *D sky130_fd_sc_hd__o21ba_2
*CAP
1 *2093:B1 0
2 *2087:B1_N 8.98322e-05
3 *2084:X 0.000152059
4 *355:8 0.000241891
5 *2087:B1_N *2084:B1_N 0.000183036
6 *2087:B1_N *2386:A 7.37109e-05
7 *2087:B1_N *358:12 2.75145e-05
8 *355:8 *2084:B1_N 1.83756e-05
9 *2093:A1 *355:8 0
10 *354:8 *355:8 0
*RES
1 *2084:X *355:8 3.61 
2 *355:8 *2087:B1_N 8.195 
3 *355:8 *2093:B1 1.6 
*END

*D_NET *356 0.0011931
*CONN
*I *2086:B1 I *D sky130_fd_sc_hd__a21o_2
*I *2087:A2 I *D sky130_fd_sc_hd__o21bai_2
*I *2085:Y O *D sky130_fd_sc_hd__o21ai_2
*CAP
1 *2086:B1 0.000210893
2 *2087:A2 0
3 *2085:Y 9.20972e-05
4 *356:14 0.000302991
5 *2086:B1 *2082:B 0
6 *2086:B1 *2093:A2 5.48175e-05
7 *356:14 *2084:B1_N 0.000140905
8 *356:14 *2085:A1 8.40213e-05
9 *356:14 *2085:A2 4.66742e-05
10 *356:14 *2093:A2 1.83756e-05
11 *356:14 *475:31 0.000160658
12 *356:14 *508:10 3.09164e-05
13 *2084:A1 *2086:B1 5.0751e-05
*RES
1 *2085:Y *356:14 8.735 
2 *356:14 *2087:A2 1.6 
3 *356:14 *2086:B1 5.185 
*END

*D_NET *357 0.00140146
*CONN
*I *2093:A2 I *D sky130_fd_sc_hd__a21oi_2
*I *2086:X O *D sky130_fd_sc_hd__a21o_2
*CAP
1 *2093:A2 0.000481104
2 *2086:X 0.000481104
3 *2093:A2 *2073:B 0
4 *2093:A2 *2386:A 6.36578e-05
5 *2093:A2 *358:12 0.000233004
6 *2084:A1 *2093:A2 4.82919e-05
7 *2086:B1 *2093:A2 5.48175e-05
8 *2093:A1 *2093:A2 2.11084e-05
9 *356:14 *2093:A2 1.83756e-05
*RES
1 *2086:X *2093:A2 13.965 
*END

*D_NET *358 0.00362615
*CONN
*I *2088:A_N I *D sky130_fd_sc_hd__nand3b_2
*I *2089:B1 I *D sky130_fd_sc_hd__o21ai_2
*I *2091:B I *D sky130_fd_sc_hd__nor2_2
*I *2108:B I *D sky130_fd_sc_hd__or3b_2
*I *2087:Y O *D sky130_fd_sc_hd__o21bai_2
*CAP
1 *2088:A_N 1.65033e-05
2 *2089:B1 0
3 *2091:B 0
4 *2108:B 0.000158266
5 *2087:Y 0.00036658
6 *358:22 0.00032696
7 *358:18 0.000360445
8 *358:12 0.000574833
9 *2088:A_N *2386:A 2.49909e-05
10 *2108:B *2092:A1 0
11 *358:12 *2385:A 0.00029883
12 *358:12 *546:6 8.65961e-05
13 *358:12 *546:10 0.000120655
14 *358:18 *2385:A 0.000204456
15 *358:22 *2092:A1 0
16 *358:22 *2385:A 6.36578e-05
17 *2077:A *2088:A_N 4.66108e-05
18 *2077:B *358:12 0.000354666
19 *2077:B *358:18 8.53113e-06
20 *2080:B1 *2108:B 3.25997e-05
21 *2087:B1_N *358:12 2.75145e-05
22 *2093:A2 *358:12 0.000233004
23 *2108:A *2108:B 4.9253e-06
24 *342:25 *2108:B 8.74151e-05
25 *342:40 *2108:B 6.36656e-05
26 *349:10 *2108:B 2.97004e-06
27 *349:10 *358:22 0.000147049
28 *349:12 *2108:B 1.44259e-05
*RES
1 *2087:Y *358:12 12.915 
2 *358:12 *358:18 5.54 
3 *358:18 *358:22 6.185 
4 *358:22 *2108:B 6.705 
5 *358:22 *2091:B 3.6 
6 *358:18 *2089:B1 1.6 
7 *358:12 *2088:A_N 4.05 
*END

*D_NET *359 0.00023845
*CONN
*I *2090:A I *D sky130_fd_sc_hd__nand2_2
*I *2088:Y O *D sky130_fd_sc_hd__nand3b_2
*CAP
1 *2090:A 8.61526e-05
2 *2088:Y 8.61526e-05
3 *2090:A *2090:B 4.99619e-05
4 *2090:A *2386:A 1.61831e-05
5 *2088:B *2090:A 0
*RES
1 *2088:Y *2090:A 4.7 
*END

*D_NET *360 0.000702248
*CONN
*I *2090:B I *D sky130_fd_sc_hd__nand2_2
*I *2089:Y O *D sky130_fd_sc_hd__o21ai_2
*CAP
1 *2090:B 0.000112954
2 *2089:Y 0.000112954
3 *2090:B *2386:A 0.000129633
4 *2088:B *2090:B 6.44425e-05
5 *2089:A1 *2090:B 0.00013687
6 *2090:A *2090:B 4.99619e-05
7 *349:10 *2090:B 9.5433e-05
*RES
1 *2089:Y *2090:B 10.785 
*END

*D_NET *361 0.00117527
*CONN
*I *2092:B1_N I *D sky130_fd_sc_hd__a21boi_2
*I *2121:A I *D sky130_fd_sc_hd__nand3_4
*I *2091:Y O *D sky130_fd_sc_hd__nor2_2
*CAP
1 *2092:B1_N 2.03254e-05
2 *2121:A 0.000124578
3 *2091:Y 0.000181036
4 *361:6 0.000325939
5 *2092:B1_N *362:6 4.82919e-05
6 *2121:A *2092:A1 0
7 *2121:A *2109:B1 0.000143501
8 *2121:A *2121:B 0.000119277
9 *2121:A *369:43 7.26629e-05
10 *361:6 *362:6 8.65905e-05
11 *2092:A2 *361:6 5.30673e-05
*RES
1 *2091:Y *361:6 4.465 
2 *361:6 *2121:A 9.53 
3 *361:6 *2092:B1_N 2.05 
*END

*D_NET *362 0.00129337
*CONN
*I *2101:A_N I *D sky130_fd_sc_hd__nand3b_4
*I *2100:A1 I *D sky130_fd_sc_hd__o21bai_2
*I *2092:Y O *D sky130_fd_sc_hd__a21boi_2
*CAP
1 *2101:A_N 3.78744e-05
2 *2100:A1 9.42328e-05
3 *2092:Y 0.000165632
4 *362:6 0.000297739
5 *2100:A1 *475:45 0.000210846
6 *2101:A_N *369:43 7.40446e-05
7 *362:6 *369:43 0.000278117
8 *2092:B1_N *362:6 4.82919e-05
9 *361:6 *362:6 8.65905e-05
*RES
1 *2092:Y *362:6 5.5 
2 *362:6 *2100:A1 8 
3 *362:6 *2101:A_N 2.395 
*END

*D_NET *363 0.0018144
*CONN
*I *2094:A I *D sky130_fd_sc_hd__inv_2
*I *2100:A2 I *D sky130_fd_sc_hd__o21bai_2
*I *2110:A1 I *D sky130_fd_sc_hd__a21boi_2
*I *2093:Y O *D sky130_fd_sc_hd__a21oi_2
*CAP
1 *2094:A 0
2 *2100:A2 0
3 *2110:A1 0.000223529
4 *2093:Y 0.000268682
5 *363:18 0.000282275
6 *363:12 0.000327429
7 *2110:A1 *2100:B1_N 0.000230162
8 *2110:A1 *2102:A 4.92062e-05
9 *2110:A1 *2110:A2 4.82919e-05
10 *363:12 *2386:A 9.24127e-05
11 *363:12 *475:31 4.49328e-05
12 *363:12 *475:45 8.77073e-05
13 *363:18 *2102:B 6.73665e-05
14 *363:18 *475:45 9.24049e-05
*RES
1 *2093:Y *363:12 11.105 
2 *363:12 *363:18 5.89 
3 *363:18 *2110:A1 6.325 
4 *363:18 *2100:A2 1.6 
5 *363:12 *2094:A 1.6 
*END

*D_NET *364 0.00089108
*CONN
*I *2101:B I *D sky130_fd_sc_hd__nand3b_4
*I *2094:Y O *D sky130_fd_sc_hd__inv_2
*CAP
1 *2101:B 0.000375942
2 *2094:Y 0.000375942
3 *2101:B *2102:A 7.77446e-05
4 *2101:B *2102:B 6.1452e-05
5 *2101:B *369:8 0
6 *2101:B *379:10 0
7 *2101:B *475:45 0
*RES
1 *2094:Y *2101:B 12.705 
*END

*D_NET *365 0.000799126
*CONN
*I *2098:A1 I *D sky130_fd_sc_hd__o21bai_2
*I *2097:A I *D sky130_fd_sc_hd__or3b_4
*I *2095:Y O *D sky130_fd_sc_hd__nor2_2
*CAP
1 *2098:A1 1.85694e-05
2 *2097:A 0.000108755
3 *2095:Y 4.38189e-05
4 *365:6 0.000171144
5 *2097:A *2095:A 5.0751e-05
6 *2097:A *2095:B 7.35813e-05
7 *2097:A *2097:B 0.000163985
8 *2098:A1 *2095:A 9.53428e-06
9 *2098:A1 *2095:B 0
10 *2098:A1 *368:12 0
11 *365:6 *2095:A 2.11084e-05
12 *365:6 *2095:B 0.00013788
13 S[26] *2097:A 0
14 *2304:A *2097:A 0
*RES
1 *2095:Y *365:6 3.085 
2 *365:6 *2097:A 8.63 
3 *365:6 *2098:A1 1.96 
*END

*D_NET *366 0.000706361
*CONN
*I *2098:A2 I *D sky130_fd_sc_hd__o21bai_2
*I *2097:B I *D sky130_fd_sc_hd__or3b_4
*I *2096:X O *D sky130_fd_sc_hd__and2_2
*CAP
1 *2098:A2 0
2 *2097:B 0.000144342
3 *2096:X 7.1077e-05
4 *366:8 0.000215419
5 *2097:B *2099:A 1.22762e-05
6 *2097:B *367:10 5.93757e-05
7 *2097:B *549:8 0
8 *366:8 *2099:A 3.98865e-05
9 S[26] *2097:B 0
10 S[26] *366:8 0
11 *2097:A *2097:B 0.000163985
*RES
1 *2096:X *366:8 4.98 
2 *366:8 *2097:B 6.795 
3 *366:8 *2098:A2 3.6 
*END

*D_NET *367 0.00151312
*CONN
*I *2099:A I *D sky130_fd_sc_hd__and2_2
*I *2110:B1_N I *D sky130_fd_sc_hd__a21boi_2
*I *2097:X O *D sky130_fd_sc_hd__or3b_4
*CAP
1 *2099:A 0.000186344
2 *2110:B1_N 5.96343e-05
3 *2097:X 9.96796e-05
4 *367:10 0.000345658
5 *2099:A *2095:A 2.4997e-05
6 *2099:A *2096:A 4.82919e-05
7 *2099:A *2096:B 0.000120655
8 *2099:A *2097:C_N 2.23922e-05
9 *2099:A *494:23 1.52184e-05
10 *2099:A *509:14 0.000130325
11 *2110:B1_N *2095:A 3.03684e-05
12 *2110:B1_N *368:12 0.000158066
13 *367:10 *2097:C_N 0.00015995
14 *2097:B *2099:A 1.22762e-05
15 *2097:B *367:10 5.93757e-05
16 *366:8 *2099:A 3.98865e-05
*RES
1 *2097:X *367:10 5.94 
2 *367:10 *2110:B1_N 5.085 
3 *367:10 *2099:A 7.485 
*END

*D_NET *368 0.00131001
*CONN
*I *2099:B I *D sky130_fd_sc_hd__and2_2
*I *2110:A2 I *D sky130_fd_sc_hd__a21boi_2
*I *2098:Y O *D sky130_fd_sc_hd__o21bai_2
*CAP
1 *2099:B 6.23019e-05
2 *2110:A2 0.000106899
3 *2098:Y 0.000141684
4 *368:12 0.000310885
5 *2099:B *2101:C 2.86623e-05
6 *2099:B *369:8 5.21046e-05
7 *2099:B *471:8 0.000187766
8 *2110:A2 *2100:B1_N 4.35348e-05
9 *368:12 *2095:A 1.17409e-05
10 *368:12 *2095:B 0.000158072
11 *2098:A1 *368:12 0
12 *2110:A1 *2110:A2 4.82919e-05
13 *2110:B1_N *368:12 0.000158066
*RES
1 *2098:Y *368:12 4.945 
2 *368:12 *2110:A2 3.43 
3 *368:12 *2099:B 7.745 
*END

*D_NET *369 0.00344668
*CONN
*I *2108:C_N I *D sky130_fd_sc_hd__or3b_2
*I *2121:B I *D sky130_fd_sc_hd__nand3_4
*I *2100:B1_N I *D sky130_fd_sc_hd__o21bai_2
*I *2101:C I *D sky130_fd_sc_hd__nand3b_4
*I *2099:X O *D sky130_fd_sc_hd__and2_2
*CAP
1 *2108:C_N 0.000176465
2 *2121:B 0.000101934
3 *2100:B1_N 0.000161174
4 *2101:C 0.00062652
5 *2099:X 5.16176e-05
6 *369:43 0.000764328
7 *369:8 0.000353383
8 *2100:B1_N *379:10 4.82919e-05
9 *2101:C *379:10 9.19585e-05
10 *2101:C *471:8 7.24866e-05
11 *2108:C_N *2109:B1 9.2741e-05
12 *2121:B *475:45 0
13 *369:8 *379:10 7.21296e-06
14 *369:43 *475:45 0
15 *2099:B *2101:C 2.86623e-05
16 *2099:B *369:8 5.21046e-05
17 *2101:A_N *369:43 7.40446e-05
18 *2101:B *369:8 0
19 *2110:A1 *2100:B1_N 0.000230162
20 *2110:A2 *2100:B1_N 4.35348e-05
21 *2121:A *2121:B 0.000119277
22 *2121:A *369:43 7.26629e-05
23 *362:6 *369:43 0.000278117
*RES
1 *2099:X *369:8 4.725 
2 *369:8 *2101:C 7.05 
3 *369:8 *2100:B1_N 6.825 
4 *2101:C *369:43 11.91 
5 *369:43 *2121:B 6 
6 *369:43 *2108:C_N 6.465 
*END

*D_NET *370 0.000522526
*CONN
*I *2102:A I *D sky130_fd_sc_hd__nand2_2
*I *2100:Y O *D sky130_fd_sc_hd__o21bai_2
*CAP
1 *2102:A 0.000128165
2 *2100:Y 0.000128165
3 *2102:A *2102:B 0.000139245
4 *2101:B *2102:A 7.77446e-05
5 *2110:A1 *2102:A 4.92062e-05
*RES
1 *2100:Y *2102:A 10.08 
*END

*D_NET *371 0.000518533
*CONN
*I *2102:B I *D sky130_fd_sc_hd__nand2_2
*I *2101:Y O *D sky130_fd_sc_hd__nand3b_4
*CAP
1 *2102:B 0.000125235
2 *2101:Y 0.000125235
3 *2102:B *475:45 0
4 *2101:B *2102:B 6.1452e-05
5 *2102:A *2102:B 0.000139245
6 *363:18 *2102:B 6.73665e-05
*RES
1 *2101:Y *2102:B 10.62 
*END

*D_NET *372 0.00110357
*CONN
*I *2105:A1 I *D sky130_fd_sc_hd__o21ba_2
*I *2106:A I *D sky130_fd_sc_hd__or3b_2
*I *2103:Y O *D sky130_fd_sc_hd__nor2_2
*CAP
1 *2105:A1 0
2 *2106:A 0.000445352
3 *2103:Y 2.65106e-05
4 *372:6 0.000471863
5 *2106:A *2105:A2 4.99619e-05
6 *2106:A *2106:C_N 4.82863e-05
7 *2106:A *375:10 5.30673e-05
8 *2106:A *471:8 0
9 *2106:A *550:10 0
10 *2340:A *2106:A 8.53113e-06
*RES
1 *2103:Y *372:6 2.05 
2 *372:6 *2106:A 12.785 
3 *372:6 *2105:A1 1.6 
*END

*D_NET *373 0.00166037
*CONN
*I *2106:B I *D sky130_fd_sc_hd__or3b_2
*I *2105:A2 I *D sky130_fd_sc_hd__o21ba_2
*I *2104:X O *D sky130_fd_sc_hd__and2_4
*CAP
1 *2106:B 5.23217e-05
2 *2105:A2 0.000311542
3 *2104:X 0.000219975
4 *373:8 0.000583839
5 *2105:A2 *2105:B1_N 0.0001249
6 *2105:A2 *2107:A 0
7 *2105:A2 *2122:A1 3.03775e-05
8 *2105:A2 *374:8 3.76412e-05
9 *2105:A2 *376:10 2.75229e-05
10 *2106:B *2122:A2 4.84393e-05
11 *2106:B *471:8 0
12 *373:8 *2122:A1 5.72091e-05
13 *373:8 *2122:A2 0.000116636
14 *373:8 *2122:B1 0
15 *373:8 *471:8 0
16 *373:8 *471:10 0
17 *2106:A *2105:A2 4.99619e-05
*RES
1 *2104:X *373:8 8.04 
2 *373:8 *2105:A2 8.91 
3 *373:8 *2106:B 4.725 
*END

*D_NET *374 0.000809083
*CONN
*I *2107:A I *D sky130_fd_sc_hd__nor2b_4
*I *2122:A1 I *D sky130_fd_sc_hd__o21a_2
*I *2105:X O *D sky130_fd_sc_hd__o21ba_2
*CAP
1 *2107:A 2.08101e-05
2 *2122:A1 9.80927e-05
3 *2105:X 0.000115434
4 *374:8 0.000234337
5 *2122:A1 *471:8 8.59365e-05
6 *2122:A1 *471:10 5.56629e-05
7 *374:8 *2105:B1_N 7.35813e-05
8 *2105:A2 *2107:A 0
9 *2105:A2 *2122:A1 3.03775e-05
10 *2105:A2 *374:8 3.76412e-05
11 *373:8 *2122:A1 5.72091e-05
*RES
1 *2105:X *374:8 3.79 
2 *374:8 *2122:A1 8.03 
3 *374:8 *2107:A 1.96 
*END

*D_NET *375 0.0016767
*CONN
*I *2107:B_N I *D sky130_fd_sc_hd__nor2b_4
*I *2122:B1 I *D sky130_fd_sc_hd__o21a_2
*I *2106:X O *D sky130_fd_sc_hd__or3b_2
*CAP
1 *2107:B_N 0
2 *2122:B1 0.00011851
3 *2106:X 0.000344349
4 *375:10 0.00046286
5 *2122:B1 *2112:A1 0
6 *2122:B1 *2112:A2 3.09233e-05
7 *2122:B1 *2114:A2 0
8 *2122:B1 *2114:B1 8.21594e-05
9 *2122:B1 *2122:A2 0.000158472
10 *2122:B1 *2388:A 0.000163199
11 *375:10 *2112:A2 0.000140912
12 *375:10 *2113:A 4.80285e-05
13 *375:10 *2113:B 0
14 *375:10 *2114:A2 0
15 *375:10 *2114:B1 1.1561e-05
16 *375:10 *2122:A2 3.84331e-05
17 *375:10 *379:10 2.42236e-05
18 *2106:A *375:10 5.30673e-05
19 *373:8 *2122:B1 0
*RES
1 *2106:X *375:10 9.03 
2 *375:10 *2122:B1 7.23 
3 *375:10 *2107:B_N 3.6 
*END

*D_NET *376 0.00139058
*CONN
*I *2113:B I *D sky130_fd_sc_hd__nand2_2
*I *2121:C I *D sky130_fd_sc_hd__nand3_4
*I *2112:B1_N I *D sky130_fd_sc_hd__o21bai_2
*I *2107:Y O *D sky130_fd_sc_hd__nor2b_4
*CAP
1 *2113:B 9.78171e-05
2 *2121:C 0.000209498
3 *2112:B1_N 1.11608e-05
4 *2107:Y 0.000150018
5 *376:21 0.000403424
6 *376:10 0.000257288
7 *2112:B1_N *2112:A2 0
8 *2113:B *2114:A2 9.37731e-05
9 *2113:B *475:45 0
10 *2121:C *2112:A2 7.00889e-06
11 *376:10 *2112:A2 5.17188e-05
12 *376:21 *2112:A2 3.30692e-05
13 *376:21 *2114:B1 4.82863e-05
14 *2105:A2 *376:10 2.75229e-05
15 *375:10 *2113:B 0
*RES
1 *2107:Y *376:10 4.24 
2 *376:10 *2112:B1_N 1.96 
3 *376:10 *376:21 1.845 
4 *376:21 *2121:C 4.84 
5 *376:21 *2113:B 7.49 
*END

*D_NET *377 0.00109329
*CONN
*I *2109:B1 I *D sky130_fd_sc_hd__a21oi_4
*I *2108:X O *D sky130_fd_sc_hd__or3b_2
*CAP
1 *2109:B1 0.000386442
2 *2108:X 0.000386442
3 *2109:B1 *2092:A1 7.25036e-05
4 *2108:C_N *2109:B1 9.2741e-05
5 *2121:A *2109:B1 0.000143501
6 *342:10 *2109:B1 0
7 *342:25 *2109:B1 1.16578e-05
*RES
1 *2108:X *2109:B1 14.07 
*END

*D_NET *378 0.00135672
*CONN
*I *2114:A1 I *D sky130_fd_sc_hd__o21ai_2
*I *2112:A1 I *D sky130_fd_sc_hd__o21bai_2
*I *2109:Y O *D sky130_fd_sc_hd__a21oi_4
*CAP
1 *2114:A1 6.34257e-05
2 *2112:A1 0.000101919
3 *2109:Y 0.000161545
4 *378:6 0.000326889
5 *2112:A1 *2114:A2 0
6 *2112:A1 *475:45 0.000119285
7 *2114:A1 *390:6 0.000114912
8 *378:6 *390:6 0.000468744
9 *2122:B1 *2112:A1 0
*RES
1 *2109:Y *378:6 5.845 
2 *378:6 *2112:A1 8 
3 *378:6 *2114:A1 3.1 
*END

*D_NET *379 0.00198682
*CONN
*I *2111:A I *D sky130_fd_sc_hd__inv_2
*I *2113:A I *D sky130_fd_sc_hd__nand2_2
*I *2122:A2 I *D sky130_fd_sc_hd__o21a_2
*I *2110:Y O *D sky130_fd_sc_hd__a21boi_2
*CAP
1 *2111:A 0
2 *2113:A 0.000116001
3 *2122:A2 0.000195813
4 *2110:Y 0.000278443
5 *379:23 0.000116001
6 *379:10 0.000474255
7 *2122:A2 *2112:A2 0.000159964
8 *2122:A2 *2388:A 6.46447e-05
9 *2122:A2 *471:8 0
10 *379:10 *471:8 0
11 *2100:B1_N *379:10 4.82919e-05
12 *2101:B *379:10 0
13 *2101:C *379:10 9.19585e-05
14 *2106:B *2122:A2 4.84393e-05
15 *2122:B1 *2122:A2 0.000158472
16 *369:8 *379:10 7.21296e-06
17 *373:8 *2122:A2 0.000116636
18 *375:10 *2113:A 4.80285e-05
19 *375:10 *2122:A2 3.84331e-05
20 *375:10 *379:10 2.42236e-05
*RES
1 *2110:Y *379:10 8.745 
2 *379:10 *2122:A2 9.27 
3 *379:10 *379:23 2 
4 *379:23 *2113:A 3.43 
5 *379:23 *2111:A 1.6 
*END

*D_NET *380 0.000870264
*CONN
*I *2112:A2 I *D sky130_fd_sc_hd__o21bai_2
*I *2111:Y O *D sky130_fd_sc_hd__inv_2
*CAP
1 *2112:A2 0.000209577
2 *2111:Y 0.000209577
3 *2112:A2 *2114:B1 2.75145e-05
4 *2112:B1_N *2112:A2 0
5 *2121:C *2112:A2 7.00889e-06
6 *2122:A2 *2112:A2 0.000159964
7 *2122:B1 *2112:A2 3.09233e-05
8 *375:10 *2112:A2 0.000140912
9 *376:10 *2112:A2 5.17188e-05
10 *376:21 *2112:A2 3.30692e-05
*RES
1 *2111:Y *2112:A2 11.625 
*END

*D_NET *381 0.000520972
*CONN
*I *2114:B1 I *D sky130_fd_sc_hd__o21ai_2
*I *2112:Y O *D sky130_fd_sc_hd__o21bai_2
*CAP
1 *2114:B1 0.000115154
2 *2112:Y 0.000115154
3 *2114:B1 *2114:A2 9.16315e-05
4 *2114:B1 *2388:A 1.61831e-05
5 *2114:B1 *390:6 1.33293e-05
6 *2112:A2 *2114:B1 2.75145e-05
7 *2122:B1 *2114:B1 8.21594e-05
8 *375:10 *2114:B1 1.1561e-05
9 *376:21 *2114:B1 4.82863e-05
*RES
1 *2112:Y *2114:B1 10.335 
*END

*D_NET *382 0.000640299
*CONN
*I *2114:A2 I *D sky130_fd_sc_hd__o21ai_2
*I *2113:Y O *D sky130_fd_sc_hd__nand2_2
*CAP
1 *2114:A2 0.000227447
2 *2113:Y 0.000227447
3 *2114:A2 *475:45 0
4 *2112:A1 *2114:A2 0
5 *2113:B *2114:A2 9.37731e-05
6 *2114:B1 *2114:A2 9.16315e-05
7 *2122:B1 *2114:A2 0
8 *375:10 *2114:A2 0
*RES
1 *2113:Y *2114:A2 11.07 
*END

*D_NET *383 0.00257524
*CONN
*I *2117:A1 I *D sky130_fd_sc_hd__o21bai_2
*I *2119:A I *D sky130_fd_sc_hd__or3b_2
*I *2118:A I *D sky130_fd_sc_hd__nor3b_2
*I *2115:Y O *D sky130_fd_sc_hd__nor2_2
*CAP
1 *2117:A1 0
2 *2119:A 9.88436e-05
3 *2118:A 1.88809e-05
4 *2115:Y 0.000194042
5 *383:16 0.000325623
6 *383:8 0.000401941
7 *2118:A *2118:B 5.4155e-06
8 *2118:A *2283:A 0
9 *2119:A *2118:B 1.91597e-05
10 *2119:A *2119:C_N 8.49205e-05
11 *2119:A *2140:A1 0.000210687
12 *2119:A *2421:A 5.97809e-05
13 *2119:A *460:33 8.34281e-06
14 *383:8 *2115:B 4.40028e-05
15 *383:8 *2116:A 3.75126e-05
16 *383:8 *2117:A2 2.66586e-05
17 *383:8 *455:16 0.000488597
18 *383:8 *513:22 0.000251388
19 *383:16 *2118:B 5.05437e-05
20 *383:16 *2119:C_N 0
21 *383:16 *2140:A1 1.08758e-05
22 *383:16 *2283:A 4.82919e-05
23 *383:16 *385:14 0
24 *383:16 *457:10 0.000137578
25 *383:16 *457:20 8.53113e-06
26 *383:16 *460:33 4.36241e-05
*RES
1 *2115:Y *383:8 7.495 
2 *383:8 *383:16 7.81 
3 *383:16 *2118:A 1.96 
4 *383:16 *2119:A 4.48 
5 *383:8 *2117:A1 1.6 
*END

*D_NET *384 0.00181598
*CONN
*I *2119:B I *D sky130_fd_sc_hd__or3b_2
*I *2118:B I *D sky130_fd_sc_hd__nor3b_2
*I *2117:A2 I *D sky130_fd_sc_hd__o21bai_2
*I *2116:X O *D sky130_fd_sc_hd__and2_2
*CAP
1 *2119:B 0.000130715
2 *2118:B 0.000101081
3 *2117:A2 0.00019057
4 *2116:X 0
5 *384:17 0.000296846
6 *384:4 0.000255619
7 *2117:A2 *385:14 8.65905e-05
8 *2117:A2 *513:22 6.50552e-05
9 *2118:B *2119:C_N 4.82919e-05
10 *2118:B *2283:A 1.37328e-05
11 *2118:B *385:14 9.82856e-06
12 *2118:B *460:33 0.000160635
13 *2119:B *385:14 1.29127e-05
14 *2119:B *387:8 2.11552e-05
15 *2119:B *460:33 0.000157555
16 *384:17 *2119:C_N 5.83373e-05
17 *384:17 *2140:A1 7.23602e-05
18 *384:17 *385:14 5.11148e-06
19 *384:17 *387:8 6.17113e-06
20 *384:17 *455:20 2.16389e-05
21 *2118:A *2118:B 5.4155e-06
22 *2119:A *2118:B 1.91597e-05
23 *383:8 *2117:A2 2.66586e-05
24 *383:16 *2118:B 5.05437e-05
*RES
1 *2116:X *384:4 1.6 
2 *384:4 *2117:A2 4.39 
3 *384:4 *384:17 3.7625 
4 *384:17 *2118:B 6.1275 
5 *384:17 *2119:B 5.5725 
*END

*D_NET *385 0.0027422
*CONN
*I *2120:A I *D sky130_fd_sc_hd__nand2_2
*I *2130:A1 I *D sky130_fd_sc_hd__a21o_2
*I *2147:A I *D sky130_fd_sc_hd__and4_2
*I *2117:Y O *D sky130_fd_sc_hd__o21bai_2
*CAP
1 *2120:A 0.000180792
2 *2130:A1 0
3 *2147:A 2.08101e-05
4 *2117:Y 0.000637932
5 *385:23 0.000396736
6 *385:14 0.000874687
7 *2120:A *2120:B 8.46125e-05
8 *2120:A *387:53 2.86975e-05
9 *2120:A *395:6 4.1527e-05
10 *385:14 *2119:C_N 0.000134516
11 *385:14 *2137:A 5.83121e-06
12 *385:14 *387:8 0
13 *385:14 *387:12 1.47347e-05
14 *385:14 *400:10 0
15 *385:14 *403:10 0
16 *385:14 *460:12 0
17 *385:14 *513:22 5.30673e-05
18 *385:23 *2130:B1 1.52352e-05
19 *385:23 *2131:B 4.66108e-05
20 *385:23 *387:12 6.32751e-05
21 *385:23 *387:53 2.86975e-05
22 *2117:A2 *385:14 8.65905e-05
23 *2118:B *385:14 9.82856e-06
24 *2119:B *385:14 1.29127e-05
25 *383:16 *385:14 0
26 *384:17 *385:14 5.11148e-06
*RES
1 *2117:Y *385:14 16.13 
2 *385:14 *2147:A 1.96 
3 *385:14 *385:23 2.865 
4 *385:23 *2130:A1 1.6 
5 *385:23 *2120:A 4.6 
*END

*D_NET *386 0.00193027
*CONN
*I *2139:A1 I *D sky130_fd_sc_hd__o21ai_2
*I *2140:A1 I *D sky130_fd_sc_hd__o21ai_2
*I *2118:Y O *D sky130_fd_sc_hd__nor3b_2
*CAP
1 *2139:A1 6.94631e-05
2 *2140:A1 0.000408558
3 *2118:Y 0.000339095
4 *2139:A1 *2139:A2 1.23437e-05
5 *2139:A1 *2140:A2 7.56981e-05
6 *2139:A1 *2140:B1 6.31104e-05
7 *2139:A1 *2390:A 2.44416e-05
8 *2140:A1 *1976:A 4.66108e-05
9 *2140:A1 *2421:A 4.57056e-05
10 *2140:A1 *387:8 7.30547e-05
11 *2140:A1 *456:12 0.000136884
12 *2140:A1 *460:33 0.000341386
13 *2119:A *2140:A1 0.000210687
14 *383:16 *2140:A1 1.08758e-05
15 *384:17 *2140:A1 7.23602e-05
*RES
1 *2118:Y *2140:A1 18.655 
2 *2140:A1 *2139:A1 9.345 
*END

*D_NET *387 0.00384095
*CONN
*I *2120:B I *D sky130_fd_sc_hd__nand2_2
*I *2130:A2 I *D sky130_fd_sc_hd__a21o_2
*I *2147:B I *D sky130_fd_sc_hd__and4_2
*I *2158:A2 I *D sky130_fd_sc_hd__o211a_2
*I *2150:A2 I *D sky130_fd_sc_hd__o21a_2
*I *2119:X O *D sky130_fd_sc_hd__or3b_2
*CAP
1 *2120:B 2.35052e-05
2 *2130:A2 0
3 *2147:B 2.56127e-05
4 *2158:A2 5.92214e-05
5 *2150:A2 3.36155e-05
6 *2119:X 0.000379542
7 *387:53 0.000150184
8 *387:14 0.000236458
9 *387:12 0.00027871
10 *387:8 0.000615698
11 *2120:B *2130:B1 0.000122701
12 *2147:B *2137:A 2.92496e-05
13 *2147:B *2137:B 1.94805e-05
14 *2150:A2 *401:14 5.83121e-06
15 *2158:A2 *2158:B1 0.00018305
16 *2158:A2 *400:10 1.82563e-05
17 *2158:A2 *416:10 7.55391e-05
18 *387:8 *2131:B 0.000134509
19 *387:8 *2137:B 0
20 *387:8 *2360:A 0.000233334
21 *387:8 *2390:A 0.000253074
22 *387:8 *404:12 0
23 *387:8 *455:20 9.50342e-06
24 *387:12 *2131:B 5.83121e-06
25 *387:12 *2137:A 3.57349e-05
26 *387:12 *413:12 5.83121e-06
27 *387:14 *2137:A 4.82863e-05
28 *387:14 *401:14 2.16917e-05
29 *387:14 *401:27 0.000309409
30 *387:14 *413:12 9.2741e-05
31 *387:14 *416:10 2.75145e-05
32 *387:53 *2130:B1 8.64421e-05
33 *2119:B *387:8 2.11552e-05
34 *2120:A *2120:B 8.46125e-05
35 *2120:A *387:53 2.86975e-05
36 *2140:A1 *387:8 7.30547e-05
37 *384:17 *387:8 6.17113e-06
38 *385:14 *387:8 0
39 *385:14 *387:12 1.47347e-05
40 *385:23 *387:12 6.32751e-05
41 *385:23 *387:53 2.86975e-05
*RES
1 *2119:X *387:8 12.63 
2 *387:8 *387:12 4.175 
3 *387:12 *387:14 3.9 
4 *387:14 *2150:A2 2.05 
5 *387:14 *2158:A2 7.745 
6 *387:12 *2147:B 6.215 
7 *387:8 *387:53 4.4 
8 *387:53 *2130:A2 1.6 
9 *387:53 *2120:B 2.74 
*END

*D_NET *388 0.00115379
*CONN
*I *2129:B1 I *D sky130_fd_sc_hd__a21oi_4
*I *2138:A1 I *D sky130_fd_sc_hd__o21bai_2
*I *2120:Y O *D sky130_fd_sc_hd__nand2_2
*CAP
1 *2129:B1 0
2 *2138:A1 0.000274639
3 *2120:Y 0.000128442
4 *388:8 0.000403081
5 *2138:A1 *2138:A2 3.95724e-05
6 *2138:A1 *2138:B1_N 1.14169e-05
7 *2138:A1 *2139:A2 0.00011852
8 *2138:A1 *2140:A2 4.57056e-05
9 *2138:A1 *404:12 2.60986e-05
10 *388:8 *395:23 9.50342e-06
11 *388:8 *404:12 9.68132e-05
*RES
1 *2120:Y *388:8 6 
2 *388:8 *2138:A1 8.835 
3 *388:8 *2129:B1 3.6 
*END

*D_NET *389 0.00223916
*CONN
*I *2123:A I *D sky130_fd_sc_hd__nor2_4
*I *2125:A2 I *D sky130_fd_sc_hd__o21a_4
*I *2126:A1 I *D sky130_fd_sc_hd__o21ai_2
*I *2121:Y O *D sky130_fd_sc_hd__nand3_4
*CAP
1 *2123:A 1.96262e-05
2 *2125:A2 2.09806e-05
3 *2126:A1 0.000157085
4 *2121:Y 0.000452803
5 *389:10 0.000611242
6 *2123:A *2128:B1 3.00381e-05
7 *2125:A2 *2125:B1 1.56428e-05
8 *2125:A2 *390:6 3.64998e-06
9 *2126:A1 *2080:A2 1.72684e-05
10 *2126:A1 *2126:A2 5.84704e-05
11 *2126:A1 *2126:B1 0.000116853
12 *389:10 *2080:A2 0.000351274
13 *389:10 *2080:C1 6.97118e-05
14 *389:10 *2092:A1 0.000132977
15 *389:10 *491:15 1.91597e-05
16 *2080:B1 *389:10 0.00011577
17 *2367:A *2125:A2 4.66108e-05
*RES
1 *2121:Y *389:10 13.095 
2 *389:10 *2126:A1 6.75 
3 *389:10 *2125:A2 4.05 
4 *2126:A1 *2123:A 3.65 
*END

*D_NET *390 0.00416844
*CONN
*I *2126:B1 I *D sky130_fd_sc_hd__o21ai_2
*I *2125:B1 I *D sky130_fd_sc_hd__o21a_4
*I *2122:X O *D sky130_fd_sc_hd__o21a_2
*CAP
1 *2126:B1 7.50006e-05
2 *2125:B1 0.000159923
3 *2122:X 0.00131138
4 *390:6 0.00154631
5 *2125:B1 *2080:A2 3.45679e-05
6 *2126:B1 *2126:A2 0
7 *390:6 *2125:A1 0.000122155
8 *390:6 *2388:A 0.00012657
9 *390:6 *452:22 4.40446e-05
10 *2114:A1 *390:6 0.000114912
11 *2114:B1 *390:6 1.33293e-05
12 *2125:A2 *2125:B1 1.56428e-05
13 *2125:A2 *390:6 3.64998e-06
14 *2126:A1 *2126:B1 0.000116853
15 *2367:A *2125:B1 7.67415e-06
16 *2367:A *390:6 7.68414e-06
17 *378:6 *390:6 0.000468744
*RES
1 *2122:X *390:6 18.265 
2 *390:6 *2125:B1 3.7 
3 *390:6 *2126:B1 7.235 
*END

*D_NET *391 0.00175749
*CONN
*I *2422:A I *D sky130_fd_sc_hd__buf_2
*I *2124:C1 I *D sky130_fd_sc_hd__o221ai_4
*I *2123:Y O *D sky130_fd_sc_hd__nor2_4
*CAP
1 *2422:A 2.60222e-05
2 *2124:C1 0.000215811
3 *2123:Y 0.000145221
4 *391:8 0.000387054
5 *2124:C1 *2124:B2 0
6 *2124:C1 *2127:B 0.00010479
7 *2124:C1 *2128:A3 0.000116158
8 *2124:C1 *2128:B1 0.000137578
9 *2422:A *2128:A3 2.49909e-05
10 *391:8 *2128:B1 0.000319174
11 *1974:B1 *2124:C1 0
12 *1975:B *2124:C1 0.000210839
13 *2070:C1 *2124:C1 1.26548e-05
14 *141:14 *2124:C1 5.72004e-05
15 *254:10 *391:8 0
*RES
1 *2123:Y *391:8 7.275 
2 *391:8 *2124:C1 9.57 
3 *391:8 *2422:A 4.05 
*END

*D_NET *392 0.00569752
*CONN
*I *2148:A1 I *D sky130_fd_sc_hd__a21boi_2
*I *2129:A1 I *D sky130_fd_sc_hd__a21oi_4
*I *2127:B I *D sky130_fd_sc_hd__nand2_8
*I *2124:Y O *D sky130_fd_sc_hd__o221ai_4
*CAP
1 *2148:A1 0.000213327
2 *2129:A1 0.000154557
3 *2127:B 0.00191924
4 *2124:Y 0.00180413
5 *392:26 0.000482994
6 *2127:B *2128:A3 0.000117832
7 *2127:B *2378:A 5.53249e-06
8 *2129:A1 *2129:A2 0.000124407
9 *2129:A1 *393:20 1.07797e-05
10 *2129:A1 *539:10 0.000163199
11 *2148:A1 *2148:A2 2.68721e-05
12 *2148:A1 *393:20 0.000178512
13 *392:26 *2127:A 8.49205e-05
14 *1975:B *2127:B 0.000233918
15 *1994:A1 *2127:B 7.25122e-05
16 *1995:B *2127:B 0
17 *2124:C1 *2127:B 0.00010479
18 *254:10 *2127:B 0
19 *290:10 *2127:B 0
*RES
1 *2124:Y *2127:B 36.3 
2 *2127:B *392:26 5.43 
3 *392:26 *2129:A1 6.975 
4 *392:26 *2148:A1 8.235 
*END

*D_NET *393 0.00753503
*CONN
*I *2148:A2 I *D sky130_fd_sc_hd__a21boi_2
*I *2127:A I *D sky130_fd_sc_hd__nand2_8
*I *2129:A2 I *D sky130_fd_sc_hd__a21oi_4
*I *2125:X O *D sky130_fd_sc_hd__o21a_4
*CAP
1 *2148:A2 1.89378e-05
2 *2127:A 0.000109202
3 *2129:A2 0.000110257
4 *2125:X 0.00216201
5 *393:20 0.00031747
6 *393:18 0.00227896
7 *2127:A *395:6 3.00381e-05
8 *2129:A2 *1984:A 0.000160665
9 *2129:A2 *539:10 4.35348e-05
10 *2148:A2 *1984:A 7.70828e-05
11 *393:18 *1998:B 9.66021e-05
12 *393:18 *1999:A 5.0751e-05
13 *393:18 *2126:A2 0
14 *393:18 *2128:B1 8.53113e-06
15 *393:18 *540:16 1.99619e-05
16 *393:20 *1984:A 0.000338219
17 *2006:A *393:18 0.00019637
18 *2007:B *393:18 1.61831e-05
19 *2019:A2 *393:18 4.66826e-05
20 *2067:A2 *393:18 0.000111321
21 *2069:A *393:18 4.74237e-05
22 *2129:A1 *2129:A2 0.000124407
23 *2129:A1 *393:20 1.07797e-05
24 *2148:A1 *2148:A2 2.68721e-05
25 *2148:A1 *393:20 0.000178512
26 *2412:A *393:18 5.72091e-05
27 *276:8 *393:18 5.90938e-05
28 *278:19 *393:18 0.000203402
29 *278:27 *393:18 0.000253593
30 *280:12 *393:18 9.75161e-05
31 *337:16 *393:18 0.000127467
32 *341:6 *393:18 7.10578e-05
33 *392:26 *2127:A 8.49205e-05
*RES
1 *2125:X *393:18 36.79 
2 *393:18 *393:20 3.93 
3 *393:20 *2129:A2 6.63 
4 *393:20 *2127:A 5.445 
5 *393:18 *2148:A2 4.47 
*END

*D_NET *394 0.00217987
*CONN
*I *2128:B1 I *D sky130_fd_sc_hd__a31oi_2
*I *2126:Y O *D sky130_fd_sc_hd__o21ai_2
*CAP
1 *2128:B1 0.000559919
2 *2126:Y 0.000559919
3 *2128:B1 *2126:A2 0
4 *2070:C1 *2128:B1 0.0003175
5 *2123:A *2128:B1 3.00381e-05
6 *2124:C1 *2128:B1 0.000137578
7 *2128:A2 *2128:B1 0.00013979
8 *2412:A *2128:B1 0
9 *141:14 *2128:B1 0.000107424
10 *254:10 *2128:B1 0
11 *391:8 *2128:B1 0.000319174
12 *393:18 *2128:B1 8.53113e-06
*RES
1 *2126:Y *2128:B1 19.17 
*END

*D_NET *395 0.0034106
*CONN
*I *2153:A1 I *D sky130_fd_sc_hd__a21o_2
*I *2160:A1 I *D sky130_fd_sc_hd__a21boi_2
*I *2155:A I *D sky130_fd_sc_hd__nand4_4
*I *2149:A I *D sky130_fd_sc_hd__nand2_2
*I *2130:B1 I *D sky130_fd_sc_hd__a21o_2
*I *2127:Y O *D sky130_fd_sc_hd__nand2_8
*CAP
1 *2153:A1 3.15298e-05
2 *2160:A1 0
3 *2155:A 0.000186162
4 *2149:A 0
5 *2130:B1 0.0001287
6 *2127:Y 0.000248584
7 *395:40 0.000299179
8 *395:27 0.000360057
9 *395:23 0.000468245
10 *395:6 0.00056696
11 *2153:A1 *2148:B1_N 9.47972e-06
12 *2153:A1 *2153:B1 6.69608e-06
13 *2153:A1 *413:43 3.64998e-06
14 *2155:A *2155:B 0.000123225
15 *2155:A *2155:D 0
16 *2155:A *2158:C1 0
17 *2155:A *2164:A2 4.99619e-05
18 *2155:A *2201:B2 5.85071e-05
19 *2155:A *413:12 3.09233e-05
20 *395:23 *404:12 0.000139238
21 *395:27 *2155:D 2.86975e-05
22 *395:27 *413:19 1.09281e-05
23 *395:27 *413:21 5.4155e-06
24 *395:27 *413:43 9.02466e-05
25 *395:40 *413:19 0.000239605
26 *395:40 *540:16 1.91597e-05
27 *2120:A *395:6 4.1527e-05
28 *2120:B *2130:B1 0.000122701
29 *2127:A *395:6 3.00381e-05
30 *385:23 *2130:B1 1.52352e-05
31 *387:53 *2130:B1 8.64421e-05
32 *388:8 *395:23 9.50342e-06
*RES
1 *2127:Y *395:6 5.5 
2 *395:6 *2130:B1 4.135 
3 *395:6 *395:23 7.525 
4 *395:23 *395:27 3.48 
5 *395:27 *2149:A 1.6 
6 *395:27 *395:40 2.74125 
7 *395:40 *2155:A 9.14 
8 *395:40 *2160:A1 1.6 
9 *395:23 *2153:A1 2.05 
*END

*D_NET *396 0.00597668
*CONN
*I *2138:A2 I *D sky130_fd_sc_hd__o21bai_2
*I *2128:Y O *D sky130_fd_sc_hd__a31oi_2
*CAP
1 *2138:A2 0.00205639
2 *2128:Y 0.00205639
3 *2138:A2 *1986:A 1.61831e-05
4 *1987:B *2138:A2 1.46744e-05
5 *1988:B *2138:A2 0.000461941
6 *1994:A1 *2138:A2 0.000164352
7 *1994:A2 *2138:A2 3.1835e-05
8 *1994:B1 *2138:A2 0.000259987
9 *1996:A2 *2138:A2 0.00015806
10 *2138:A1 *2138:A2 3.95724e-05
11 *254:10 *2138:A2 3.39151e-05
12 *267:6 *2138:A2 0.000197269
13 *267:19 *2138:A2 0.000393029
14 *290:10 *2138:A2 9.30787e-05
*RES
1 *2128:Y *2138:A2 35.55 
*END

*D_NET *397 0.000819545
*CONN
*I *2139:A2 I *D sky130_fd_sc_hd__o21ai_2
*I *2131:A_N I *D sky130_fd_sc_hd__and2b_4
*I *2129:Y O *D sky130_fd_sc_hd__a21oi_4
*CAP
1 *2139:A2 9.51884e-05
2 *2131:A_N 7.55109e-05
3 *2129:Y 2.84747e-05
4 *397:6 0.000199174
5 *2131:A_N *539:10 3.88917e-05
6 *2139:A2 *2138:B1_N 4.82863e-05
7 *2139:A2 *2139:B1 2.23611e-05
8 *2139:A2 *2140:A2 4.82919e-05
9 *2139:A2 *404:12 0.00011686
10 *397:6 *539:10 1.56428e-05
11 *2138:A1 *2139:A2 0.00011852
12 *2139:A1 *2139:A2 1.23437e-05
*RES
1 *2129:Y *397:6 2.05 
2 *397:6 *2131:A_N 2.755 
3 *397:6 *2139:A2 8.285 
*END

*D_NET *398 0.000414448
*CONN
*I *2131:B I *D sky130_fd_sc_hd__and2b_4
*I *2130:X O *D sky130_fd_sc_hd__a21o_2
*CAP
1 *2131:B 9.88616e-05
2 *2130:X 9.88616e-05
3 *2131:B *2390:A 2.97746e-05
4 *385:23 *2131:B 4.66108e-05
5 *387:8 *2131:B 0.000134509
6 *387:12 *2131:B 5.83121e-06
*RES
1 *2130:X *2131:B 9.285 
*END

*D_NET *399 0.00414279
*CONN
*I *2136:A1 I *D sky130_fd_sc_hd__o21bai_2
*I *2135:A1 I *D sky130_fd_sc_hd__o21ba_2
*I *2134:A I *D sky130_fd_sc_hd__or3b_2
*I *2132:Y O *D sky130_fd_sc_hd__nor2_2
*CAP
1 *2136:A1 0
2 *2135:A1 0.000355844
3 *2134:A 0.000220218
4 *2132:Y 0.000424576
5 *399:12 0.000598612
6 *399:10 0.000447127
7 *2134:A *2134:B 0.000187924
8 *2134:A *401:10 2.75145e-05
9 *2134:A *552:14 0.000468171
10 *2135:A1 *2134:B 0.000120655
11 *2135:A1 *2135:A2 9.37731e-05
12 *2135:A1 *2136:B1_N 0.000139933
13 *2135:A1 *400:27 0.000178675
14 *2135:A1 *451:16 2.31724e-05
15 *2135:A1 *460:12 0
16 *2135:A1 *517:23 8.53113e-06
17 *399:10 *540:16 8.8266e-05
18 *399:10 *552:14 0.000701873
19 *399:12 *2134:B 7.23943e-06
20 *399:12 *552:14 5.06809e-05
21 *2331:A *399:10 0
*RES
1 *2132:Y *399:10 12.84 
2 *399:10 *399:12 0.615 
3 *399:12 *2134:A 10.2 
4 *399:12 *2135:A1 13 
5 *399:10 *2136:A1 3.6 
*END

*D_NET *400 0.00354728
*CONN
*I *2136:A2 I *D sky130_fd_sc_hd__o21bai_2
*I *2134:B I *D sky130_fd_sc_hd__or3b_2
*I *2135:A2 I *D sky130_fd_sc_hd__o21ba_2
*I *2133:X O *D sky130_fd_sc_hd__and2_2
*CAP
1 *2136:A2 2.08101e-05
2 *2134:B 0.000423082
3 *2135:A2 0.00011412
4 *2133:X 0.000291278
5 *400:27 0.000542016
6 *400:10 0.000503521
7 *2134:B *552:14 0
8 *2135:A2 *2136:B1_N 1.07797e-05
9 *2135:A2 *451:16 2.11084e-05
10 *2135:A2 *460:12 0
11 *400:10 *2136:B1_N 1.26626e-05
12 *400:10 *2158:B1 7.1932e-06
13 *400:10 *2285:A 0.000484936
14 *400:10 *401:10 0.00012977
15 *400:10 *416:10 7.23602e-05
16 *400:10 *462:8 0.000122331
17 *400:27 *403:10 8.63479e-05
18 *2134:A *2134:B 0.000187924
19 *2135:A1 *2134:B 0.000120655
20 *2135:A1 *2135:A2 9.37731e-05
21 *2135:A1 *400:27 0.000178675
22 *2158:A2 *400:10 1.82563e-05
23 *2307:A *2134:B 9.84372e-05
24 *2308:A *2134:B 0
25 *385:14 *400:10 0
26 *399:12 *2134:B 7.23943e-06
*RES
1 *2133:X *400:10 10.71 
2 *400:10 *2135:A2 5.79 
3 *400:10 *400:27 4.175 
4 *400:27 *2134:B 14.255 
5 *400:27 *2136:A2 1.96 
*END

*D_NET *401 0.00415495
*CONN
*I *2158:B1 I *D sky130_fd_sc_hd__o211a_2
*I *2137:A I *D sky130_fd_sc_hd__nand2_2
*I *2147:C I *D sky130_fd_sc_hd__and4_2
*I *2150:B1 I *D sky130_fd_sc_hd__o21a_2
*I *2134:X O *D sky130_fd_sc_hd__or3b_2
*CAP
1 *2158:B1 0.000103992
2 *2137:A 0.000174991
3 *2147:C 0
4 *2150:B1 1.45824e-05
5 *2134:X 0.000532268
6 *401:27 0.000331603
7 *401:14 0.000198712
8 *401:10 0.000663778
9 *2137:A *2137:B 0
10 *2137:A *413:12 0.000137578
11 *2137:A *462:8 2.75229e-05
12 *2158:B1 *2158:A1 0.000185398
13 *2158:B1 *402:10 2.22288e-05
14 *2158:B1 *552:14 0
15 *401:10 *2134:C_N 1.56428e-05
16 *401:10 *2136:B1_N 0.000174512
17 *401:10 *2282:A 7.60965e-05
18 *401:10 *402:10 0.000111422
19 *401:10 *517:23 0.000305519
20 *401:10 *552:14 0
21 *401:27 *2147:D 2.75229e-05
22 S[29] *401:10 1.17701e-05
23 *2134:A *401:10 2.75145e-05
24 *2147:B *2137:A 2.92496e-05
25 *2150:A2 *401:14 5.83121e-06
26 *2158:A2 *2158:B1 0.00018305
27 *2330:A *401:10 0.000236253
28 *385:14 *2137:A 5.83121e-06
29 *387:12 *2137:A 3.57349e-05
30 *387:14 *2137:A 4.82863e-05
31 *387:14 *401:14 2.16917e-05
32 *387:14 *401:27 0.000309409
33 *400:10 *2158:B1 7.1932e-06
34 *400:10 *401:10 0.00012977
*RES
1 *2134:X *401:10 15.405 
2 *401:10 *401:14 2.45 
3 *401:14 *2150:B1 1.96 
4 *401:14 *401:27 3.675 
5 *401:27 *2147:C 1.6 
6 *401:27 *2137:A 9.245 
7 *401:10 *2158:B1 6.81 
*END

*D_NET *402 0.00180244
*CONN
*I *2158:A1 I *D sky130_fd_sc_hd__o211a_2
*I *2150:A1 I *D sky130_fd_sc_hd__o21a_2
*I *2135:X O *D sky130_fd_sc_hd__o21ba_2
*CAP
1 *2158:A1 0.000105007
2 *2150:A1 0
3 *2135:X 0.000171905
4 *402:10 0.000276912
5 *2158:A1 *2133:A 4.65821e-05
6 *2158:A1 *2158:C1 3.7445e-05
7 *2158:A1 *462:8 0.000124231
8 *2158:A1 *552:14 7.5431e-05
9 *402:10 *2135:B1_N 2.11084e-05
10 *402:10 *2389:A 6.55328e-05
11 *402:10 *552:14 2.63122e-05
12 S[29] *402:10 0.00029265
13 *2158:B1 *2158:A1 0.000185398
14 *2158:B1 *402:10 2.22288e-05
15 *2330:A *402:10 0.000240274
16 *401:10 *402:10 0.000111422
*RES
1 *2135:X *402:10 9.51 
2 *402:10 *2150:A1 3.6 
3 *402:10 *2158:A1 7.37625 
*END

*D_NET *403 0.00175369
*CONN
*I *2137:B I *D sky130_fd_sc_hd__nand2_2
*I *2147:D I *D sky130_fd_sc_hd__and4_2
*I *2136:Y O *D sky130_fd_sc_hd__o21bai_2
*CAP
1 *2137:B 0.000237362
2 *2147:D 3.58834e-05
3 *2136:Y 0.000393997
4 *403:10 0.000667242
5 *2137:B *2133:A 4.99619e-05
6 *2137:B *2133:B 2.97004e-06
7 *2137:B *2285:A 0
8 *2137:B *413:12 4.92096e-05
9 *2137:B *462:8 2.05056e-05
10 *403:10 *2285:A 0.000163204
11 *2137:A *2137:B 0
12 *2147:B *2137:B 1.94805e-05
13 *385:14 *403:10 0
14 *387:8 *2137:B 0
15 *400:27 *403:10 8.63479e-05
16 *401:27 *2147:D 2.75229e-05
*RES
1 *2136:Y *403:10 10.23 
2 *403:10 *2147:D 4.05 
3 *403:10 *2137:B 7.755 
*END

*D_NET *404 0.00216336
*CONN
*I *2138:B1_N I *D sky130_fd_sc_hd__o21bai_2
*I *2139:B1 I *D sky130_fd_sc_hd__o21ai_2
*I *2137:Y O *D sky130_fd_sc_hd__nand2_2
*CAP
1 *2138:B1_N 6.15391e-05
2 *2139:B1 0.000163246
3 *2137:Y 0.000440191
4 *404:12 0.000664976
5 *2138:B1_N *2140:A2 2.23589e-05
6 *404:12 *462:8 0.000349972
7 *2138:A1 *2138:B1_N 1.14169e-05
8 *2138:A1 *404:12 2.60986e-05
9 *2139:A2 *2138:B1_N 4.82863e-05
10 *2139:A2 *2139:B1 2.23611e-05
11 *2139:A2 *404:12 0.00011686
12 *387:8 *404:12 0
13 *388:8 *404:12 9.68132e-05
14 *395:23 *404:12 0.000139238
*RES
1 *2137:Y *404:12 14.525 
2 *404:12 *2139:B1 4.045 
3 *404:12 *2138:B1_N 3.115 
*END

*D_NET *405 0.000563986
*CONN
*I *2140:A2 I *D sky130_fd_sc_hd__o21ai_2
*I *2138:Y O *D sky130_fd_sc_hd__o21bai_2
*CAP
1 *2140:A2 0.000185966
2 *2138:Y 0.000185966
3 *2138:A1 *2140:A2 4.57056e-05
4 *2138:B1_N *2140:A2 2.23589e-05
5 *2139:A1 *2140:A2 7.56981e-05
6 *2139:A2 *2140:A2 4.82919e-05
*RES
1 *2138:Y *2140:A2 10.665 
*END

*D_NET *406 0.000254785
*CONN
*I *2140:B1 I *D sky130_fd_sc_hd__o21ai_2
*I *2139:Y O *D sky130_fd_sc_hd__o21ai_2
*CAP
1 *2140:B1 3.80302e-05
2 *2139:Y 3.80302e-05
3 *2140:B1 *2390:A 0.000115614
4 *2139:A1 *2140:B1 6.31104e-05
*RES
1 *2139:Y *2140:B1 8.58 
*END

*D_NET *407 0.00126556
*CONN
*I *2143:A I *D sky130_fd_sc_hd__or3b_2
*I *2144:A1 I *D sky130_fd_sc_hd__o21ba_2
*I *2145:A1 I *D sky130_fd_sc_hd__o21bai_2
*I *2141:Y O *D sky130_fd_sc_hd__nor2_2
*CAP
1 *2143:A 0.00025821
2 *2144:A1 0.000267879
3 *2145:A1 6.93162e-06
4 *2141:Y 6.93162e-06
5 *407:16 0.000526089
6 *2143:A *2021:B 3.64998e-06
7 *2143:A *2141:B 4.6368e-06
8 *2143:A *2143:B 6.69608e-06
9 *2143:A *411:8 0
10 *2144:A1 *2141:B 4.57183e-05
11 *2144:A1 *2144:A2 6.83538e-05
12 *2144:A1 *2144:B1_N 3.70488e-05
13 *2145:A1 *2141:B 3.34183e-05
14 *288:12 *2143:A 0
*RES
1 *2141:Y *2145:A1 3.65 
2 *2141:Y *407:16 1.6 
3 *407:16 *2144:A1 5.86 
4 *407:16 *2143:A 9.515 
*END

*D_NET *408 0.00142286
*CONN
*I *2144:A2 I *D sky130_fd_sc_hd__o21ba_2
*I *2145:A2 I *D sky130_fd_sc_hd__o21bai_2
*I *2143:B I *D sky130_fd_sc_hd__or3b_2
*I *2142:X O *D sky130_fd_sc_hd__and2_2
*CAP
1 *2144:A2 0.000181572
2 *2145:A2 0
3 *2143:B 0.000115331
4 *2142:X 0.000155278
5 *408:23 0.000181572
6 *408:10 0.00027061
7 *2143:B *409:10 9.60582e-07
8 *2143:B *411:8 0.000117832
9 *2143:B *554:10 1.34361e-05
10 *2144:A2 *2141:B 8.49205e-05
11 *2144:A2 *2144:B1_N 0.000119154
12 *408:10 *2142:B 8.48064e-05
13 *408:10 *554:10 2.23407e-05
14 *2143:A *2143:B 6.69608e-06
15 *2144:A1 *2144:A2 6.83538e-05
*RES
1 *2142:X *408:10 5.775 
2 *408:10 *2143:B 5.685 
3 *408:10 *408:23 2 
4 *408:23 *2145:A2 1.6 
5 *408:23 *2144:A2 5.185 
*END

*D_NET *409 0.00527181
*CONN
*I *2155:B I *D sky130_fd_sc_hd__nand4_4
*I *2158:C1 I *D sky130_fd_sc_hd__o211a_2
*I *2159:C1 I *D sky130_fd_sc_hd__o211a_2
*I *2146:A I *D sky130_fd_sc_hd__nand2_2
*I *2143:X O *D sky130_fd_sc_hd__or3b_2
*CAP
1 *2155:B 7.79944e-05
2 *2158:C1 0.000436507
3 *2159:C1 0.000237528
4 *2146:A 0.000192113
5 *2143:X 0.000141153
6 *409:44 0.00060194
7 *409:27 0.000661902
8 *409:10 0.000670201
9 *2146:A *2146:B 0.000141542
10 *2146:A *411:8 9.5433e-05
11 *2155:B *2151:A 0.000196376
12 *2158:C1 *2133:A 6.62296e-05
13 *2158:C1 *2133:B 0.000142015
14 *2158:C1 *2201:B2 0.000136877
15 *2158:C1 *2285:A 9.34489e-05
16 *2158:C1 *413:12 0
17 *2158:C1 *423:10 4.66108e-05
18 *2158:C1 *462:8 1.17309e-05
19 *2159:C1 *2159:B1 0.000207559
20 *2159:C1 *2392:A 3.63243e-05
21 *409:10 *411:8 0.000175207
22 *409:27 *2159:B1 5.83121e-06
23 *409:27 *2162:B 0.000103554
24 *409:27 *2392:A 8.41242e-05
25 *409:44 *2164:A1 0.000139933
26 *409:44 *2201:B2 0.000317494
27 *409:44 *2285:A 9.05493e-05
28 *2143:B *409:10 9.60582e-07
29 *2155:A *2155:B 0.000123225
30 *2155:A *2158:C1 0
31 *2158:A1 *2158:C1 3.7445e-05
*RES
1 *2143:X *409:10 6.195 
2 *409:10 *2146:A 7.17 
3 *409:10 *409:27 6.245 
4 *409:27 *2159:C1 5.545 
5 *409:27 *409:44 5.675 
6 *409:44 *2158:C1 10.845 
7 *409:44 *2155:B 5.79 
*END

*D_NET *410 0.00209306
*CONN
*I *2163:A I *D sky130_fd_sc_hd__or2_2
*I *2159:A1 I *D sky130_fd_sc_hd__o211a_2
*I *2162:A I *D sky130_fd_sc_hd__nor2_2
*I *2144:X O *D sky130_fd_sc_hd__o21ba_2
*CAP
1 *2163:A 2.18567e-05
2 *2159:A1 5.44192e-05
3 *2162:A 7.51521e-05
4 *2144:X 0.0002076
5 *410:12 0.000215757
6 *410:10 0.000315642
7 *2159:A1 *2159:B1 0.000146479
8 *2159:A1 *2162:B 0.000120655
9 *2159:A1 *2392:A 0.000256259
10 *2162:A *2162:B 0.000103185
11 *2162:A *2164:A2 9.50342e-06
12 *2162:A *2201:B2 0.000108432
13 *2163:A *519:10 4.80285e-05
14 *2163:A *554:10 8.49205e-05
15 *410:10 *2144:B1_N 2.76356e-05
16 *410:10 *2201:B1 0.000185405
17 *410:10 *2201:B2 4.47897e-05
18 *410:10 *519:16 0
19 *410:10 *554:10 0
20 *410:12 *2201:B2 6.73424e-05
21 *410:12 *411:8 0
*RES
1 *2144:X *410:10 7.56 
2 *410:10 *410:12 1.635 
3 *410:12 *2162:A 6 
4 *410:12 *2159:A1 5.9925 
5 *410:10 *2163:A 4.395 
*END

*D_NET *411 0.00167038
*CONN
*I *2146:B I *D sky130_fd_sc_hd__nand2_2
*I *2155:C I *D sky130_fd_sc_hd__nand4_4
*I *2145:Y O *D sky130_fd_sc_hd__o21bai_2
*CAP
1 *2146:B 8.70647e-05
2 *2155:C 0.000132203
3 *2145:Y 0.000230376
4 *411:8 0.000449644
5 *2155:C *2153:B1 0
6 *2155:C *2155:D 9.50342e-06
7 *2155:C *2162:B 0
8 *2155:C *2164:A2 0
9 *2155:C *2201:B2 0
10 *411:8 *2162:B 0
11 *411:8 *554:10 0.000231571
12 *2143:A *411:8 0
13 *2143:B *411:8 0.000117832
14 *2146:A *2146:B 0.000141542
15 *2146:A *411:8 9.5433e-05
16 *409:10 *411:8 0.000175207
17 *410:12 *411:8 0
*RES
1 *2145:Y *411:8 9.57 
2 *411:8 *2155:C 5.745 
3 *411:8 *2146:B 5.445 
*END

*D_NET *412 0.0010103
*CONN
*I *2152:B1 I *D sky130_fd_sc_hd__o21ai_2
*I *2153:B1 I *D sky130_fd_sc_hd__a21o_2
*I *2146:Y O *D sky130_fd_sc_hd__nand2_2
*CAP
1 *2152:B1 0.000114366
2 *2153:B1 0.000308595
3 *2146:Y 3.61979e-05
4 *412:6 0.000459158
5 *2153:B1 *2148:B1_N 8.52883e-05
6 *2153:A1 *2153:B1 6.69608e-06
7 *2155:C *2153:B1 0
*RES
1 *2146:Y *412:6 2.05 
2 *412:6 *2153:B1 10.325 
3 *412:6 *2152:B1 3.085 
*END

*D_NET *413 0.00305069
*CONN
*I *2148:B1_N I *D sky130_fd_sc_hd__a21boi_2
*I *2153:A2 I *D sky130_fd_sc_hd__a21o_2
*I *2149:B I *D sky130_fd_sc_hd__nand2_2
*I *2155:D I *D sky130_fd_sc_hd__nand4_4
*I *2160:A2 I *D sky130_fd_sc_hd__a21boi_2
*I *2147:X O *D sky130_fd_sc_hd__and4_2
*CAP
1 *2148:B1_N 8.50876e-05
2 *2153:A2 1.56502e-05
3 *2149:B 0
4 *2155:D 0.000192736
5 *2160:A2 0
6 *2147:X 0.000299756
7 *413:43 0.000148684
8 *413:21 0.000206518
9 *413:19 0.000106935
10 *413:12 0.000344964
11 *2148:B1_N *540:16 0.000273267
12 *2155:D *2151:A 2.68526e-05
13 *413:12 *2133:B 0
14 *413:19 *540:16 0.000313341
15 *413:43 *540:16 0.000237802
16 *2137:A *413:12 0.000137578
17 *2137:B *413:12 4.92096e-05
18 *2153:A1 *2148:B1_N 9.47972e-06
19 *2153:A1 *413:43 3.64998e-06
20 *2153:B1 *2148:B1_N 8.52883e-05
21 *2155:A *2155:D 0
22 *2155:A *413:12 3.09233e-05
23 *2155:C *2155:D 9.50342e-06
24 *2158:C1 *413:12 0
25 *387:12 *413:12 5.83121e-06
26 *387:14 *413:12 9.2741e-05
27 *395:27 *2155:D 2.86975e-05
28 *395:27 *413:19 1.09281e-05
29 *395:27 *413:21 5.4155e-06
30 *395:27 *413:43 9.02466e-05
31 *395:40 *413:19 0.000239605
*RES
1 *2147:X *413:12 10.76 
2 *413:12 *2160:A2 1.6 
3 *413:12 *413:19 2.865 
4 *413:19 *413:21 0.36 
5 *413:21 *2155:D 8.9 
6 *413:21 *2149:B 1.6 
7 *413:19 *413:43 2.175 
8 *413:43 *2153:A2 1.96 
9 *413:43 *2148:B1_N 4.12 
*END

*D_NET *414 0.000723366
*CONN
*I *2152:A1 I *D sky130_fd_sc_hd__o21ai_2
*I *2148:Y O *D sky130_fd_sc_hd__a21boi_2
*CAP
1 *2152:A1 0.000163902
2 *2148:Y 0.000163902
3 *2152:A1 *1984:A 0
4 *2152:A1 *2154:B1 0.000185411
5 *2152:A1 *2392:A 0.000210151
*RES
1 *2148:Y *2152:A1 11.13 
*END

*D_NET *415 0.00174315
*CONN
*I *2161:A I *D sky130_fd_sc_hd__nand2_2
*I *2149:Y O *D sky130_fd_sc_hd__nand2_2
*CAP
1 *2161:A 0.000495105
2 *2149:Y 0.000495105
3 *2161:A *2133:B 4.78501e-05
4 *2161:A *2159:A2 4.61595e-05
5 *2161:A *2160:B1_N 2.49909e-05
6 *2161:A *416:10 9.54399e-05
7 *2161:A *461:12 0.000143266
8 *2161:A *540:16 0.000395232
*RES
1 *2149:Y *2161:A 14.805 
*END

*D_NET *416 0.0034027
*CONN
*I *2159:A2 I *D sky130_fd_sc_hd__o211a_2
*I *2151:A I *D sky130_fd_sc_hd__inv_2
*I *2150:X O *D sky130_fd_sc_hd__o21a_2
*CAP
1 *2159:A2 0.000144455
2 *2151:A 0.000553721
3 *2150:X 0.000214988
4 *416:10 0.000913164
5 *2159:A2 *2161:B 5.4003e-05
6 *2159:A2 *2285:A 0.00014856
7 *2159:A2 *461:12 0.000337458
8 *416:10 *2133:A 0.000136884
9 *416:10 *2161:B 0.000129047
10 *416:10 *2285:A 4.21256e-05
11 *416:10 *423:10 0.000155928
12 *416:10 *461:12 3.21271e-05
13 *416:10 *552:14 0
14 *2155:B *2151:A 0.000196376
15 *2155:D *2151:A 2.68526e-05
16 *2158:A2 *416:10 7.55391e-05
17 *2161:A *2159:A2 4.61595e-05
18 *2161:A *416:10 9.54399e-05
19 *387:14 *416:10 2.75145e-05
20 *400:10 *416:10 7.23602e-05
*RES
1 *2150:X *416:10 9.255 
2 *416:10 *2151:A 11.565 
3 *416:10 *2159:A2 8.85 
*END

*D_NET *417 0.000831146
*CONN
*I *2152:A2 I *D sky130_fd_sc_hd__o21ai_2
*I *2154:A1 I *D sky130_fd_sc_hd__o21ai_4
*I *2151:Y O *D sky130_fd_sc_hd__inv_2
*CAP
1 *2152:A2 0.000257937
2 *2154:A1 2.09808e-05
3 *2151:Y 0.000112947
4 *417:6 0.000391865
5 *2152:A2 *2154:B1 4.7416e-05
*RES
1 *2151:Y *417:6 3.085 
2 *417:6 *2154:A1 1.96 
3 *417:6 *2152:A2 9.515 
*END

*D_NET *418 0.000480724
*CONN
*I *2154:B1 I *D sky130_fd_sc_hd__o21ai_4
*I *2152:Y O *D sky130_fd_sc_hd__o21ai_2
*CAP
1 *2154:B1 0.00011723
2 *2152:Y 0.00011723
3 *2154:B1 *2392:A 1.34361e-05
4 *2152:A1 *2154:B1 0.000185411
5 *2152:A2 *2154:B1 4.7416e-05
*RES
1 *2152:Y *2154:B1 10.05 
*END

*D_NET *419 0.000204989
*CONN
*I *2154:A2 I *D sky130_fd_sc_hd__o21ai_4
*I *2153:X O *D sky130_fd_sc_hd__a21o_2
*CAP
1 *2154:A2 0.000102495
2 *2153:X 0.000102495
*RES
1 *2153:X *2154:A2 8.835 
*END

*D_NET *420 0.000385129
*CONN
*I *2164:A2 I *D sky130_fd_sc_hd__a22oi_4
*I *2155:Y O *D sky130_fd_sc_hd__nand4_4
*CAP
1 *2164:A2 9.23792e-05
2 *2155:Y 9.23792e-05
3 *2164:A2 *2201:B2 0.000140905
4 *2155:A *2164:A2 4.99619e-05
5 *2155:C *2164:A2 0
6 *2162:A *2164:A2 9.50342e-06
*RES
1 *2155:Y *2164:A2 9.285 
*END

*D_NET *421 0.000773296
*CONN
*I *2201:A2_N I *D sky130_fd_sc_hd__o2bb2ai_4
*I *2157:B I *D sky130_fd_sc_hd__xnor2_2
*I *2156:X O *D sky130_fd_sc_hd__xor2_2
*CAP
1 *2201:A2_N 0
2 *2157:B 0.000101964
3 *2156:X 0.000180303
4 *421:8 0.000282267
5 *2157:B *2157:A 0
6 *2157:B *461:12 0
7 *421:8 *2157:A 0
8 *421:8 *520:8 0
9 *2311:A *2157:B 7.38415e-05
10 *2311:A *421:8 0.00013492
*RES
1 *2156:X *421:8 7.53 
2 *421:8 *2157:B 5.745 
3 *421:8 *2201:A2_N 3.6 
*END

*D_NET *422 0.0023622
*CONN
*I *2162:B I *D sky130_fd_sc_hd__nor2_2
*I *2159:B1 I *D sky130_fd_sc_hd__o211a_2
*I *2163:B I *D sky130_fd_sc_hd__or2_2
*I *2157:Y O *D sky130_fd_sc_hd__xnor2_2
*CAP
1 *2162:B 0.000151287
2 *2159:B1 7.71185e-05
3 *2163:B 0
4 *2157:Y 0.000143262
5 *422:29 0.000302588
6 *422:16 0.000217445
7 *2159:B1 *2392:A 4.81845e-05
8 *2162:B *2392:A 4.21973e-05
9 *422:16 *2285:A 7.45881e-05
10 *422:16 *461:12 0.000187064
11 *422:16 *519:10 8.02725e-05
12 *422:16 *554:10 4.82919e-05
13 *422:29 *2201:B2 0.000155928
14 *422:29 *2285:A 8.25609e-05
15 *422:29 *519:10 2.75145e-05
16 *422:29 *554:10 3.66286e-05
17 *2155:C *2162:B 0
18 *2159:A1 *2159:B1 0.000146479
19 *2159:A1 *2162:B 0.000120655
20 *2159:C1 *2159:B1 0.000207559
21 *2162:A *2162:B 0.000103185
22 *2345:A *422:16 0
23 *409:27 *2159:B1 5.83121e-06
24 *409:27 *2162:B 0.000103554
25 *411:8 *2162:B 0
*RES
1 *2157:Y *422:16 9.695 
2 *422:16 *2163:B 1.6 
3 *422:16 *422:29 6.34 
4 *422:29 *2159:B1 4.135 
5 *422:29 *2162:B 9.575 
*END

*D_NET *423 0.0010903
*CONN
*I *2161:B I *D sky130_fd_sc_hd__nand2_2
*I *2160:B1_N I *D sky130_fd_sc_hd__a21boi_2
*I *2158:X O *D sky130_fd_sc_hd__o211a_2
*CAP
1 *2161:B 4.94287e-05
2 *2160:B1_N 1.65033e-05
3 *2158:X 6.73773e-05
4 *423:10 0.000133309
5 *2160:B1_N *2133:B 4.66108e-05
6 *2161:B *2285:A 0.00018305
7 *423:10 *2133:A 2.75145e-05
8 *423:10 *2285:A 0.000155928
9 *2158:C1 *423:10 4.66108e-05
10 *2159:A2 *2161:B 5.4003e-05
11 *2161:A *2160:B1_N 2.49909e-05
12 *416:10 *2161:B 0.000129047
13 *416:10 *423:10 0.000155928
*RES
1 *2158:X *423:10 5.94 
2 *423:10 *2160:B1_N 4.05 
3 *423:10 *2161:B 5.745 
*END

*D_NET *424 0.000544941
*CONN
*I *2164:A1 I *D sky130_fd_sc_hd__a22oi_4
*I *2159:X O *D sky130_fd_sc_hd__o211a_2
*CAP
1 *2164:A1 8.50024e-05
2 *2159:X 8.50024e-05
3 *2164:A1 *2164:B2 6.16904e-05
4 *2164:A1 *2201:B2 1.26626e-05
5 *2164:A1 *2285:A 0.000160651
6 *409:44 *2164:A1 0.000139933
*RES
1 *2159:X *2164:A1 9.885 
*END

*D_NET *425 0.00228485
*CONN
*I *2201:B2 I *D sky130_fd_sc_hd__o2bb2ai_4
*I *2160:Y O *D sky130_fd_sc_hd__a21boi_2
*CAP
1 *2201:B2 0.000396315
2 *2160:Y 0.000396315
3 *2201:B2 *2201:B1 0.000293726
4 *2201:B2 *2285:A 0.000155552
5 *2155:A *2201:B2 5.85071e-05
6 *2155:C *2201:B2 0
7 *2158:C1 *2201:B2 0.000136877
8 *2162:A *2201:B2 0.000108432
9 *2164:A1 *2201:B2 1.26626e-05
10 *2164:A2 *2201:B2 0.000140905
11 *409:44 *2201:B2 0.000317494
12 *410:10 *2201:B2 4.47897e-05
13 *410:12 *2201:B2 6.73424e-05
14 *422:29 *2201:B2 0.000155928
*RES
1 *2160:Y *2201:B2 19.83 
*END

*D_NET *426 0.000287458
*CONN
*I *2164:B1 I *D sky130_fd_sc_hd__a22oi_4
*I *2161:Y O *D sky130_fd_sc_hd__nand2_2
*CAP
1 *2164:B1 4.51027e-05
2 *2161:Y 4.51027e-05
3 *2164:B1 *2393:A 5.63405e-05
4 *2164:B1 *461:12 0.000140912
*RES
1 *2161:Y *2164:B1 8.835 
*END

*D_NET *427 0.00105287
*CONN
*I *2164:B2 I *D sky130_fd_sc_hd__a22oi_4
*I *2162:Y O *D sky130_fd_sc_hd__nor2_2
*CAP
1 *2164:B2 0.00049559
2 *2162:Y 0.00049559
3 *2164:A1 *2164:B2 6.16904e-05
*RES
1 *2162:Y *2164:B2 9.305 
*END

*D_NET *428 0.000680107
*CONN
*I *2201:B1 I *D sky130_fd_sc_hd__o2bb2ai_4
*I *2163:X O *D sky130_fd_sc_hd__or2_2
*CAP
1 *2201:B1 0.000100488
2 *2163:X 0.000100488
3 *2201:B1 *2142:B 0
4 *2201:B2 *2201:B1 0.000293726
5 *410:10 *2201:B1 0.000185405
*RES
1 *2163:X *2201:B1 10.62 
*END

*D_NET *429 0.00114587
*CONN
*I *2167:B I *D sky130_fd_sc_hd__xnor2_2
*I *2166:X O *D sky130_fd_sc_hd__mux2_2
*CAP
1 *2167:B 0.000397682
2 *2166:X 0.000397682
3 *2167:B *1901:B 0.000200992
4 *2167:B *2166:A0 4.0843e-05
5 *2167:B *454:10 0
6 *2167:B *454:12 0
7 *1908:A *2167:B 0.000108668
*RES
1 *2166:X *2167:B 14.205 
*END

*D_NET *430 0.000953719
*CONN
*I *2170:B I *D sky130_fd_sc_hd__xor2_2
*I *2168:X O *D sky130_fd_sc_hd__a211o_2
*CAP
1 *2170:B 0.000331987
2 *2168:X 0.000331987
3 *2170:B *1945:B 0.000163199
4 *1966:B1 *2170:B 4.16262e-05
5 *225:8 *2170:B 8.49205e-05
*RES
1 *2168:X *2170:B 6.9475 
*END

*D_NET *431 0.00365496
*CONN
*I *2171:A2 I *D sky130_fd_sc_hd__a21oi_2
*I *2172:C I *D sky130_fd_sc_hd__nand3_2
*I *2169:X O *D sky130_fd_sc_hd__a211o_4
*CAP
1 *2171:A2 0.000284209
2 *2172:C 1.31277e-05
3 *2169:X 0.000610167
4 *431:14 0.000907504
5 *2171:A2 *2172:A 8.96017e-05
6 *2171:A2 *2173:B 1.12578e-05
7 *431:14 *1947:A1 4.82863e-05
8 *431:14 *2173:A_N 0
9 *431:14 *2173:B 2.16833e-05
10 *431:14 *2391:A 0.000576975
11 *431:14 *513:12 0.000134509
12 S[2] *431:14 0.000139936
13 *1946:A2 *431:14 7.18883e-05
14 *1948:A2 *431:14 7.70758e-05
15 *2171:B1 *2171:A2 0.000201503
16 *2171:B1 *2172:C 3.26889e-05
17 *2328:A *431:14 0.000190837
18 *223:12 *431:14 8.49205e-05
19 *227:19 *431:14 0.000150707
20 *234:12 *431:14 8.08153e-06
*RES
1 *2169:X *431:14 20.105 
2 *431:14 *2172:C 1.96 
3 *431:14 *2171:A2 6.565 
*END

*D_NET *432 0.00227108
*CONN
*I *2173:A_N I *D sky130_fd_sc_hd__nand2b_2
*I *2171:Y O *D sky130_fd_sc_hd__a21oi_2
*CAP
1 *2173:A_N 0.000532319
2 *2171:Y 0.000532319
3 *2173:A_N *1951:A1 6.55328e-05
4 *2173:A_N *2172:A 5.30673e-05
5 *2173:A_N *2173:B 0.000887822
6 *2173:A_N *2391:A 0
7 *2173:A_N *513:12 0
8 *2173:A_N *553:10 0.000180682
9 *1955:A2 *2173:A_N 8.08153e-06
10 *2171:B1 *2173:A_N 1.12578e-05
11 *431:14 *2173:A_N 0
*RES
1 *2171:Y *2173:A_N 17.595 
*END

*D_NET *433 0.00224137
*CONN
*I *2173:B I *D sky130_fd_sc_hd__nand2b_2
*I *2172:Y O *D sky130_fd_sc_hd__nand3_2
*CAP
1 *2173:B 0.000346042
2 *2172:Y 0.000346042
3 *2173:B *1952:A2 7.91892e-05
4 *2173:B *1953:B1_N 0
5 *2173:B *2394:A 4.82919e-05
6 *2173:B *456:74 1.53032e-05
7 *2173:B *556:29 0.000239029
8 *2171:A2 *2173:B 1.12578e-05
9 *2171:B1 *2173:B 7.60965e-05
10 *2173:A_N *2173:B 0.000887822
11 *2328:A *2173:B 8.23457e-05
12 *226:24 *2173:B 8.8266e-05
13 *431:14 *2173:B 2.16833e-05
*RES
1 *2172:Y *2173:B 17.955 
*END

*D_NET *434 0.00258479
*CONN
*I *2182:B2 I *D sky130_fd_sc_hd__o2bb2ai_2
*I *2175:B I *D sky130_fd_sc_hd__xnor2_2
*I *2176:B2 I *D sky130_fd_sc_hd__o22a_4
*I *2174:Y O *D sky130_fd_sc_hd__a21oi_2
*CAP
1 *2182:B2 0.000306144
2 *2175:B 0
3 *2176:B2 0.000289964
4 *2174:Y 0.000366709
5 *434:25 0.000306144
6 *434:10 0.000656674
7 *2182:B2 *2395:A 0.000205917
8 *1918:A1 *434:10 0
9 *1918:B1 *434:10 0
10 *1926:B *2176:B2 0
11 *1960:A *434:10 0
12 *1971:A3 *434:10 4.82863e-05
13 *2174:A1 *434:10 6.36656e-05
14 *2175:A *2176:B2 0
15 *2175:A *434:10 0
16 *2176:A1 *2176:B2 2.16833e-05
17 *2176:A2 *2176:B2 0.000122331
18 *201:42 *2182:B2 0.000197269
*RES
1 *2174:Y *434:10 10.02 
2 *434:10 *2176:B2 8.115 
3 *434:10 *434:25 2 
4 *434:25 *2175:B 1.6 
5 *434:25 *2182:B2 7.915 
*END

*D_NET *435 0.00397454
*CONN
*I *2177:B I *D sky130_fd_sc_hd__xnor2_2
*I *2178:B1 I *D sky130_fd_sc_hd__a22oi_2
*I *2180:B2 I *D sky130_fd_sc_hd__o2bb2a_2
*I *2176:X O *D sky130_fd_sc_hd__o22a_4
*CAP
1 *2177:B 4.34192e-05
2 *2178:B1 0.000316206
3 *2180:B2 5.74818e-05
4 *2176:X 0.000478439
5 *435:23 0.000507844
6 *435:12 0.000684141
7 *2177:B *1899:A1 9.2741e-05
8 *2177:B *2396:A 4.82919e-05
9 *2178:B1 *2396:A 9.52156e-05
10 *2178:B1 *449:65 8.08153e-06
11 *435:12 *557:10 0
12 *435:12 *557:39 0
13 *435:23 *2181:B 0
14 *435:23 *449:65 4.92014e-05
15 *435:23 *557:10 0
16 S[5] *2178:B1 1.15688e-05
17 *1910:C1 *2178:B1 0.000130903
18 *1910:D1 *2178:B1 8.65905e-05
19 *1915:B1 *435:12 0
20 *1916:B *435:12 0
21 *1956:A *2177:B 6.13486e-05
22 *1957:B1 *2178:B1 0.00035352
23 *1957:B1 *435:23 8.53113e-06
24 *2178:B2 *2178:B1 7.22613e-05
25 *2179:A *2178:B1 0
26 *2180:B1 *2180:B2 8.65905e-05
27 *2180:B1 *435:12 0.000190633
28 *186:21 *2178:B1 0.000540219
29 *190:10 *435:23 0
30 *191:10 *435:12 0
31 *193:8 *435:12 0
32 *237:10 *435:23 5.13155e-05
*RES
1 *2176:X *435:12 12.89 
2 *435:12 *2180:B2 2.395 
3 *435:12 *435:23 4.655 
4 *435:23 *2178:B1 13.335 
5 *435:23 *2177:B 5.085 
*END

*D_NET *436 0.000784535
*CONN
*I *2179:B I *D sky130_fd_sc_hd__xnor2_2
*I *2178:Y O *D sky130_fd_sc_hd__a22oi_2
*CAP
1 *2179:B 0.000208334
2 *2178:Y 0.000208334
3 *2179:B *522:10 4.91927e-05
4 *2179:B *557:10 5.51626e-05
5 *2179:A *2179:B 2.75538e-05
6 *2313:A *2179:B 9.50342e-06
7 *2348:A *2179:B 2.75145e-05
8 *186:21 *2179:B 0.000198939
*RES
1 *2178:Y *2179:B 11.115 
*END

*D_NET *437 0.000661674
*CONN
*I *2181:B I *D sky130_fd_sc_hd__xor2_2
*I *2180:X O *D sky130_fd_sc_hd__o2bb2a_2
*CAP
1 *2181:B 8.41412e-05
2 *2180:X 8.41412e-05
3 *1958:B2 *2181:B 0.000269724
4 *2180:A1_N *2181:B 0.000191355
5 *190:10 *2181:B 2.78732e-05
6 *237:10 *2181:B 4.43871e-06
7 *435:23 *2181:B 0
*RES
1 *2180:X *2181:B 8.6825 
*END

*D_NET *438 0.00683734
*CONN
*I *2186:A1 I *D sky130_fd_sc_hd__a21oi_2
*I *2183:B I *D sky130_fd_sc_hd__xnor2_2
*I *2184:B1 I *D sky130_fd_sc_hd__a22o_2
*I *2182:Y O *D sky130_fd_sc_hd__o2bb2ai_2
*CAP
1 *2186:A1 0.000546673
2 *2183:B 3.55506e-05
3 *2184:B1 3.96385e-05
4 *2182:Y 0.00111115
5 *438:23 0.00109711
6 *438:10 0.00166568
7 *2186:A1 *2249:A1 0.000337274
8 *2186:A1 *2399:A 8.53113e-06
9 *438:10 *2202:A 0
10 *438:10 *2268:A1 0.000493686
11 *438:10 *2288:A 0.000183111
12 *438:10 *449:10 0.000188659
13 *438:10 *449:26 0
14 *438:10 *531:10 0.000164059
15 *1961:C *438:10 8.65905e-05
16 *1962:A1 *2186:A1 9.05377e-05
17 *2183:A *2186:A1 7.22354e-05
18 *2184:A2 *2184:B1 1.26548e-05
19 *2184:A2 *438:10 1.1561e-05
20 *2184:B2 *2184:B1 6.47594e-05
21 *2184:B2 *438:10 4.92128e-05
22 *2250:A *2183:B 0
23 *2250:A *2186:A1 6.47326e-05
24 *2250:A *438:23 6.96579e-05
25 *2255:A *2184:B1 9.37731e-05
26 *2255:A *438:10 5.4003e-05
27 *2255:B *438:23 4.7101e-05
28 *2322:A *438:10 0
29 *145:6 *2186:A1 3.24055e-05
30 *149:6 *438:23 2.76356e-05
31 *153:10 *438:23 1.20373e-05
32 *154:25 *438:10 0
33 *154:25 *438:23 5.33172e-05
34 *201:42 *438:10 0.000124007
35 *242:8 *2186:A1 0
*RES
1 *2182:Y *438:10 25.695 
2 *438:10 *2184:B1 4.98 
3 *438:10 *438:23 8.315 
4 *438:23 *2183:B 2.215 
5 *438:23 *2186:A1 16.145 
*END

*D_NET *439 0.000354951
*CONN
*I *2185:B I *D sky130_fd_sc_hd__xnor2_2
*I *2184:X O *D sky130_fd_sc_hd__a22o_2
*CAP
1 *2185:B 0.000177475
2 *2184:X 0.000177475
*RES
1 *2184:X *2185:B 5.735 
*END

*D_NET *440 0.00213876
*CONN
*I *2187:B I *D sky130_fd_sc_hd__xor2_2
*I *2188:A2 I *D sky130_fd_sc_hd__o21ai_2
*I *2186:Y O *D sky130_fd_sc_hd__a21oi_2
*CAP
1 *2187:B 0.000182964
2 *2188:A2 6.26052e-05
3 *2186:Y 0.000599164
4 *440:6 0.000844734
5 *2187:A *2187:B 0.000219442
6 *2187:A *440:6 0.000119762
7 *2189:A *2188:A2 5.53249e-06
8 *2266:B *2188:A2 9.37731e-05
9 *161:16 *2188:A2 1.07797e-05
*RES
1 *2186:Y *440:6 8.26 
2 *440:6 *2188:A2 6.98 
3 *440:6 *2187:B 2.7375 
*END

*D_NET *441 0.000427874
*CONN
*I *2189:B I *D sky130_fd_sc_hd__xor2_2
*I *2188:Y O *D sky130_fd_sc_hd__o21ai_2
*CAP
1 *2189:B 0.000177146
2 *2188:Y 0.000177146
3 *2189:A *2189:B 7.35813e-05
*RES
1 *2188:Y *2189:B 4.3375 
*END

*D_NET *442 0.00627205
*CONN
*I *2193:B1 I *D sky130_fd_sc_hd__a22o_2
*I *2192:B I *D sky130_fd_sc_hd__xor2_2
*I *2196:A1 I *D sky130_fd_sc_hd__a21o_2
*I *2191:A I *D sky130_fd_sc_hd__nand2_2
*I *2190:Y O *D sky130_fd_sc_hd__nand4_2
*CAP
1 *2193:B1 4.44759e-05
2 *2192:B 0.000141847
3 *2196:A1 0.000349837
4 *2191:A 0
5 *2190:Y 0.00115543
6 *442:32 0.000271953
7 *442:10 0.000544152
8 *442:6 0.00143538
9 *2192:B *536:12 0.000163204
10 *2192:B *536:34 0
11 *2193:B1 *536:34 3.26889e-05
12 *442:10 *2227:C 0
13 *442:10 *536:34 0
14 *2190:D *442:6 1.83756e-05
15 *2192:A *2192:B 0.00012657
16 *2192:A *442:10 7.30547e-05
17 *2193:A2 *442:32 2.36616e-05
18 *2193:B2 *442:6 1.19928e-05
19 *2193:B2 *442:32 1.83847e-05
20 *2196:B1 *2196:A1 4.50017e-05
21 *2227:B *442:10 0.000115464
22 *2229:C1 *2196:A1 0.000255644
23 *2237:A1 *442:6 5.41685e-05
24 *2237:A2 *442:6 8.65961e-05
25 *2241:A *2196:A1 2.56236e-05
26 *2241:B *2196:A1 0
27 *2242:D *2196:A1 0.000298569
28 *113:22 *2196:A1 4.18147e-05
29 *119:27 *442:10 0
30 *119:36 *442:10 0
31 *125:8 *2196:A1 5.53249e-06
32 *125:8 *442:10 8.08439e-05
33 *127:12 *2196:A1 9.66186e-05
34 *135:8 *2193:B1 0
35 *135:8 *442:6 0.000347922
36 *135:14 *442:10 0.000136959
37 *135:23 *2196:A1 0.000264743
38 *135:23 *442:10 5.53249e-06
*RES
1 *2190:Y *442:6 15.16 
2 *442:6 *442:10 6.95 
3 *442:10 *2191:A 3.6 
4 *442:10 *2196:A1 14.04 
5 *442:6 *442:32 1.14 
6 *442:32 *2192:B 7.1725 
7 *442:32 *2193:B1 2.47 
*END

*D_NET *443 0.000414136
*CONN
*I *2195:A2 I *D sky130_fd_sc_hd__o211ai_2
*I *2191:Y O *D sky130_fd_sc_hd__nand2_2
*CAP
1 *2195:A2 0.000127951
2 *2191:Y 0.000127951
3 *2195:A2 *2377:A 0.000109947
4 *2195:B1 *2195:A2 4.82863e-05
*RES
1 *2191:Y *2195:A2 5.735 
*END

*D_NET *444 0.000589518
*CONN
*I *2194:B I *D sky130_fd_sc_hd__xnor2_2
*I *2193:X O *D sky130_fd_sc_hd__a22o_2
*CAP
1 *2194:B 0.00024334
2 *2193:X 0.00024334
3 *2194:B *2227:C 0
4 *2194:B *536:34 5.84694e-05
5 *2220:A2 *2194:B 0
6 *119:14 *2194:B 4.43682e-05
7 *119:27 *2194:B 0
8 *119:36 *2194:B 0
*RES
1 *2193:X *2194:B 11.085 
*END

*D_NET *445 0.000531598
*CONN
*I *2197:B I *D sky130_fd_sc_hd__xor2_2
*I *2195:Y O *D sky130_fd_sc_hd__o211ai_2
*CAP
1 *2197:B 0.000185723
2 *2195:Y 0.000185723
3 *2197:B *2377:A 4.38278e-05
4 *2195:A1 *2197:B 5.4003e-05
5 *118:30 *2197:B 6.23206e-05
*RES
1 *2195:Y *2197:B 9.14 
*END

*D_NET *446 0.00105506
*CONN
*I *2199:B1 I *D sky130_fd_sc_hd__a22oi_2
*I *2198:D I *D sky130_fd_sc_hd__and4_2
*I *2196:X O *D sky130_fd_sc_hd__a21o_2
*CAP
1 *2199:B1 6.89536e-05
2 *2198:D 0
3 *2196:X 0.000250703
4 *446:12 0.000319657
5 *446:12 *2200:A 5.53249e-06
6 *446:12 *475:45 0
7 *2198:B *2199:B1 0.000125055
8 *2199:A1 *2199:B1 4.00541e-06
9 *2199:A2 *2199:B1 0
10 *2199:B2 *2199:B1 9.53428e-06
11 *110:20 *446:12 2.65814e-06
12 *128:38 *2199:B1 3.00381e-05
13 *128:38 *446:12 0
14 *129:23 *2199:B1 0.000238919
*RES
1 *2196:X *446:12 8.72 
2 *446:12 *2198:D 1.6 
3 *446:12 *2199:B1 4.495 
*END

*D_NET *447 0.000404089
*CONN
*I *2200:A I *D sky130_fd_sc_hd__nor2_4
*I *2198:X O *D sky130_fd_sc_hd__and4_2
*CAP
1 *2200:A 0.000199278
2 *2198:X 0.000199278
3 *2200:A *2200:B 0
4 *2200:A *475:45 0
5 *446:12 *2200:A 5.53249e-06
*RES
1 *2198:X *2200:A 10.23 
*END

*D_NET *448 0.000408985
*CONN
*I *2200:B I *D sky130_fd_sc_hd__nor2_4
*I *2199:Y O *D sky130_fd_sc_hd__a22oi_2
*CAP
1 *2200:B 0.000131159
2 *2199:Y 0.000131159
3 *2200:B *2212:C_N 0
4 *2200:A *2200:B 0
5 *110:6 *2200:B 3.00381e-05
6 *110:12 *2200:B 3.00381e-05
7 *129:23 *2200:B 8.65905e-05
*RES
1 *2199:Y *2200:B 9.63 
*END

*D_NET *449 0.018289
*CONN
*I *2261:A I *D sky130_fd_sc_hd__nand2_2
*I *2271:A1 I *D sky130_fd_sc_hd__o21ai_4
*I *2270:A1 I *D sky130_fd_sc_hd__a21oi_4
*I *2252:A I *D sky130_fd_sc_hd__nand2_2
*I *1907:A1 I *D sky130_fd_sc_hd__a21oi_2
*I *1912:A I *D sky130_fd_sc_hd__nand2_2
*I *1930:A I *D sky130_fd_sc_hd__nand2_2
*I *2277:A I *D sky130_fd_sc_hd__nand2_2
*I *2202:Y O *D sky130_fd_sc_hd__inv_8
*CAP
1 *2261:A 0.0014329
2 *2271:A1 6.36508e-05
3 *2270:A1 0
4 *2252:A 0.000121261
5 *1907:A1 0
6 *1912:A 0.000673524
7 *1930:A 9.32098e-05
8 *2277:A 0.000241847
9 *2202:Y 0.000118216
10 *449:71 0.00103914
11 *449:65 0.0015891
12 *449:34 0.0022088
13 *449:26 0.00166662
14 *449:16 0.00100694
15 *449:12 0.000256035
16 *449:10 0.00163166
17 *1912:A *1912:B 0.000119219
18 *1912:A *1916:A_N 0.0001249
19 *1912:A *2284:A 0
20 *1912:A *522:25 5.21714e-05
21 *1912:A *557:39 5.21046e-05
22 *2252:A *2251:B 8.76593e-05
23 *2252:A *2276:B 4.82863e-05
24 *2252:A *466:14 1.52184e-05
25 *2252:A *466:22 0.000112974
26 *2252:A *466:33 4.82919e-05
27 *2252:A *562:12 2.97004e-06
28 *2261:A *2261:B 0.000141323
29 *2261:A *2262:A 0.000141323
30 *2261:A *2267:A 7.59904e-05
31 *2261:A *2267:B 0.000278117
32 *2261:A *475:61 0.000134314
33 *2277:A *2280:A1 0.00012657
34 *2277:A *2280:B1 0
35 *2277:A *524:12 8.65961e-05
36 *449:10 *2267:B 0
37 *449:10 *2288:A 0.000132649
38 *449:10 *475:61 0.000123225
39 *449:12 *2267:B 0
40 *449:12 *2268:A1 5.65627e-05
41 *449:12 *531:32 0
42 *449:16 *2268:A1 0.000100308
43 *449:16 *531:21 2.92496e-05
44 *449:16 *531:32 0
45 *449:26 *2251:A 0.000114024
46 *449:26 *527:10 0
47 *449:26 *531:28 4.66108e-05
48 *449:34 *2251:A 8.49205e-05
49 *449:34 *2280:A1 0.000617721
50 *449:65 *1903:A 0.000198945
51 *449:65 *2396:A 5.16418e-05
52 *449:65 *557:10 0.000113972
53 *449:71 *1907:B1 0
54 *449:71 *1914:A1 0
55 *449:71 *1935:A_N 7.89689e-05
56 *449:71 *458:12 0
57 *449:71 *459:16 0
58 *449:71 *473:10 0.000116636
59 *1921:A1 *449:26 0
60 *1934:B *449:71 1.0183e-05
61 *1935:B *449:71 0.000184717
62 *1956:A *449:65 0.000978561
63 *2178:B1 *449:65 8.08153e-06
64 *2180:B1 *449:65 3.64998e-06
65 *2271:B1 *449:16 0
66 *2318:A *2252:A 0
67 *2318:A *449:26 0
68 *2322:A *449:26 0.000162325
69 *149:6 *449:26 0.000275553
70 *165:10 *2261:A 0.000533411
71 *173:10 *2271:A1 6.71882e-05
72 *177:34 *2277:A 2.97004e-06
73 *177:34 *449:65 2.16389e-05
74 *178:8 *2277:A 1.47256e-05
75 *178:23 *2277:A 0
76 *213:8 *449:71 8.35126e-05
77 *213:12 *1930:A 4.82863e-05
78 *435:23 *449:65 4.92014e-05
79 *438:10 *449:10 0.000188659
80 *438:10 *449:26 0
*RES
1 *2202:Y *449:10 6.99 
2 *449:10 *449:12 1.38 
3 *449:12 *449:16 4.4 
4 *449:16 *449:26 19.21 
5 *449:26 *449:34 10.85 
6 *449:34 *2277:A 6.855 
7 *449:34 *449:65 26.055 
8 *449:65 *449:71 10.48 
9 *449:71 *1930:A 3.085 
10 *449:71 *1912:A 16.76 
11 *449:65 *1907:A1 1.6 
12 *449:26 *2252:A 8.795 
13 *449:16 *2270:A1 1.6 
14 *449:12 *2271:A1 4.74 
15 *449:10 *2261:A 22.605 
*END

*D_NET *450 0.00283395
*CONN
*I *1941:B1_N I *D sky130_fd_sc_hd__o21bai_4
*I *2165:A I *D sky130_fd_sc_hd__xor2_2
*I *1939:B1 I *D sky130_fd_sc_hd__o21ai_2
*I *2166:A1 I *D sky130_fd_sc_hd__mux2_2
*I *2294:X O *D sky130_fd_sc_hd__clkdlybuf4s25_1
*CAP
1 *1941:B1_N 0.00022693
2 *2165:A 8.45984e-05
3 *1939:B1 0
4 *2166:A1 0.000284454
5 *2294:X 8.1001e-05
6 *450:36 0.000381194
7 *450:16 0.000515958
8 *450:8 0.000382169
9 *1941:B1_N *529:16 0
10 *2165:A *453:21 0
11 *2165:A *453:23 0
12 *2165:A *529:16 3.25831e-05
13 *2165:A *529:18 0.000156155
14 *2166:A1 *1902:B 0
15 *2166:A1 *1937:A 0.00013994
16 *2166:A1 *2166:S 0.0001249
17 *2166:A1 *453:25 6.61904e-05
18 *2166:A1 *529:18 0
19 *2166:A1 *529:24 0
20 *450:16 *1939:A1 1.33293e-05
21 *450:16 *1939:A2 7.00889e-06
22 *450:16 *453:23 0
23 *450:16 *453:25 0
24 *450:16 *529:18 0.000187759
25 *450:36 *453:23 0
26 *450:36 *529:18 0.000131401
27 *1942:C1 *2165:A 0
28 *219:10 *450:16 1.83756e-05
*RES
1 *2294:X *450:8 4.395 
2 *450:8 *450:16 5.99 
3 *450:16 *2166:A1 10.25 
4 *450:16 *1939:B1 1.6 
5 *450:8 *450:36 1.635 
6 *450:36 *2165:A 5.745 
7 *450:36 *1941:B1_N 6.915 
*END

*D_NET *451 0.00543911
*CONN
*I *2018:A1 I *D sky130_fd_sc_hd__a22oi_2
*I *1988:C I *D sky130_fd_sc_hd__nand3b_2
*I *1989:B1_N I *D sky130_fd_sc_hd__o21bai_4
*I *2295:X O *D sky130_fd_sc_hd__clkdlybuf4s25_1
*CAP
1 *2018:A1 0
2 *1988:C 0.000156128
3 *1989:B1_N 1.8095e-05
4 *2295:X 0.00187526
5 *451:20 0.000255405
6 *451:16 0.00195645
7 *451:16 *1984:A 8.5841e-05
8 *451:16 *1984:B 6.66464e-05
9 *451:16 *2135:B1_N 0.000122325
10 *451:16 *456:12 0.000263108
11 *1987:A *1989:B1_N 8.49205e-05
12 *1987:B *1989:B1_N 8.49205e-05
13 *1988:A_N *1988:C 0
14 *1988:A_N *451:20 0
15 *1988:B *1988:C 0.000137571
16 *2018:A2 *451:20 0.000118513
17 *2018:B1 *451:16 0
18 *2019:A2 *1988:C 9.59969e-05
19 *2019:A2 *451:20 7.36484e-05
20 *2135:A1 *451:16 2.31724e-05
21 *2135:A2 *451:16 2.11084e-05
22 *259:25 *451:20 0
23 *262:27 *451:20 0
24 *270:10 *451:20 0
*RES
1 *2295:X *451:16 24.985 
2 *451:16 *451:20 3.89 
3 *451:20 *1989:B1_N 4.395 
4 *451:20 *1988:C 6.9 
5 *451:16 *2018:A1 1.6 
*END

*D_NET *452 0.00154042
*CONN
*I *2415:A I *D sky130_fd_sc_hd__buf_2
*I *2416:A I *D sky130_fd_sc_hd__buf_2
*I *2125:A1 I *D sky130_fd_sc_hd__o21a_4
*I *2367:X O *D sky130_fd_sc_hd__buf_6
*CAP
1 *2415:A 0.000316816
2 *2416:A 0
3 *2125:A1 5.68524e-05
4 *2367:X 0.000209879
5 *452:22 0.000469843
6 *2415:A *490:8 3.45679e-05
7 *452:22 *2109:A2 4.19884e-05
8 *2078:A1 *2415:A 7.35729e-05
9 *2080:B1 *2415:A 0.000100536
10 *2080:B1 *452:22 1.71013e-05
11 *2081:B *2415:A 0
12 *2367:A *2125:A1 5.30673e-05
13 *390:6 *2125:A1 0.000122155
14 *390:6 *452:22 4.40446e-05
*RES
1 *2367:X *2125:A1 5.03 
2 *2367:X *452:22 6.375 
3 *452:22 *2416:A 3.6 
4 *452:22 *2415:A 9.315 
*END

*D_NET *453 0.00287035
*CONN
*I *1938:A I *D sky130_fd_sc_hd__nor2_2
*I *1942:B1 I *D sky130_fd_sc_hd__o211ai_2
*I *2359:A I *D sky130_fd_sc_hd__buf_8
*I *1939:A1 I *D sky130_fd_sc_hd__o21ai_2
*I *1937:A I *D sky130_fd_sc_hd__and2_4
*I *1940:A1 I *D sky130_fd_sc_hd__a21oi_2
*I *2281:X O *D sky130_fd_sc_hd__buf_6
*CAP
1 *1938:A 1.84334e-05
2 *1942:B1 2.11983e-05
3 *2359:A 0
4 *1939:A1 0.000104249
5 *1937:A 0.000152728
6 *1940:A1 9.55298e-05
7 *2281:X 2.86673e-05
8 *453:25 0.000378353
9 *453:23 0.000372048
10 *453:21 0.000394287
11 *453:6 0.000265047
12 *1937:A *1902:B 0
13 *1937:A *2166:S 0.000118294
14 *1937:A *529:24 2.75229e-05
15 *1938:A *1938:B 4.99619e-05
16 *1939:A1 *1938:B 4.00541e-06
17 *1942:B1 *1942:A1 4.82919e-05
18 *453:21 *529:10 0
19 *453:21 *529:16 0
20 *453:25 *529:18 0
21 *1940:B1 *453:6 5.05521e-05
22 *1940:B1 *453:21 0
23 *1941:A1 *1937:A 7.35813e-05
24 *1942:C1 *453:23 0.000140912
25 *2165:A *453:21 0
26 *2165:A *453:23 0
27 *2166:A1 *1937:A 0.00013994
28 *2166:A1 *453:25 6.61904e-05
29 *2320:A *453:21 8.75474e-05
30 *219:10 *1939:A1 8.40213e-05
31 *219:10 *453:23 0
32 *219:10 *453:25 0
33 *220:10 *1940:A1 1.16578e-05
34 *220:10 *453:6 0.000124007
35 *450:16 *1939:A1 1.33293e-05
36 *450:16 *453:23 0
37 *450:16 *453:25 0
38 *450:36 *453:23 0
*RES
1 *2281:X *453:6 2.74 
2 *453:6 *1940:A1 3.1 
3 *453:6 *453:21 4.76 
4 *453:21 *453:23 4.185 
5 *453:23 *453:25 2.4 
6 *453:25 *1937:A 7.41 
7 *453:25 *1939:A1 5.1 
8 *453:23 *2359:A 3.6 
9 *453:21 *1942:B1 4.05 
10 *1939:A1 *1938:A 3.65 
*END

*D_NET *454 0.00285081
*CONN
*I *1902:A_N I *D sky130_fd_sc_hd__nand2b_4
*I *1901:B I *D sky130_fd_sc_hd__nand2b_4
*I *2166:A0 I *D sky130_fd_sc_hd__mux2_2
*I *1905:A1 I *D sky130_fd_sc_hd__a21boi_2
*I *1906:A2 I *D sky130_fd_sc_hd__o21ai_4
*I *2359:X O *D sky130_fd_sc_hd__buf_8
*CAP
1 *1902:A_N 0
2 *1901:B 8.38171e-05
3 *2166:A0 0.000101243
4 *1905:A1 0.000245158
5 *1906:A2 0
6 *2359:X 0.000184477
7 *454:46 0.000185061
8 *454:20 0.00037219
9 *454:12 0.000249225
10 *454:10 0.00030667
11 *1901:B *559:46 0.000131279
12 *1905:A1 *1905:A2 4.89295e-05
13 *1905:A1 *1906:A1 0
14 *1905:A1 *523:19 4.35348e-05
15 *1905:A1 *559:8 8.64421e-05
16 *2166:A0 *559:46 4.66108e-05
17 *454:12 *1902:B 0.000195932
18 *454:12 *2203:A 2.97004e-06
19 *454:20 *1902:B 2.92496e-05
20 *454:20 *1906:A1 0.000116158
21 *454:20 *2203:A 4.19967e-05
22 *454:20 *523:6 0.0001249
23 *1908:A *454:12 0
24 *2167:B *1901:B 0.000200992
25 *2167:B *2166:A0 4.0843e-05
26 *2167:B *454:10 0
27 *2167:B *454:12 0
28 *2314:A *1905:A1 0
29 *2350:A *1905:A1 1.31297e-05
30 *219:10 *454:10 0
*RES
1 *2359:X *454:10 6.375 
2 *454:10 *454:12 2.4 
3 *454:12 *454:20 5.135 
4 *454:20 *1906:A2 1.6 
5 *454:20 *1905:A1 10.145 
6 *454:12 *454:46 2 
7 *454:46 *2166:A0 3.43 
8 *454:46 *1901:B 4.495 
9 *454:10 *1902:A_N 3.6 
*END

*D_NET *455 0.00292274
*CONN
*I *2116:A I *D sky130_fd_sc_hd__and2_2
*I *2360:A I *D sky130_fd_sc_hd__buf_8
*I *2421:A I *D sky130_fd_sc_hd__buf_2
*I *2282:X O *D sky130_fd_sc_hd__buf_6
*CAP
1 *2116:A 7.79992e-06
2 *2360:A 0.000189248
3 *2421:A 0.000142782
4 *2282:X 0.000426839
5 *455:20 0.000425334
6 *455:16 0.000527943
7 *2116:A *2115:B 4.77757e-05
8 *2360:A *2390:A 8.30853e-06
9 *2360:A *456:12 8.40213e-05
10 *455:16 *2115:B 4.66108e-05
11 *455:16 *2282:A 3.31103e-05
12 *455:16 *457:20 0
13 *455:16 *513:22 7.67415e-06
14 *455:16 *551:12 4.9968e-05
15 *455:20 *2119:C_N 0
16 *455:20 *551:12 2.92496e-05
17 *2119:A *2421:A 5.97809e-05
18 *2140:A1 *2421:A 4.57056e-05
19 *383:8 *2116:A 3.75126e-05
20 *383:8 *455:16 0.000488597
21 *384:17 *455:20 2.16389e-05
22 *387:8 *2360:A 0.000233334
23 *387:8 *455:20 9.50342e-06
*RES
1 *2282:X *455:16 12.215 
2 *455:16 *455:20 3.635 
3 *455:20 *2421:A 5.7 
4 *455:20 *2360:A 7.305 
5 *455:16 *2116:A 2.05 
*END

*D_NET *456 0.0097594
*CONN
*I *1976:A I *D sky130_fd_sc_hd__nor2_4
*I *1949:A I *D sky130_fd_sc_hd__and2_4
*I *1951:A1 I *D sky130_fd_sc_hd__o21ai_4
*I *1952:A1 I *D sky130_fd_sc_hd__a21o_2
*I *1947:A1 I *D sky130_fd_sc_hd__o21ai_4
*I *1945:A I *D sky130_fd_sc_hd__and2_4
*I *1944:A I *D sky130_fd_sc_hd__nor2_2
*I *1950:A I *D sky130_fd_sc_hd__nor2_2
*I *2360:X O *D sky130_fd_sc_hd__buf_8
*CAP
1 *1976:A 0.00010881
2 *1949:A 2.50529e-05
3 *1951:A1 0.000430554
4 *1952:A1 0
5 *1947:A1 1.17533e-05
6 *1945:A 0.000127908
7 *1944:A 3.20182e-05
8 *1950:A 0.000274975
9 *2360:X 0.000282522
10 *456:74 0.000415196
11 *456:68 0.00045593
12 *456:60 0.000803407
13 *456:47 0.000415002
14 *456:41 0.000531063
15 *456:18 0.00079132
16 *456:12 0.000592192
17 *1945:A *1945:B 0
18 *1945:A *2281:A 8.5225e-05
19 *1945:A *553:10 0
20 *1949:A *537:10 8.35068e-05
21 *1950:A *1980:B1_N 6.28498e-05
22 *1950:A *2281:A 0
23 *1950:A *591:10 8.27194e-05
24 *1951:A1 *1944:B 1.43191e-05
25 *1951:A1 *2391:A 6.74079e-05
26 *1976:A *460:33 0.000109027
27 *456:12 *2390:A 8.64421e-05
28 *456:18 *1976:B 0
29 *456:18 *1980:B1_N 0.000164686
30 *456:18 *2115:A 0.000120186
31 *456:18 *551:12 0
32 *456:41 *1950:B 0.000166925
33 *456:41 *1976:B 5.12017e-06
34 *456:41 *1978:B 7.8494e-06
35 *456:41 *496:19 0.000132089
36 *456:41 *496:21 0.000159964
37 *456:41 *538:8 0.000121023
38 *456:41 *538:21 9.59831e-05
39 *456:47 *1950:B 2.97746e-05
40 *456:47 *496:21 0.00018338
41 *456:47 *556:42 0.000112284
42 *456:60 *1944:B 0.000100594
43 *456:74 *1952:A2 0.000167569
44 *456:74 *2281:A 3.50033e-05
45 *456:74 *521:10 0.000181376
46 *456:74 *553:10 0
47 *1952:B1 *456:68 0.000106637
48 *1954:A1 *1950:A 4.89295e-05
49 *1954:A2 *1950:A 0
50 *1954:B1 *1950:A 5.65748e-05
51 *1955:A2 *1951:A1 0.000493697
52 *1955:B1 *456:68 0.00011099
53 *1955:D1 *456:60 8.6076e-05
54 *1968:B *456:60 0.000194891
55 *1969:B1 *1944:A 4.99524e-05
56 *1969:B1 *456:47 0.000136296
57 *1980:A2 *456:41 3.09164e-05
58 *2140:A1 *1976:A 4.66108e-05
59 *2140:A1 *456:12 0.000136884
60 *2173:A_N *1951:A1 6.55328e-05
61 *2173:B *456:74 1.53032e-05
62 *2360:A *456:12 8.40213e-05
63 *226:24 *456:68 2.47149e-05
64 *226:24 *456:74 1.34503e-05
65 *227:19 *1947:A1 2.75145e-05
66 *229:8 *1949:A 4.60061e-05
67 *233:12 *456:47 0
68 *431:14 *1947:A1 4.82863e-05
69 *451:16 *456:12 0.000263108
*RES
1 *2360:X *456:12 10.095 
2 *456:12 *456:18 4.23 
3 *456:18 *1950:A 7.695 
4 *456:18 *456:41 10.96 
5 *456:41 *456:47 4.83 
6 *456:47 *1944:A 4.215 
7 *456:47 *456:60 5.555 
8 *456:60 *456:68 7.03 
9 *456:68 *456:74 6.74 
10 *456:74 *1945:A 5.94 
11 *456:74 *1947:A1 4.05 
12 *456:68 *1952:A1 1.6 
13 *456:60 *1951:A1 12.275 
14 *456:41 *1949:A 4.395 
15 *456:12 *1976:A 5.775 
*END

*D_NET *457 0.00618189
*CONN
*I *2282:A I *D sky130_fd_sc_hd__buf_6
*I *2420:A I *D sky130_fd_sc_hd__buf_2
*I *2281:A I *D sky130_fd_sc_hd__buf_6
*I *2283:X O *D sky130_fd_sc_hd__buf_8
*CAP
1 *2282:A 0.000109025
2 *2420:A 0.000137245
3 *2281:A 0.000750878
4 *2283:X 0.000233074
5 *457:20 0.0011776
6 *457:10 0.000631572
7 *2281:A *1953:B1_N 0.000162318
8 *2281:A *513:12 0
9 *2281:A *521:10 0.000484929
10 *2282:A *513:22 4.66108e-05
11 *2282:A *517:23 0.000163199
12 *2420:A *538:8 0.000350251
13 *457:10 *2118:C_N 0.000139252
14 *457:10 *2283:A 5.17188e-05
15 *457:10 *513:12 2.07184e-05
16 *457:10 *517:23 0
17 *457:20 *513:12 0.000130742
18 *457:20 *538:8 8.65905e-05
19 *457:20 *551:12 9.43751e-05
20 *1945:A *2281:A 8.5225e-05
21 *1948:A1 *2281:A 0
22 *1950:A *2281:A 0
23 *1952:B1 *2281:A 0
24 *1954:A2 *2281:A 0.000334476
25 *1955:A1 *2281:A 0.000117875
26 *1966:B2 *2281:A 1.82476e-05
27 *2320:A *2281:A 0
28 *2357:A *2281:A 0
29 *220:10 *2281:A 5.05437e-05
30 *223:12 *2281:A 0.000515106
31 *383:16 *457:10 0.000137578
32 *383:16 *457:20 8.53113e-06
33 *401:10 *2282:A 7.60965e-05
34 *455:16 *2282:A 3.31103e-05
35 *455:16 *457:20 0
36 *456:74 *2281:A 3.50033e-05
*RES
1 *2283:X *457:10 7.92 
2 *457:10 *457:20 7.82 
3 *457:20 *2281:A 24.605 
4 *457:20 *2420:A 4.81 
5 *457:10 *2282:A 6.465 
*END

*D_NET *458 0.00245195
*CONN
*I *1911:A I *D sky130_fd_sc_hd__and2_2
*I *1915:A1 I *D sky130_fd_sc_hd__a21oi_2
*I *1914:A1 I *D sky130_fd_sc_hd__o21ai_2
*I *1913:B I *D sky130_fd_sc_hd__nand2b_2
*I *2361:A I *D sky130_fd_sc_hd__buf_6
*I *2284:X O *D sky130_fd_sc_hd__buf_2
*CAP
1 *1911:A 0
2 *1915:A1 0.000131493
3 *1914:A1 0.000160143
4 *1913:B 0.000237552
5 *2361:A 2.08101e-05
6 *2284:X 0
7 *458:44 0.000251112
8 *458:12 0.000379652
9 *458:6 0.000401052
10 *1913:B *557:25 0.0001249
11 *1914:A1 *2284:A 9.16315e-05
12 *1914:A1 *522:10 0
13 *1914:A1 *522:25 0
14 *1915:A1 *1915:A2 0.000163199
15 *1915:A1 *557:25 2.55546e-05
16 *2361:A *557:25 0
17 *458:12 *522:10 0
18 *458:44 *557:25 0.000315527
19 *1915:B1 *1915:A1 0.000119285
20 *1926:B *1915:A1 3.00381e-05
21 *449:71 *1914:A1 0
22 *449:71 *458:12 0
*RES
1 *2284:X *458:6 3.6 
2 *458:6 *458:12 5.555 
3 *458:12 *2361:A 1.96 
4 *458:12 *1913:B 3.775 
5 *458:6 *1914:A1 6.705 
6 *1913:B *458:44 4.465 
7 *458:44 *1915:A1 4.84 
8 *458:44 *1911:A 1.6 
*END

*D_NET *459 0.0059538
*CONN
*I *2280:A1 I *D sky130_fd_sc_hd__o21ai_4
*I *2278:A I *D sky130_fd_sc_hd__and2_2
*I *1929:B I *D sky130_fd_sc_hd__nand2b_4
*I *2432:A I *D sky130_fd_sc_hd__buf_2
*I *1899:A1 I *D sky130_fd_sc_hd__a21o_2
*I *1904:A1 I *D sky130_fd_sc_hd__o21a_2
*I *2361:X O *D sky130_fd_sc_hd__buf_6
*CAP
1 *2280:A1 0.000275795
2 *2278:A 0
3 *1929:B 0
4 *2432:A 0
5 *1899:A1 0.000844195
6 *1904:A1 0.000171952
7 *2361:X 0.000102337
8 *459:61 0.000364771
9 *459:20 0.0010224
10 *459:16 0.000294279
11 *459:10 0.000301391
12 *1904:A1 *1904:B1 3.72916e-05
13 *1904:A1 *1907:B1 9.53428e-06
14 *1904:A1 *523:31 2.11084e-05
15 *2280:A1 *2277:B 2.75229e-05
16 *2280:A1 *2280:A2 7.35813e-05
17 *2280:A1 *2280:B1 0.000392136
18 *2280:A1 *524:12 1.60203e-05
19 *459:10 *522:10 0
20 *459:16 *522:10 0
21 *459:20 *1907:B1 0
22 *459:20 *522:10 0
23 *459:61 *1899:A2 0.000200699
24 *459:61 *560:12 9.50342e-06
25 S[7] *2280:A1 5.83121e-06
26 S[7] *459:61 7.73272e-05
27 *1900:A2 *2280:A1 3.57349e-05
28 *1900:A2 *459:61 4.82863e-05
29 *1935:B *459:10 0
30 *1956:A *1899:A1 8.72229e-05
31 *1957:A2 *1899:A1 8.67294e-05
32 *2177:B *1899:A1 9.2741e-05
33 *2277:A *2280:A1 0.00012657
34 *177:6 *2280:A1 7.66083e-05
35 *177:12 *2280:A1 0.00028646
36 *178:8 *2280:A1 2.86776e-05
37 *178:23 *459:61 7.73409e-05
38 *189:14 *1899:A1 0.000115378
39 *189:14 *1904:A1 2.66586e-05
40 *449:34 *2280:A1 0.000617721
41 *449:71 *459:16 0
*RES
1 *2361:X *459:10 7.235 
2 *459:10 *459:16 5.195 
3 *459:16 *459:20 3.38 
4 *459:20 *1904:A1 4.045 
5 *459:20 *1899:A1 11.02 
6 *459:16 *2432:A 3.6 
7 *459:10 *1929:B 1.6 
8 *1899:A1 *459:61 8.45 
9 *459:61 *2278:A 1.6 
10 *459:61 *2280:A1 12.1 
*END

*D_NET *460 0.00676367
*CONN
*I *2407:A I *D sky130_fd_sc_hd__buf_2
*I *2284:A I *D sky130_fd_sc_hd__buf_2
*I *2283:A I *D sky130_fd_sc_hd__buf_8
*I *2285:X O *D sky130_fd_sc_hd__buf_6
*CAP
1 *2407:A 2.16181e-05
2 *2284:A 0.00108342
3 *2283:A 0.000137997
4 *2285:X 0.000269629
5 *460:33 0.00211203
6 *460:12 0.00141461
7 *2284:A *2205:A 6.4422e-05
8 *2284:A *2207:C 1.71207e-05
9 *2284:A *2208:B1_N 7.89611e-05
10 *2284:A *481:10 0.000130714
11 *2284:A *481:14 0.000183745
12 *2284:A *537:10 6.4422e-05
13 *2407:A *481:10 3.64998e-06
14 *460:12 *2285:A 8.65905e-05
15 *460:12 *517:23 0
16 *460:33 *2119:C_N 2.05056e-05
17 *1912:A *2284:A 0
18 *1914:A1 *2284:A 9.16315e-05
19 *1976:A *460:33 0.000109027
20 *1979:A_N *2284:A 0
21 *2118:A *2283:A 0
22 *2118:B *2283:A 1.37328e-05
23 *2118:B *460:33 0.000160635
24 *2119:A *460:33 8.34281e-06
25 *2119:B *460:33 0.000157555
26 *2135:A1 *460:12 0
27 *2135:A2 *460:12 0
28 *2140:A1 *460:33 0.000341386
29 *2168:B1 *2284:A 0
30 *255:8 *2284:A 0
31 *255:8 *460:33 0
32 *259:8 *2407:A 4.82919e-05
33 *383:16 *2283:A 4.82919e-05
34 *383:16 *460:33 4.36241e-05
35 *385:14 *460:12 0
36 *457:10 *2283:A 5.17188e-05
*RES
1 *2285:X *460:12 9.815 
2 *460:12 *2283:A 4.525 
3 *460:12 *460:33 18.65 
4 *460:33 *2284:A 24.105 
5 *460:33 *2407:A 4.05 
*END

*D_NET *461 0.00608133
*CONN
*I *2009:A I *D sky130_fd_sc_hd__nor2_2
*I *2010:A1 I *D sky130_fd_sc_hd__o21ai_4
*I *2362:A I *D sky130_fd_sc_hd__buf_2
*I *2156:A I *D sky130_fd_sc_hd__xor2_2
*I *2132:A I *D sky130_fd_sc_hd__nor2_2
*I *2133:A I *D sky130_fd_sc_hd__and2_2
*I *2286:X O *D sky130_fd_sc_hd__clkbuf_2
*CAP
1 *2009:A 0
2 *2010:A1 0.000102954
3 *2362:A 0.000452151
4 *2156:A 0
5 *2132:A 0
6 *2133:A 0.000176625
7 *2286:X 0.00037952
8 *461:55 0.000370522
9 *461:36 0.000452151
10 *461:12 0.000926718
11 *461:8 0.000862045
12 *2010:A1 *2009:B 0.000125262
13 *2133:A *2133:B 0.000124895
14 *2133:A *462:8 0.000318104
15 *2133:A *552:14 0
16 *461:8 *2285:A 0
17 *461:8 *520:8 0
18 *461:12 *2156:B 0.00011852
19 *461:12 *2285:A 0
20 *461:12 *2393:A 0
21 *461:12 *2401:A 7.46921e-05
22 *461:12 *520:8 0
23 *461:55 *2285:A 0.000163199
24 S[30] *461:12 0
25 carryOut *461:12 0.000140711
26 *2012:A2 *2010:A1 0.000125262
27 *2137:B *2133:A 4.99619e-05
28 *2157:B *461:12 0
29 *2158:A1 *2133:A 4.65821e-05
30 *2158:C1 *2133:A 6.62296e-05
31 *2159:A2 *461:12 0.000337458
32 *2161:A *461:12 0.000143266
33 *2164:B1 *461:12 0.000140912
34 *416:10 *2133:A 0.000136884
35 *416:10 *461:12 3.21271e-05
36 *422:16 *461:12 0.000187064
37 *423:10 *2133:A 2.75145e-05
*RES
1 *2286:X *461:8 5.49 
2 *461:8 *461:12 16.875 
3 *461:12 *2133:A 9.165 
4 *461:12 *2132:A 3.6 
5 *461:8 *461:36 2 
6 *461:36 *2156:A 1.6 
7 *461:36 *2362:A 8.26 
8 *2286:X *461:55 6.19 
9 *461:55 *2010:A1 4.135 
10 *461:55 *2009:A 1.6 
*END

*D_NET *462 0.00492948
*CONN
*I *2002:A I *D sky130_fd_sc_hd__nor2_2
*I *2001:B I *D sky130_fd_sc_hd__nand2_2
*I *2003:B1_N I *D sky130_fd_sc_hd__o21bai_2
*I *2017:A1 I *D sky130_fd_sc_hd__o21ai_2
*I *2296:X O *D sky130_fd_sc_hd__clkdlybuf4s25_1
*CAP
1 *2002:A 7.34305e-05
2 *2001:B 0.000182461
3 *2003:B1_N 0
4 *2017:A1 7.34305e-05
5 *2296:X 0.00137048
6 *462:19 0.000312324
7 *462:8 0.00150034
8 *462:8 *1998:A 4.47209e-05
9 *462:8 *464:20 0.000119631
10 *462:19 *1998:B 0
11 *2000:B *2001:B 0
12 *2000:B *462:19 0
13 *2002:B *2002:A 3.29384e-05
14 *2017:A2 *2002:A 9.80032e-06
15 *2019:A1 *2001:B 1.01661e-05
16 *2019:A1 *2002:A 3.00381e-05
17 *2019:A2 *2001:B 5.53249e-06
18 *2019:A2 *462:19 0.000103192
19 *2133:A *462:8 0.000318104
20 *2137:A *462:8 2.75229e-05
21 *2137:B *462:8 2.05056e-05
22 *2158:A1 *462:8 0.000124231
23 *2158:C1 *462:8 1.17309e-05
24 *275:8 *462:19 0
25 *277:8 *2001:B 8.65961e-05
26 *277:21 *2001:B 0
27 *400:10 *462:8 0.000122331
28 *404:12 *462:8 0.000349972
*RES
1 *2296:X *462:8 23.455 
2 *462:8 *2017:A1 1.6 
3 *462:8 *462:19 4.595 
4 *462:19 *2003:B1_N 3.6 
5 *462:19 *2001:B 6.795 
6 *2017:A1 *2002:A 4.7 
*END

*D_NET *463 0.00651784
*CONN
*I *2008:A I *D sky130_fd_sc_hd__and2_4
*I *2011:A1 I *D sky130_fd_sc_hd__a21oi_2
*I *2142:A I *D sky130_fd_sc_hd__and2_2
*I *1984:A I *D sky130_fd_sc_hd__nor2_4
*I *2141:A I *D sky130_fd_sc_hd__nor2_2
*I *2362:X O *D sky130_fd_sc_hd__buf_2
*CAP
1 *2008:A 4.21591e-05
2 *2011:A1 8.0838e-05
3 *2142:A 0.000155183
4 *1984:A 0.00126729
5 *2141:A 0
6 *2362:X 0.000225441
7 *463:42 0.000236021
8 *463:16 0.00136979
9 *463:12 0.000199025
10 *463:10 0.000364125
11 *1984:A *1984:B 0.000204766
12 *1984:A *2021:B 0.000120344
13 *1984:A *2029:A2_N 3.50152e-06
14 *1984:A *2392:A 0
15 *1984:A *464:12 7.34286e-05
16 *1984:A *464:14 0.000387345
17 *1984:A *464:20 0.00010506
18 *1984:A *464:24 0
19 *1984:A *539:14 0.000127181
20 *1984:A *601:12 3.26223e-06
21 *2008:A *2008:B 4.89295e-05
22 *2011:A1 *2011:A2 8.64421e-05
23 *463:10 *2021:B 7.34286e-05
24 *463:12 *2021:B 0.00010141
25 *463:16 *2021:B 7.71016e-05
26 *2012:A1 *463:10 0.000121817
27 *2029:A1_N *1984:A 0.000122325
28 *2065:D *1984:A 0
29 *2129:A2 *1984:A 0.000160665
30 *2148:A2 *1984:A 7.70828e-05
31 *2152:A1 *1984:A 0
32 *284:8 *2008:A 7.08554e-05
33 *288:12 *1984:A 0
34 *289:12 *1984:A 0
35 *289:25 *1984:A 0.000188957
36 *393:20 *1984:A 0.000338219
37 *451:16 *1984:A 8.5841e-05
*RES
1 *2362:X *463:10 7.065 
2 *463:10 *463:12 2.145 
3 *463:12 *463:16 3.89 
4 *463:16 *2141:A 1.6 
5 *463:16 *1984:A 33.08 
6 *463:12 *463:42 2 
7 *463:42 *2142:A 3.775 
8 *463:42 *2011:A1 3.085 
9 *463:10 *2008:A 4.74 
*END

*D_NET *464 0.00619055
*CONN
*I *2022:A I *D sky130_fd_sc_hd__nor2_2
*I *2023:A I *D sky130_fd_sc_hd__and2_4
*I *2026:A1 I *D sky130_fd_sc_hd__o21ai_2
*I *2027:A1 I *D sky130_fd_sc_hd__a21oi_2
*I *1999:A I *D sky130_fd_sc_hd__and2_2
*I *1998:A I *D sky130_fd_sc_hd__nor2_2
*I *1985:A I *D sky130_fd_sc_hd__and2_4
*I *1986:A I *D sky130_fd_sc_hd__nand2_2
*I *2287:X O *D sky130_fd_sc_hd__dlygate4sd1_1
*CAP
1 *2022:A 9.06979e-05
2 *2023:A 8.12594e-06
3 *2026:A1 3.21514e-05
4 *2027:A1 3.35335e-05
5 *1999:A 2.90027e-05
6 *1998:A 3.70735e-05
7 *1985:A 0
8 *1986:A 0.000155997
9 *2287:X 5.74818e-05
10 *464:69 4.02774e-05
11 *464:24 0.000423226
12 *464:20 0.000486161
13 *464:14 0.000563759
14 *464:12 0.000609816
15 *464:10 0.000474697
16 *464:8 0.000399492
17 *1986:A *1984:B 0
18 *1986:A *539:14 0
19 *1999:A *540:16 7.35813e-05
20 *2022:A *2022:B 3.50033e-05
21 *2022:A *2381:A 0.000124816
22 *2022:A *543:10 3.67779e-05
23 *2023:A *2026:A2 4.82919e-05
24 *2026:A1 *2026:A2 0.000123225
25 *2027:A1 *2027:A2 4.99619e-05
26 *464:8 *564:43 8.65905e-05
27 *464:10 *2027:A2 1.52184e-05
28 *464:10 *2381:A 3.68769e-05
29 *464:10 *543:10 0.000317508
30 *464:12 *2027:A2 0.000283514
31 *464:20 *1998:B 0
32 *464:24 *539:14 0
33 *1984:A *464:12 7.34286e-05
34 *1984:A *464:14 0.000387345
35 *1984:A *464:20 0.00010506
36 *1984:A *464:24 0
37 *1988:A_N *1986:A 0.000109533
38 *1988:A_N *464:24 5.53249e-06
39 *1988:B *1986:A 2.75145e-05
40 *2000:A *464:14 0
41 *2000:A *464:20 0
42 *2013:A *2027:A1 0.0001249
43 *2027:B1 *464:12 0
44 *2029:B2 *464:12 5.93844e-05
45 *2030:A2 *2027:A1 1.16578e-05
46 *2138:A2 *1986:A 1.61831e-05
47 *2333:A *2022:A 0
48 *2333:A *464:10 0
49 *2334:A *2022:A 4.80285e-05
50 *262:27 *1986:A 4.43871e-06
51 *286:10 *464:10 7.75325e-05
52 *286:12 *464:10 6.57118e-05
53 *286:12 *464:12 6.23375e-05
54 *288:12 *464:12 0
55 *301:8 *2023:A 3.74161e-05
56 *301:8 *2026:A1 8.65905e-05
57 *393:18 *1999:A 5.0751e-05
58 *462:8 *1998:A 4.47209e-05
59 *462:8 *464:20 0.000119631
*RES
1 *2287:X *464:8 4.395 
2 *464:8 *464:10 6.99 
3 *464:10 *464:12 6.225 
4 *464:12 *464:14 8.01 
5 *464:14 *464:20 5.975 
6 *464:20 *464:24 6.185 
7 *464:24 *1986:A 6.795 
8 *464:24 *1985:A 3.6 
9 *464:20 *1998:A 2.395 
10 *464:14 *1999:A 4.74 
11 *464:12 *2027:A1 4.74 
12 *464:10 *464:69 2 
13 *464:69 *2026:A1 2.74 
14 *464:69 *2023:A 2.05 
15 *464:8 *2022:A 6.03 
*END

*D_NET *465 0.00200518
*CONN
*I *2202:A I *D sky130_fd_sc_hd__inv_8
*I *1924:A1 I *D sky130_fd_sc_hd__o21ai_2
*I *1922:A1 I *D sky130_fd_sc_hd__a21boi_2
*I *2363:A I *D sky130_fd_sc_hd__buf_6
*I *1920:A I *D sky130_fd_sc_hd__and2_4
*I *2288:X O *D sky130_fd_sc_hd__buf_6
*CAP
1 *2202:A 0.000124466
2 *1924:A1 0.000187708
3 *1922:A1 0
4 *2363:A 0
5 *1920:A 0.000271677
6 *2288:X 3.44213e-05
7 *465:12 0.000382021
8 *465:10 0.000233999
9 *465:6 0.000221318
10 *1920:A *1920:B 4.99619e-05
11 *1920:A *466:12 0.000141169
12 *1920:A *561:26 0
13 *1920:A *561:35 0
14 *1924:A1 *1924:A2 0.000188069
15 *2202:A *2288:A 0
16 *465:6 *1924:A2 8.65905e-05
17 *465:10 *1924:A2 0
18 *465:10 *561:35 0
19 *465:12 *561:35 0
20 *1921:A1 *1920:A 0
21 *1924:B1 *2202:A 0
22 *1924:B1 *465:10 4.92096e-05
23 *173:10 *1924:A1 3.45679e-05
24 *173:10 *2202:A 0
25 *239:10 *465:10 0
26 *438:10 *2202:A 0
*RES
1 *2288:X *465:6 2.395 
2 *465:6 *465:10 4.145 
3 *465:10 *465:12 1.89 
4 *465:12 *1920:A 8.835 
5 *465:12 *2363:A 3.6 
6 *465:10 *1922:A1 3.6 
7 *465:6 *1924:A1 3.43 
8 *1924:A1 *2202:A 9.09 
*END

*D_NET *466 0.00464406
*CONN
*I *1919:A I *D sky130_fd_sc_hd__nor2_2
*I *1923:A1 I *D sky130_fd_sc_hd__a21bo_2
*I *2251:A I *D sky130_fd_sc_hd__nand2_2
*I *2253:B I *D sky130_fd_sc_hd__nand2b_4
*I *2254:A1 I *D sky130_fd_sc_hd__o21a_4
*I *2276:B I *D sky130_fd_sc_hd__nand2b_4
*I *2363:X O *D sky130_fd_sc_hd__buf_6
*CAP
1 *1919:A 2.08101e-05
2 *1923:A1 0.000115408
3 *2251:A 0.000104031
4 *2253:B 0.00015038
5 *2254:A1 0
6 *2276:B 0.000321228
7 *2363:X 0.000123754
8 *466:33 0.000179199
9 *466:22 0.000445528
10 *466:14 0.000269666
11 *466:12 0.000352374
12 *466:6 0.000311377
13 *1923:A1 *1920:B 1.91597e-05
14 *1923:A1 *1923:A2 5.05437e-05
15 *2253:B *2252:B 4.82863e-05
16 *2253:B *2254:A2 3.74161e-05
17 *2253:B *562:8 9.91257e-05
18 *2276:B *2395:A 2.75145e-05
19 *466:12 *561:8 4.38051e-05
20 *466:12 *561:26 0.0003399
21 *466:14 *561:8 0.000129735
22 *466:22 *561:8 0.000196173
23 *466:33 *2252:B 4.99619e-05
24 *1920:A *466:12 0.000141169
25 *2252:A *2276:B 4.82863e-05
26 *2252:A *466:14 1.52184e-05
27 *2252:A *466:22 0.000112974
28 *2252:A *466:33 4.82919e-05
29 *2256:B *2253:B 0.000146408
30 *2256:B *466:33 8.8266e-05
31 *2256:C *2253:B 6.28765e-05
32 *2318:A *2253:B 0.000183043
33 *2318:A *466:12 0
34 *2318:A *466:14 0
35 *2322:A *2253:B 0
36 *2353:A *2253:B 0.000163204
37 *449:26 *2251:A 0.000114024
38 *449:34 *2251:A 8.49205e-05
*RES
1 *2363:X *466:6 3.43 
2 *466:6 *466:12 6.89 
3 *466:12 *466:14 1.635 
4 *466:14 *466:22 4.955 
5 *466:22 *2276:B 6.55 
6 *466:22 *466:33 1.14 
7 *466:33 *2254:A1 1.6 
8 *466:33 *2253:B 10.715 
9 *466:14 *2251:A 5.79 
10 *466:12 *1923:A1 5.445 
11 *466:6 *1919:A 1.96 
*END

*D_NET *467 0.00320573
*CONN
*I *2218:A I *D sky130_fd_sc_hd__and2_4
*I *2217:A I *D sky130_fd_sc_hd__nor2_2
*I *2219:A I *D sky130_fd_sc_hd__nand2_2
*I *2364:A I *D sky130_fd_sc_hd__buf_6
*I *2289:X O *D sky130_fd_sc_hd__buf_4
*CAP
1 *2218:A 0.000201776
2 *2217:A 0.000145385
3 *2219:A 0
4 *2364:A 2.08101e-05
5 *2289:X 0.000164184
6 *467:29 0.000145385
7 *467:27 0.000668053
8 *467:12 0.000651271
9 *2217:A *2217:B 6.75558e-05
10 *2217:A *2372:A 0.000276441
11 *2218:A *2218:B 4.99619e-05
12 *2218:A *533:12 4.94404e-05
13 *467:12 *469:28 8.5841e-05
14 *467:12 *475:51 6.55406e-05
15 *467:27 *2264:A1 0.000180216
16 *467:27 *2372:A 0
17 *467:27 *469:28 0.000110549
18 *2220:A2 *2218:A 0
19 *2221:B *2217:A 0.000279787
20 *2221:B *2218:A 0
21 *119:14 *2218:A 4.35348e-05
*RES
1 *2289:X *467:12 8.81 
2 *467:12 *2364:A 1.96 
3 *467:12 *467:27 10.055 
4 *467:27 *467:29 2 
5 *467:29 *2219:A 1.6 
6 *467:29 *2217:A 6.325 
7 *467:27 *2218:A 6.885 
*END

*D_NET *468 0.0075723
*CONN
*I *2245:A I *D sky130_fd_sc_hd__and2_4
*I *2244:A I *D sky130_fd_sc_hd__nor2_2
*I *2248:A1 I *D sky130_fd_sc_hd__a21boi_2
*I *2222:A I *D sky130_fd_sc_hd__nor2_2
*I *2267:A I *D sky130_fd_sc_hd__and2_4
*I *2269:A1 I *D sky130_fd_sc_hd__a21oi_2
*I *2249:A1 I *D sky130_fd_sc_hd__o21ai_2
*I *2364:X O *D sky130_fd_sc_hd__buf_6
*CAP
1 *2245:A 0.000143234
2 *2244:A 5.43782e-05
3 *2248:A1 2.1292e-05
4 *2222:A 0.000184366
5 *2267:A 0.000187144
6 *2269:A1 0.000312758
7 *2249:A1 0.000561161
8 *2364:X 0.000103197
9 *468:80 0.000554797
10 *468:67 0.000494366
11 *468:14 0.000998511
12 *468:12 0.000592802
13 *468:8 0.000452739
14 *2222:A *2222:B 5.4155e-06
15 *2222:A *532:6 9.01757e-05
16 *2222:A *532:12 3.72916e-05
17 *2245:A *2245:B 0
18 *2248:A1 *2248:A2 3.26889e-05
19 *2248:A1 *563:8 9.53428e-06
20 *2249:A1 *2399:A 4.19797e-05
21 *2267:A *2267:B 3.00381e-05
22 *468:67 *2248:A2 0
23 *468:67 *2249:A2 9.91257e-05
24 *468:67 *563:8 1.61831e-05
25 *468:80 *528:8 0
26 *468:80 *528:25 0
27 *468:80 *563:8 7.67254e-05
28 *468:80 *563:28 0
29 *1963:A2 *468:12 0
30 *1963:B1 *2269:A1 1.17309e-05
31 *1963:B1 *468:12 0.000118504
32 *1963:B1 *468:14 5.22283e-05
33 *1964:A1 *2249:A1 0
34 *1964:A1 *2267:A 1.11547e-05
35 *1964:A1 *468:14 0
36 *1964:B1 *2267:A 4.82863e-05
37 *1964:B1 *468:12 1.71207e-05
38 *1964:B1 *468:14 8.53113e-06
39 *2183:A *2249:A1 0.000406784
40 *2186:A1 *2249:A1 0.000337274
41 *2186:A2 *2249:A1 0
42 *2247:A2 *2245:A 0
43 *2247:A2 *468:80 0
44 *2261:A *2267:A 7.59904e-05
45 *2273:D1 *468:14 6.47594e-05
46 *2354:A *468:80 0.000115779
47 *142:8 *2244:A 7.35813e-05
48 *147:12 *2249:A1 0.000226633
49 *165:10 *2267:A 8.95932e-05
50 *166:12 *2249:A1 0
51 *166:12 *468:14 0
52 *166:18 *2269:A1 0.000238137
53 *169:12 *468:14 3.76596e-05
54 *244:18 *2267:A 4.82919e-05
55 *244:18 *468:8 0.000195932
56 *244:18 *468:12 0.000294428
*RES
1 *2364:X *468:8 6 
2 *468:8 *468:12 4.38 
3 *468:12 *468:14 4.695 
4 *468:14 *2249:A1 15.315 
5 *468:14 *2269:A1 7.77 
6 *468:12 *2267:A 7.86 
7 *468:8 *2222:A 6.825 
8 *2249:A1 *468:67 3.79 
9 *468:67 *2248:A1 2.215 
10 *468:67 *468:80 7.955 
11 *468:80 *2244:A 4.74 
12 *468:80 *2245:A 5.745 
*END

*D_NET *469 0.0045646
*CONN
*I *2264:A1 I *D sky130_fd_sc_hd__o21a_4
*I *2260:B I *D sky130_fd_sc_hd__nand2b_2
*I *2262:A I *D sky130_fd_sc_hd__nand2_2
*I *2223:A I *D sky130_fd_sc_hd__and2_2
*I *2225:A1 I *D sky130_fd_sc_hd__o21ai_2
*I *2290:X O *D sky130_fd_sc_hd__clkbuf_2
*CAP
1 *2264:A1 0.000402438
2 *2260:B 0
3 *2262:A 0.000354028
4 *2223:A 0
5 *2225:A1 0.000133022
6 *2290:X 0
7 *469:32 0.000441031
8 *469:28 0.000882231
9 *469:8 0.000317777
10 *469:4 0.000577544
11 *2225:A1 *2225:A2 5.50989e-05
12 *2225:A1 *475:61 5.16418e-05
13 *2262:A *530:12 1.43521e-05
14 *2262:A *530:27 0
15 *2264:A1 *2264:B1 0
16 *2264:A1 *530:12 4.82919e-05
17 *2264:A1 *547:10 0
18 *469:32 *530:12 4.61744e-05
19 *1963:A2 *2262:A 0
20 *1971:B1 *2225:A1 0
21 *2237:B1 *2225:A1 0
22 *2261:A *2262:A 0.000141323
23 *2265:B *2262:A 0
24 *2323:A *2264:A1 2.04694e-05
25 *121:19 *2225:A1 0
26 *163:8 *2262:A 7.89767e-05
27 *244:18 *2225:A1 4.66108e-05
28 *244:18 *469:8 0.000339744
29 *244:18 *469:28 0.000237243
30 *467:12 *469:28 8.5841e-05
31 *467:27 *2264:A1 0.000180216
32 *467:27 *469:28 0.000110549
*RES
1 *2290:X *469:4 1.6 
2 *469:4 *469:8 3.57 
3 *469:8 *2225:A1 8.45 
4 *469:8 *2223:A 1.6 
5 *469:4 *469:28 7.005 
6 *469:28 *469:32 3.635 
7 *469:32 *2262:A 10.215 
8 *469:32 *2260:B 3.6 
9 *469:28 *2264:A1 12.425 
*END

*D_NET *470 0.00153815
*CONN
*I *2082:A I *D sky130_fd_sc_hd__nor2_2
*I *2083:A I *D sky130_fd_sc_hd__and2_4
*I *2365:A I *D sky130_fd_sc_hd__buf_8
*I *2085:A1 I *D sky130_fd_sc_hd__o21ai_2
*I *2291:X O *D sky130_fd_sc_hd__buf_6
*CAP
1 *2082:A 0
2 *2083:A 8.68428e-05
3 *2365:A 0
4 *2085:A1 8.71363e-05
5 *2291:X 0.000119683
6 *470:29 0.000252313
7 *470:18 0.000198018
8 *2083:A *2083:B 0.000187071
9 *2083:A *471:8 0
10 *2085:A1 *2085:A2 7.5277e-05
11 *2085:A1 *475:25 0.000160635
12 *470:18 *2085:A2 5.30673e-05
13 *470:29 *2083:B 2.14129e-05
14 *470:29 *2085:A2 6.6564e-05
15 *470:29 *471:8 0
16 *470:29 *548:10 5.23362e-05
17 *470:29 *548:12 9.37731e-05
18 *356:14 *2085:A1 8.40213e-05
*RES
1 *2291:X *2085:A1 5.72 
2 *2291:X *470:18 2.395 
3 *470:18 *2365:A 1.6 
4 *470:18 *470:29 5.375 
5 *470:29 *2083:A 5.745 
6 *470:29 *2082:A 3.6 
*END

*D_NET *471 0.00821565
*CONN
*I *2103:A I *D sky130_fd_sc_hd__nor2_2
*I *2210:A I *D sky130_fd_sc_hd__nor2_2
*I *2216:A1 I *D sky130_fd_sc_hd__o21ai_2
*I *2213:A I *D sky130_fd_sc_hd__and2_4
*I *2214:A I *D sky130_fd_sc_hd__nor2_2
*I *2104:A I *D sky130_fd_sc_hd__and2_4
*I *2211:A I *D sky130_fd_sc_hd__and2_4
*I *2365:X O *D sky130_fd_sc_hd__buf_8
*CAP
1 *2103:A 6.34637e-05
2 *2210:A 0
3 *2216:A1 9.10008e-05
4 *2213:A 0
5 *2214:A 0.000151804
6 *2104:A 7.55433e-05
7 *2211:A 0.000136926
8 *2365:X 0.000811084
9 *471:58 0.000431438
10 *471:52 0.000702166
11 *471:46 0.000675681
12 *471:40 0.000886869
13 *471:10 0.000339845
14 *471:8 0.00141771
15 *2103:A *2104:B 6.10941e-05
16 *2103:A *550:10 5.53249e-06
17 *2104:A *2104:B 3.70488e-05
18 *2211:A *511:8 8.07661e-05
19 *2214:A *2214:B 8.18011e-05
20 *2214:A *2376:A 4.82863e-05
21 *2214:A *534:12 2.97004e-06
22 *2216:A1 *534:6 4.99619e-05
23 *471:8 *2083:B 0
24 *471:8 *2086:A1 0
25 *471:8 *2096:B 0.000150623
26 *471:8 *2106:C_N 8.6099e-05
27 *471:8 *2387:A 0
28 *471:8 *494:23 8.05681e-05
29 *471:8 *511:8 7.63204e-05
30 *471:8 *549:8 0.000142719
31 *471:10 *511:8 0.000155069
32 *471:40 *2388:A 4.65698e-05
33 *471:46 *2104:B 0.000126414
34 *471:46 *2210:B 0.000231564
35 *471:46 *535:10 8.29003e-05
36 *471:46 *569:10 0
37 *471:52 *2210:B 9.50342e-06
38 *471:52 *2375:A 0
39 *471:52 *534:12 0
40 *471:58 *534:12 0
41 *471:58 *558:14 2.75229e-05
42 S[14] *471:58 6.69341e-05
43 S[15] *471:52 0.000175577
44 S[16] *2214:A 0
45 S[18] *471:52 4.24632e-05
46 S[18] *471:58 0.00011852
47 *2083:A *471:8 0
48 *2099:B *471:8 0.000187766
49 *2101:C *471:8 7.24866e-05
50 *2106:A *471:8 0
51 *2106:B *471:8 0
52 *2122:A1 *471:8 8.59365e-05
53 *2122:A1 *471:10 5.56629e-05
54 *2122:A2 *471:8 0
55 *2212:B *471:52 0
56 *2306:A *2211:A 0
57 *2306:A *471:46 0
58 *2325:A *471:52 1.86206e-05
59 *2340:A *471:8 0
60 *2349:A *471:58 0
61 *2356:A *471:52 2.48159e-05
62 *373:8 *471:8 0
63 *373:8 *471:10 0
64 *379:10 *471:8 0
65 *470:29 *471:8 0
*RES
1 *2365:X *471:8 21.045 
2 *471:8 *471:10 3.165 
3 *471:10 *2211:A 5.79 
4 *471:10 *2104:A 4.755 
5 *471:8 *471:40 9.28 
6 *471:40 *471:46 7.545 
7 *471:46 *471:52 6.78 
8 *471:52 *471:58 7.415 
9 *471:58 *2214:A 8.45 
10 *471:58 *2213:A 1.6 
11 *471:52 *2216:A1 5.085 
12 *471:46 *2210:A 3.6 
13 *471:40 *2103:A 4.98 
*END

*D_NET *472 0.00233153
*CONN
*I *2366:A I *D sky130_fd_sc_hd__buf_8
*I *2425:A I *D sky130_fd_sc_hd__buf_2
*I *2292:X O *D sky130_fd_sc_hd__buf_8
*CAP
1 *2366:A 0
2 *2425:A 0.0004179
3 *2292:X 0.000182364
4 *472:10 0.000600264
5 *2425:A *2038:B 9.05377e-05
6 *2425:A *2071:B 0
7 *2425:A *2072:A 0
8 *2425:A *474:8 0
9 *2425:A *544:10 4.43871e-06
10 *2425:A *544:21 0.000112097
11 *472:10 *2384:A 0.000498567
12 S[24] *2425:A 0
13 *2302:A *2425:A 0
14 *2336:A *472:10 0.000416053
15 *312:10 *2425:A 9.3062e-06
*RES
1 *2292:X *472:10 8.035 
2 *472:10 *2425:A 12.875 
3 *472:10 *2366:A 1.6 
*END

*D_NET *473 0.00253667
*CONN
*I *1935:A_N I *D sky130_fd_sc_hd__nand3b_4
*I *1933:B I *D sky130_fd_sc_hd__nand2_4
*I *2297:X O *D sky130_fd_sc_hd__clkdlybuf4s25_1
*CAP
1 *1935:A_N 0.00030481
2 *1933:B 0
3 *2297:X 0.000402839
4 *473:10 0.000707649
5 *473:10 *1907:A2 0
6 *473:10 *1907:B1 0
7 *473:10 *1931:A 0
8 *473:10 *523:31 0.000412022
9 *1910:C1 *473:10 0.000268973
10 *2332:A *473:10 1.61831e-05
11 *187:8 *473:10 8.53177e-05
12 *213:8 *1935:A_N 0.000133763
13 *213:8 *473:10 9.50342e-06
14 *449:71 *1935:A_N 7.89689e-05
15 *449:71 *473:10 0.000116636
*RES
1 *2297:X *473:10 12.84 
2 *473:10 *1933:B 3.6 
3 *473:10 *1935:A_N 8.805 
*END

*D_NET *474 0.0044684
*CONN
*I *2038:A I *D sky130_fd_sc_hd__nor2_4
*I *2039:A I *D sky130_fd_sc_hd__and2_4
*I *2040:A I *D sky130_fd_sc_hd__nand2_2
*I *2424:A I *D sky130_fd_sc_hd__buf_2
*I *2049:A I *D sky130_fd_sc_hd__and2_4
*I *2052:A1 I *D sky130_fd_sc_hd__o21ai_2
*I *2053:A1 I *D sky130_fd_sc_hd__a21o_2
*I *2366:X O *D sky130_fd_sc_hd__buf_8
*CAP
1 *2038:A 0
2 *2039:A 2.65722e-05
3 *2040:A 0
4 *2424:A 0
5 *2049:A 0
6 *2052:A1 0
7 *2053:A1 0.000268242
8 *2366:X 0.000106854
9 *474:40 0.000687781
10 *474:30 0.000557378
11 *474:24 0.000224997
12 *474:20 0.000175706
13 *474:14 0.000242712
14 *474:8 0.000234445
15 *2039:A *2039:B 4.82919e-05
16 *2053:A1 *2050:B1_N 5.42303e-05
17 *2053:A1 *2053:A2 4.99619e-05
18 *2053:A1 *2066:A1 0
19 *2053:A1 *506:22 5.16418e-05
20 *474:8 *2292:A 0
21 *474:8 *545:10 0.000129735
22 *474:14 *544:21 0
23 *474:14 *545:10 0.000187071
24 *474:20 *544:10 9.50342e-06
25 *474:20 *544:21 0.000154481
26 *474:20 *545:10 0
27 *474:24 *544:10 0.00011852
28 *474:24 *545:10 0
29 *474:30 *2048:A 7.81954e-05
30 *474:30 *544:10 9.4087e-05
31 *474:30 *545:10 0.000200648
32 *474:40 *2048:A 2.7881e-05
33 *474:40 *504:10 0.000113782
34 *474:40 *506:14 0
35 *474:40 *506:22 9.50342e-06
36 *474:40 *545:10 9.50342e-06
37 *474:40 *545:12 5.16418e-05
38 *2042:A2 *474:14 5.05437e-05
39 *2043:A1 *474:20 3.86529e-05
40 *2050:A2 *2053:A1 0
41 *2053:B1 *2053:A1 0
42 *2067:B1 *2053:A1 3.86607e-05
43 *2425:A *474:8 0
44 *2427:A *474:40 0.000186388
45 *312:10 *474:8 0
46 *312:10 *474:14 0
47 *312:19 *2039:A 7.00889e-06
48 *312:19 *474:14 9.66106e-05
49 *313:6 *2039:A 4.08514e-05
50 *313:6 *474:14 4.80285e-05
51 *322:6 *474:40 4.82863e-05
52 *322:10 *474:40 0
53 *325:8 *2053:A1 0
*RES
1 *2366:X *474:8 5.745 
2 *474:8 *474:14 5.63 
3 *474:14 *474:20 4.25 
4 *474:20 *474:24 3.89 
5 *474:24 *474:30 5.885 
6 *474:30 *474:40 10.24 
7 *474:40 *2053:A1 8.07 
8 *474:40 *2052:A1 3.6 
9 *474:30 *2049:A 3.6 
10 *474:24 *2424:A 1.6 
11 *474:20 *2040:A 3.6 
12 *474:14 *2039:A 2.395 
13 *474:8 *2038:A 3.6 
*END

*D_NET *475 0.0148702
*CONN
*I *2291:A I *D sky130_fd_sc_hd__buf_6
*I *2419:A I *D sky130_fd_sc_hd__buf_2
*I *2289:A I *D sky130_fd_sc_hd__buf_4
*I *2290:A I *D sky130_fd_sc_hd__clkbuf_2
*I *2418:A I *D sky130_fd_sc_hd__buf_2
*I *2288:A I *D sky130_fd_sc_hd__buf_6
*I *2292:A I *D sky130_fd_sc_hd__buf_8
*I *2293:X O *D sky130_fd_sc_hd__buf_8
*CAP
1 *2291:A 0
2 *2419:A 3.37454e-05
3 *2289:A 2.43002e-05
4 *2290:A 0
5 *2418:A 0
6 *2288:A 0.000415282
7 *2292:A 9.64959e-05
8 *2293:X 5.47511e-05
9 *475:61 0.00105696
10 *475:51 0.0008553
11 *475:45 0.00230732
12 *475:31 0.00241702
13 *475:25 0.00140284
14 *475:8 0.00124021
15 *2289:A *536:12 2.75145e-05
16 *2292:A *545:10 0
17 *475:25 *2038:B 4.66742e-05
18 *475:25 *2072:B 4.60584e-05
19 *475:25 *2085:A2 2.36716e-05
20 *475:25 *507:12 6.19997e-05
21 *475:25 *508:10 2.15594e-05
22 *475:31 *2084:B1_N 9.90961e-05
23 *475:31 *2386:A 0
24 *475:45 *2228:A2 1.26548e-05
25 *475:45 *2232:A1 4.59674e-05
26 *475:45 *2387:A 0
27 *475:61 *2225:A2 1.07797e-05
28 *475:61 *2267:B 8.65961e-05
29 *475:61 *2268:A1 2.75229e-05
30 *475:61 *532:12 8.70923e-05
31 S[24] *475:25 0.000541118
32 *1924:B1 *2288:A 5.53249e-06
33 *2074:B *475:25 4.82863e-05
34 *2085:A1 *475:25 0.000160635
35 *2087:A1 *475:31 7.45794e-05
36 *2100:A1 *475:45 0.000210846
37 *2101:B *475:45 0
38 *2102:B *475:45 0
39 *2112:A1 *475:45 0.000119285
40 *2113:B *475:45 0
41 *2114:A2 *475:45 0
42 *2121:B *475:45 0
43 *2192:A *475:45 7.08403e-05
44 *2192:A *475:51 2.97004e-06
45 *2196:B1 *475:45 0.000134092
46 *2200:A *475:45 0
47 *2202:A *2288:A 0
48 *2224:A *475:45 0
49 *2225:A1 *475:61 5.16418e-05
50 *2226:A1 *475:45 0
51 *2228:B1 *475:45 0
52 *2234:A1 *475:45 8.63479e-05
53 *2241:C *475:45 9.14049e-05
54 *2242:C *475:45 0
55 *2242:D *475:45 0.000205224
56 *2243:A4 *475:45 1.19928e-05
57 *2261:A *475:61 0.000134314
58 *2335:A *2292:A 6.35535e-05
59 *110:20 *475:45 0.000182467
60 *113:22 *475:45 1.79483e-05
61 *120:8 *475:51 0
62 *121:10 *475:51 8.8266e-05
63 *121:10 *475:61 0.00012657
64 *127:12 *475:45 5.23362e-05
65 *129:29 *475:45 0
66 *135:14 *475:45 0.000205376
67 *135:23 *475:45 0.000260184
68 *139:10 *475:45 0.000120186
69 *173:10 *2288:A 5.20968e-05
70 *239:10 *2288:A 0
71 *244:18 *475:51 0.000177849
72 *244:18 *475:61 0.000182606
73 *356:14 *475:31 0.000160658
74 *363:12 *475:31 4.49328e-05
75 *363:12 *475:45 8.77073e-05
76 *363:18 *475:45 9.24049e-05
77 *369:43 *475:45 0
78 *438:10 *2288:A 0.000183111
79 *446:12 *475:45 0
80 *449:10 *2288:A 0.000132649
81 *449:10 *475:61 0.000123225
82 *467:12 *475:51 6.55406e-05
83 *474:8 *2292:A 0
*RES
1 *2293:X *475:8 2.41 
2 *475:8 *2292:A 7.49 
3 *475:8 *475:25 19.625 
4 *475:25 *475:31 6.525 
5 *475:31 *475:45 45.61 
6 *475:45 *475:51 6.5 
7 *475:51 *475:61 17.155 
8 *475:61 *2288:A 13.325 
9 *475:61 *2418:A 1.6 
10 *475:51 *2290:A 1.6 
11 *475:45 *2289:A 4.05 
12 *475:31 *2419:A 4.05 
13 *475:25 *2291:A 3.6 
*END

*D_NET *476 0.000359571
*CONN
*I *2080:A1 I *D sky130_fd_sc_hd__o211ai_2
*I *2402:X O *D sky130_fd_sc_hd__buf_2
*CAP
1 *2080:A1 0.000144929
2 *2402:X 0.000144929
3 *2080:A1 *2080:A2 6.97118e-05
4 *2080:B1 *2080:A1 0
5 *2402:A *2080:A1 0
*RES
1 *2402:X *2080:A1 5.045 
*END

*D_NET *477 0.00096251
*CONN
*I *2124:B2 I *D sky130_fd_sc_hd__o221ai_4
*I *2403:X O *D sky130_fd_sc_hd__buf_4
*CAP
1 *2124:B2 0.000227939
2 *2403:X 0.000227939
3 *1974:B1 *2124:B2 9.16237e-05
4 *2070:B1 *2124:B2 0.000198279
5 *2070:C1 *2124:B2 0
6 *2124:C1 *2124:B2 0
7 *2403:A *2124:B2 5.50989e-05
8 *141:14 *2124:B2 0
9 *252:10 *2124:B2 3.09164e-05
10 *252:23 *2124:B2 0.000130714
*RES
1 *2403:X *2124:B2 12.915 
*END

*D_NET *478 0.00323295
*CONN
*I *2172:A I *D sky130_fd_sc_hd__nand3_2
*I *2171:A1 I *D sky130_fd_sc_hd__a21oi_2
*I *1948:B1 I *D sky130_fd_sc_hd__o21a_2
*I *2404:X O *D sky130_fd_sc_hd__buf_2
*CAP
1 *2172:A 6.30856e-05
2 *2171:A1 0
3 *1948:B1 0.000211754
4 *2404:X 0
5 *478:25 0.000444473
6 *478:6 0.000593141
7 *1948:B1 *518:10 0.000232282
8 *1948:B1 *529:10 5.05521e-05
9 *478:25 *1946:B1_N 0.000199179
10 *478:25 *2394:A 0
11 *478:25 *518:10 0.000162728
12 S[2] *478:25 0
13 *2170:A *1948:B1 3.23663e-05
14 *2171:A2 *2172:A 8.96017e-05
15 *2171:B1 *2172:A 4.99619e-05
16 *2173:A_N *2172:A 5.30673e-05
17 *2309:A *1948:B1 0.000143266
18 *2309:A *478:25 0.000195659
19 *2312:A *478:25 0.000711829
*RES
1 *2404:X *478:6 3.6 
2 *478:6 *1948:B1 8.79 
3 *478:6 *478:25 13.37 
4 *478:25 *2171:A1 1.6 
5 *478:25 *2172:A 3.43 
*END

*D_NET *479 0.000747386
*CONN
*I *2126:A2 I *D sky130_fd_sc_hd__o21ai_2
*I *2405:X O *D sky130_fd_sc_hd__buf_2
*CAP
1 *2126:A2 0.000280164
2 *2405:X 0.000280164
3 *2126:A2 *2080:A2 4.19967e-05
4 *2126:A1 *2126:A2 5.84704e-05
5 *2126:B1 *2126:A2 0
6 *2128:B1 *2126:A2 0
7 *2402:A *2126:A2 8.65905e-05
8 *2405:A *2126:A2 0
9 *2412:A *2126:A2 0
10 *393:18 *2126:A2 0
*RES
1 *2405:X *2126:A2 11.67 
*END

*D_NET *480 0.00521029
*CONN
*I *2066:A1 I *D sky130_fd_sc_hd__a31oi_2
*I *2059:B1 I *D sky130_fd_sc_hd__o21ai_2
*I *2056:B I *D sky130_fd_sc_hd__and3_2
*I *2044:A I *D sky130_fd_sc_hd__nand2_2
*I *2060:B1 I *D sky130_fd_sc_hd__o31a_2
*I *2406:X O *D sky130_fd_sc_hd__buf_2
*CAP
1 *2066:A1 0.000267878
2 *2059:B1 0
3 *2056:B 0.00023467
4 *2044:A 6.96382e-05
5 *2060:B1 0.000159481
6 *2406:X 0
7 *480:42 0.00025548
8 *480:18 0.000677104
9 *480:6 0.000775333
10 *480:4 0.000574416
11 *2044:A *2058:B1 8.53113e-06
12 *2056:B *2056:C 0.000505893
13 *2066:A1 *2054:A1 0
14 *2066:A1 *2064:A1 0.000162325
15 *2066:A1 *506:14 0.000471287
16 *2045:C1 *2044:A 0
17 *2045:C1 *2060:B1 0.000115464
18 *2053:A1 *2066:A1 0
19 *2053:B1 *2066:A1 1.22676e-05
20 *2057:A *2044:A 4.99619e-05
21 *2057:B *2044:A 0
22 *2057:B *480:18 6.03272e-05
23 *2059:A1 *2056:B 5.71242e-05
24 *2059:A2 *480:18 5.83121e-06
25 *2059:A2 *480:42 0
26 *2060:A1 *2060:B1 4.18603e-06
27 *2061:B1 *2056:B 0.00011852
28 *2062:A1 *2056:B 3.09164e-05
29 *2062:A1 *480:6 6.97118e-05
30 *2062:A1 *480:18 2.75229e-05
31 *2062:A2 *480:18 3.23284e-05
32 *2063:B *480:6 1.74678e-05
33 *2064:B1 *2066:A1 0.000172964
34 *2064:D1 *2044:A 0
35 *2066:A3 *2066:A1 4.40812e-05
36 *315:18 *480:6 3.1835e-05
37 *317:12 *480:6 8.22234e-06
38 *325:8 *2066:A1 3.39069e-05
39 *329:10 *2056:B 0.00015562
*RES
1 *2406:X *480:4 1.6 
2 *480:4 *480:6 3.555 
3 *480:6 *480:18 7.085 
4 *480:18 *2060:B1 6.12 
5 *480:18 *2044:A 4.665 
6 *480:6 *480:42 0.36 
7 *480:42 *2056:B 12.575 
8 *480:42 *2059:B1 1.6 
9 *480:4 *2066:A1 13.55 
*END

*D_NET *481 0.00173434
*CONN
*I *2205:B I *D sky130_fd_sc_hd__and2_4
*I *2204:B I *D sky130_fd_sc_hd__nor2_8
*I *2206:B I *D sky130_fd_sc_hd__nand2_2
*I *2407:X O *D sky130_fd_sc_hd__buf_2
*CAP
1 *2205:B 3.07736e-05
2 *2204:B 0.000109546
3 *2206:B 3.17052e-05
4 *2407:X 0.000128599
5 *481:14 0.00018937
6 *481:10 0.000207491
7 *2204:B *2204:A 2.49909e-05
8 *2206:B *2204:A 3.44118e-05
9 *481:10 *2207:C 3.09233e-05
10 *481:14 *2207:C 0.000183745
11 *2207:A_N *2204:B 5.34747e-05
12 *2207:B *2204:B 0.000302194
13 *2207:B *2206:B 4.82919e-05
14 *2284:A *481:10 0.000130714
15 *2284:A *481:14 0.000183745
16 *2407:A *481:10 3.64998e-06
17 *258:16 *2205:B 1.56428e-05
18 *259:8 *481:10 2.50702e-05
*RES
1 *2407:X *481:10 6.03 
2 *481:10 *481:14 4.145 
3 *481:14 *2206:B 2.41 
4 *481:14 *2204:B 4.825 
5 *481:10 *2205:B 4.05 
*END

*D_NET *482 0.00178007
*CONN
*I *2061:A1 I *D sky130_fd_sc_hd__a211oi_4
*I *2408:X O *D sky130_fd_sc_hd__buf_2
*CAP
1 *2061:A1 0.000560563
2 *2408:X 0.000560563
3 *2061:A1 *2383:A 0
4 *2047:A *2061:A1 0
5 *2056:A *2061:A1 0.00036523
6 *329:10 *2061:A1 0.000293712
*RES
1 *2408:X *2061:A1 16.245 
*END

*D_NET *483 0.000951728
*CONN
*I *2055:B1 I *D sky130_fd_sc_hd__o21ai_2
*I *2054:B1 I *D sky130_fd_sc_hd__o21a_2
*I *2409:X O *D sky130_fd_sc_hd__buf_2
*CAP
1 *2055:B1 7.00806e-05
2 *2054:B1 8.71532e-05
3 *2409:X 0
4 *483:4 0.000157234
5 *2054:B1 *2054:A1 0
6 *2054:B1 *2379:A 0.000293025
7 *2061:C1 *2054:B1 0.00024756
8 *324:14 *2055:B1 8.40213e-05
9 *325:27 *2054:B1 1.26548e-05
*RES
1 *2409:X *483:4 1.6 
2 *483:4 *2054:B1 9.02 
3 *483:4 *2055:B1 2.755 
*END

*D_NET *484 0.00110147
*CONN
*I *2010:B1 I *D sky130_fd_sc_hd__o21ai_4
*I *2012:B1_N I *D sky130_fd_sc_hd__o21ba_2
*I *2298:X O *D sky130_fd_sc_hd__clkdlybuf4s25_1
*CAP
1 *2010:B1 2.15064e-05
2 *2012:B1_N 0.000147577
3 *2298:X 0.00019678
4 *484:8 0.000365863
5 *2010:B1 *542:10 4.77757e-05
6 *2012:B1_N *2021:B 2.42236e-05
7 *484:8 *2021:B 8.34426e-05
8 *2012:A1 *2012:B1_N 7.27003e-05
9 *2012:A2 *2012:B1_N 0.000141599
*RES
1 *2298:X *484:8 7.02 
2 *484:8 *2012:B1_N 6.885 
3 *484:8 *2010:B1 4.05 
*END

*D_NET *485 0.00115735
*CONN
*I *1973:D I *D sky130_fd_sc_hd__nand4_2
*I *2410:X O *D sky130_fd_sc_hd__buf_2
*CAP
1 *1973:D 0.000460067
2 *2410:X 0.000460067
3 *1971:A3 *1973:D 3.31103e-05
4 *1971:B1 *1973:D 3.72916e-05
5 *1973:A *1973:D 4.82919e-05
6 *240:10 *1973:D 0.00011852
*RES
1 *2410:X *1973:D 13.17 
*END

*D_NET *486 0.000507059
*CONN
*I *2070:B2 I *D sky130_fd_sc_hd__o221ai_4
*I *2411:X O *D sky130_fd_sc_hd__buf_4
*CAP
1 *2070:B2 0.000126198
2 *2411:X 0.000126198
3 *2070:B2 *2124:A2 0.000183036
4 *2070:A2 *2070:B2 7.16263e-05
*RES
1 *2411:X *2070:B2 10.14 
*END

*D_NET *487 0.00156135
*CONN
*I *2080:A2 I *D sky130_fd_sc_hd__o211ai_2
*I *2412:X O *D sky130_fd_sc_hd__buf_2
*CAP
1 *2080:A2 0.000357747
2 *2412:X 0.000357747
3 *2020:B1 *2080:A2 0
4 *2080:A1 *2080:A2 6.97118e-05
5 *2125:B1 *2080:A2 3.45679e-05
6 *2126:A1 *2080:A2 1.72684e-05
7 *2126:A2 *2080:A2 4.19967e-05
8 *2367:A *2080:A2 0.000238919
9 *2405:A *2080:A2 0
10 *339:8 *2080:A2 9.21168e-05
11 *389:10 *2080:A2 0.000351274
*RES
1 *2412:X *2080:A2 15.885 
*END

*D_NET *488 0.000209175
*CONN
*I *2070:A1 I *D sky130_fd_sc_hd__o221ai_4
*I *2413:X O *D sky130_fd_sc_hd__buf_4
*CAP
1 *2070:A1 4.43238e-05
2 *2413:X 4.43238e-05
3 *2413:A *2070:A1 4.82919e-05
4 *342:10 *2070:A1 7.22354e-05
*RES
1 *2413:X *2070:A1 4.34 
*END

*D_NET *489 0.00100816
*CONN
*I *2124:A2 I *D sky130_fd_sc_hd__o221ai_4
*I *2414:X O *D sky130_fd_sc_hd__buf_4
*CAP
1 *2124:A2 0.000320599
2 *2414:X 0.000320599
3 *1974:A2 *2124:A2 4.70256e-05
4 *2070:A2 *2124:A2 0
5 *2070:B2 *2124:A2 0.000183036
6 *2403:A *2124:A2 0.0001369
7 *133:52 *2124:A2 0
8 *252:23 *2124:A2 0
*RES
1 *2414:X *2124:A2 14.055 
*END

*D_NET *490 0.000382813
*CONN
*I *2079:A1 I *D sky130_fd_sc_hd__a21o_2
*I *2078:A2 I *D sky130_fd_sc_hd__a21oi_2
*I *2415:X O *D sky130_fd_sc_hd__buf_2
*CAP
1 *2079:A1 4.39095e-05
2 *2078:A2 3.43021e-05
3 *2415:X 6.35353e-05
4 *490:8 0.000141747
5 *2080:B1 *2078:A2 0
6 *2081:B *2078:A2 3.05295e-05
7 *2081:B *2079:A1 3.4222e-05
8 *2089:A2 *2079:A1 0
9 *2415:A *490:8 3.45679e-05
10 *349:12 *2078:A2 0
*RES
1 *2415:X *490:8 4.395 
2 *490:8 *2078:A2 4.215 
3 *490:8 *2079:A1 4.47 
*END

*D_NET *491 0.00171047
*CONN
*I *2092:A1 I *D sky130_fd_sc_hd__a21boi_2
*I *2109:A2 I *D sky130_fd_sc_hd__a21oi_4
*I *2080:C1 I *D sky130_fd_sc_hd__o211ai_2
*I *2416:X O *D sky130_fd_sc_hd__buf_2
*CAP
1 *2092:A1 0.000329253
2 *2109:A2 8.4395e-05
3 *2080:C1 0.000111735
4 *2416:X 0
5 *491:15 0.000451199
6 *491:4 0.000149286
7 *2080:B1 *2109:A2 9.61414e-05
8 *2108:B *2092:A1 0
9 *2109:B1 *2092:A1 7.25036e-05
10 *2121:A *2092:A1 0
11 *342:10 *2109:A2 4.18603e-06
12 *342:25 *2092:A1 5.72004e-05
13 *342:25 *2109:A2 9.07342e-05
14 *358:22 *2092:A1 0
15 *389:10 *2080:C1 6.97118e-05
16 *389:10 *2092:A1 0.000132977
17 *389:10 *491:15 1.91597e-05
18 *452:22 *2109:A2 4.19884e-05
*RES
1 *2416:X *491:4 1.6 
2 *491:4 *2080:C1 3.1 
3 *491:4 *491:15 0.45 
4 *491:15 *2109:A2 8.255 
5 *491:15 *2092:A1 11.195 
*END

*D_NET *492 0.00121758
*CONN
*I *2054:A1 I *D sky130_fd_sc_hd__o21a_2
*I *2055:A1 I *D sky130_fd_sc_hd__o21ai_2
*I *2417:X O *D sky130_fd_sc_hd__buf_2
*CAP
1 *2054:A1 0.000167038
2 *2055:A1 0.000255881
3 *2417:X 8.88432e-05
4 *2054:A1 *2064:A1 1.65105e-05
5 *2054:A1 *2379:A 0
6 *2055:A1 *2064:A1 8.40269e-05
7 *2055:A1 *2417:A 4.05358e-05
8 *2055:A1 *506:14 0.000118527
9 *2053:B1 *2054:A1 0
10 *2054:B1 *2054:A1 0
11 *2055:A2 *2054:A1 3.84409e-05
12 *2064:B1 *2054:A1 6.55328e-05
13 *2066:A1 *2054:A1 0
14 *2066:A3 *2054:A1 0.000116158
15 *324:14 *2054:A1 0.000137571
16 *325:23 *2054:A1 2.75145e-05
17 *325:27 *2054:A1 6.10014e-05
*RES
1 *2417:X *2055:A1 9.375 
2 *2055:A1 *2054:A1 11.835 
*END

*D_NET *493 0.00122757
*CONN
*I *2268:A1 I *D sky130_fd_sc_hd__o21ai_2
*I *2418:X O *D sky130_fd_sc_hd__buf_2
*CAP
1 *2268:A1 0.000170847
2 *2418:X 0.000170847
3 *2268:A1 *531:10 3.25831e-05
4 *2268:A1 *531:21 0.000175214
5 *438:10 *2268:A1 0.000493686
6 *449:12 *2268:A1 5.65627e-05
7 *449:16 *2268:A1 0.000100308
8 *475:61 *2268:A1 2.75229e-05
*RES
1 *2418:X *2268:A1 13.365 
*END

*D_NET *494 0.00345354
*CONN
*I *2096:A I *D sky130_fd_sc_hd__and2_2
*I *2095:A I *D sky130_fd_sc_hd__nor2_2
*I *2086:A1 I *D sky130_fd_sc_hd__a21o_2
*I *2419:X O *D sky130_fd_sc_hd__buf_2
*CAP
1 *2096:A 2.19121e-05
2 *2095:A 0.000362636
3 *2086:A1 0.000182057
4 *2419:X 0.000249759
5 *494:23 0.000780568
6 *494:6 0.000827836
7 *2086:A1 *2083:B 0.000210151
8 *2095:A *2095:B 1.10767e-05
9 *2095:A *2096:B 0.000120186
10 *2095:A *509:14 7.23602e-05
11 *2096:A *509:14 5.83121e-06
12 *494:6 *2387:A 5.05521e-05
13 *494:23 *2096:B 4.21314e-05
14 *494:23 *2387:A 0.000223907
15 *2084:A1 *2086:A1 0
16 *2087:A1 *2086:A1 0
17 *2097:A *2095:A 5.0751e-05
18 *2098:A1 *2095:A 9.53428e-06
19 *2099:A *2095:A 2.4997e-05
20 *2099:A *2096:A 4.82919e-05
21 *2099:A *494:23 1.52184e-05
22 *2110:B1_N *2095:A 3.03684e-05
23 *365:6 *2095:A 2.11084e-05
24 *368:12 *2095:A 1.17409e-05
25 *471:8 *2086:A1 0
26 *471:8 *494:23 8.05681e-05
*RES
1 *2419:X *494:6 4.465 
2 *494:6 *2086:A1 9.275 
3 *494:6 *494:23 8.465 
4 *494:23 *2095:A 9.15 
5 *494:23 *2096:A 4.05 
*END

*D_NET *495 0.00268292
*CONN
*I *2024:B1_N I *D sky130_fd_sc_hd__o21ba_2
*I *2025:B1_N I *D sky130_fd_sc_hd__o21bai_4
*I *2026:B1 I *D sky130_fd_sc_hd__o21ai_2
*I *2299:X O *D sky130_fd_sc_hd__clkdlybuf4s25_1
*CAP
1 *2024:B1_N 0
2 *2025:B1_N 0.000208939
3 *2026:B1 0.000363265
4 *2299:X 0.000198589
5 *495:12 0.000634419
6 *495:10 0.000260804
7 *2026:B1 *2026:A2 0.000122331
8 *2026:B1 *2382:A 0.00011843
9 *495:10 *2381:A 9.27495e-05
10 *495:10 *2382:A 5.53249e-06
11 *495:12 *2382:A 7.63282e-05
12 S[21] *495:10 5.2089e-05
13 *2024:A2 *495:12 0
14 *2025:A1 *495:10 0
15 *2031:A1 *2026:B1 4.92014e-05
16 *2033:B1 *2026:B1 0.000180675
17 *2423:A *2025:B1_N 0
18 *297:8 *495:10 0
19 *299:10 *2026:B1 1.94723e-05
20 *299:10 *495:12 3.26735e-05
21 *300:30 *2025:B1_N 1.4389e-05
22 *301:8 *2026:B1 0.000115455
23 *301:40 *2026:B1 0.000137578
*RES
1 *2299:X *495:10 6.72 
2 *495:10 *495:12 1.635 
3 *495:12 *2026:B1 11.685 
4 *495:12 *2025:B1_N 6.48 
5 *495:10 *2024:B1_N 3.6 
*END

*D_NET *496 0.0055032
*CONN
*I *1978:A I *D sky130_fd_sc_hd__nand2_2
*I *1932:A I *D sky130_fd_sc_hd__nor2_4
*I *1931:A I *D sky130_fd_sc_hd__nand2_2
*I *1977:A I *D sky130_fd_sc_hd__and2_4
*I *2420:X O *D sky130_fd_sc_hd__buf_2
*CAP
1 *1978:A 7.22755e-05
2 *1932:A 0.000118689
3 *1931:A 0.000404276
4 *1977:A 5.3064e-05
5 *2420:X 0
6 *496:21 0.00129166
7 *496:19 0.00110373
8 *496:4 0.000315822
9 *1931:A *1931:B 4.82919e-05
10 *1931:A *1932:B 0.00013994
11 *1931:A *2380:A 1.3763e-05
12 *1931:A *541:21 2.34005e-05
13 *1931:A *541:40 0.000284042
14 *1977:A *1979:C 4.77757e-05
15 *1977:A *538:8 8.75161e-05
16 *1978:A *580:8 7.35813e-05
17 *496:19 *1978:B 6.5525e-05
18 *496:19 *1979:C 0.000268906
19 *496:21 *1932:B 2.23922e-05
20 *1933:A *1931:A 0.000139238
21 *1934:B *1931:A 0
22 *1934:B *496:21 0
23 *1935:C *1931:A 7.81954e-05
24 *1966:A1 *1932:A 1.08758e-05
25 *1966:A1 *496:21 7.98745e-06
26 *1966:A2 *496:21 9.1436e-05
27 *1968:B *496:21 0.000183043
28 *1969:B1 *496:21 8.23458e-05
29 *2168:B1 *496:21 0
30 *213:8 *1931:A 0
31 *456:41 *496:19 0.000132089
32 *456:41 *496:21 0.000159964
33 *456:47 *496:21 0.00018338
34 *473:10 *1931:A 0
*RES
1 *2420:X *496:4 1.6 
2 *496:4 *1977:A 3.01 
3 *496:4 *496:19 6.5 
4 *496:19 *496:21 14.64 
5 *496:21 *1931:A 12.855 
6 *496:21 *1932:A 5.1 
7 *496:19 *1978:A 5.1 
*END

*D_NET *497 0.000255352
*CONN
*I *2115:A I *D sky130_fd_sc_hd__nor2_2
*I *2421:X O *D sky130_fd_sc_hd__buf_2
*CAP
1 *2115:A 6.75827e-05
2 *2421:X 6.75827e-05
3 *456:18 *2115:A 0.000120186
*RES
1 *2421:X *2115:A 8.58 
*END

*D_NET *498 0.000478412
*CONN
*I *2128:A3 I *D sky130_fd_sc_hd__a31oi_2
*I *2422:X O *D sky130_fd_sc_hd__buf_2
*CAP
1 *2128:A3 0.000109715
2 *2422:X 0.000109715
3 *2124:C1 *2128:A3 0.000116158
4 *2127:B *2128:A3 0.000117832
5 *2422:A *2128:A3 2.49909e-05
*RES
1 *2422:X *2128:A3 9.375 
*END

*D_NET *499 0.000364237
*CONN
*I *2037:A1_N I *D sky130_fd_sc_hd__o2bb2ai_2
*I *2423:X O *D sky130_fd_sc_hd__buf_2
*CAP
1 *2037:A1_N 0.000161559
2 *2423:X 0.000161559
3 *2047:B *2037:A1_N 0
4 *300:30 *2037:A1_N 4.11194e-05
*RES
1 *2423:X *2037:A1_N 9.375 
*END

*D_NET *500 0.00238434
*CONN
*I *2041:C I *D sky130_fd_sc_hd__nand3b_4
*I *2043:B1_N I *D sky130_fd_sc_hd__o21bai_4
*I *2042:B1_N I *D sky130_fd_sc_hd__o21ba_2
*I *2300:X O *D sky130_fd_sc_hd__clkdlybuf4s25_1
*CAP
1 *2041:C 5.16539e-05
2 *2043:B1_N 0.000114846
3 *2042:B1_N 0
4 *2300:X 0.000519622
5 *500:25 0.000297061
6 *500:12 0.000650184
7 *2043:B1_N *506:14 0
8 *500:12 *2384:A 0.000147797
9 *500:12 *506:14 6.28765e-05
10 S[19] *500:12 0
11 *2042:A1 *2041:C 0.000108937
12 *2042:A1 *500:25 3.26889e-05
13 *2042:A2 *2041:C 1.91597e-05
14 *2042:A2 *500:25 5.39541e-05
15 *2059:A1 *500:25 5.37074e-05
16 *2063:B *500:12 0
17 *2300:A *500:12 3.09088e-05
18 *2301:A *500:12 0
19 *2335:A *2043:B1_N 0
20 *2335:A *500:12 0
21 *315:18 *2041:C 0.000104063
22 *315:18 *2043:B1_N 0.000136884
*RES
1 *2300:X *500:12 12.92 
2 *500:12 *2042:B1_N 1.6 
3 *500:12 *500:25 2.91 
4 *500:25 *2043:B1_N 7.745 
5 *500:25 *2041:C 3.55 
*END

*D_NET *501 0.000778349
*CONN
*I *2048:A I *D sky130_fd_sc_hd__nor2_2
*I *2424:X O *D sky130_fd_sc_hd__buf_2
*CAP
1 *2048:A 0.000270681
2 *2424:X 0.000270681
3 *2048:A *2053:A2 4.18603e-06
4 *2048:A *545:12 5.93588e-05
5 *2048:A *545:14 6.73665e-05
6 *2081:B *2048:A 0
7 *474:30 *2048:A 7.81954e-05
8 *474:40 *2048:A 2.7881e-05
*RES
1 *2424:X *2048:A 12.915 
*END

*D_NET *502 0.00182171
*CONN
*I *2073:A I *D sky130_fd_sc_hd__nand2_2
*I *2071:A I *D sky130_fd_sc_hd__nor2_2
*I *2072:A I *D sky130_fd_sc_hd__and2_2
*I *2425:X O *D sky130_fd_sc_hd__buf_2
*CAP
1 *2073:A 0.000481571
2 *2071:A 3.33099e-05
3 *2072:A 0.000226862
4 *2425:X 0
5 *502:17 0.000598518
6 *502:4 0.000310499
7 *2071:A *2075:C 0
8 *2072:A *2071:B 0
9 *2072:A *2072:B 0
10 *2073:A *2075:C 8.88715e-05
11 *2075:A_N *2073:A 3.72916e-05
12 *2093:A1 *2073:A 3.1562e-06
13 *2425:A *2072:A 0
14 *345:6 *2073:A 4.16262e-05
*RES
1 *2425:X *502:4 1.6 
2 *502:4 *2072:A 9.275 
3 *502:4 *502:17 1.14 
4 *502:17 *2071:A 2.215 
5 *502:17 *2073:A 7.87 
*END

*D_NET *503 0.000214023
*CONN
*I *2417:A I *D sky130_fd_sc_hd__buf_2
*I *2426:X O *D sky130_fd_sc_hd__buf_2
*CAP
1 *2417:A 7.14946e-05
2 *2426:X 7.14946e-05
3 *2417:A *506:14 3.04982e-05
4 *2055:A1 *2417:A 4.05358e-05
5 *2335:A *2417:A 0
*RES
1 *2426:X *2417:A 8.835 
*END

*D_NET *504 0.0017548
*CONN
*I *2426:A I *D sky130_fd_sc_hd__buf_2
*I *2064:A1 I *D sky130_fd_sc_hd__o2111ai_4
*I *2427:X O *D sky130_fd_sc_hd__buf_4
*CAP
1 *2426:A 0
2 *2064:A1 0.000208548
3 *2427:X 0.000340045
4 *504:10 0.000548593
5 *2054:A1 *2064:A1 1.65105e-05
6 *2055:A1 *2064:A1 8.40269e-05
7 *2064:B1 *2064:A1 0.00011852
8 *2066:A1 *2064:A1 0.000162325
9 *2427:A *504:10 0.000134938
10 *322:6 *504:10 2.75145e-05
11 *474:40 *504:10 0.000113782
*RES
1 *2427:X *504:10 8.035 
2 *504:10 *2064:A1 10.01 
3 *504:10 *2426:A 1.6 
*END

*D_NET *505 0.00363029
*CONN
*I *2056:C I *D sky130_fd_sc_hd__and3_2
*I *2044:B I *D sky130_fd_sc_hd__nand2_2
*I *2058:B1 I *D sky130_fd_sc_hd__o211ai_2
*I *2428:X O *D sky130_fd_sc_hd__buf_2
*CAP
1 *2056:C 0.000373086
2 *2044:B 0
3 *2058:B1 0.000350546
4 *2428:X 5.79231e-05
5 *505:10 0.000688152
6 *505:6 0.000768615
7 S[19] *2056:C 0
8 *2044:A *2058:B1 8.53113e-06
9 *2056:B *2056:C 0.000505893
10 *2057:A *505:10 5.30318e-05
11 *2058:C1 *2058:B1 2.30292e-05
12 *2061:C1 *2056:C 0.000173191
13 *2062:A1 *2056:C 3.49911e-05
14 *2063:A *2056:C 4.32126e-05
15 *2064:D1 *2058:B1 0
16 *2064:D1 *505:6 7.49327e-05
17 *2064:D1 *505:10 0.000272984
18 *2066:A3 *2058:B1 0.000164874
19 *309:10 *2058:B1 0
20 *329:10 *2056:C 3.72916e-05
*RES
1 *2428:X *505:6 2.395 
2 *505:6 *505:10 4.515 
3 *505:10 *2058:B1 11.615 
4 *505:10 *2044:B 1.6 
5 *505:6 *2056:C 14.75 
*END

*D_NET *506 0.00411208
*CONN
*I *2052:B1 I *D sky130_fd_sc_hd__o21ai_2
*I *2050:B1_N I *D sky130_fd_sc_hd__o21ba_2
*I *2051:B1_N I *D sky130_fd_sc_hd__o21bai_4
*I *2301:X O *D sky130_fd_sc_hd__clkdlybuf4s25_1
*CAP
1 *2052:B1 0
2 *2050:B1_N 0.000174708
3 *2051:B1_N 0
4 *2301:X 0.000813132
5 *506:22 0.000364076
6 *506:14 0.0010025
7 *506:14 *2293:A 0.000604892
8 *506:22 *2052:A2 0.000122325
9 S[19] *506:14 0
10 *2043:B1_N *506:14 0
11 *2050:A2 *2050:B1_N 0
12 *2053:A1 *2050:B1_N 5.42303e-05
13 *2053:A1 *506:22 5.16418e-05
14 *2055:A1 *506:14 0.000118527
15 *2063:B *506:14 0.000104309
16 *2064:B1 *506:14 1.94723e-05
17 *2066:A1 *506:14 0.000471287
18 *2417:A *506:14 3.04982e-05
19 *322:10 *2050:B1_N 0
20 *324:14 *506:14 4.82919e-05
21 *324:14 *506:22 5.98073e-05
22 *474:40 *506:14 0
23 *474:40 *506:22 9.50342e-06
24 *500:12 *506:14 6.28765e-05
*RES
1 *2301:X *506:14 21.215 
2 *506:14 *506:22 5.75 
3 *506:22 *2051:B1_N 3.6 
4 *506:22 *2050:B1_N 6.54 
5 *506:14 *2052:B1 1.6 
*END

*D_NET *507 0.0021088
*CONN
*I *2076:B1_N I *D sky130_fd_sc_hd__o21bai_2
*I *2075:C I *D sky130_fd_sc_hd__nand3b_2
*I *2074:C I *D sky130_fd_sc_hd__and3b_2
*I *2302:X O *D sky130_fd_sc_hd__clkdlybuf4s25_1
*CAP
1 *2076:B1_N 0
2 *2075:C 0.000132752
3 *2074:C 8.52514e-05
4 *2302:X 0.000288847
5 *507:23 0.000165823
6 *507:12 0.00040717
7 *2075:C *2385:A 9.23551e-05
8 *507:12 *2385:A 4.66108e-05
9 *507:12 *2386:A 0
10 S[24] *2074:C 7.73569e-05
11 S[24] *507:12 6.38806e-05
12 *2071:A *2075:C 0
13 *2073:A *2075:C 8.88715e-05
14 *2074:B *2075:C 4.82919e-05
15 *2089:A1 *2075:C 0.000180689
16 *2089:A1 *507:23 0.000132096
17 *2337:A *2075:C 9.50342e-06
18 *2337:A *507:12 0
19 *2337:A *507:23 0.000141599
20 *345:6 *2075:C 8.57024e-05
21 *475:25 *507:12 6.19997e-05
*RES
1 *2302:X *507:12 10.355 
2 *507:12 *2074:C 2.9125 
3 *507:12 *507:23 3.635 
4 *507:23 *2075:C 7.59 
5 *507:23 *2076:B1_N 3.6 
*END

*D_NET *508 0.00178202
*CONN
*I *2085:B1 I *D sky130_fd_sc_hd__o21ai_2
*I *2084:B1_N I *D sky130_fd_sc_hd__o21ba_2
*I *2303:X O *D sky130_fd_sc_hd__clkdlybuf4s25_1
*CAP
1 *2085:B1 0
2 *2084:B1_N 0.000165748
3 *2303:X 0.000398198
4 *508:10 0.000563947
5 *2084:B1_N *2386:A 0
6 *508:10 *2386:A 0
7 *2087:B1_N *2084:B1_N 0.000183036
8 *2303:A *508:10 6.69341e-05
9 *2339:A *508:10 9.3305e-05
10 *355:8 *2084:B1_N 1.83756e-05
11 *356:14 *2084:B1_N 0.000140905
12 *356:14 *508:10 3.09164e-05
13 *475:25 *508:10 2.15594e-05
14 *475:31 *2084:B1_N 9.90961e-05
*RES
1 *2303:X *508:10 9.39 
2 *508:10 *2084:B1_N 7.725 
3 *508:10 *2085:B1 3.6 
*END

*D_NET *509 0.00109237
*CONN
*I *2098:B1_N I *D sky130_fd_sc_hd__o21bai_2
*I *2097:C_N I *D sky130_fd_sc_hd__or3b_4
*I *2304:X O *D sky130_fd_sc_hd__clkdlybuf4s25_1
*CAP
1 *2098:B1_N 0
2 *2097:C_N 6.1864e-05
3 *2304:X 0.000218764
4 *509:14 0.000280628
5 *2097:C_N *2096:B 3.86607e-05
6 *2097:C_N *549:8 6.5525e-05
7 *509:14 *2096:B 3.60744e-05
8 *2095:A *509:14 7.23602e-05
9 *2096:A *509:14 5.83121e-06
10 *2099:A *2097:C_N 2.23922e-05
11 *2099:A *509:14 0.000130325
12 *367:10 *2097:C_N 0.00015995
*RES
1 *2304:X *509:14 7.62 
2 *509:14 *2097:C_N 5.745 
3 *509:14 *2098:B1_N 3.6 
*END

*D_NET *510 0.000920807
*CONN
*I *2264:B1 I *D sky130_fd_sc_hd__o21a_4
*I *2263:A_N I *D sky130_fd_sc_hd__nand3b_2
*I *2305:X O *D sky130_fd_sc_hd__clkdlybuf4s25_1
*CAP
1 *2264:B1 0.000112434
2 *2263:A_N 3.37454e-05
3 *2305:X 0.000151619
4 *510:8 0.000297798
5 *2264:B1 *547:10 8.78813e-05
6 *510:8 *2371:A 0
7 *510:8 *547:10 0.000103974
8 *2263:B *2264:B1 0
9 *2263:C *510:8 0.000105841
10 *2264:A1 *2264:B1 0
11 *162:14 *2264:B1 2.75145e-05
*RES
1 *2305:X *510:8 7.275 
2 *510:8 *2263:A_N 4.05 
3 *510:8 *2264:B1 5.94 
*END

*D_NET *511 0.00152357
*CONN
*I *2106:C_N I *D sky130_fd_sc_hd__or3b_2
*I *2105:B1_N I *D sky130_fd_sc_hd__o21ba_2
*I *2306:X O *D sky130_fd_sc_hd__clkdlybuf4s25_1
*CAP
1 *2106:C_N 0.000109432
2 *2105:B1_N 2.24758e-05
3 *2306:X 0.000307366
4 *511:8 0.000439274
5 S[27] *511:8 0
6 *2105:A2 *2105:B1_N 0.0001249
7 *2106:A *2106:C_N 4.82863e-05
8 *2211:A *511:8 8.07661e-05
9 *2306:A *511:8 0
10 *374:8 *2105:B1_N 7.35813e-05
11 *471:8 *2106:C_N 8.6099e-05
12 *471:8 *511:8 7.63204e-05
13 *471:10 *511:8 0.000155069
*RES
1 *2306:X *511:8 9.315 
2 *511:8 *2105:B1_N 4.74 
3 *511:8 *2106:C_N 5.94 
*END

*D_NET *512 0.000461038
*CONN
*I *2167:A I *D sky130_fd_sc_hd__xnor2_2
*I *2429:X O *D sky130_fd_sc_hd__buf_6
*CAP
1 *2167:A 0.000230519
2 *2429:X 0.000230519
3 *2167:A *541:21 0
*RES
1 *2429:X *2167:A 10.83 
*END

*D_NET *513 0.00338162
*CONN
*I *2118:C_N I *D sky130_fd_sc_hd__nor3b_2
*I *2117:B1_N I *D sky130_fd_sc_hd__o21bai_2
*I *2119:C_N I *D sky130_fd_sc_hd__or3b_2
*I *2307:X O *D sky130_fd_sc_hd__clkdlybuf4s25_1
*CAP
1 *2118:C_N 5.47985e-05
2 *2117:B1_N 0
3 *2119:C_N 9.67136e-05
4 *2307:X 0.000676471
5 *513:22 0.000258552
6 *513:12 0.000893108
7 *2118:C_N *517:23 5.50989e-05
8 *2119:C_N *551:12 0
9 *513:12 *2391:A 4.66108e-05
10 *513:12 *517:10 0
11 *513:12 *517:23 1.94892e-05
12 *513:12 *552:14 0
13 *513:12 *556:42 0
14 *2117:A2 *513:22 6.50552e-05
15 *2118:B *2119:C_N 4.82919e-05
16 *2119:A *2119:C_N 8.49205e-05
17 *2173:A_N *513:12 0
18 *2281:A *513:12 0
19 *2282:A *513:22 4.66108e-05
20 *2329:A *513:12 0
21 *2357:A *513:12 8.5193e-05
22 *234:12 *513:12 0
23 *383:8 *513:22 0.000251388
24 *383:16 *2119:C_N 0
25 *384:17 *2119:C_N 5.83373e-05
26 *385:14 *2119:C_N 0.000134516
27 *385:14 *513:22 5.30673e-05
28 *431:14 *513:12 0.000134509
29 *455:16 *513:22 7.67415e-06
30 *455:20 *2119:C_N 0
31 *457:10 *2118:C_N 0.000139252
32 *457:10 *513:12 2.07184e-05
33 *457:20 *513:12 0.000130742
34 *460:33 *2119:C_N 2.05056e-05
*RES
1 *2307:X *513:12 14.835 
2 *513:12 *513:22 6.29 
3 *513:22 *2119:C_N 8.285 
4 *513:22 *2117:B1_N 1.6 
5 *513:12 *2118:C_N 5.235 
*END

*D_NET *514 0.00160053
*CONN
*I *2429:A I *D sky130_fd_sc_hd__buf_6
*I *2430:X O *D sky130_fd_sc_hd__buf_6
*CAP
1 *2429:A 0.000433686
2 *2430:X 0.000433686
3 *2429:A *2430:A 0.000316799
4 *1936:A2 *2429:A 8.23457e-05
5 *1943:B *2429:A 0.000164062
6 *215:14 *2429:A 0.000158385
7 *216:10 *2429:A 1.15688e-05
*RES
1 *2430:X *2429:A 16.23 
*END

*D_NET *515 0.000804656
*CONN
*I *2430:A I *D sky130_fd_sc_hd__buf_6
*I *2431:X O *D sky130_fd_sc_hd__buf_6
*CAP
1 *2430:A 9.71477e-05
2 *2431:X 9.71477e-05
3 *1936:A2 *2430:A 0.000118513
4 *1966:A1 *2430:A 0
5 *2429:A *2430:A 0.000316799
6 *215:31 *2430:A 3.34493e-05
7 *216:10 *2430:A 0.000141599
8 *223:12 *2430:A 0
*RES
1 *2431:X *2430:A 11.13 
*END

*D_NET *516 0.002583
*CONN
*I *1903:A I *D sky130_fd_sc_hd__nand2_2
*I *2432:X O *D sky130_fd_sc_hd__buf_2
*CAP
1 *1903:A 0.000545217
2 *2432:X 0.000545217
3 *1903:A *1907:B1 4.70256e-05
4 *1903:A *522:10 0.000237243
5 S[1] *1903:A 0
6 *1909:A1 *1903:A 0.000352983
7 *1909:A2 *1903:A 0
8 *2178:A2 *1903:A 0.000136884
9 *2297:A *1903:A 0.000187187
10 *2350:A *1903:A 1.61831e-05
11 *187:8 *1903:A 0.000316118
12 *189:14 *1903:A 0
13 *449:65 *1903:A 0.000198945
*RES
1 *2432:X *1903:A 20.205 
*END

*D_NET *517 0.00202896
*CONN
*I *2136:B1_N I *D sky130_fd_sc_hd__o21bai_2
*I *2135:B1_N I *D sky130_fd_sc_hd__o21ba_2
*I *2134:C_N I *D sky130_fd_sc_hd__or3b_2
*I *2308:X O *D sky130_fd_sc_hd__clkdlybuf4s25_1
*CAP
1 *2136:B1_N 5.00285e-05
2 *2135:B1_N 4.43851e-05
3 *2134:C_N 3.07736e-05
4 *2308:X 5.74596e-05
5 *517:23 0.000342584
6 *517:10 0.000336404
7 *517:10 *552:14 0.00011852
8 *517:23 *552:14 0
9 *2118:C_N *517:23 5.50989e-05
10 *2135:A1 *2136:B1_N 0.000139933
11 *2135:A1 *517:23 8.53113e-06
12 *2135:A2 *2136:B1_N 1.07797e-05
13 *2282:A *517:23 0.000163199
14 *400:10 *2136:B1_N 1.26626e-05
15 *401:10 *2134:C_N 1.56428e-05
16 *401:10 *2136:B1_N 0.000174512
17 *401:10 *517:23 0.000305519
18 *402:10 *2135:B1_N 2.11084e-05
19 *451:16 *2135:B1_N 0.000122325
20 *457:10 *517:23 0
21 *460:12 *517:23 0
22 *513:12 *517:10 0
23 *513:12 *517:23 1.94892e-05
*RES
1 *2308:X *517:10 6.98 
2 *517:10 *2134:C_N 2.05 
3 *517:10 *517:23 8.015 
4 *517:23 *2135:B1_N 4.74 
5 *517:23 *2136:B1_N 5.745 
*END

*D_NET *518 0.0017576
*CONN
*I *1946:B1_N I *D sky130_fd_sc_hd__o21bai_4
*I *1947:B1 I *D sky130_fd_sc_hd__o21ai_4
*I *2309:X O *D sky130_fd_sc_hd__clkdlybuf4s25_1
*CAP
1 *1946:B1_N 7.14889e-05
2 *1947:B1 0.000184792
3 *2309:X 0.000196603
4 *518:10 0.000452884
5 *1947:B1 *521:10 8.5841e-05
6 S[2] *1946:B1_N 0
7 *1948:A2 *518:10 0
8 *1948:B1 *518:10 0.000232282
9 *2170:A *518:10 7.00889e-06
10 *2404:A *1946:B1_N 7.42535e-05
11 *2404:A *518:10 9.05377e-05
12 *478:25 *1946:B1_N 0.000199179
13 *478:25 *518:10 0.000162728
*RES
1 *2309:X *518:10 9.015 
2 *518:10 *1947:B1 6.81 
3 *518:10 *1946:B1_N 6 
*END

*D_NET *519 0.00202486
*CONN
*I *2143:C_N I *D sky130_fd_sc_hd__or3b_2
*I *2145:B1_N I *D sky130_fd_sc_hd__o21bai_2
*I *2144:B1_N I *D sky130_fd_sc_hd__o21ba_2
*I *2310:X O *D sky130_fd_sc_hd__clkdlybuf4s25_1
*CAP
1 *2143:C_N 3.69383e-05
2 *2145:B1_N 0
3 *2144:B1_N 0.000154626
4 *2310:X 0.000440457
5 *519:16 0.000261936
6 *519:10 0.000584706
7 *2143:C_N *554:10 3.23663e-05
8 *519:10 *554:10 7.1627e-05
9 *519:16 *554:10 7.25122e-05
10 *2144:A1 *2144:B1_N 3.70488e-05
11 *2144:A2 *2144:B1_N 0.000119154
12 *2163:A *519:10 4.80285e-05
13 *2345:A *519:10 3.00381e-05
14 *410:10 *2144:B1_N 2.76356e-05
15 *410:10 *519:16 0
16 *422:16 *519:10 8.02725e-05
17 *422:29 *519:10 2.75145e-05
*RES
1 *2310:X *519:10 8.29 
2 *519:10 *519:16 6.145 
3 *519:16 *2144:B1_N 4.585 
4 *519:16 *2145:B1_N 1.6 
5 *519:10 *2143:C_N 2.395 
*END

*D_NET *520 0.00124023
*CONN
*I *2201:A1_N I *D sky130_fd_sc_hd__o2bb2ai_4
*I *2157:A I *D sky130_fd_sc_hd__xnor2_2
*I *2311:X O *D sky130_fd_sc_hd__clkdlybuf4s25_1
*CAP
1 *2201:A1_N 0
2 *2157:A 0.000140816
3 *2311:X 0.000274363
4 *520:8 0.000415179
5 *520:8 *2156:B 4.91189e-05
6 carryOut *2157:A 0.000152071
7 carryOut *520:8 0.000208683
8 *2157:B *2157:A 0
9 *2311:A *520:8 0
10 *421:8 *2157:A 0
11 *421:8 *520:8 0
12 *461:8 *520:8 0
13 *461:12 *520:8 0
*RES
1 *2311:X *520:8 9.315 
2 *520:8 *2157:A 6.285 
3 *520:8 *2201:A1_N 3.6 
*END

*D_NET *521 0.002992
*CONN
*I *1953:B1_N I *D sky130_fd_sc_hd__o21bai_4
*I *1951:B1 I *D sky130_fd_sc_hd__o21ai_4
*I *2312:X O *D sky130_fd_sc_hd__clkdlybuf4s25_1
*CAP
1 *1953:B1_N 0.00012962
2 *1951:B1 0
3 *2312:X 0.000617608
4 *521:10 0.000747229
5 *1953:B1_N *537:10 4.41506e-05
6 *521:10 *1952:A2 2.42035e-05
7 *521:10 *556:29 9.6227e-05
8 *1947:B1 *521:10 8.5841e-05
9 *2173:B *1953:B1_N 0
10 *2281:A *1953:B1_N 0.000162318
11 *2281:A *521:10 0.000484929
12 *227:19 *521:10 0.000418498
13 *456:74 *521:10 0.000181376
*RES
1 *2312:X *521:10 15.285 
2 *521:10 *1951:B1 3.6 
3 *521:10 *1953:B1_N 6.285 
*END

*D_NET *522 0.00438683
*CONN
*I *1917:A_N I *D sky130_fd_sc_hd__nand3b_2
*I *1914:B1 I *D sky130_fd_sc_hd__o21ai_2
*I *1916:A_N I *D sky130_fd_sc_hd__and3b_2
*I *2313:X O *D sky130_fd_sc_hd__clkdlybuf4s25_1
*CAP
1 *1917:A_N 2.27333e-05
2 *1914:B1 0
3 *1916:A_N 7.0505e-05
4 *2313:X 0.00127513
5 *522:25 0.000178241
6 *522:10 0.00150114
7 *1917:A_N *1914:A2 7.40446e-05
8 *522:10 *1907:B1 0
9 *522:10 *557:10 0
10 *522:10 *557:39 0
11 *522:25 *1914:A2 0.000123225
12 *1903:A *522:10 0.000237243
13 *1909:A1 *522:10 1.60203e-05
14 *1909:A2 *522:10 0
15 *1910:D1 *522:10 5.63318e-05
16 *1912:A *1916:A_N 0.0001249
17 *1912:A *522:25 5.21714e-05
18 *1914:A1 *522:10 0
19 *1914:A1 *522:25 0
20 *2178:A1 *522:10 0
21 *2179:B *522:10 4.91927e-05
22 *2313:A *522:10 0.000518027
23 *2332:A *522:10 0
24 *177:12 *522:10 3.77199e-05
25 *189:14 *522:10 0
26 *194:8 *1917:A_N 3.1835e-05
27 *194:8 *522:25 1.83756e-05
28 *458:12 *522:10 0
29 *459:10 *522:10 0
30 *459:16 *522:10 0
31 *459:20 *522:10 0
*RES
1 *2313:X *522:10 25.5 
2 *522:10 *1916:A_N 5.085 
3 *522:10 *522:25 5.03 
4 *522:25 *1914:B1 1.6 
5 *522:25 *1917:A_N 2.395 
*END

*D_NET *523 0.00482368
*CONN
*I *1905:B1_N I *D sky130_fd_sc_hd__a21boi_2
*I *1904:B1 I *D sky130_fd_sc_hd__o21a_2
*I *1907:B1 I *D sky130_fd_sc_hd__a21oi_2
*I *2203:A I *D sky130_fd_sc_hd__inv_2
*I *2314:X O *D sky130_fd_sc_hd__clkdlybuf4s25_1
*CAP
1 *1905:B1_N 0.000168087
2 *1904:B1 2.29336e-05
3 *1907:B1 0.000131824
4 *2203:A 7.78811e-05
5 *2314:X 0.000370251
6 *523:31 0.000558252
7 *523:19 0.000850623
8 *523:6 0.000727175
9 *1905:B1_N *559:19 8.69583e-05
10 *1905:B1_N *559:34 0
11 *523:31 *1904:A2 0.00010607
12 *523:31 *541:10 0.00019898
13 S[1] *523:31 0.000170535
14 *1903:A *1907:B1 4.70256e-05
15 *1904:A1 *1904:B1 3.72916e-05
16 *1904:A1 *1907:B1 9.53428e-06
17 *1904:A1 *523:31 2.11084e-05
18 *1905:A1 *523:19 4.35348e-05
19 *1906:B1 *1905:B1_N 0.000159964
20 *1906:B1 *523:19 4.88478e-05
21 *1910:C1 *523:31 8.23457e-05
22 *2178:A2 *523:31 7.21296e-06
23 *2332:A *523:31 9.52646e-05
24 *2350:A *1905:B1_N 4.8854e-05
25 *186:6 *523:19 6.07575e-06
26 *186:6 *523:31 0.000116875
27 *189:14 *1904:B1 4.82919e-05
28 *449:71 *1907:B1 0
29 *454:12 *2203:A 2.97004e-06
30 *454:20 *2203:A 4.19967e-05
31 *454:20 *523:6 0.0001249
32 *459:20 *1907:B1 0
33 *473:10 *1907:B1 0
34 *473:10 *523:31 0.000412022
35 *522:10 *1907:B1 0
*RES
1 *2314:X *523:6 5.845 
2 *523:6 *2203:A 6.98 
3 *523:6 *523:19 3.21 
4 *523:19 *523:31 14.8 
5 *523:31 *1907:B1 7.85 
6 *523:31 *1904:B1 2.395 
7 *523:19 *1905:B1_N 9.05 
*END

*D_NET *524 0.00147742
*CONN
*I *2280:B1 I *D sky130_fd_sc_hd__o21ai_4
*I *2279:A_N I *D sky130_fd_sc_hd__nand3b_2
*I *2315:X O *D sky130_fd_sc_hd__clkdlybuf4s25_1
*CAP
1 *2280:B1 0.000123194
2 *2279:A_N 0
3 *2315:X 0.000242915
4 *524:12 0.00036611
5 *524:12 *2277:B 0
6 S[7] *524:12 0
7 *1910:A1 *524:12 0
8 *2277:A *2280:B1 0
9 *2277:A *524:12 8.65961e-05
10 *2279:B *524:12 0
11 *2279:C *2280:B1 3.25635e-05
12 *2279:C *524:12 8.8266e-05
13 *2280:A1 *2280:B1 0.000392136
14 *2280:A1 *524:12 1.60203e-05
15 *2351:A *524:12 0
16 *178:8 *2280:B1 0.000109101
17 *178:8 *524:12 2.0514e-05
*RES
1 *2315:X *524:12 10.16 
2 *524:12 *2279:A_N 1.6 
3 *524:12 *2280:B1 5.875 
*END

*D_NET *525 0.00270766
*CONN
*I *2270:B1 I *D sky130_fd_sc_hd__a21oi_4
*I *2268:B1 I *D sky130_fd_sc_hd__o21ai_2
*I *2316:X O *D sky130_fd_sc_hd__clkdlybuf4s25_1
*CAP
1 *2270:B1 7.17787e-05
2 *2268:B1 0.000290948
3 *2316:X 0.000553425
4 *525:10 0.000916152
5 *2270:B1 *531:21 0
6 *525:10 *2400:A 0
7 *525:10 *531:10 0
8 *525:10 *531:21 0
9 *2184:A2 *525:10 0
10 *2185:A *525:10 0.000140905
11 *2250:B *525:10 0
12 *2275:B *2270:B1 7.89767e-05
13 *2275:B *525:10 0.000124532
14 *153:10 *525:10 0.000141599
15 *153:23 *525:10 0.000154481
16 *154:25 *525:10 8.97486e-05
17 *166:12 *2268:B1 0.000145117
*RES
1 *2316:X *525:10 14.445 
2 *525:10 *2268:B1 8.19 
3 *525:10 *2270:B1 5.235 
*END

*D_NET *526 0.00269263
*CONN
*I *1922:B1_N I *D sky130_fd_sc_hd__a21boi_2
*I *1921:B1_N I *D sky130_fd_sc_hd__o21bai_4
*I *1923:B1_N I *D sky130_fd_sc_hd__a21bo_2
*I *2317:X O *D sky130_fd_sc_hd__clkdlybuf4s25_1
*CAP
1 *1922:B1_N 0.000147817
2 *1921:B1_N 0
3 *1923:B1_N 9.10211e-06
4 *2317:X 0.000412098
5 *526:25 0.000249639
6 *526:10 0.000523022
7 *1922:B1_N *2395:A 0
8 *1922:B1_N *561:26 3.76518e-05
9 *1922:B1_N *561:35 7.53115e-05
10 *526:10 *2280:A2 0
11 *526:10 *2395:A 0.000339886
12 *526:10 *561:8 0
13 *526:25 *2395:A 0.000154488
14 *526:25 *561:26 0
15 S[4] *526:10 5.20968e-05
16 *2352:A *526:10 1.83847e-05
17 *190:29 *1922:B1_N 0
18 *199:10 *1922:B1_N 0.000141606
19 *199:14 *1922:B1_N 4.82863e-05
20 *199:14 *526:25 0.000163204
21 *201:8 *1922:B1_N 3.83041e-05
22 *201:8 *526:25 0.000163204
23 *239:10 *1922:B1_N 0.000118527
*RES
1 *2317:X *526:10 10.8 
2 *526:10 *1923:B1_N 3.70875 
3 *526:10 *526:25 5.375 
4 *526:25 *1921:B1_N 1.6 
5 *526:25 *1922:B1_N 9.98 
*END

*D_NET *527 0.000999223
*CONN
*I *2256:A_N I *D sky130_fd_sc_hd__nand3b_2
*I *2254:B1 I *D sky130_fd_sc_hd__o21a_4
*I *2318:X O *D sky130_fd_sc_hd__clkdlybuf4s25_1
*CAP
1 *2256:A_N 0
2 *2254:B1 3.99645e-05
3 *2318:X 0.000287754
4 *527:10 0.000327718
5 *2256:C *2254:B1 0.000166346
6 *2256:C *527:10 9.50342e-06
7 *2318:A *2254:B1 9.428e-05
8 *2318:A *527:10 7.00066e-05
9 *2322:A *527:10 3.64998e-06
10 *449:26 *527:10 0
*RES
1 *2318:X *527:10 7.41 
2 *527:10 *2254:B1 5.49 
3 *527:10 *2256:A_N 3.6 
*END

*D_NET *528 0.00146072
*CONN
*I *2246:B1_N I *D sky130_fd_sc_hd__o21ba_2
*I *2247:B1_N I *D sky130_fd_sc_hd__o21bai_4
*I *2248:B1_N I *D sky130_fd_sc_hd__a21boi_2
*I *2319:X O *D sky130_fd_sc_hd__clkdlybuf4s25_1
*CAP
1 *2246:B1_N 0.000180106
2 *2247:B1_N 8.24684e-05
3 *2248:B1_N 0
4 *2319:X 8.97043e-05
5 *528:25 0.000568618
6 *528:8 0.000395747
7 *1962:A2 *2246:B1_N 4.99619e-05
8 *2246:A1 *2246:B1_N 0
9 *2246:A1 *528:25 4.10476e-05
10 *2247:A2 *2246:B1_N 0
11 *2354:A *528:8 0
12 *2354:A *528:25 0
13 *145:6 *2247:B1_N 5.30673e-05
14 *242:8 *2246:B1_N 0
15 *468:80 *528:8 0
16 *468:80 *528:25 0
*RES
1 *2319:X *528:8 4.98 
2 *528:8 *2248:B1_N 3.6 
3 *528:8 *528:25 6.875 
4 *528:25 *2247:B1_N 3.085 
5 *528:25 *2246:B1_N 8.54 
*END

*D_NET *529 0.00433342
*CONN
*I *1942:A1 I *D sky130_fd_sc_hd__o211ai_2
*I *1940:A2 I *D sky130_fd_sc_hd__a21oi_2
*I *2165:B I *D sky130_fd_sc_hd__xor2_2
*I *1939:A2 I *D sky130_fd_sc_hd__o21ai_2
*I *1938:B I *D sky130_fd_sc_hd__nor2_2
*I *2166:S I *D sky130_fd_sc_hd__mux2_2
*I *1937:B I *D sky130_fd_sc_hd__and2_4
*I *2320:X O *D sky130_fd_sc_hd__dlygate4sd1_1
*CAP
1 *1942:A1 0.000332586
2 *1940:A2 0
3 *2165:B 0.000332586
4 *1939:A2 2.75894e-05
5 *1938:B 0.000120908
6 *2166:S 0.0001048
7 *1937:B 2.08101e-05
8 *2320:X 0.000427285
9 *529:40 0.000148497
10 *529:24 0.000345715
11 *529:18 0.00041036
12 *529:16 0.000360537
13 *529:10 0.000597568
14 *529:16 *2369:A 0
15 *1937:A *2166:S 0.000118294
16 *1937:A *529:24 2.75229e-05
17 *1938:A *1938:B 4.99619e-05
18 *1939:A1 *1938:B 4.00541e-06
19 *1941:A1 *529:18 0
20 *1941:A1 *529:24 0
21 *1941:A2 *529:18 0.000132631
22 *1941:B1_N *529:16 0
23 *1942:B1 *1942:A1 4.82919e-05
24 *1948:A1 *529:10 3.31103e-05
25 *1948:B1 *529:10 5.05521e-05
26 *2165:A *529:16 3.25831e-05
27 *2165:A *529:18 0.000156155
28 *2166:A1 *2166:S 0.0001249
29 *2166:A1 *529:18 0
30 *2166:A1 *529:24 0
31 *2320:A *529:10 0
32 *450:16 *1939:A2 7.00889e-06
33 *450:16 *529:18 0.000187759
34 *450:36 *529:18 0.000131401
35 *453:21 *529:10 0
36 *453:21 *529:16 0
37 *453:25 *529:18 0
*RES
1 *2320:X *529:10 8.88 
2 *529:10 *529:16 2.955 
3 *529:16 *529:18 5.97 
4 *529:18 *529:24 5.105 
5 *529:24 *1937:B 1.96 
6 *529:24 *2166:S 4.12 
7 *529:18 *529:40 2 
8 *529:40 *1938:B 3.805 
9 *529:40 *1939:A2 2.05 
10 *529:16 *2165:B 2 
11 *529:10 *1940:A2 3.6 
12 *2165:B *1942:A1 6.2575 
*END

*D_NET *530 0.00229438
*CONN
*I *2264:A2 I *D sky130_fd_sc_hd__o21a_4
*I *2261:B I *D sky130_fd_sc_hd__nand2_2
*I *2262:B I *D sky130_fd_sc_hd__nand2_2
*I *2260:A_N I *D sky130_fd_sc_hd__nand2b_2
*I *2321:X O *D sky130_fd_sc_hd__clkdlybuf4s25_1
*CAP
1 *2264:A2 0.00015976
2 *2261:B 9.84241e-05
3 *2262:B 0
4 *2260:A_N 0
5 *2321:X 0.000130117
6 *530:27 0.000278411
7 *530:21 0.000424698
8 *530:12 0.000215068
9 *530:21 *532:6 8.65961e-05
10 *2261:A *2261:B 0.000141323
11 *2262:A *530:12 1.43521e-05
12 *2262:A *530:27 0
13 *2263:B *2264:A2 0.000157343
14 *2263:B *530:21 0.000119631
15 *2263:B *530:27 0
16 *2263:C *530:27 0
17 *2264:A1 *530:12 4.82919e-05
18 *2265:B *530:27 7.45794e-05
19 *2323:A *530:27 0
20 *161:10 *530:27 0.000164686
21 *162:14 *2264:A2 1.47347e-05
22 *162:14 *530:27 0.000120186
23 *163:8 *530:27 0
24 *469:32 *530:12 4.61744e-05
*RES
1 *2321:X *530:12 7.685 
2 *530:12 *2260:A_N 1.6 
3 *530:12 *530:21 2.19 
4 *530:21 *530:27 8.44 
5 *530:27 *2262:B 1.6 
6 *530:27 *2261:B 3.775 
7 *530:21 *2264:A2 4.825 
*END

*D_NET *531 0.00314698
*CONN
*I *2269:A2 I *D sky130_fd_sc_hd__a21oi_2
*I *2267:B I *D sky130_fd_sc_hd__and2_4
*I *2271:A2 I *D sky130_fd_sc_hd__o21ai_4
*I *2270:A2 I *D sky130_fd_sc_hd__a21oi_4
*I *2268:A2 I *D sky130_fd_sc_hd__o21ai_2
*I *2322:X O *D sky130_fd_sc_hd__clkdlybuf4s25_1
*CAP
1 *2269:A2 0.000129005
2 *2267:B 0.000186358
3 *2271:A2 9.4375e-05
4 *2270:A2 0
5 *2268:A2 0
6 *2322:X 0.000200392
7 *531:32 0.000387944
8 *531:28 0.000402548
9 *531:21 0.000250991
10 *531:10 0.000285051
11 *2261:A *2267:B 0.000278117
12 *2267:A *2267:B 3.00381e-05
13 *2268:A1 *531:10 3.25831e-05
14 *2268:A1 *531:21 0.000175214
15 *2270:B1 *531:21 0
16 *2271:B1 *531:32 0.000166346
17 *2275:B *531:32 0
18 *173:10 *2271:A2 0.000201503
19 *438:10 *531:10 0.000164059
20 *449:10 *2267:B 0
21 *449:12 *2267:B 0
22 *449:12 *531:32 0
23 *449:16 *531:21 2.92496e-05
24 *449:16 *531:32 0
25 *449:26 *531:28 4.66108e-05
26 *475:61 *2267:B 8.65961e-05
27 *525:10 *531:10 0
28 *525:10 *531:21 0
*RES
1 *2322:X *531:10 7.725 
2 *531:10 *2268:A2 3.6 
3 *531:10 *531:21 4.145 
4 *531:21 *2270:A2 1.6 
5 *531:21 *531:28 2.52 
6 *531:28 *531:32 4.4 
7 *531:32 *2271:A2 5.79 
8 *531:32 *2267:B 7.86 
9 *531:28 *2269:A2 3.43 
*END

*D_NET *532 0.00247912
*CONN
*I *2222:B I *D sky130_fd_sc_hd__nor2_2
*I *2225:A2 I *D sky130_fd_sc_hd__o21ai_2
*I *2223:B I *D sky130_fd_sc_hd__and2_2
*I *2323:X O *D sky130_fd_sc_hd__clkdlybuf4s25_1
*CAP
1 *2222:B 3.36214e-05
2 *2225:A2 0.000147609
3 *2223:B 0
4 *2323:X 0.000557997
5 *532:12 0.000445535
6 *532:6 0.000889544
7 *2222:A *2222:B 5.4155e-06
8 *2222:A *532:6 9.01757e-05
9 *2222:A *532:12 3.72916e-05
10 *2225:A1 *2225:A2 5.50989e-05
11 *2263:B *532:6 3.23663e-05
12 *120:8 *2225:A2 0
13 *120:8 *532:12 0
14 *121:10 *2225:A2 0
15 *475:61 *2225:A2 1.07797e-05
16 *475:61 *532:12 8.70923e-05
17 *530:21 *532:6 8.65961e-05
*RES
1 *2323:X *532:6 9.985 
2 *532:6 *532:12 6.755 
3 *532:12 *2223:B 3.6 
4 *532:12 *2225:A2 6.285 
5 *532:6 *2222:B 2.215 
*END

*D_NET *533 0.0015817
*CONN
*I *2218:B I *D sky130_fd_sc_hd__and2_4
*I *2217:B I *D sky130_fd_sc_hd__nor2_2
*I *2219:B I *D sky130_fd_sc_hd__nand2_2
*I *2324:X O *D sky130_fd_sc_hd__clkdlybuf4s25_1
*CAP
1 *2218:B 1.90201e-05
2 *2217:B 0.00027103
3 *2219:B 4.3348e-05
4 *2324:X 8.45849e-05
5 *533:12 0.000379943
6 *2217:B *2372:A 9.80032e-06
7 *2217:B *536:6 0.000162311
8 *2219:B *2372:A 3.00381e-05
9 *533:12 *536:6 4.82919e-05
10 *2217:A *2217:B 6.75558e-05
11 *2218:A *2218:B 4.99619e-05
12 *2218:A *533:12 4.94404e-05
13 *2220:A2 *533:12 0
14 *2221:B *2217:B 0.000278111
15 *119:14 *2218:B 8.8266e-05
*RES
1 *2324:X *533:12 7.175 
2 *533:12 *2219:B 2.77 
3 *533:12 *2217:B 7.15 
4 *2324:X *2218:B 3.995 
*END

*D_NET *534 0.00143892
*CONN
*I *2216:A2 I *D sky130_fd_sc_hd__o21ai_2
*I *2213:B I *D sky130_fd_sc_hd__and2_4
*I *2214:B I *D sky130_fd_sc_hd__nor2_2
*I *2325:X O *D sky130_fd_sc_hd__clkdlybuf4s25_1
*CAP
1 *2216:A2 0
2 *2213:B 2.20475e-05
3 *2214:B 8.28702e-05
4 *2325:X 6.08656e-05
5 *534:12 0.0003389
6 *534:6 0.000294848
7 *2213:B *558:14 5.05521e-05
8 *2214:B *2374:A 0
9 *534:12 *558:14 0.000105791
10 S[14] *2213:B 3.45679e-05
11 *2214:A *2214:B 8.18011e-05
12 *2214:A *534:12 2.97004e-06
13 *2216:A1 *534:6 4.99619e-05
14 *112:10 *2214:B 0.000163985
15 *112:10 *534:12 0.000149759
16 *471:52 *534:12 0
17 *471:58 *534:12 0
*RES
1 *2325:X *534:6 2.74 
2 *534:6 *534:12 6.635 
3 *534:12 *2214:B 6 
4 *534:12 *2213:B 4.395 
5 *534:6 *2216:A2 1.6 
*END

*D_NET *535 0.00189867
*CONN
*I *2211:B I *D sky130_fd_sc_hd__and2_4
*I *2210:B I *D sky130_fd_sc_hd__nor2_2
*I *2326:X O *D sky130_fd_sc_hd__clkdlybuf4s25_1
*CAP
1 *2211:B 0.000383056
2 *2210:B 6.57532e-05
3 *2326:X 0.000212029
4 *535:10 0.000660838
5 *2211:B *569:10 8.10455e-05
6 *535:10 *2104:B 5.34747e-05
7 *2356:A *2210:B 0.000118504
8 *471:46 *2210:B 0.000231564
9 *471:46 *535:10 8.29003e-05
10 *471:52 *2210:B 9.50342e-06
*RES
1 *2326:X *535:10 6.555 
2 *535:10 *2210:B 6.255 
3 *535:10 *2211:B 9.24 
*END

*D_NET *536 0.00389828
*CONN
*I *2193:A1 I *D sky130_fd_sc_hd__a22o_2
*I *2227:C I *D sky130_fd_sc_hd__nand3_2
*I *2236:B1_N I *D sky130_fd_sc_hd__o21bai_2
*I *2225:B1 I *D sky130_fd_sc_hd__o21ai_2
*I *2327:X O *D sky130_fd_sc_hd__clkdlybuf4s25_1
*CAP
1 *2193:A1 0
2 *2227:C 0.000206616
3 *2236:B1_N 0
4 *2225:B1 2.74668e-05
5 *2327:X 0.000465923
6 *536:34 0.000371958
7 *536:12 0.000583949
8 *536:6 0.00118775
9 *536:6 *2372:A 2.66586e-05
10 *2192:A *536:12 8.96017e-05
11 *2192:B *536:12 0.000163204
12 *2192:B *536:34 0
13 *2193:A2 *536:34 4.6303e-05
14 *2193:B1 *536:34 3.26889e-05
15 *2194:B *2227:C 0
16 *2194:B *536:34 5.84694e-05
17 *2217:B *536:6 0.000162311
18 *2220:A2 *536:34 0
19 *2226:B1 *2227:C 0.000232999
20 *2227:A *2227:C 2.75145e-05
21 *2236:A1 *536:12 2.75229e-05
22 *2289:A *536:12 2.75145e-05
23 *119:14 *2227:C 5.02217e-05
24 *119:14 *536:34 5.05437e-05
25 *119:27 *2227:C 1.07797e-05
26 *442:10 *2227:C 0
27 *442:10 *536:34 0
28 *533:12 *536:6 4.82919e-05
*RES
1 *2327:X *536:6 7.225 
2 *536:6 *536:12 8.67 
3 *536:12 *2225:B1 2.05 
4 *536:12 *2236:B1_N 1.6 
5 *536:6 *536:34 7.225 
6 *536:34 *2227:C 9.77 
7 *536:34 *2193:A1 1.6 
*END

*D_NET *537 0.00297445
*CONN
*I *2205:A I *D sky130_fd_sc_hd__and2_4
*I *2204:A I *D sky130_fd_sc_hd__nor2_8
*I *2206:A I *D sky130_fd_sc_hd__nand2_2
*I *2328:X O *D sky130_fd_sc_hd__clkdlybuf4s25_1
*CAP
1 *2205:A 0.000138437
2 *2204:A 0.00015313
3 *2206:A 0
4 *2328:X 0.000894712
5 *537:12 0.00015313
6 *537:10 0.00103315
7 *2204:A *580:8 2.36716e-05
8 *2205:A *1978:B 0
9 *537:10 *1978:B 0
10 *1949:A *537:10 8.35068e-05
11 *1953:B1_N *537:10 4.41506e-05
12 *1979:B *2205:A 0
13 *2204:B *2204:A 2.49909e-05
14 *2206:B *2204:A 3.44118e-05
15 *2207:B *2204:A 1.47256e-05
16 *2284:A *2205:A 6.4422e-05
17 *2284:A *537:10 6.4422e-05
18 *229:8 *537:10 0.000129514
19 *233:8 *537:10 8.35068e-05
20 *258:16 *2205:A 3.45679e-05
*RES
1 *2328:X *537:10 17.325 
2 *537:10 *537:12 2 
3 *537:12 *2206:A 1.6 
4 *537:12 *2204:A 4.15 
5 *537:10 *2205:A 6.285 
*END

*D_NET *538 0.00258204
*CONN
*I *1976:B I *D sky130_fd_sc_hd__nor2_4
*I *1978:B I *D sky130_fd_sc_hd__nand2_2
*I *1977:B I *D sky130_fd_sc_hd__and2_4
*I *2329:X O *D sky130_fd_sc_hd__clkdlybuf4s25_1
*CAP
1 *1976:B 0.000171274
2 *1978:B 7.31376e-05
3 *1977:B 0
4 *2329:X 0.000208266
5 *538:21 0.000342391
6 *538:8 0.000306246
7 *538:8 *1979:C 1.53053e-05
8 *538:8 *551:12 0.000122155
9 *538:21 *1979:C 0.00023603
10 *1977:A *538:8 8.75161e-05
11 *1979:A_N *1976:B 6.9451e-05
12 *1979:B *1976:B 8.66976e-06
13 *1979:B *1978:B 5.12575e-05
14 *1980:A2 *1976:B 0.000105841
15 *2205:A *1978:B 0
16 *2420:A *538:8 0.000350251
17 *255:8 *1976:B 5.21545e-05
18 *456:18 *1976:B 0
19 *456:41 *1976:B 5.12017e-06
20 *456:41 *1978:B 7.8494e-06
21 *456:41 *538:8 0.000121023
22 *456:41 *538:21 9.59831e-05
23 *457:20 *538:8 8.65905e-05
24 *496:19 *1978:B 6.5525e-05
25 *537:10 *1978:B 0
*RES
1 *2329:X *538:8 7.585 
2 *538:8 *1977:B 1.6 
3 *538:8 *538:21 4.8575 
4 *538:21 *1978:B 5.3625 
5 *538:21 *1976:B 7.9125 
*END

*D_NET *539 0.00338815
*CONN
*I *1985:B I *D sky130_fd_sc_hd__and2_4
*I *1986:B I *D sky130_fd_sc_hd__nand2_2
*I *1984:B I *D sky130_fd_sc_hd__nor2_4
*I *2330:X O *D sky130_fd_sc_hd__clkdlybuf4s25_1
*CAP
1 *1985:B 0.000182882
2 *1986:B 0
3 *1984:B 0.000238003
4 *2330:X 0.000713789
5 *539:14 0.000357717
6 *539:10 0.00101638
7 *539:10 *2389:A 1.41165e-05
8 *539:10 *2390:A 0.000155436
9 *1984:A *1984:B 0.000204766
10 *1984:A *539:14 0.000127181
11 *1986:A *1984:B 0
12 *1986:A *539:14 0
13 *2129:A1 *539:10 0.000163199
14 *2129:A2 *539:10 4.35348e-05
15 *2131:A_N *539:10 3.88917e-05
16 *262:10 *1984:B 4.99619e-05
17 *262:27 *1984:B 0
18 *397:6 *539:10 1.56428e-05
19 *451:16 *1984:B 6.66464e-05
20 *464:24 *539:14 0
*RES
1 *2330:X *539:10 12.775 
2 *539:10 *539:14 4.655 
3 *539:14 *1984:B 8.46 
4 *539:14 *1986:B 3.6 
5 *539:10 *1985:B 4.135 
*END

*D_NET *540 0.00451918
*CONN
*I *1998:B I *D sky130_fd_sc_hd__nor2_2
*I *1999:B I *D sky130_fd_sc_hd__and2_2
*I *2331:X O *D sky130_fd_sc_hd__clkdlybuf4s25_1
*CAP
1 *1998:B 0.000135163
2 *1999:B 0
3 *2331:X 0.00112132
4 *540:16 0.00125649
5 *540:16 *2133:B 0.000197973
6 *540:16 *552:14 8.8266e-05
7 *1999:A *540:16 7.35813e-05
8 *2148:B1_N *540:16 0.000273267
9 *2161:A *540:16 0.000395232
10 *275:8 *1998:B 0.000116158
11 *276:8 *1998:B 8.65905e-05
12 *393:18 *1998:B 9.66021e-05
13 *393:18 *540:16 1.99619e-05
14 *395:40 *540:16 1.91597e-05
15 *399:10 *540:16 8.8266e-05
16 *413:19 *540:16 0.000313341
17 *413:43 *540:16 0.000237802
18 *462:19 *1998:B 0
19 *464:20 *1998:B 0
*RES
1 *2331:X *540:16 21.61 
2 *540:16 *1999:B 1.6 
3 *540:16 *1998:B 8.975 
*END

*D_NET *541 0.0038511
*CONN
*I *1932:B I *D sky130_fd_sc_hd__nor2_4
*I *1930:B I *D sky130_fd_sc_hd__nand2_2
*I *1929:A_N I *D sky130_fd_sc_hd__nand2b_4
*I *1931:B I *D sky130_fd_sc_hd__nand2_2
*I *2332:X O *D sky130_fd_sc_hd__clkdlybuf4s25_1
*CAP
1 *1932:B 4.23893e-05
2 *1930:B 4.22946e-05
3 *1929:A_N 0.000304332
4 *1931:B 1.45361e-05
5 *2332:X 0.000403454
6 *541:40 0.000303207
7 *541:21 0.000627263
8 *541:10 0.000522399
9 *1931:B *2380:A 2.49909e-05
10 *541:10 *1907:A2 3.50128e-05
11 *541:10 *2380:A 0.00011432
12 *541:10 *559:34 0.00011099
13 *541:10 *559:75 4.66446e-05
14 *541:21 *1907:A2 2.56752e-06
15 *1908:B *541:10 0
16 *1931:A *1931:B 4.82919e-05
17 *1931:A *1932:B 0.00013994
18 *1931:A *541:21 2.34005e-05
19 *1931:A *541:40 0.000284042
20 *1933:A *1929:A_N 4.66108e-05
21 *1933:A *541:21 0.000114196
22 *1933:A *541:40 2.97802e-05
23 *1935:B *1929:A_N 8.65961e-05
24 *1966:A2 *1932:B 0.000148664
25 *1966:A2 *541:40 2.97802e-05
26 *2167:A *541:21 0
27 *213:12 *1930:B 8.40269e-05
28 *496:21 *1932:B 2.23922e-05
29 *523:31 *541:10 0.00019898
*RES
1 *2332:X *541:10 10.89 
2 *541:10 *1931:B 4.05 
3 *541:10 *541:21 2.145 
4 *541:21 *1929:A_N 8.31 
5 *541:21 *541:40 4.995 
6 *541:40 *1930:B 4.395 
7 *541:40 *1932:B 5.49 
*END

*D_NET *542 0.00285791
*CONN
*I *2008:B I *D sky130_fd_sc_hd__and2_4
*I *2011:A2 I *D sky130_fd_sc_hd__a21oi_2
*I *2010:A2 I *D sky130_fd_sc_hd__o21ai_4
*I *2009:B I *D sky130_fd_sc_hd__nor2_2
*I *2333:X O *D sky130_fd_sc_hd__clkdlybuf4s25_1
*CAP
1 *2008:B 5.71518e-05
2 *2011:A2 0.000171353
3 *2010:A2 0
4 *2009:B 0.000127482
5 *2333:X 0.000181787
6 *542:26 0.000488716
7 *542:10 0.000320081
8 *542:6 0.000634598
9 *542:26 *2021:B 0
10 *2008:A *2008:B 4.89295e-05
11 *2010:A1 *2009:B 0.000125262
12 *2010:B1 *542:10 4.77757e-05
13 *2011:A1 *2011:A2 8.64421e-05
14 *2012:A2 *2009:B 0.000108156
15 *2012:A2 *542:10 1.19928e-05
16 *2012:A2 *542:26 0
17 *2029:B1 *2011:A2 5.96203e-05
18 *2333:A *542:6 4.82919e-05
19 *2333:A *542:26 2.97746e-05
20 *284:8 *2008:B 2.83579e-05
21 *284:23 *2011:A2 3.52241e-05
22 *284:23 *542:26 6.97358e-05
23 *286:10 *542:6 0.000150334
24 *286:10 *542:10 2.68464e-05
*RES
1 *2333:X *542:6 4.81 
2 *542:6 *542:10 2.88 
3 *542:10 *2009:B 4.465 
4 *542:10 *2010:A2 1.6 
5 *542:6 *542:26 6.44 
6 *542:26 *2011:A2 6.885 
7 *542:26 *2008:B 4.74 
*END

*D_NET *543 0.00417338
*CONN
*I *2022:B I *D sky130_fd_sc_hd__nor2_2
*I *2023:B I *D sky130_fd_sc_hd__and2_4
*I *2026:A2 I *D sky130_fd_sc_hd__o21ai_2
*I *2027:A2 I *D sky130_fd_sc_hd__a21oi_2
*I *2334:X O *D sky130_fd_sc_hd__clkdlybuf4s25_1
*CAP
1 *2022:B 7.29918e-05
2 *2023:B 0
3 *2026:A2 0.000107932
4 *2027:A2 0.000199863
5 *2334:X 0.00030059
6 *543:23 0.000107932
7 *543:10 0.000450483
8 *543:8 0.000624202
9 *2022:B *2381:A 4.99619e-05
10 *543:8 *2381:A 0.000113255
11 S[21] *2022:B 0
12 *2021:A *543:10 0.000307296
13 *2022:A *2022:B 3.50033e-05
14 *2022:A *543:10 3.67779e-05
15 *2023:A *2026:A2 4.82919e-05
16 *2025:A1 *543:10 2.66939e-05
17 *2026:A1 *2026:A2 0.000123225
18 *2026:B1 *2026:A2 0.000122331
19 *2027:A1 *2027:A2 4.99619e-05
20 *2027:B1 *2027:A2 0
21 *2030:A2 *2027:A2 0.00011852
22 *2298:A *543:8 4.9253e-06
23 *2334:A *2022:B 3.00381e-05
24 *289:40 *2027:A2 0.000394225
25 *289:40 *543:10 0.000159964
26 *297:8 *2022:B 1.22762e-05
27 *297:8 *543:10 3.98952e-05
28 *301:8 *2026:A2 2.05056e-05
29 *464:10 *2027:A2 1.52184e-05
30 *464:10 *543:10 0.000317508
31 *464:12 *2027:A2 0.000283514
*RES
1 *2334:X *543:8 7.155 
2 *543:8 *543:10 7.5 
3 *543:10 *2027:A2 10.275 
4 *543:10 *543:23 2 
5 *543:23 *2026:A2 4.12 
6 *543:23 *2023:B 1.6 
7 *543:8 *2022:B 5.37 
*END

*D_NET *544 0.00176406
*CONN
*I *2038:B I *D sky130_fd_sc_hd__nor2_4
*I *2039:B I *D sky130_fd_sc_hd__and2_4
*I *2040:B I *D sky130_fd_sc_hd__nand2_2
*I *2335:X O *D sky130_fd_sc_hd__clkdlybuf4s25_1
*CAP
1 *2038:B 9.38258e-05
2 *2039:B 4.31201e-05
3 *2040:B 3.37454e-05
4 *2335:X 0.000205351
5 *544:21 0.000215733
6 *544:10 0.000317883
7 *544:21 *545:10 0
8 *2039:A *2039:B 4.82919e-05
9 *2425:A *2038:B 9.05377e-05
10 *2425:A *544:10 4.43871e-06
11 *2425:A *544:21 0.000112097
12 *312:10 *2038:B 0.000152821
13 *312:10 *544:21 9.50342e-06
14 *313:6 *2039:B 1.34503e-05
15 *474:14 *544:21 0
16 *474:20 *544:10 9.50342e-06
17 *474:20 *544:21 0.000154481
18 *474:24 *544:10 0.00011852
19 *474:30 *544:10 9.4087e-05
20 *475:25 *2038:B 4.66742e-05
*RES
1 *2335:X *544:10 6.81 
2 *544:10 *2040:B 4.05 
3 *544:10 *544:21 2.4 
4 *544:21 *2039:B 4.395 
5 *544:21 *2038:B 6.285 
*END

*D_NET *545 0.00602547
*CONN
*I *2049:B I *D sky130_fd_sc_hd__and2_4
*I *2052:A2 I *D sky130_fd_sc_hd__o21ai_2
*I *2048:B I *D sky130_fd_sc_hd__nor2_2
*I *2053:A2 I *D sky130_fd_sc_hd__a21o_2
*I *2336:X O *D sky130_fd_sc_hd__clkdlybuf4s25_1
*CAP
1 *2049:B 0
2 *2052:A2 0.000270511
3 *2048:B 0
4 *2053:A2 0.000391705
5 *2336:X 0.00104845
6 *545:14 0.000450023
7 *545:12 0.000451156
8 *545:10 0.00117078
9 *545:10 *2384:A 0.000387896
10 *2041:B *545:10 0.000185405
11 *2043:A1 *545:10 2.66935e-05
12 *2043:A2 *545:10 2.4997e-05
13 *2048:A *2053:A2 4.18603e-06
14 *2048:A *545:12 5.93588e-05
15 *2048:A *545:14 6.73665e-05
16 *2050:A2 *2053:A2 0
17 *2050:A2 *545:14 0
18 *2051:A1 *2052:A2 0.000158965
19 *2051:A2 *545:12 2.34423e-05
20 *2051:A2 *545:14 7.71016e-05
21 *2053:A1 *2053:A2 4.99619e-05
22 *2292:A *545:10 0
23 *2302:A *545:10 0.000279498
24 *2335:A *545:10 0
25 *2336:A *545:10 4.16388e-05
26 *322:10 *545:12 0
27 *324:14 *2052:A2 0.000155418
28 *474:8 *545:10 0.000129735
29 *474:14 *545:10 0.000187071
30 *474:20 *545:10 0
31 *474:24 *545:10 0
32 *474:30 *545:10 0.000200648
33 *474:40 *545:10 9.50342e-06
34 *474:40 *545:12 5.16418e-05
35 *506:22 *2052:A2 0.000122325
36 *544:21 *545:10 0
*RES
1 *2336:X *545:10 22.125 
2 *545:10 *545:12 2.4 
3 *545:12 *545:14 1.89 
4 *545:14 *2053:A2 9.48 
5 *545:14 *2048:B 3.6 
6 *545:12 *2052:A2 9.015 
7 *545:10 *2049:B 3.6 
*END

*D_NET *546 0.00253024
*CONN
*I *2073:B I *D sky130_fd_sc_hd__nand2_2
*I *2072:B I *D sky130_fd_sc_hd__and2_2
*I *2071:B I *D sky130_fd_sc_hd__nor2_2
*I *2337:X O *D sky130_fd_sc_hd__clkdlybuf4s25_1
*CAP
1 *2073:B 7.70481e-05
2 *2072:B 0.000149467
3 *2071:B 0.000119353
4 *2337:X 5.04407e-05
5 *546:10 0.000733878
6 *546:6 0.000592547
7 *2073:B *2386:A 0
8 S[24] *2072:B 4.82863e-05
9 *2072:A *2071:B 0
10 *2072:A *2072:B 0
11 *2074:A_N *2072:B 0.000131401
12 *2074:B *2071:B 0
13 *2074:B *2072:B 0
14 *2076:A2 *2072:B 2.75145e-05
15 *2077:B *2073:B 7.63047e-05
16 *2077:B *546:10 0.0001022
17 *2093:A2 *2073:B 0
18 *2425:A *2071:B 0
19 *343:8 *2071:B 9.14049e-05
20 *343:8 *2072:B 7.70828e-05
21 *358:12 *546:6 8.65961e-05
22 *358:12 *546:10 0.000120655
23 *475:25 *2072:B 4.60584e-05
*RES
1 *2337:X *546:6 2.395 
2 *546:6 *546:10 7.28 
3 *546:10 *2071:B 5.235 
4 *546:10 *2072:B 7.395 
5 *546:6 *2073:B 7.235 
*END

*D_NET *547 0.0019523
*CONN
*I *2220:B1_N I *D sky130_fd_sc_hd__o21bai_2
*I *2221:C I *D sky130_fd_sc_hd__nand3b_2
*I *2338:X O *D sky130_fd_sc_hd__clkdlybuf4s25_1
*CAP
1 *2220:B1_N 0.000156606
2 *2221:C 0
3 *2338:X 0.000509838
4 *547:10 0.000666444
5 *547:10 *2371:A 0.000105849
6 *547:10 *2372:A 0
7 S[12] *2220:B1_N 1.17036e-05
8 S[12] *547:10 0.000173298
9 *2220:A1 *2220:B1_N 0
10 *2221:B *547:10 7.45881e-05
11 *2264:A1 *547:10 0
12 *2264:B1 *547:10 8.78813e-05
13 *2305:A *547:10 0
14 *2324:A *2220:B1_N 0
15 *2327:A *547:10 6.21133e-05
16 *510:8 *547:10 0.000103974
*RES
1 *2338:X *547:10 14.7 
2 *547:10 *2221:C 3.6 
3 *547:10 *2220:B1_N 5.94 
*END

*D_NET *548 0.00297289
*CONN
*I *2085:A2 I *D sky130_fd_sc_hd__o21ai_2
*I *2082:B I *D sky130_fd_sc_hd__nor2_2
*I *2086:A2 I *D sky130_fd_sc_hd__a21o_2
*I *2083:B I *D sky130_fd_sc_hd__and2_4
*I *2339:X O *D sky130_fd_sc_hd__clkdlybuf4s25_1
*CAP
1 *2085:A2 0.00051147
2 *2082:B 9.39306e-05
3 *2086:A2 0
4 *2083:B 6.2465e-05
5 *2339:X 0.000326455
6 *548:23 9.39306e-05
7 *548:12 0.00011631
8 *548:10 0.00089177
9 *2083:A *2083:B 0.000187071
10 *2084:A1 *2082:B 4.65607e-05
11 *2085:A1 *2085:A2 7.5277e-05
12 *2086:A1 *2083:B 0.000210151
13 *2086:B1 *2082:B 0
14 *356:14 *2085:A2 4.66742e-05
15 *470:18 *2085:A2 5.30673e-05
16 *470:29 *2083:B 2.14129e-05
17 *470:29 *2085:A2 6.6564e-05
18 *470:29 *548:10 5.23362e-05
19 *470:29 *548:12 9.37731e-05
20 *471:8 *2083:B 0
21 *475:25 *2085:A2 2.36716e-05
*RES
1 *2339:X *548:10 7.92 
2 *548:10 *548:12 1.125 
3 *548:12 *2083:B 6.255 
4 *548:12 *548:23 2 
5 *548:23 *2086:A2 1.6 
6 *548:23 *2082:B 3.1 
7 *548:10 *2085:A2 10.185 
*END

*D_NET *549 0.00272383
*CONN
*I *2096:B I *D sky130_fd_sc_hd__and2_2
*I *2095:B I *D sky130_fd_sc_hd__nor2_2
*I *2340:X O *D sky130_fd_sc_hd__clkdlybuf4s25_1
*CAP
1 *2096:B 0.000202171
2 *2095:B 0.000505797
3 *2340:X 0.000105355
4 *549:8 0.000813323
5 *2095:A *2095:B 1.10767e-05
6 *2095:A *2096:B 0.000120186
7 *2097:A *2095:B 7.35813e-05
8 *2097:B *549:8 0
9 *2097:C_N *2096:B 3.86607e-05
10 *2097:C_N *549:8 6.5525e-05
11 *2098:A1 *2095:B 0
12 *2099:A *2096:B 0.000120655
13 *2340:A *549:8 0
14 *365:6 *2095:B 0.00013788
15 *368:12 *2095:B 0.000158072
16 *471:8 *2096:B 0.000150623
17 *471:8 *549:8 0.000142719
18 *494:23 *2096:B 4.21314e-05
19 *509:14 *2096:B 3.60744e-05
*RES
1 *2340:X *549:8 6.51 
2 *549:8 *2095:B 10.545 
3 *549:8 *2096:B 8.865 
*END

*D_NET *550 0.00161698
*CONN
*I *2103:B I *D sky130_fd_sc_hd__nor2_2
*I *2104:B I *D sky130_fd_sc_hd__and2_4
*I *2341:X O *D sky130_fd_sc_hd__clkdlybuf4s25_1
*CAP
1 *2103:B 0
2 *2104:B 0.000459189
3 *2341:X 0.000207518
4 *550:10 0.000666708
5 S[27] *2104:B 0
6 *2103:A *2104:B 6.10941e-05
7 *2103:A *550:10 5.53249e-06
8 *2104:A *2104:B 3.70488e-05
9 *2106:A *550:10 0
10 *471:46 *2104:B 0.000126414
11 *535:10 *2104:B 5.34747e-05
*RES
1 *2341:X *550:10 6.375 
2 *550:10 *2104:B 12.135 
3 *550:10 *2103:B 3.6 
*END

*D_NET *551 0.00148696
*CONN
*I *2115:B I *D sky130_fd_sc_hd__nor2_2
*I *2116:B I *D sky130_fd_sc_hd__and2_2
*I *2342:X O *D sky130_fd_sc_hd__clkdlybuf4s25_1
*CAP
1 *2115:B 7.60175e-05
2 *2116:B 0
3 *2342:X 0.0004412
4 *551:12 0.000517218
5 *2116:A *2115:B 4.77757e-05
6 *2119:C_N *551:12 0
7 *2329:A *551:12 1.83847e-05
8 *383:8 *2115:B 4.40028e-05
9 *455:16 *2115:B 4.66108e-05
10 *455:16 *551:12 4.9968e-05
11 *455:20 *551:12 2.92496e-05
12 *456:18 *551:12 0
13 *457:20 *551:12 9.43751e-05
14 *538:8 *551:12 0.000122155
*RES
1 *2342:X *551:12 11.825 
2 *551:12 *2116:B 1.6 
3 *551:12 *2115:B 3.085 
*END

*D_NET *552 0.00458896
*CONN
*I *2133:B I *D sky130_fd_sc_hd__and2_2
*I *2132:B I *D sky130_fd_sc_hd__nor2_2
*I *2343:X O *D sky130_fd_sc_hd__clkdlybuf4s25_1
*CAP
1 *2133:B 0.000235869
2 *2132:B 0
3 *2343:X 0.00074737
4 *552:14 0.00098324
5 *2133:B *2285:A 0.000157595
6 *552:14 *2389:A 0.000120186
7 S[29] *552:14 0.000177513
8 *2133:A *2133:B 0.000124895
9 *2133:A *552:14 0
10 *2134:A *552:14 0.000468171
11 *2134:B *552:14 0
12 *2137:B *2133:B 2.97004e-06
13 *2158:A1 *552:14 7.5431e-05
14 *2158:B1 *552:14 0
15 *2158:C1 *2133:B 0.000142015
16 *2160:B1_N *2133:B 4.66108e-05
17 *2161:A *2133:B 4.78501e-05
18 *2307:A *552:14 0
19 *2329:A *552:14 2.56523e-05
20 *2331:A *552:14 0
21 *2358:A *552:14 4.99619e-05
22 *399:10 *552:14 0.000701873
23 *399:12 *552:14 5.06809e-05
24 *401:10 *552:14 0
25 *402:10 *552:14 2.63122e-05
26 *413:12 *2133:B 0
27 *416:10 *552:14 0
28 *513:12 *552:14 0
29 *517:10 *552:14 0.00011852
30 *517:23 *552:14 0
31 *540:16 *2133:B 0.000197973
32 *540:16 *552:14 8.8266e-05
*RES
1 *2343:X *552:14 24.89 
2 *552:14 *2132:B 1.6 
3 *552:14 *2133:B 11.975 
*END

*D_NET *553 0.00314229
*CONN
*I *1944:B I *D sky130_fd_sc_hd__nor2_2
*I *1947:A2 I *D sky130_fd_sc_hd__o21ai_4
*I *1945:B I *D sky130_fd_sc_hd__and2_4
*I *2344:X O *D sky130_fd_sc_hd__clkdlybuf4s25_1
*CAP
1 *1944:B 0.000142315
2 *1947:A2 0
3 *1945:B 0.000168012
4 *2344:X 0
5 *553:10 0.00040472
6 *553:4 0.000379024
7 *1945:A *1945:B 0
8 *1945:A *553:10 0
9 *1946:A2 *1944:B 0.000352004
10 *1946:A2 *553:10 0.000128537
11 *1948:A1 *1945:B 4.43871e-06
12 *1951:A1 *1944:B 1.43191e-05
13 *1955:A2 *1944:B 0.000234164
14 *1955:A2 *553:10 0.000295295
15 *1955:B1 *1944:B 4.66108e-05
16 *1955:D1 *1944:B 8.77516e-05
17 *1966:B1 *1945:B 5.30673e-05
18 *1968:B *1944:B 0.000111041
19 *2170:B *1945:B 0.000163199
20 *2173:A_N *553:10 0.000180682
21 *2344:A *553:10 6.03517e-05
22 *225:23 *1945:B 8.71079e-05
23 *225:23 *553:10 0.000107658
24 *235:10 *1944:B 2.14005e-05
25 *456:60 *1944:B 0.000100594
26 *456:74 *553:10 0
*RES
1 *2344:X *553:4 1.6 
2 *553:4 *553:10 8.615 
3 *553:10 *1945:B 7.425 
4 *553:10 *1947:A2 3.6 
5 *553:4 *1944:B 7.345 
*END

*D_NET *554 0.00244967
*CONN
*I *2142:B I *D sky130_fd_sc_hd__and2_2
*I *2141:B I *D sky130_fd_sc_hd__nor2_2
*I *2345:X O *D sky130_fd_sc_hd__clkdlybuf4s25_1
*CAP
1 *2142:B 0.000114928
2 *2141:B 0.000225036
3 *2345:X 0.000451272
4 *554:10 0.000791236
5 *2142:B *2021:B 0
6 *2143:A *2141:B 4.6368e-06
7 *2143:B *554:10 1.34361e-05
8 *2143:C_N *554:10 3.23663e-05
9 *2144:A1 *2141:B 4.57183e-05
10 *2144:A2 *2141:B 8.49205e-05
11 *2145:A1 *2141:B 3.34183e-05
12 *2163:A *554:10 8.49205e-05
13 *2201:B1 *2142:B 0
14 *408:10 *2142:B 8.48064e-05
15 *408:10 *554:10 2.23407e-05
16 *410:10 *554:10 0
17 *411:8 *554:10 0.000231571
18 *422:16 *554:10 4.82919e-05
19 *422:29 *554:10 3.66286e-05
20 *519:10 *554:10 7.1627e-05
21 *519:16 *554:10 7.25122e-05
*RES
1 *2345:X *554:10 11.265 
2 *554:10 *2141:B 6.945 
3 *554:10 *2142:B 5.775 
*END

*D_NET *555 0.00111283
*CONN
*I *2156:B I *D sky130_fd_sc_hd__xor2_2
*I *2346:X O *D sky130_fd_sc_hd__clkdlybuf4s25_1
*CAP
1 *2156:B 0.000472597
2 *2346:X 0.000472597
3 *461:12 *2156:B 0.00011852
4 *520:8 *2156:B 4.91189e-05
*RES
1 *2346:X *2156:B 11.57 
*END

*D_NET *556 0.00459301
*CONN
*I *1950:B I *D sky130_fd_sc_hd__nor2_2
*I *1949:B I *D sky130_fd_sc_hd__and2_4
*I *1951:A2 I *D sky130_fd_sc_hd__o21ai_4
*I *1952:A2 I *D sky130_fd_sc_hd__a21o_2
*I *2347:X O *D sky130_fd_sc_hd__clkdlybuf4s25_1
*CAP
1 *1950:B 0.000218683
2 *1949:B 0
3 *1951:A2 0
4 *1952:A2 0.000157952
5 *2347:X 0.000148573
6 *556:42 0.000975344
7 *556:29 0.00084749
8 *556:8 0.000397354
9 *1950:B *580:8 2.72392e-05
10 *1950:B *591:10 2.10214e-05
11 *1946:A2 *556:8 0.00018955
12 *1953:A1 *1950:B 0.000150669
13 *1954:A1 *1950:B 4.77719e-05
14 *1954:A2 *556:42 4.82919e-05
15 *1954:B1 *1950:B 8.6076e-05
16 *1969:A2 *556:42 0.000122801
17 *1969:B2 *556:42 4.8854e-05
18 *2173:B *1952:A2 7.91892e-05
19 *2173:B *556:29 0.000239029
20 *226:24 *1952:A2 0.000103546
21 *231:19 *556:42 8.65905e-05
22 *233:12 *1950:B 0
23 *233:12 *556:42 0
24 *456:41 *1950:B 0.000166925
25 *456:47 *1950:B 2.97746e-05
26 *456:47 *556:42 0.000112284
27 *456:74 *1952:A2 0.000167569
28 *513:12 *556:42 0
29 *521:10 *1952:A2 2.42035e-05
30 *521:10 *556:29 9.6227e-05
*RES
1 *2347:X *556:8 5.43 
2 *556:8 *1952:A2 7.215 
3 *556:8 *556:29 4.91 
4 *556:29 *1951:A2 1.6 
5 *556:29 *556:42 11.345 
6 *556:42 *1949:B 3.6 
7 *556:42 *1950:B 8.865 
*END

*D_NET *557 0.00548297
*CONN
*I *1912:B I *D sky130_fd_sc_hd__nand2_2
*I *1914:A2 I *D sky130_fd_sc_hd__o21ai_2
*I *1915:A2 I *D sky130_fd_sc_hd__a21oi_2
*I *1911:B I *D sky130_fd_sc_hd__and2_2
*I *1913:A_N I *D sky130_fd_sc_hd__nand2b_2
*I *2348:X O *D sky130_fd_sc_hd__clkdlybuf4s25_1
*CAP
1 *1912:B 0.000144422
2 *1914:A2 0.000167313
3 *1915:A2 4.88252e-05
4 *1911:B 0
5 *1913:A_N 0
6 *2348:X 0.000883602
7 *557:39 0.000468531
8 *557:25 0.000315836
9 *557:12 0.000267011
10 *557:10 0.0010404
11 *557:10 *2396:A 4.41468e-05
12 *1910:D1 *557:10 7.3664e-05
13 *1912:A *1912:B 0.000119219
14 *1912:A *557:39 5.21046e-05
15 *1913:B *557:25 0.0001249
16 *1915:A1 *1915:A2 0.000163199
17 *1915:A1 *557:25 2.55546e-05
18 *1917:A_N *1914:A2 7.40446e-05
19 *1917:C *1912:B 5.16348e-05
20 *1917:C *557:39 8.76033e-05
21 *2179:A *557:10 0.000284976
22 *2179:B *557:10 5.51626e-05
23 *2313:A *557:10 9.78429e-05
24 *2348:A *557:10 3.82323e-06
25 *2361:A *557:25 0
26 *177:12 *557:10 5.20968e-05
27 *191:10 *1915:A2 2.11084e-05
28 *192:8 *1912:B 9.68787e-05
29 *193:8 *557:39 0.000166346
30 *435:12 *557:10 0
31 *435:12 *557:39 0
32 *435:23 *557:10 0
33 *449:65 *557:10 0.000113972
34 *458:44 *557:25 0.000315527
35 *522:10 *557:10 0
36 *522:10 *557:39 0
37 *522:25 *1914:A2 0.000123225
*RES
1 *2348:X *557:10 18.735 
2 *557:10 *557:12 2 
3 *557:12 *1913:A_N 1.6 
4 *557:12 *557:25 5.76 
5 *557:25 *1911:B 1.6 
6 *557:25 *1915:A2 3.085 
7 *557:10 *557:39 3.675 
8 *557:39 *1914:A2 6.495 
9 *557:39 *1912:B 6.96 
*END

*D_NET *558 0.00564648
*CONN
*I *2216:B1 I *D sky130_fd_sc_hd__o21ai_2
*I *2230:B1_N I *D sky130_fd_sc_hd__o21bai_2
*I *2232:A1 I *D sky130_fd_sc_hd__o21a_2
*I *2228:A2 I *D sky130_fd_sc_hd__a22oi_2
*I *2233:A1 I *D sky130_fd_sc_hd__o21ai_2
*I *2349:X O *D sky130_fd_sc_hd__clkdlybuf4s25_1
*CAP
1 *2216:B1 0
2 *2230:B1_N 0
3 *2232:A1 0.000101713
4 *2228:A2 2.10735e-05
5 *2233:A1 0.000180178
6 *2349:X 0.000386326
7 *558:51 0.000122786
8 *558:36 0.000744709
9 *558:22 0.000781963
10 *558:14 0.000603758
11 S[14] *558:14 1.04138e-05
12 *2213:B *558:14 5.05521e-05
13 *2228:A1 *2228:A2 1.94805e-05
14 *2228:A1 *2232:A1 2.88436e-05
15 *2228:A1 *2233:A1 0.000116165
16 *2228:B2 *2233:A1 0.000160635
17 *2228:B2 *558:36 3.57349e-05
18 *2232:A2 *2233:A1 2.30797e-05
19 *2233:B1 *2232:A1 0.000225182
20 *2235:A2 *2233:A1 0
21 *2238:A1 *558:14 0
22 *2238:A1 *558:22 7.48946e-05
23 *2240:A1 *558:36 0.000111554
24 *2240:A2 *558:14 0
25 *2240:A2 *558:22 1.22676e-05
26 *2240:A2 *558:36 4.11281e-05
27 *2240:B1 *558:36 9.27255e-06
28 *2240:C1 *558:36 9.42236e-05
29 *2240:D1 *558:22 4.24292e-06
30 *2241:C *2228:A2 2.92496e-05
31 *2241:C *2232:A1 7.23602e-05
32 *111:12 *558:14 6.20952e-05
33 *112:10 *558:14 0.000113797
34 *113:22 *2232:A1 1.93765e-05
35 *114:6 *558:14 2.05056e-05
36 *114:6 *558:22 0.000315527
37 *114:14 *558:22 4.82919e-05
38 *118:36 *558:36 0.000491893
39 *128:25 *558:22 0.00015997
40 *128:38 *558:22 9.50342e-06
41 *129:31 *2232:A1 8.53113e-06
42 *139:10 *2232:A1 0.000143266
43 *471:58 *558:14 2.75229e-05
44 *475:45 *2228:A2 1.26548e-05
45 *475:45 *2232:A1 4.59674e-05
46 *534:12 *558:14 0.000105791
*RES
1 *2349:X *558:14 11.9 
2 *558:14 *558:22 7.715 
3 *558:22 *558:36 11.315 
4 *558:36 *2233:A1 8.72 
5 *558:36 *558:51 2 
6 *558:51 *2228:A2 4.215 
7 *558:51 *2232:A1 7.275 
8 *558:22 *2230:B1_N 3.6 
9 *558:14 *2216:B1 1.6 
*END

*D_NET *559 0.00664736
*CONN
*I *1907:A2 I *D sky130_fd_sc_hd__a21oi_2
*I *1904:A2 I *D sky130_fd_sc_hd__o21a_2
*I *1901:A_N I *D sky130_fd_sc_hd__nand2b_4
*I *1902:B I *D sky130_fd_sc_hd__nand2b_4
*I *1906:A1 I *D sky130_fd_sc_hd__o21ai_4
*I *1903:B I *D sky130_fd_sc_hd__nand2_2
*I *1905:A2 I *D sky130_fd_sc_hd__a21boi_2
*I *2350:X O *D sky130_fd_sc_hd__clkdlybuf4s25_1
*CAP
1 *1907:A2 0.000222904
2 *1904:A2 0.000303048
3 *1901:A_N 0
4 *1902:B 0.000247383
5 *1906:A1 7.73554e-05
6 *1903:B 0
7 *1905:A2 3.46816e-05
8 *2350:X 0.000372214
9 *559:75 0.000627392
10 *559:46 0.000680136
11 *559:38 0.000409103
12 *559:34 0.000408727
13 *559:19 0.000394045
14 *559:8 0.00054736
15 *1907:A2 *2380:A 6.5525e-05
16 S[1] *1907:A2 5.16418e-05
17 S[1] *559:34 0.000105599
18 S[1] *559:75 0.000141592
19 *1901:B *559:46 0.000131279
20 *1905:A1 *1905:A2 4.89295e-05
21 *1905:A1 *1906:A1 0
22 *1905:A1 *559:8 8.64421e-05
23 *1905:B1_N *559:19 8.69583e-05
24 *1905:B1_N *559:34 0
25 *1908:C *1902:B 8.65905e-05
26 *1910:C1 *1904:A2 0.000192125
27 *1937:A *1902:B 0
28 *2166:A0 *559:46 4.66108e-05
29 *2166:A1 *1902:B 0
30 *2314:A *1906:A1 9.50342e-06
31 *2350:A *1905:A2 5.06989e-05
32 *2350:A *559:8 7.776e-05
33 *2350:A *559:19 8.80542e-05
34 *2350:A *559:34 5.28974e-05
35 *181:6 *559:38 0.000109603
36 *181:6 *559:46 0.000200288
37 *219:10 *1902:B 4.82863e-05
38 *454:12 *1902:B 0.000195932
39 *454:20 *1902:B 2.92496e-05
40 *454:20 *1906:A1 0.000116158
41 *473:10 *1907:A2 0
42 *523:31 *1904:A2 0.00010607
43 *541:10 *1907:A2 3.50128e-05
44 *541:10 *559:34 0.00011099
45 *541:10 *559:75 4.66446e-05
46 *541:21 *1907:A2 2.56752e-06
*RES
1 *2350:X *559:8 7.585 
2 *559:8 *1905:A2 2.755 
3 *559:8 *559:19 2.865 
4 *559:19 *1903:B 1.6 
5 *559:19 *559:34 7.19 
6 *559:34 *559:38 3.14 
7 *559:38 *559:46 8.435 
8 *559:46 *1906:A1 5.235 
9 *559:46 *1902:B 8.43 
10 *559:38 *1901:A_N 1.6 
11 *559:34 *559:75 2.43 
12 *559:75 *1904:A2 7.515 
13 *559:75 *1907:A2 7.74 
*END

*D_NET *560 0.00273805
*CONN
*I *2280:A2 I *D sky130_fd_sc_hd__o21ai_4
*I *2276:A_N I *D sky130_fd_sc_hd__nand2b_4
*I *2277:B I *D sky130_fd_sc_hd__nand2_2
*I *1899:A2 I *D sky130_fd_sc_hd__a21o_2
*I *2278:B I *D sky130_fd_sc_hd__and2_2
*I *2351:X O *D sky130_fd_sc_hd__clkdlybuf4s25_1
*CAP
1 *2280:A2 0.000378582
2 *2276:A_N 0
3 *2277:B 9.3384e-05
4 *1899:A2 8.43012e-05
5 *2278:B 0
6 *2351:X 0
7 *560:45 0.000608796
8 *560:12 0.000280204
9 *560:6 0.00032012
10 *560:4 0.000261048
11 *1899:A2 *2398:A 6.70099e-05
12 *2280:A2 *2395:A 0
13 *560:12 *2398:A 2.97004e-06
14 S[7] *560:12 7.07957e-05
15 *1910:A1 *2277:B 9.37731e-05
16 *2279:B *2280:A2 8.8266e-05
17 *2280:A1 *2277:B 2.75229e-05
18 *2280:A1 *2280:A2 7.35813e-05
19 *2351:A *2280:A2 0
20 *178:8 *2277:B 2.75229e-05
21 *178:23 *2277:B 4.9968e-05
22 *190:10 *560:12 0
23 *459:61 *1899:A2 0.000200699
24 *459:61 *560:12 9.50342e-06
25 *524:12 *2277:B 0
26 *526:10 *2280:A2 0
*RES
1 *2351:X *560:4 1.6 
2 *560:4 *560:6 0.45 
3 *560:6 *560:12 5.12 
4 *560:12 *2278:B 3.6 
5 *560:12 *1899:A2 6 
6 *560:6 *2277:B 7.685 
7 *560:4 *560:45 3.225 
8 *560:45 *2276:A_N 1.6 
9 *560:45 *2280:A2 11.84 
*END

*D_NET *561 0.00385451
*CONN
*I *1924:A2 I *D sky130_fd_sc_hd__o21ai_2
*I *1922:A2 I *D sky130_fd_sc_hd__a21boi_2
*I *1919:B I *D sky130_fd_sc_hd__nor2_2
*I *1920:B I *D sky130_fd_sc_hd__and2_4
*I *1923:A2 I *D sky130_fd_sc_hd__a21bo_2
*I *2352:X O *D sky130_fd_sc_hd__clkdlybuf4s25_1
*CAP
1 *1924:A2 0.000241093
2 *1922:A2 8.97306e-05
3 *1919:B 0
4 *1920:B 6.31412e-05
5 *1923:A2 3.9347e-05
6 *2352:X 0.000294478
7 *561:35 0.000421197
8 *561:26 0.000233843
9 *561:10 0.000102488
10 *561:8 0.000437948
11 *561:8 *562:12 0
12 *1920:A *1920:B 4.99619e-05
13 *1920:A *561:26 0
14 *1920:A *561:35 0
15 *1922:B1_N *561:26 3.76518e-05
16 *1922:B1_N *561:35 7.53115e-05
17 *1923:A1 *1920:B 1.91597e-05
18 *1923:A1 *1923:A2 5.05437e-05
19 *1924:A1 *1924:A2 0.000188069
20 *1924:B1 *1922:A2 0.000162311
21 *1926:D *1924:A2 0.000311294
22 *173:10 *1924:A2 2.66586e-05
23 *199:10 *561:26 0.000141606
24 *239:10 *1924:A2 5.21458e-05
25 *239:10 *561:35 2.03321e-05
26 *465:6 *1924:A2 8.65905e-05
27 *465:10 *1924:A2 0
28 *465:10 *561:35 0
29 *465:12 *561:35 0
30 *466:12 *561:8 4.38051e-05
31 *466:12 *561:26 0.0003399
32 *466:14 *561:8 0.000129735
33 *466:22 *561:8 0.000196173
34 *526:10 *561:8 0
35 *526:25 *561:26 0
*RES
1 *2352:X *561:8 9.315 
2 *561:8 *561:10 2 
3 *561:10 *1923:A2 2.395 
4 *561:10 *1920:B 2.74 
5 *561:8 *561:26 4.185 
6 *561:26 *1919:B 3.6 
7 *561:26 *561:35 2.145 
8 *561:35 *1922:A2 5.43 
9 *561:35 *1924:A2 9.75 
*END

*D_NET *562 0.00266731
*CONN
*I *2253:A_N I *D sky130_fd_sc_hd__nand2b_4
*I *2251:B I *D sky130_fd_sc_hd__nand2_2
*I *2254:A2 I *D sky130_fd_sc_hd__o21a_4
*I *2252:B I *D sky130_fd_sc_hd__nand2_2
*I *2353:X O *D sky130_fd_sc_hd__clkdlybuf4s25_1
*CAP
1 *2253:A_N 0
2 *2251:B 9.65708e-05
3 *2254:A2 2.06731e-05
4 *2252:B 3.7089e-05
5 *2353:X 0.00055386
6 *562:14 5.77621e-05
7 *562:12 0.000209087
8 *562:8 0.000666377
9 *2252:A *2251:B 8.76593e-05
10 *2252:A *562:12 2.97004e-06
11 *2253:B *2252:B 4.82863e-05
12 *2253:B *2254:A2 3.74161e-05
13 *2253:B *562:8 9.91257e-05
14 *2316:A *562:8 0.000467074
15 *2318:A *2251:B 7.05652e-05
16 *2318:A *562:12 9.49958e-05
17 *2353:A *562:8 3.52525e-05
18 *2353:A *562:12 3.25831e-05
19 *466:33 *2252:B 4.99619e-05
20 *561:8 *562:12 0
*RES
1 *2353:X *562:8 9.22 
2 *562:8 *562:12 4.4 
3 *562:12 *562:14 2 
4 *562:14 *2252:B 2.395 
5 *562:14 *2254:A2 2.05 
6 *562:12 *2251:B 6.045 
7 *562:8 *2253:A_N 1.6 
*END

*D_NET *563 0.00224664
*CONN
*I *2245:B I *D sky130_fd_sc_hd__and2_4
*I *2244:B I *D sky130_fd_sc_hd__nor2_2
*I *2248:A2 I *D sky130_fd_sc_hd__a21boi_2
*I *2249:A2 I *D sky130_fd_sc_hd__o21ai_2
*I *2354:X O *D sky130_fd_sc_hd__clkdlybuf4s25_1
*CAP
1 *2245:B 0.000298176
2 *2244:B 0
3 *2248:A2 1.31277e-05
4 *2249:A2 8.76834e-05
5 *2354:X 0
6 *563:28 0.000436867
7 *563:8 0.00041563
8 *563:4 0.00045351
9 *2245:A *2245:B 0
10 *2248:A1 *2248:A2 3.26889e-05
11 *2248:A1 *563:8 9.53428e-06
12 *2249:B1 *2249:A2 4.60584e-05
13 *2249:B1 *563:8 5.53774e-05
14 *2354:A *563:8 0.000198945
15 *147:12 *2249:A2 7.00889e-06
16 *468:67 *2248:A2 0
17 *468:67 *2249:A2 9.91257e-05
18 *468:67 *563:8 1.61831e-05
19 *468:80 *563:8 7.67254e-05
20 *468:80 *563:28 0
*RES
1 *2354:X *563:4 1.6 
2 *563:4 *563:8 5.64 
3 *563:8 *2249:A2 3.775 
4 *563:8 *2248:A2 1.96 
5 *563:4 *563:28 4.085 
6 *563:28 *2244:B 3.6 
7 *563:28 *2245:B 8.175 
*END

*D_NET *564 0.011804
*CONN
*I *2287:A I *D sky130_fd_sc_hd__dlygate4sd1_1
*I *2293:A I *D sky130_fd_sc_hd__buf_8
*I *2285:A I *D sky130_fd_sc_hd__buf_6
*I *2286:A I *D sky130_fd_sc_hd__clkbuf_2
*I *2355:X O *D sky130_fd_sc_hd__buf_8
*CAP
1 *2287:A 0
2 *2293:A 0.00119966
3 *2285:A 0.00138595
4 *2286:A 0
5 *2355:X 0.00117908
6 *564:43 0.0022923
7 *564:10 0.00147239
8 *2285:A *2401:A 0.000184821
9 *2293:A *2382:A 4.82919e-05
10 *564:43 *2021:B 6.90499e-05
11 *564:43 *2381:A 0.000132422
12 S[21] *2293:A 6.47326e-05
13 *2021:A *2293:A 4.35648e-05
14 *2021:A *564:43 0.000187073
15 *2024:A1 *2293:A 2.75145e-05
16 *2047:B *2293:A 0.000122337
17 *2133:B *2285:A 0.000157595
18 *2137:B *2285:A 0
19 *2158:C1 *2285:A 9.34489e-05
20 *2159:A2 *2285:A 0.00014856
21 *2161:B *2285:A 0.00018305
22 *2164:A1 *2285:A 0.000160651
23 *2201:B2 *2285:A 0.000155552
24 *2301:A *2293:A 0.000198581
25 *2346:A *2285:A 0.000175583
26 *299:10 *2293:A 8.65961e-05
27 *400:10 *2285:A 0.000484936
28 *403:10 *2285:A 0.000163204
29 *409:44 *2285:A 9.05493e-05
30 *416:10 *2285:A 4.21256e-05
31 *422:16 *2285:A 7.45881e-05
32 *422:29 *2285:A 8.25609e-05
33 *423:10 *2285:A 0.000155928
34 *460:12 *2285:A 8.65905e-05
35 *461:8 *2285:A 0
36 *461:12 *2285:A 0
37 *461:55 *2285:A 0.000163199
38 *464:8 *564:43 8.65905e-05
39 *506:14 *2293:A 0.000604892
*RES
1 *2355:X *564:10 6.98 
2 *564:10 *2286:A 1.6 
3 *564:10 *2285:A 36.74 
4 *2355:X *564:43 19 
5 *564:43 *2293:A 22.435 
6 *564:43 *2287:A 1.6 
*END

*D_NET *565 0.000569686
*CONN
*I *2369:A I *D sky130_fd_sc_hd__clkdlybuf4s25_1
*I *2165:X O *D sky130_fd_sc_hd__xor2_2
*CAP
1 *2369:A 0.000284843
2 *2165:X 0.000284843
3 *529:16 *2369:A 0
*RES
1 *2165:X *2369:A 11.52 
*END

*D_NET *566 0.00075197
*CONN
*I *2370:A I *D sky130_fd_sc_hd__dlymetal6s4s_1
*I *2187:X O *D sky130_fd_sc_hd__xor2_2
*CAP
1 *2370:A 0.000295275
2 *2187:X 0.000295275
3 *2370:A *2371:A 0.000161419
4 S[10] *2370:A 0
*RES
1 *2187:X *2370:A 12.36 
*END

*D_NET *567 0.00100692
*CONN
*I *2371:A I *D sky130_fd_sc_hd__clkbuf_2
*I *2189:X O *D sky130_fd_sc_hd__xor2_2
*CAP
1 *2371:A 0.000244901
2 *2189:X 0.000244901
3 S[11] *2371:A 0.000229515
4 *2305:A *2371:A 2.03321e-05
5 *2370:A *2371:A 0.000161419
6 *510:8 *2371:A 0
7 *547:10 *2371:A 0.000105849
*RES
1 *2189:X *2371:A 13.875 
*END

*D_NET *568 0.000983029
*CONN
*I *2372:A I *D sky130_fd_sc_hd__dlymetal6s4s_1
*I *2192:X O *D sky130_fd_sc_hd__xor2_2
*CAP
1 *2372:A 0.00031167
2 *2192:X 0.00031167
3 *2217:A *2372:A 0.000276441
4 *2217:B *2372:A 9.80032e-06
5 *2219:B *2372:A 3.00381e-05
6 *2327:A *2372:A 1.67513e-05
7 *467:27 *2372:A 0
8 *536:6 *2372:A 2.66586e-05
9 *547:10 *2372:A 0
*RES
1 *2192:X *2372:A 12.735 
*END

*D_NET *569 0.000934478
*CONN
*I *2231:B1_N I *D sky130_fd_sc_hd__o21bai_2
*I *2212:C_N I *D sky130_fd_sc_hd__or3b_4
*I *2356:X O *D sky130_fd_sc_hd__clkdlybuf4s25_1
*CAP
1 *2231:B1_N 0
2 *2212:C_N 8.79845e-05
3 *2356:X 0.000269109
4 *569:10 0.000357094
5 *2212:C_N *2375:A 0.000139245
6 *2200:B *2212:C_N 0
7 *2211:B *569:10 8.10455e-05
8 *2212:A *2212:C_N 0
9 *2212:A *569:10 0
10 *109:14 *569:10 0
11 *471:46 *569:10 0
*RES
1 *2356:X *569:10 7.41 
2 *569:10 *2212:C_N 5.49 
3 *569:10 *2231:B1_N 3.6 
*END

*D_NET *570 0.000330442
*CONN
*I *2373:A I *D sky130_fd_sc_hd__dlymetal6s4s_1
*I *2194:Y O *D sky130_fd_sc_hd__xnor2_2
*CAP
1 *2373:A 0.000151459
2 *2194:Y 0.000151459
3 *2373:A *2377:A 2.75229e-05
*RES
1 *2194:Y *2373:A 9.54 
*END

*D_NET *571 0.000307539
*CONN
*I *2374:A I *D sky130_fd_sc_hd__clkbuf_4
*I *2197:X O *D sky130_fd_sc_hd__xor2_2
*CAP
1 *2374:A 0.000115228
2 *2197:X 0.000115228
3 *2197:A *2374:A 0
4 *2214:B *2374:A 0
5 *2240:A2 *2374:A 7.70828e-05
6 *112:10 *2374:A 0
*RES
1 *2197:X *2374:A 9.345 
*END

*D_NET *572 0.00126612
*CONN
*I *2375:A I *D sky130_fd_sc_hd__clkbuf_2
*I *2200:Y O *D sky130_fd_sc_hd__nor2_4
*CAP
1 *2375:A 0.000462207
2 *2200:Y 0.000462207
3 S[15] *2375:A 0
4 *2212:A *2375:A 0
5 *2212:C_N *2375:A 0.000139245
6 *109:14 *2375:A 0.000138791
7 *129:12 *2375:A 6.36656e-05
8 *471:52 *2375:A 0
*RES
1 *2200:Y *2375:A 15.48 
*END

*D_NET *573 0.003997
*CONN
*I *2376:A I *D sky130_fd_sc_hd__buf_6
*I *1975:X O *D sky130_fd_sc_hd__xor2_2
*CAP
1 *2376:A 0.00187391
2 *1975:X 0.00187391
3 *1972:A *2376:A 5.92849e-05
4 *1974:B1 *2376:A 0.000141606
5 *2214:A *2376:A 4.82863e-05
*RES
1 *1975:X *2376:A 33.915 
*END

*D_NET *574 0.00551063
*CONN
*I *2377:A I *D sky130_fd_sc_hd__buf_6
*I *1983:X O *D sky130_fd_sc_hd__xor2_2
*CAP
1 *2377:A 0.00243295
2 *1983:X 0.00243295
3 *1982:A2 *2377:A 0.00041515
4 *1983:B *2377:A 0
5 *2195:A2 *2377:A 0.000109947
6 *2195:B1 *2377:A 4.82863e-05
7 *2197:B *2377:A 4.38278e-05
8 *2373:A *2377:A 2.75229e-05
9 *106:27 *2377:A 0
*RES
1 *1983:X *2377:A 42.855 
*END

*D_NET *575 0.00580815
*CONN
*I *2378:A I *D sky130_fd_sc_hd__clkbuf_4
*I *1995:X O *D sky130_fd_sc_hd__xor2_2
*CAP
1 *2378:A 0.00191047
2 *1995:X 0.00191047
3 *1972:B *2378:A 0.000656025
4 *1975:B *2378:A 5.3023e-05
5 *2127:B *2378:A 5.53249e-06
6 *2215:A *2378:A 0.000114433
7 *2229:A1 *2378:A 7.67415e-06
8 *2229:C1 *2378:A 8.65961e-05
9 *2233:B1 *2378:A 3.79763e-05
10 *2235:A1 *2378:A 5.30673e-05
11 *2240:A1 *2378:A 1.92187e-05
12 *2240:D1 *2378:A 4.80285e-05
13 *2241:B *2378:A 0.00038396
14 *2241:C *2378:A 2.04748e-05
15 *111:21 *2378:A 0.00011964
16 *113:22 *2378:A 0.000223587
17 *128:6 *2378:A 6.97118e-05
18 *252:10 *2378:A 8.8266e-05
*RES
1 *1995:X *2378:A 39.18 
*END

*D_NET *576 0.00227639
*CONN
*I *2379:A I *D sky130_fd_sc_hd__clkbuf_4
*I *2007:Y O *D sky130_fd_sc_hd__nand2_2
*CAP
1 *2379:A 0.000812542
2 *2007:Y 0.000812542
3 S[19] *2379:A 4.82863e-05
4 *2054:A1 *2379:A 0
5 *2054:B1 *2379:A 0.000293025
6 *2061:C1 *2379:A 0.000135312
7 *2062:A1 *2379:A 2.24423e-05
8 *2064:B1 *2379:A 5.39961e-05
9 *2064:C1 *2379:A 0
10 *2064:D1 *2379:A 4.82863e-05
11 *2065:B *2379:A 0
12 *2067:A2 *2379:A 4.99619e-05
13 *337:10 *2379:A 0
14 *337:16 *2379:A 0
*RES
1 *2007:Y *2379:A 21.975 
*END

*D_NET *577 0.000559898
*CONN
*I *2380:A I *D sky130_fd_sc_hd__buf_6
*I *2167:Y O *D sky130_fd_sc_hd__xnor2_2
*CAP
1 *2380:A 0.00017065
2 *2167:Y 0.00017065
3 *1907:A2 *2380:A 6.5525e-05
4 *1931:A *2380:A 1.3763e-05
5 *1931:B *2380:A 2.49909e-05
6 *541:10 *2380:A 0.00011432
*RES
1 *2167:Y *2380:A 10.065 
*END

*D_NET *578 0.00228878
*CONN
*I *2381:A I *D sky130_fd_sc_hd__buf_6
*I *2021:X O *D sky130_fd_sc_hd__xor2_4
*CAP
1 *2381:A 0.000721949
2 *2021:X 0.000721949
3 *2381:A *2021:B 4.23378e-05
4 S[20] *2381:A 5.30673e-05
5 *2021:A *2381:A 0.000124895
6 *2022:A *2381:A 0.000124816
7 *2022:B *2381:A 4.99619e-05
8 *2299:A *2381:A 4.99619e-05
9 *2333:A *2381:A 0
10 *2334:A *2381:A 2.45351e-05
11 *464:10 *2381:A 3.68769e-05
12 *495:10 *2381:A 9.27495e-05
13 *543:8 *2381:A 0.000113255
14 *564:43 *2381:A 0.000132422
*RES
1 *2021:X *2381:A 19.5575 
*END

*D_NET *579 0.00186465
*CONN
*I *2382:A I *D sky130_fd_sc_hd__buf_8
*I *2032:Y O *D sky130_fd_sc_hd__nand2_4
*CAP
1 *2382:A 0.00051896
2 *2032:Y 0.00051896
3 *2382:A *2030:A1 5.74016e-05
4 S[21] *2382:A 2.75229e-05
5 *2026:B1 *2382:A 0.00011843
6 *2027:B1 *2382:A 0
7 *2032:B *2382:A 5.56629e-05
8 *2293:A *2382:A 4.82919e-05
9 *300:30 *2382:A 0
10 *301:12 *2382:A 0.000179015
11 *301:40 *2382:A 0.000208484
12 *303:8 *2382:A 5.00612e-05
13 *495:10 *2382:A 5.53249e-06
14 *495:12 *2382:A 7.63282e-05
*RES
1 *2032:Y *2382:A 18.21 
*END

*D_NET *580 0.00404147
*CONN
*I *2207:C I *D sky130_fd_sc_hd__nand3b_2
*I *2208:B1_N I *D sky130_fd_sc_hd__o21bai_4
*I *2357:X O *D sky130_fd_sc_hd__clkdlybuf4s25_1
*CAP
1 *2207:C 0.000231769
2 *2208:B1_N 7.40292e-05
3 *2357:X 0.00108248
4 *580:8 0.00138827
5 *580:8 *591:10 7.92464e-06
6 *1950:B *580:8 2.72392e-05
7 *1953:A1 *580:8 0.00023173
8 *1954:A1 *580:8 0.00013046
9 *1978:A *580:8 7.35813e-05
10 *2204:A *580:8 2.36716e-05
11 *2207:A_N *2207:C 0
12 *2207:B *580:8 0.000122331
13 *2208:A2 *2207:C 7.22354e-05
14 *2208:A2 *2208:B1_N 0
15 *2284:A *2207:C 1.71207e-05
16 *2284:A *2208:B1_N 7.89611e-05
17 *234:12 *580:8 0.000122325
18 *258:16 *2207:C 0.000142669
19 *481:10 *2207:C 3.09233e-05
20 *481:14 *2207:C 0.000183745
*RES
1 *2357:X *580:8 16.815 
2 *580:8 *2208:B1_N 5.235 
3 *580:8 *2207:C 9.045 
*END

*D_NET *581 0.00027607
*CONN
*I *2383:A I *D sky130_fd_sc_hd__buf_6
*I *2047:Y O *D sky130_fd_sc_hd__nand2_4
*CAP
1 *2383:A 0.000138035
2 *2047:Y 0.000138035
3 *2061:A1 *2383:A 0
4 *2408:A *2383:A 0
5 *329:10 *2383:A 0
*RES
1 *2047:Y *2383:A 9.345 
*END

*D_NET *582 0.0022536
*CONN
*I *2384:A I *D sky130_fd_sc_hd__buf_4
*I *2063:Y O *D sky130_fd_sc_hd__nor2_4
*CAP
1 *2384:A 0.000529623
2 *2063:Y 0.000529623
3 S[19] *2384:A 0
4 *2300:A *2384:A 0.00011964
5 *2336:A *2384:A 4.04522e-05
6 *472:10 *2384:A 0.000498567
7 *500:12 *2384:A 0.000147797
8 *545:10 *2384:A 0.000387896
*RES
1 *2063:Y *2384:A 19.215 
*END

*D_NET *583 0.00293476
*CONN
*I *2385:A I *D sky130_fd_sc_hd__buf_6
*I *2081:X O *D sky130_fd_sc_hd__and2_2
*CAP
1 *2385:A 0.000832611
2 *2081:X 0.000832611
3 S[24] *2385:A 4.66108e-05
4 *2075:C *2385:A 9.23551e-05
5 *2077:B *2385:A 1.1561e-05
6 *2081:A *2385:A 9.66021e-05
7 *2081:B *2385:A 2.75229e-05
8 *2089:A1 *2385:A 7.97734e-05
9 *2337:A *2385:A 0.000162318
10 *347:12 *2385:A 0.000139245
11 *349:10 *2385:A 0
12 *358:12 *2385:A 0.00029883
13 *358:18 *2385:A 0.000204456
14 *358:22 *2385:A 6.36578e-05
15 *507:12 *2385:A 4.66108e-05
*RES
1 *2081:X *2385:A 22.47 
*END

*D_NET *584 0.00252928
*CONN
*I *2386:A I *D sky130_fd_sc_hd__buf_6
*I *2090:Y O *D sky130_fd_sc_hd__nand2_2
*CAP
1 *2386:A 0.000877591
2 *2090:Y 0.000877591
3 *2073:B *2386:A 0
4 *2077:A *2386:A 6.18267e-05
5 *2077:B *2386:A 0
6 *2084:B1_N *2386:A 0
7 *2087:B1_N *2386:A 7.37109e-05
8 *2088:A_N *2386:A 2.49909e-05
9 *2090:A *2386:A 1.61831e-05
10 *2090:B *2386:A 0.000129633
11 *2093:A2 *2386:A 6.36578e-05
12 *2303:A *2386:A 5.53249e-06
13 *349:10 *2386:A 0.00030615
14 *363:12 *2386:A 9.24127e-05
15 *475:31 *2386:A 0
16 *507:12 *2386:A 0
17 *508:10 *2386:A 0
*RES
1 *2090:Y *2386:A 23.325 
*END

*D_NET *585 0.00124921
*CONN
*I *2387:A I *D sky130_fd_sc_hd__buf_6
*I *2102:Y O *D sky130_fd_sc_hd__nand2_2
*CAP
1 *2387:A 0.000487377
2 *2102:Y 0.000487377
3 *471:8 *2387:A 0
4 *475:45 *2387:A 0
5 *494:6 *2387:A 5.05521e-05
6 *494:23 *2387:A 0.000223907
*RES
1 *2102:Y *2387:A 16.005 
*END

*D_NET *586 0.00088231
*CONN
*I *2388:A I *D sky130_fd_sc_hd__buf_6
*I *2114:Y O *D sky130_fd_sc_hd__o21ai_2
*CAP
1 *2388:A 0.000232572
2 *2114:Y 0.000232572
3 *2114:B1 *2388:A 1.61831e-05
4 *2122:A2 *2388:A 6.46447e-05
5 *2122:B1 *2388:A 0.000163199
6 *390:6 *2388:A 0.00012657
7 *471:40 *2388:A 4.65698e-05
*RES
1 *2114:Y *2388:A 8.27 
*END

*D_NET *587 0.00225146
*CONN
*I *2389:A I *D sky130_fd_sc_hd__buf_6
*I *2131:X O *D sky130_fd_sc_hd__and2b_4
*CAP
1 *2389:A 0.00069346
2 *2131:X 0.00069346
3 *2389:A *2390:A 0.000608344
4 *2330:A *2389:A 5.6361e-05
5 *402:10 *2389:A 6.55328e-05
6 *539:10 *2389:A 1.41165e-05
7 *552:14 *2389:A 0.000120186
*RES
1 *2131:X *2389:A 16.965 
*END

*D_NET *588 0.00224609
*CONN
*I *2390:A I *D sky130_fd_sc_hd__buf_6
*I *2140:Y O *D sky130_fd_sc_hd__o21ai_2
*CAP
1 *2390:A 0.000456281
2 *2140:Y 0.000456281
3 *2131:B *2390:A 2.97746e-05
4 *2139:A1 *2390:A 2.44416e-05
5 *2140:B1 *2390:A 0.000115614
6 *2330:A *2390:A 5.20981e-05
7 *2360:A *2390:A 8.30853e-06
8 *2389:A *2390:A 0.000608344
9 *387:8 *2390:A 0.000253074
10 *456:12 *2390:A 8.64421e-05
11 *539:10 *2390:A 0.000155436
*RES
1 *2140:Y *2390:A 19.53 
*END

*D_NET *589 0.00185037
*CONN
*I *2391:A I *D sky130_fd_sc_hd__buf_4
*I *2170:X O *D sky130_fd_sc_hd__xor2_2
*CAP
1 *2391:A 0.000250025
2 *2170:X 0.000250025
3 *1948:A1 *2391:A 3.09164e-05
4 *1948:A2 *2391:A 8.6099e-05
5 *1951:A1 *2391:A 6.74079e-05
6 *1955:A2 *2391:A 0.000194951
7 *2173:A_N *2391:A 0
8 *225:23 *2391:A 0.000347364
9 *431:14 *2391:A 0.000576975
10 *513:12 *2391:A 4.66108e-05
*RES
1 *2170:X *2391:A 16.17 
*END

*D_NET *590 0.00311215
*CONN
*I *2392:A I *D sky130_fd_sc_hd__buf_6
*I *2154:Y O *D sky130_fd_sc_hd__o21ai_4
*CAP
1 *2392:A 0.00117281
2 *2154:Y 0.00117281
3 *1984:A *2392:A 0
4 *2065:D *2392:A 7.58604e-05
5 *2152:A1 *2392:A 0.000210151
6 *2154:B1 *2392:A 1.34361e-05
7 *2159:A1 *2392:A 0.000256259
8 *2159:B1 *2392:A 4.81845e-05
9 *2159:C1 *2392:A 3.63243e-05
10 *2162:B *2392:A 4.21973e-05
11 *409:27 *2392:A 8.41242e-05
*RES
1 *2154:Y *2392:A 26.16 
*END

*D_NET *591 0.0032393
*CONN
*I *1980:B1_N I *D sky130_fd_sc_hd__o21bai_4
*I *1979:C I *D sky130_fd_sc_hd__nand3b_2
*I *2358:X O *D sky130_fd_sc_hd__clkdlybuf4s25_1
*CAP
1 *1980:B1_N 0.000154145
2 *1979:C 0.000134205
3 *2358:X 0.000658903
4 *591:10 0.000947252
5 *1950:A *1980:B1_N 6.28498e-05
6 *1950:A *591:10 8.27194e-05
7 *1950:B *591:10 2.10214e-05
8 *1954:A1 *591:10 3.10886e-05
9 *1954:B1 *591:10 0.000234356
10 *1977:A *1979:C 4.77757e-05
11 *1979:A_N *1979:C 3.66303e-05
12 *234:12 *591:10 0.000135504
13 *456:18 *1980:B1_N 0.000164686
14 *496:19 *1979:C 0.000268906
15 *538:8 *1979:C 1.53053e-05
16 *538:21 *1979:C 0.00023603
17 *580:8 *591:10 7.92464e-06
*RES
1 *2358:X *591:10 12.42 
2 *591:10 *1979:C 7.515 
3 *591:10 *1980:B1_N 6.705 
*END

*D_NET *592 0.000270647
*CONN
*I *2393:A I *D sky130_fd_sc_hd__buf_6
*I *2164:Y O *D sky130_fd_sc_hd__a22oi_4
*CAP
1 *2393:A 0.000107153
2 *2164:Y 0.000107153
3 S[30] *2393:A 0
4 *2164:B1 *2393:A 5.63405e-05
5 *461:12 *2393:A 0
*RES
1 *2164:Y *2393:A 9.345 
*END

*D_NET *593 0.00110124
*CONN
*I *2394:A I *D sky130_fd_sc_hd__buf_6
*I *2173:Y O *D sky130_fd_sc_hd__nand2b_2
*CAP
1 *2394:A 0.000431828
2 *2173:Y 0.000431828
3 S[2] *2394:A 0
4 *2173:B *2394:A 4.82919e-05
5 *226:24 *2394:A 0.000189287
6 *478:25 *2394:A 0
*RES
1 *2173:Y *2394:A 13.77 
*END

*D_NET *594 0.00354627
*CONN
*I *2395:A I *D sky130_fd_sc_hd__clkbuf_2
*I *2175:Y O *D sky130_fd_sc_hd__xnor2_2
*CAP
1 *2395:A 0.000834868
2 *2175:Y 0.000834868
3 *1922:B1_N *2395:A 0
4 *1925:A1 *2395:A 7.37282e-05
5 *1927:A *2395:A 9.5433e-05
6 *1927:B *2395:A 0.000109009
7 *2182:B2 *2395:A 0.000205917
8 *2276:B *2395:A 2.75145e-05
9 *2280:A2 *2395:A 0
10 *190:29 *2395:A 0.000499089
11 *201:23 *2395:A 0
12 *201:42 *2395:A 0.00015896
13 *206:8 *2395:A 0.000212505
14 *526:10 *2395:A 0.000339886
15 *526:25 *2395:A 0.000154488
*RES
1 *2175:Y *2395:A 25.605 
*END

*D_NET *595 0.000470099
*CONN
*I *2396:A I *D sky130_fd_sc_hd__buf_2
*I *2177:Y O *D sky130_fd_sc_hd__xnor2_2
*CAP
1 *2396:A 8.9036e-05
2 *2177:Y 8.9036e-05
3 *1956:A *2396:A 4.82919e-05
4 *2177:B *2396:A 4.82919e-05
5 *2178:B1 *2396:A 9.52156e-05
6 *2179:A *2396:A 4.43871e-06
7 *449:65 *2396:A 5.16418e-05
8 *557:10 *2396:A 4.41468e-05
*RES
1 *2177:Y *2396:A 9.795 
*END

*D_NET *596 0.000159033
*CONN
*I *2397:A I *D sky130_fd_sc_hd__buf_6
*I *2179:Y O *D sky130_fd_sc_hd__xnor2_2
*CAP
1 *2397:A 7.36875e-05
2 *2179:Y 7.36875e-05
3 S[6] *2397:A 1.16578e-05
*RES
1 *2179:Y *2397:A 4.34 
*END

*D_NET *597 0.000925304
*CONN
*I *2398:A I *D sky130_fd_sc_hd__buf_2
*I *2181:X O *D sky130_fd_sc_hd__xor2_2
*CAP
1 *2398:A 0.000180782
2 *2181:X 0.000180782
3 *1899:A2 *2398:A 6.70099e-05
4 *1900:A2 *2398:A 8.57024e-05
5 *176:6 *2398:A 8.40213e-05
6 *190:10 *2398:A 0.000324037
7 *560:12 *2398:A 2.97004e-06
*RES
1 *2181:X *2398:A 11.925 
*END

*D_NET *598 0.000540027
*CONN
*I *2399:A I *D sky130_fd_sc_hd__clkbuf_2
*I *2183:Y O *D sky130_fd_sc_hd__xnor2_2
*CAP
1 *2399:A 0.000244758
2 *2183:Y 0.000244758
3 *2399:A *2400:A 0
4 *2186:A1 *2399:A 8.53113e-06
5 *2249:A1 *2399:A 4.19797e-05
6 *147:12 *2399:A 0
*RES
1 *2183:Y *2399:A 11.325 
*END

*D_NET *599 0.000380907
*CONN
*I *2400:A I *D sky130_fd_sc_hd__clkbuf_2
*I *2185:Y O *D sky130_fd_sc_hd__xnor2_2
*CAP
1 *2400:A 0.000175435
2 *2185:Y 0.000175435
3 S[9] *2400:A 3.00381e-05
4 *2399:A *2400:A 0
5 *147:12 *2400:A 0
6 *525:10 *2400:A 0
*RES
1 *2185:Y *2400:A 10.14 
*END

*D_NET *600 0.000437386
*CONN
*I *2401:A I *D sky130_fd_sc_hd__buf_6
*I *2201:Y O *D sky130_fd_sc_hd__o2bb2ai_4
*CAP
1 *2401:A 8.89364e-05
2 *2201:Y 8.89364e-05
3 *2285:A *2401:A 0.000184821
4 *461:12 *2401:A 7.46921e-05
*RES
1 *2201:Y *2401:A 9.795 
*END

*D_NET *601 0.00460179
*CONN
*I *2030:A1 I *D sky130_fd_sc_hd__a211o_4
*I *2029:A2_N I *D sky130_fd_sc_hd__o2bb2ai_2
*I *2021:B I *D sky130_fd_sc_hd__xor2_4
*I *2368:X O *D sky130_fd_sc_hd__buf_6
*CAP
1 *2030:A1 9.02855e-05
2 *2029:A2_N 1.95087e-05
3 *2021:B 0.000696038
4 *2368:X 0.000228357
5 *601:12 0.00136766
6 *601:8 0.000970757
7 *1984:A *2021:B 0.000120344
8 *1984:A *2029:A2_N 3.50152e-06
9 *1984:A *601:12 3.26223e-06
10 *2012:A2 *2021:B 0.000164679
11 *2012:B1_N *2021:B 2.42236e-05
12 *2027:B1 *2030:A1 0.000141626
13 *2029:A1_N *601:12 1.33293e-05
14 *2029:B1 *601:12 6.27438e-05
15 *2029:B2 *601:12 4.82863e-05
16 *2032:A *601:12 2.75229e-05
17 *2032:B *2030:A1 3.47668e-05
18 *2065:C *2030:A1 0
19 *2142:B *2021:B 0
20 *2143:A *2021:B 3.64998e-06
21 *2381:A *2021:B 4.23378e-05
22 *2382:A *2030:A1 5.74016e-05
23 *289:25 *601:12 7.70705e-05
24 *303:8 *2030:A1 0
25 *463:10 *2021:B 7.34286e-05
26 *463:12 *2021:B 0.00010141
27 *463:16 *2021:B 7.71016e-05
28 *484:8 *2021:B 8.34426e-05
29 *542:26 *2021:B 0
30 *564:43 *2021:B 6.90499e-05
*RES
1 *2368:X *601:8 4.135 
2 *601:8 *601:12 7.71 
3 *601:12 *2021:B 19.055 
4 *601:12 *2029:A2_N 1.96 
5 *601:8 *2030:A1 8.51 
*END
