*SPEF "ieee 1481-1999"
*DESIGN "addsub32"
*DATE "09:16:00 Tuesday September 29, 2026"
*VENDOR "The OpenROAD Project"
*PROGRAM "OpenROAD"
*VERSION "dcf36133a369abc8f3c5e5738cd4d82e4903c0e0"
*DESIGN_FLOW "NAME_SCOPE LOCAL" "PIN_CAP NONE"
*DIVIDER /
*DELIMITER :
*BUS_DELIMITER []
*T_UNIT 1 NS
*C_UNIT 1 PF
*R_UNIT 1 OHM
*L_UNIT 1 HENRY

*NAME_MAP
*1 A[0]
*2 A[10]
*3 A[11]
*4 A[12]
*5 A[13]
*6 A[14]
*7 A[15]
*8 A[16]
*9 A[17]
*10 A[18]
*11 A[19]
*12 A[1]
*13 A[20]
*14 A[21]
*15 A[22]
*16 A[23]
*17 A[24]
*18 A[25]
*19 A[26]
*20 A[27]
*21 A[28]
*22 A[29]
*23 A[2]
*24 A[30]
*25 A[31]
*26 A[3]
*27 A[4]
*28 A[5]
*29 A[6]
*30 A[7]
*31 A[8]
*32 A[9]
*33 B[0]
*34 B[10]
*35 B[11]
*36 B[12]
*37 B[13]
*38 B[14]
*39 B[15]
*40 B[16]
*41 B[17]
*42 B[18]
*43 B[19]
*44 B[1]
*45 B[20]
*46 B[21]
*47 B[22]
*48 B[23]
*49 B[24]
*50 B[25]
*51 B[26]
*52 B[27]
*53 B[28]
*54 B[29]
*55 B[2]
*56 B[30]
*57 B[31]
*58 B[3]
*59 B[4]
*60 B[5]
*61 B[6]
*62 B[7]
*63 B[8]
*64 B[9]
*65 S[0]
*66 S[10]
*67 S[11]
*68 S[12]
*69 S[13]
*70 S[14]
*71 S[15]
*72 S[16]
*73 S[17]
*74 S[18]
*75 S[19]
*76 S[1]
*77 S[20]
*78 S[21]
*79 S[22]
*80 S[23]
*81 S[24]
*82 S[25]
*83 S[26]
*84 S[27]
*85 S[28]
*86 S[29]
*87 S[2]
*88 S[30]
*89 S[31]
*90 S[3]
*91 S[4]
*92 S[5]
*93 S[6]
*94 S[7]
*95 S[8]
*96 S[9]
*99 carryOut
*100 sub
*101 _000_
*102 _001_
*103 _002_
*104 _003_
*105 _004_
*106 _005_
*107 _006_
*108 _007_
*109 _008_
*110 _009_
*111 _010_
*112 _011_
*113 _012_
*114 _013_
*115 _014_
*116 _015_
*117 _016_
*118 _017_
*119 _018_
*120 _019_
*121 _020_
*122 _021_
*123 _022_
*124 _023_
*125 _024_
*126 _025_
*127 _026_
*128 _027_
*129 _028_
*130 _029_
*131 _030_
*132 _031_
*133 _032_
*134 _033_
*135 _034_
*136 _035_
*137 _036_
*138 _037_
*139 _038_
*140 _039_
*141 _040_
*142 _041_
*143 _042_
*144 _043_
*145 _044_
*146 _045_
*147 _046_
*148 _047_
*149 _048_
*150 _049_
*151 _050_
*152 _051_
*153 _052_
*154 _053_
*155 _054_
*156 _055_
*157 _056_
*158 _057_
*159 _058_
*160 _059_
*161 _060_
*162 _061_
*163 _062_
*164 _063_
*165 _064_
*166 _065_
*167 _066_
*168 _067_
*169 _068_
*170 _069_
*171 _070_
*172 _071_
*173 _072_
*174 _073_
*175 _074_
*176 _075_
*177 _076_
*178 _077_
*179 _078_
*180 _079_
*181 _080_
*182 _081_
*183 _082_
*184 _083_
*185 _084_
*186 _085_
*187 _086_
*188 _087_
*189 _088_
*190 _089_
*191 _090_
*192 _091_
*193 _092_
*194 _093_
*195 _094_
*196 _095_
*197 _096_
*198 _097_
*199 _098_
*200 _099_
*201 _100_
*202 _101_
*203 _102_
*204 _103_
*205 _104_
*206 _105_
*207 _106_
*208 _107_
*209 _108_
*210 _109_
*211 _110_
*212 _111_
*213 _112_
*214 _113_
*215 _114_
*216 _115_
*217 _116_
*218 _117_
*219 _118_
*220 _119_
*221 _120_
*222 _121_
*223 _122_
*224 _123_
*225 _124_
*226 _125_
*227 _126_
*228 _127_
*229 _128_
*230 _129_
*231 _130_
*232 _131_
*233 _132_
*234 _133_
*235 _134_
*236 _135_
*237 _136_
*238 _137_
*239 _138_
*240 _139_
*241 _140_
*242 _141_
*243 _142_
*244 _143_
*245 _144_
*246 _145_
*247 _146_
*248 _147_
*249 _148_
*250 _149_
*251 _150_
*252 _151_
*253 _152_
*254 _153_
*255 _154_
*256 _155_
*257 _156_
*258 _157_
*259 _158_
*260 _159_
*261 _160_
*262 _161_
*263 _162_
*264 _163_
*265 _164_
*266 _165_
*267 _166_
*268 _167_
*269 _168_
*270 _169_
*271 _170_
*272 _171_
*273 _172_
*274 _173_
*275 _174_
*276 _175_
*277 _176_
*278 _177_
*279 _178_
*280 _179_
*281 _180_
*282 _181_
*283 _182_
*284 _183_
*285 _184_
*286 _185_
*287 _186_
*288 _187_
*289 _188_
*290 _189_
*291 _190_
*292 _191_
*293 _192_
*294 _193_
*295 _194_
*296 _195_
*297 _196_
*298 _197_
*299 _198_
*300 _199_
*301 _200_
*302 _201_
*303 _202_
*304 _203_
*305 _204_
*306 _205_
*307 _206_
*308 _207_
*309 _208_
*310 _209_
*311 _210_
*312 _211_
*313 _212_
*314 _213_
*315 _214_
*316 _215_
*317 _216_
*318 _217_
*319 _218_
*320 _219_
*321 _220_
*322 _221_
*323 _222_
*324 _223_
*325 _224_
*326 _225_
*327 _226_
*328 _227_
*329 _228_
*330 _229_
*331 _230_
*332 _231_
*333 _232_
*334 _233_
*335 _234_
*336 _235_
*337 _236_
*338 _237_
*339 _238_
*340 _239_
*341 _240_
*342 _241_
*343 _242_
*344 _243_
*345 _244_
*346 _245_
*347 _246_
*348 _247_
*349 _248_
*350 _249_
*351 _250_
*352 _251_
*353 _252_
*354 _253_
*355 _254_
*356 _255_
*357 _256_
*358 _257_
*359 _258_
*360 _259_
*361 _260_
*362 _261_
*363 _262_
*364 _263_
*365 _264_
*366 _265_
*367 _266_
*368 _267_
*369 _268_
*370 _269_
*371 _270_
*372 _271_
*373 _272_
*374 _273_
*375 _274_
*376 _275_
*377 _276_
*378 _277_
*379 _278_
*380 _279_
*381 _280_
*382 _281_
*383 _282_
*384 _283_
*385 _284_
*386 _285_
*387 _286_
*388 _287_
*389 _288_
*390 _289_
*391 _290_
*392 _291_
*393 _292_
*394 _293_
*395 _294_
*396 _295_
*397 _296_
*398 _297_
*399 _298_
*400 _299_
*401 _300_
*402 _301_
*403 _302_
*404 _303_
*405 _304_
*406 _305_
*407 _306_
*408 _307_
*409 _308_
*410 _309_
*411 _310_
*412 _311_
*413 _312_
*414 _313_
*415 _314_
*416 _315_
*417 _316_
*418 _317_
*419 _318_
*420 _319_
*421 _320_
*422 _321_
*423 _322_
*424 _323_
*425 _324_
*426 _325_
*427 _326_
*428 _327_
*429 _328_
*430 _329_
*431 _330_
*432 _331_
*433 _332_
*434 _333_
*435 _334_
*436 _335_
*437 _336_
*438 _337_
*439 _338_
*440 _339_
*441 _340_
*442 _341_
*443 _342_
*444 _343_
*445 _344_
*446 _345_
*447 _346_
*448 _347_
*449 _348_
*450 net1
*451 net10
*452 net100
*453 net101
*454 net102
*455 net103
*456 net104
*457 net105
*458 net106
*459 net107
*460 net108
*461 net109
*462 net11
*463 net110
*464 net111
*465 net112
*466 net113
*467 net114
*468 net115
*469 net116
*470 net117
*471 net118
*472 net119
*473 net12
*474 net120
*475 net121
*476 net122
*477 net123
*478 net124
*479 net125
*480 net126
*481 net127
*482 net128
*483 net129
*484 net13
*485 net130
*486 net131
*487 net132
*488 net133
*489 net134
*490 net135
*491 net136
*492 net137
*493 net138
*494 net139
*495 net14
*496 net140
*497 net141
*498 net142
*499 net143
*500 net144
*501 net145
*502 net146
*503 net147
*504 net148
*505 net149
*506 net15
*507 net16
*508 net167
*509 net17
*510 net177
*511 net178
*512 net179
*513 net18
*514 net180
*515 net181
*516 net182
*517 net19
*518 net2
*519 net20
*520 net21
*521 net22
*522 net224
*523 net225
*524 net226
*525 net227
*526 net23
*527 net24
*528 net25
*529 net26
*530 net27
*531 net28
*532 net29
*533 net3
*534 net30
*535 net31
*536 net32
*537 net33
*538 net34
*539 net35
*540 net36
*541 net37
*542 net38
*543 net39
*544 net4
*545 net40
*546 net41
*547 net42
*548 net43
*549 net44
*550 net45
*551 net46
*552 net47
*553 net48
*554 net49
*555 net5
*556 net50
*557 net51
*558 net52
*559 net53
*560 net54
*561 net55
*562 net56
*563 net57
*564 net58
*565 net59
*566 net6
*567 net60
*568 net61
*569 net62
*570 net63
*571 net64
*572 net65
*573 net66
*574 net67
*575 net68
*576 net69
*577 net7
*578 net70
*579 net71
*580 net72
*581 net73
*582 net74
*583 net75
*584 net76
*585 net77
*586 net78
*587 net79
*588 net8
*589 net80
*590 net81
*591 net82
*592 net83
*593 net84
*594 net85
*595 net86
*596 net87
*597 net88
*598 net89
*599 net9
*600 net90
*601 net91
*602 net92
*603 net93
*604 net94
*605 net95
*606 net96
*607 net97
*608 net98
*609 net99
*610 FILLER_0_12
*611 FILLER_0_141
*612 FILLER_0_15
*613 FILLER_0_167
*614 FILLER_0_169
*615 FILLER_0_172
*616 FILLER_0_18
*617 FILLER_0_21
*618 FILLER_0_222
*619 FILLER_0_233
*620 FILLER_0_236
*621 FILLER_0_239
*622 FILLER_0_24
*623 FILLER_0_242
*624 FILLER_0_27
*625 FILLER_0_29
*626 FILLER_0_3
*627 FILLER_0_57
*628 FILLER_0_6
*629 FILLER_0_9
*630 FILLER_0_94
*631 FILLER_10_101
*632 FILLER_10_104
*633 FILLER_10_107
*634 FILLER_10_12
*635 FILLER_10_135
*636 FILLER_10_138
*637 FILLER_10_141
*638 FILLER_10_15
*639 FILLER_10_152
*640 FILLER_10_155
*641 FILLER_10_158
*642 FILLER_10_161
*643 FILLER_10_164
*644 FILLER_10_167
*645 FILLER_10_170
*646 FILLER_10_173
*647 FILLER_10_176
*648 FILLER_10_179
*649 FILLER_10_18
*650 FILLER_10_197
*651 FILLER_10_21
*652 FILLER_10_211
*653 FILLER_10_220
*654 FILLER_10_24
*655 FILLER_10_240
*656 FILLER_10_243
*657 FILLER_10_27
*658 FILLER_10_29
*659 FILLER_10_3
*660 FILLER_10_32
*661 FILLER_10_35
*662 FILLER_10_38
*663 FILLER_10_41
*664 FILLER_10_44
*665 FILLER_10_47
*666 FILLER_10_6
*667 FILLER_10_69
*668 FILLER_10_81
*669 FILLER_10_9
*670 FILLER_11_100
*671 FILLER_11_103
*672 FILLER_11_106
*673 FILLER_11_109
*674 FILLER_11_11
*675 FILLER_11_113
*676 FILLER_11_116
*677 FILLER_11_119
*678 FILLER_11_122
*679 FILLER_11_129
*680 FILLER_11_132
*681 FILLER_11_14
*682 FILLER_11_165
*683 FILLER_11_169
*684 FILLER_11_17
*685 FILLER_11_172
*686 FILLER_11_175
*687 FILLER_11_178
*688 FILLER_11_181
*689 FILLER_11_184
*690 FILLER_11_187
*691 FILLER_11_190
*692 FILLER_11_193
*693 FILLER_11_196
*694 FILLER_11_199
*695 FILLER_11_20
*696 FILLER_11_202
*697 FILLER_11_205
*698 FILLER_11_23
*699 FILLER_11_242
*700 FILLER_11_26
*701 FILLER_11_29
*702 FILLER_11_32
*703 FILLER_11_35
*704 FILLER_11_38
*705 FILLER_11_41
*706 FILLER_11_44
*707 FILLER_11_47
*708 FILLER_11_50
*709 FILLER_11_68
*710 FILLER_11_71
*711 FILLER_11_74
*712 FILLER_11_88
*713 FILLER_11_91
*714 FILLER_11_94
*715 FILLER_11_97
*716 FILLER_12_100
*717 FILLER_12_103
*718 FILLER_12_106
*719 FILLER_12_109
*720 FILLER_12_11
*721 FILLER_12_112
*722 FILLER_12_115
*723 FILLER_12_118
*724 FILLER_12_121
*725 FILLER_12_124
*726 FILLER_12_127
*727 FILLER_12_130
*728 FILLER_12_133
*729 FILLER_12_136
*730 FILLER_12_139
*731 FILLER_12_14
*732 FILLER_12_141
*733 FILLER_12_161
*734 FILLER_12_164
*735 FILLER_12_167
*736 FILLER_12_17
*737 FILLER_12_170
*738 FILLER_12_173
*739 FILLER_12_176
*740 FILLER_12_179
*741 FILLER_12_182
*742 FILLER_12_185
*743 FILLER_12_188
*744 FILLER_12_191
*745 FILLER_12_194
*746 FILLER_12_197
*747 FILLER_12_20
*748 FILLER_12_200
*749 FILLER_12_203
*750 FILLER_12_23
*751 FILLER_12_26
*752 FILLER_12_29
*753 FILLER_12_32
*754 FILLER_12_35
*755 FILLER_12_38
*756 FILLER_12_41
*757 FILLER_12_44
*758 FILLER_12_47
*759 FILLER_12_50
*760 FILLER_12_53
*761 FILLER_12_56
*762 FILLER_12_59
*763 FILLER_12_62
*764 FILLER_12_65
*765 FILLER_12_68
*766 FILLER_12_71
*767 FILLER_12_74
*768 FILLER_12_81
*769 FILLER_12_85
*770 FILLER_12_88
*771 FILLER_12_91
*772 FILLER_12_94
*773 FILLER_12_97
*774 FILLER_13_102
*775 FILLER_13_105
*776 FILLER_13_108
*777 FILLER_13_111
*778 FILLER_13_113
*779 FILLER_13_116
*780 FILLER_13_119
*781 FILLER_13_122
*782 FILLER_13_125
*783 FILLER_13_128
*784 FILLER_13_131
*785 FILLER_13_134
*786 FILLER_13_137
*787 FILLER_13_140
*788 FILLER_13_143
*789 FILLER_13_146
*790 FILLER_13_15
*791 FILLER_13_157
*792 FILLER_13_160
*793 FILLER_13_163
*794 FILLER_13_166
*795 FILLER_13_169
*796 FILLER_13_172
*797 FILLER_13_175
*798 FILLER_13_178
*799 FILLER_13_18
*800 FILLER_13_181
*801 FILLER_13_184
*802 FILLER_13_187
*803 FILLER_13_190
*804 FILLER_13_193
*805 FILLER_13_196
*806 FILLER_13_199
*807 FILLER_13_202
*808 FILLER_13_205
*809 FILLER_13_208
*810 FILLER_13_21
*811 FILLER_13_211
*812 FILLER_13_225
*813 FILLER_13_228
*814 FILLER_13_24
*815 FILLER_13_27
*816 FILLER_13_30
*817 FILLER_13_33
*818 FILLER_13_36
*819 FILLER_13_39
*820 FILLER_13_42
*821 FILLER_13_45
*822 FILLER_13_48
*823 FILLER_13_51
*824 FILLER_13_54
*825 FILLER_13_57
*826 FILLER_13_60
*827 FILLER_13_63
*828 FILLER_13_66
*829 FILLER_13_69
*830 FILLER_13_72
*831 FILLER_13_75
*832 FILLER_13_78
*833 FILLER_13_81
*834 FILLER_13_84
*835 FILLER_13_87
*836 FILLER_13_90
*837 FILLER_13_93
*838 FILLER_13_96
*839 FILLER_13_99
*840 FILLER_14_100
*841 FILLER_14_103
*842 FILLER_14_106
*843 FILLER_14_109
*844 FILLER_14_11
*845 FILLER_14_112
*846 FILLER_14_115
*847 FILLER_14_118
*848 FILLER_14_121
*849 FILLER_14_124
*850 FILLER_14_127
*851 FILLER_14_130
*852 FILLER_14_133
*853 FILLER_14_136
*854 FILLER_14_139
*855 FILLER_14_14
*856 FILLER_14_141
*857 FILLER_14_144
*858 FILLER_14_147
*859 FILLER_14_166
*860 FILLER_14_169
*861 FILLER_14_17
*862 FILLER_14_172
*863 FILLER_14_175
*864 FILLER_14_178
*865 FILLER_14_181
*866 FILLER_14_184
*867 FILLER_14_187
*868 FILLER_14_190
*869 FILLER_14_193
*870 FILLER_14_197
*871 FILLER_14_20
*872 FILLER_14_200
*873 FILLER_14_203
*874 FILLER_14_206
*875 FILLER_14_209
*876 FILLER_14_212
*877 FILLER_14_215
*878 FILLER_14_218
*879 FILLER_14_23
*880 FILLER_14_26
*881 FILLER_14_29
*882 FILLER_14_32
*883 FILLER_14_35
*884 FILLER_14_38
*885 FILLER_14_41
*886 FILLER_14_44
*887 FILLER_14_47
*888 FILLER_14_50
*889 FILLER_14_53
*890 FILLER_14_56
*891 FILLER_14_59
*892 FILLER_14_62
*893 FILLER_14_65
*894 FILLER_14_68
*895 FILLER_14_71
*896 FILLER_14_74
*897 FILLER_14_77
*898 FILLER_14_80
*899 FILLER_14_83
*900 FILLER_14_85
*901 FILLER_14_88
*902 FILLER_14_91
*903 FILLER_14_94
*904 FILLER_14_97
*905 FILLER_15_102
*906 FILLER_15_105
*907 FILLER_15_108
*908 FILLER_15_111
*909 FILLER_15_113
*910 FILLER_15_119
*911 FILLER_15_122
*912 FILLER_15_125
*913 FILLER_15_128
*914 FILLER_15_131
*915 FILLER_15_134
*916 FILLER_15_137
*917 FILLER_15_140
*918 FILLER_15_143
*919 FILLER_15_162
*920 FILLER_15_165
*921 FILLER_15_169
*922 FILLER_15_172
*923 FILLER_15_175
*924 FILLER_15_178
*925 FILLER_15_181
*926 FILLER_15_184
*927 FILLER_15_187
*928 FILLER_15_190
*929 FILLER_15_193
*930 FILLER_15_196
*931 FILLER_15_199
*932 FILLER_15_20
*933 FILLER_15_202
*934 FILLER_15_205
*935 FILLER_15_208
*936 FILLER_15_211
*937 FILLER_15_225
*938 FILLER_15_23
*939 FILLER_15_26
*940 FILLER_15_29
*941 FILLER_15_32
*942 FILLER_15_35
*943 FILLER_15_38
*944 FILLER_15_41
*945 FILLER_15_44
*946 FILLER_15_47
*947 FILLER_15_50
*948 FILLER_15_53
*949 FILLER_15_57
*950 FILLER_15_60
*951 FILLER_15_63
*952 FILLER_15_66
*953 FILLER_15_69
*954 FILLER_15_72
*955 FILLER_15_75
*956 FILLER_15_78
*957 FILLER_15_81
*958 FILLER_15_84
*959 FILLER_15_87
*960 FILLER_15_90
*961 FILLER_15_93
*962 FILLER_15_96
*963 FILLER_15_99
*964 FILLER_16_100
*965 FILLER_16_103
*966 FILLER_16_106
*967 FILLER_16_109
*968 FILLER_16_124
*969 FILLER_16_127
*970 FILLER_16_130
*971 FILLER_16_133
*972 FILLER_16_136
*973 FILLER_16_139
*974 FILLER_16_141
*975 FILLER_16_164
*976 FILLER_16_167
*977 FILLER_16_170
*978 FILLER_16_173
*979 FILLER_16_176
*980 FILLER_16_179
*981 FILLER_16_18
*982 FILLER_16_182
*983 FILLER_16_185
*984 FILLER_16_188
*985 FILLER_16_191
*986 FILLER_16_194
*987 FILLER_16_197
*988 FILLER_16_200
*989 FILLER_16_203
*990 FILLER_16_206
*991 FILLER_16_209
*992 FILLER_16_21
*993 FILLER_16_212
*994 FILLER_16_227
*995 FILLER_16_238
*996 FILLER_16_241
*997 FILLER_16_244
*998 FILLER_16_27
*999 FILLER_16_29
*1000 FILLER_16_3
*1001 FILLER_16_37
*1002 FILLER_16_40
*1003 FILLER_16_43
*1004 FILLER_16_46
*1005 FILLER_16_49
*1006 FILLER_16_52
*1007 FILLER_16_55
*1008 FILLER_16_58
*1009 FILLER_16_61
*1010 FILLER_16_64
*1011 FILLER_16_67
*1012 FILLER_16_70
*1013 FILLER_16_73
*1014 FILLER_16_76
*1015 FILLER_16_79
*1016 FILLER_16_82
*1017 FILLER_16_85
*1018 FILLER_16_88
*1019 FILLER_16_91
*1020 FILLER_16_94
*1021 FILLER_16_97
*1022 FILLER_17_101
*1023 FILLER_17_122
*1024 FILLER_17_125
*1025 FILLER_17_128
*1026 FILLER_17_131
*1027 FILLER_17_134
*1028 FILLER_17_137
*1029 FILLER_17_140
*1030 FILLER_17_143
*1031 FILLER_17_160
*1032 FILLER_17_163
*1033 FILLER_17_166
*1034 FILLER_17_169
*1035 FILLER_17_172
*1036 FILLER_17_175
*1037 FILLER_17_178
*1038 FILLER_17_181
*1039 FILLER_17_184
*1040 FILLER_17_187
*1041 FILLER_17_190
*1042 FILLER_17_193
*1043 FILLER_17_196
*1044 FILLER_17_207
*1045 FILLER_17_210
*1046 FILLER_17_225
*1047 FILLER_17_25
*1048 FILLER_17_35
*1049 FILLER_17_44
*1050 FILLER_17_47
*1051 FILLER_17_50
*1052 FILLER_17_66
*1053 FILLER_17_69
*1054 FILLER_17_75
*1055 FILLER_17_78
*1056 FILLER_17_81
*1057 FILLER_17_84
*1058 FILLER_17_87
*1059 FILLER_17_90
*1060 FILLER_17_93
*1061 FILLER_18_101
*1062 FILLER_18_104
*1063 FILLER_18_107
*1064 FILLER_18_110
*1065 FILLER_18_113
*1066 FILLER_18_128
*1067 FILLER_18_136
*1068 FILLER_18_139
*1069 FILLER_18_141
*1070 FILLER_18_147
*1071 FILLER_18_160
*1072 FILLER_18_163
*1073 FILLER_18_166
*1074 FILLER_18_169
*1075 FILLER_18_172
*1076 FILLER_18_175
*1077 FILLER_18_178
*1078 FILLER_18_18
*1079 FILLER_18_181
*1080 FILLER_18_184
*1081 FILLER_18_187
*1082 FILLER_18_190
*1083 FILLER_18_193
*1084 FILLER_18_210
*1085 FILLER_18_235
*1086 FILLER_18_3
*1087 FILLER_18_77
*1088 FILLER_18_80
*1089 FILLER_18_83
*1090 FILLER_18_85
*1091 FILLER_18_88
*1092 FILLER_18_91
*1093 FILLER_19_100
*1094 FILLER_19_103
*1095 FILLER_19_106
*1096 FILLER_19_109
*1097 FILLER_19_113
*1098 FILLER_19_116
*1099 FILLER_19_119
*1100 FILLER_19_122
*1101 FILLER_19_125
*1102 FILLER_19_128
*1103 FILLER_19_131
*1104 FILLER_19_134
*1105 FILLER_19_137
*1106 FILLER_19_160
*1107 FILLER_19_163
*1108 FILLER_19_166
*1109 FILLER_19_169
*1110 FILLER_19_172
*1111 FILLER_19_175
*1112 FILLER_19_178
*1113 FILLER_19_181
*1114 FILLER_19_184
*1115 FILLER_19_187
*1116 FILLER_19_190
*1117 FILLER_19_193
*1118 FILLER_19_196
*1119 FILLER_19_203
*1120 FILLER_19_209
*1121 FILLER_19_218
*1122 FILLER_19_225
*1123 FILLER_19_33
*1124 FILLER_19_36
*1125 FILLER_19_39
*1126 FILLER_19_42
*1127 FILLER_19_45
*1128 FILLER_19_48
*1129 FILLER_19_51
*1130 FILLER_19_54
*1131 FILLER_19_57
*1132 FILLER_19_73
*1133 FILLER_19_76
*1134 FILLER_19_79
*1135 FILLER_19_82
*1136 FILLER_19_85
*1137 FILLER_19_88
*1138 FILLER_19_91
*1139 FILLER_19_94
*1140 FILLER_19_97
*1141 FILLER_1_113
*1142 FILLER_1_116
*1143 FILLER_1_12
*1144 FILLER_1_149
*1145 FILLER_1_15
*1146 FILLER_1_18
*1147 FILLER_1_194
*1148 FILLER_1_21
*1149 FILLER_1_213
*1150 FILLER_1_223
*1151 FILLER_1_233
*1152 FILLER_1_236
*1153 FILLER_1_239
*1154 FILLER_1_24
*1155 FILLER_1_242
*1156 FILLER_1_27
*1157 FILLER_1_3
*1158 FILLER_1_30
*1159 FILLER_1_6
*1160 FILLER_1_70
*1161 FILLER_1_9
*1162 FILLER_20_100
*1163 FILLER_20_103
*1164 FILLER_20_106
*1165 FILLER_20_109
*1166 FILLER_20_112
*1167 FILLER_20_115
*1168 FILLER_20_135
*1169 FILLER_20_138
*1170 FILLER_20_141
*1171 FILLER_20_144
*1172 FILLER_20_154
*1173 FILLER_20_157
*1174 FILLER_20_160
*1175 FILLER_20_163
*1176 FILLER_20_166
*1177 FILLER_20_169
*1178 FILLER_20_172
*1179 FILLER_20_175
*1180 FILLER_20_178
*1181 FILLER_20_181
*1182 FILLER_20_184
*1183 FILLER_20_187
*1184 FILLER_20_19
*1185 FILLER_20_210
*1186 FILLER_20_213
*1187 FILLER_20_242
*1188 FILLER_20_29
*1189 FILLER_20_3
*1190 FILLER_20_32
*1191 FILLER_20_35
*1192 FILLER_20_38
*1193 FILLER_20_41
*1194 FILLER_20_44
*1195 FILLER_20_47
*1196 FILLER_20_50
*1197 FILLER_20_53
*1198 FILLER_20_56
*1199 FILLER_20_6
*1200 FILLER_20_71
*1201 FILLER_20_74
*1202 FILLER_20_77
*1203 FILLER_20_80
*1204 FILLER_20_83
*1205 FILLER_20_85
*1206 FILLER_20_88
*1207 FILLER_20_9
*1208 FILLER_20_91
*1209 FILLER_20_94
*1210 FILLER_20_97
*1211 FILLER_21_102
*1212 FILLER_21_105
*1213 FILLER_21_108
*1214 FILLER_21_11
*1215 FILLER_21_111
*1216 FILLER_21_113
*1217 FILLER_21_116
*1218 FILLER_21_119
*1219 FILLER_21_122
*1220 FILLER_21_125
*1221 FILLER_21_128
*1222 FILLER_21_131
*1223 FILLER_21_134
*1224 FILLER_21_137
*1225 FILLER_21_14
*1226 FILLER_21_140
*1227 FILLER_21_148
*1228 FILLER_21_151
*1229 FILLER_21_160
*1230 FILLER_21_163
*1231 FILLER_21_166
*1232 FILLER_21_169
*1233 FILLER_21_17
*1234 FILLER_21_172
*1235 FILLER_21_175
*1236 FILLER_21_178
*1237 FILLER_21_181
*1238 FILLER_21_184
*1239 FILLER_21_187
*1240 FILLER_21_195
*1241 FILLER_21_20
*1242 FILLER_21_207
*1243 FILLER_21_223
*1244 FILLER_21_225
*1245 FILLER_21_23
*1246 FILLER_21_26
*1247 FILLER_21_29
*1248 FILLER_21_32
*1249 FILLER_21_35
*1250 FILLER_21_38
*1251 FILLER_21_41
*1252 FILLER_21_44
*1253 FILLER_21_47
*1254 FILLER_21_50
*1255 FILLER_21_53
*1256 FILLER_21_57
*1257 FILLER_21_60
*1258 FILLER_21_63
*1259 FILLER_21_66
*1260 FILLER_21_69
*1261 FILLER_21_72
*1262 FILLER_21_75
*1263 FILLER_21_78
*1264 FILLER_21_81
*1265 FILLER_21_84
*1266 FILLER_21_87
*1267 FILLER_21_90
*1268 FILLER_21_93
*1269 FILLER_21_96
*1270 FILLER_21_99
*1271 FILLER_22_100
*1272 FILLER_22_103
*1273 FILLER_22_106
*1274 FILLER_22_109
*1275 FILLER_22_112
*1276 FILLER_22_115
*1277 FILLER_22_118
*1278 FILLER_22_121
*1279 FILLER_22_124
*1280 FILLER_22_127
*1281 FILLER_22_130
*1282 FILLER_22_133
*1283 FILLER_22_136
*1284 FILLER_22_139
*1285 FILLER_22_141
*1286 FILLER_22_144
*1287 FILLER_22_173
*1288 FILLER_22_194
*1289 FILLER_22_214
*1290 FILLER_22_236
*1291 FILLER_22_26
*1292 FILLER_22_34
*1293 FILLER_22_37
*1294 FILLER_22_40
*1295 FILLER_22_43
*1296 FILLER_22_46
*1297 FILLER_22_49
*1298 FILLER_22_52
*1299 FILLER_22_60
*1300 FILLER_22_63
*1301 FILLER_22_66
*1302 FILLER_22_69
*1303 FILLER_22_72
*1304 FILLER_22_75
*1305 FILLER_22_78
*1306 FILLER_22_81
*1307 FILLER_22_85
*1308 FILLER_22_88
*1309 FILLER_22_91
*1310 FILLER_22_94
*1311 FILLER_22_97
*1312 FILLER_23_100
*1313 FILLER_23_103
*1314 FILLER_23_106
*1315 FILLER_23_109
*1316 FILLER_23_113
*1317 FILLER_23_116
*1318 FILLER_23_119
*1319 FILLER_23_122
*1320 FILLER_23_125
*1321 FILLER_23_128
*1322 FILLER_23_131
*1323 FILLER_23_134
*1324 FILLER_23_137
*1325 FILLER_23_140
*1326 FILLER_23_143
*1327 FILLER_23_167
*1328 FILLER_23_169
*1329 FILLER_23_172
*1330 FILLER_23_175
*1331 FILLER_23_185
*1332 FILLER_23_188
*1333 FILLER_23_191
*1334 FILLER_23_194
*1335 FILLER_23_214
*1336 FILLER_23_3
*1337 FILLER_23_35
*1338 FILLER_23_38
*1339 FILLER_23_41
*1340 FILLER_23_44
*1341 FILLER_23_6
*1342 FILLER_23_64
*1343 FILLER_23_67
*1344 FILLER_23_70
*1345 FILLER_23_73
*1346 FILLER_23_76
*1347 FILLER_23_79
*1348 FILLER_23_82
*1349 FILLER_23_85
*1350 FILLER_23_88
*1351 FILLER_23_9
*1352 FILLER_23_91
*1353 FILLER_23_94
*1354 FILLER_23_97
*1355 FILLER_24_100
*1356 FILLER_24_103
*1357 FILLER_24_106
*1358 FILLER_24_109
*1359 FILLER_24_11
*1360 FILLER_24_112
*1361 FILLER_24_115
*1362 FILLER_24_118
*1363 FILLER_24_121
*1364 FILLER_24_124
*1365 FILLER_24_127
*1366 FILLER_24_130
*1367 FILLER_24_133
*1368 FILLER_24_136
*1369 FILLER_24_139
*1370 FILLER_24_141
*1371 FILLER_24_144
*1372 FILLER_24_161
*1373 FILLER_24_164
*1374 FILLER_24_167
*1375 FILLER_24_170
*1376 FILLER_24_173
*1377 FILLER_24_176
*1378 FILLER_24_190
*1379 FILLER_24_193
*1380 FILLER_24_225
*1381 FILLER_24_242
*1382 FILLER_24_29
*1383 FILLER_24_32
*1384 FILLER_24_35
*1385 FILLER_24_38
*1386 FILLER_24_41
*1387 FILLER_24_44
*1388 FILLER_24_69
*1389 FILLER_24_72
*1390 FILLER_24_75
*1391 FILLER_24_78
*1392 FILLER_24_81
*1393 FILLER_24_85
*1394 FILLER_24_88
*1395 FILLER_24_91
*1396 FILLER_24_94
*1397 FILLER_24_97
*1398 FILLER_25_109
*1399 FILLER_25_113
*1400 FILLER_25_116
*1401 FILLER_25_119
*1402 FILLER_25_12
*1403 FILLER_25_122
*1404 FILLER_25_125
*1405 FILLER_25_128
*1406 FILLER_25_131
*1407 FILLER_25_134
*1408 FILLER_25_137
*1409 FILLER_25_140
*1410 FILLER_25_143
*1411 FILLER_25_146
*1412 FILLER_25_149
*1413 FILLER_25_15
*1414 FILLER_25_152
*1415 FILLER_25_155
*1416 FILLER_25_158
*1417 FILLER_25_161
*1418 FILLER_25_164
*1419 FILLER_25_167
*1420 FILLER_25_169
*1421 FILLER_25_172
*1422 FILLER_25_175
*1423 FILLER_25_223
*1424 FILLER_25_225
*1425 FILLER_25_23
*1426 FILLER_25_26
*1427 FILLER_25_29
*1428 FILLER_25_32
*1429 FILLER_25_35
*1430 FILLER_25_38
*1431 FILLER_25_41
*1432 FILLER_25_44
*1433 FILLER_25_47
*1434 FILLER_25_54
*1435 FILLER_25_72
*1436 FILLER_25_75
*1437 FILLER_25_78
*1438 FILLER_25_81
*1439 FILLER_25_84
*1440 FILLER_25_87
*1441 FILLER_25_90
*1442 FILLER_25_93
*1443 FILLER_25_96
*1444 FILLER_26_108
*1445 FILLER_26_111
*1446 FILLER_26_114
*1447 FILLER_26_117
*1448 FILLER_26_120
*1449 FILLER_26_123
*1450 FILLER_26_126
*1451 FILLER_26_129
*1452 FILLER_26_132
*1453 FILLER_26_135
*1454 FILLER_26_138
*1455 FILLER_26_141
*1456 FILLER_26_144
*1457 FILLER_26_155
*1458 FILLER_26_158
*1459 FILLER_26_161
*1460 FILLER_26_164
*1461 FILLER_26_167
*1462 FILLER_26_170
*1463 FILLER_26_173
*1464 FILLER_26_176
*1465 FILLER_26_179
*1466 FILLER_26_18
*1467 FILLER_26_182
*1468 FILLER_26_185
*1469 FILLER_26_188
*1470 FILLER_26_191
*1471 FILLER_26_194
*1472 FILLER_26_197
*1473 FILLER_26_200
*1474 FILLER_26_21
*1475 FILLER_26_220
*1476 FILLER_26_24
*1477 FILLER_26_27
*1478 FILLER_26_38
*1479 FILLER_26_41
*1480 FILLER_26_44
*1481 FILLER_26_62
*1482 FILLER_26_79
*1483 FILLER_26_82
*1484 FILLER_26_85
*1485 FILLER_26_88
*1486 FILLER_26_91
*1487 FILLER_26_94
*1488 FILLER_27_113
*1489 FILLER_27_116
*1490 FILLER_27_119
*1491 FILLER_27_122
*1492 FILLER_27_125
*1493 FILLER_27_128
*1494 FILLER_27_131
*1495 FILLER_27_134
*1496 FILLER_27_137
*1497 FILLER_27_140
*1498 FILLER_27_143
*1499 FILLER_27_146
*1500 FILLER_27_149
*1501 FILLER_27_152
*1502 FILLER_27_155
*1503 FILLER_27_158
*1504 FILLER_27_161
*1505 FILLER_27_164
*1506 FILLER_27_167
*1507 FILLER_27_169
*1508 FILLER_27_172
*1509 FILLER_27_175
*1510 FILLER_27_178
*1511 FILLER_27_181
*1512 FILLER_27_184
*1513 FILLER_27_187
*1514 FILLER_27_190
*1515 FILLER_27_193
*1516 FILLER_27_196
*1517 FILLER_27_199
*1518 FILLER_27_20
*1519 FILLER_27_202
*1520 FILLER_27_205
*1521 FILLER_27_208
*1522 FILLER_27_214
*1523 FILLER_27_217
*1524 FILLER_27_220
*1525 FILLER_27_223
*1526 FILLER_27_225
*1527 FILLER_27_228
*1528 FILLER_27_3
*1529 FILLER_27_53
*1530 FILLER_27_57
*1531 FILLER_27_60
*1532 FILLER_27_63
*1533 FILLER_27_66
*1534 FILLER_27_83
*1535 FILLER_27_86
*1536 FILLER_27_89
*1537 FILLER_27_92
*1538 FILLER_27_95
*1539 FILLER_27_98
*1540 FILLER_28_103
*1541 FILLER_28_106
*1542 FILLER_28_109
*1543 FILLER_28_112
*1544 FILLER_28_115
*1545 FILLER_28_118
*1546 FILLER_28_121
*1547 FILLER_28_124
*1548 FILLER_28_127
*1549 FILLER_28_130
*1550 FILLER_28_133
*1551 FILLER_28_136
*1552 FILLER_28_139
*1553 FILLER_28_141
*1554 FILLER_28_144
*1555 FILLER_28_147
*1556 FILLER_28_150
*1557 FILLER_28_153
*1558 FILLER_28_156
*1559 FILLER_28_159
*1560 FILLER_28_162
*1561 FILLER_28_165
*1562 FILLER_28_168
*1563 FILLER_28_171
*1564 FILLER_28_174
*1565 FILLER_28_177
*1566 FILLER_28_180
*1567 FILLER_28_183
*1568 FILLER_28_186
*1569 FILLER_28_189
*1570 FILLER_28_192
*1571 FILLER_28_195
*1572 FILLER_28_197
*1573 FILLER_28_20
*1574 FILLER_28_209
*1575 FILLER_28_212
*1576 FILLER_28_215
*1577 FILLER_28_218
*1578 FILLER_28_221
*1579 FILLER_28_224
*1580 FILLER_28_227
*1581 FILLER_28_23
*1582 FILLER_28_230
*1583 FILLER_28_233
*1584 FILLER_28_236
*1585 FILLER_28_26
*1586 FILLER_28_29
*1587 FILLER_28_3
*1588 FILLER_28_49
*1589 FILLER_28_52
*1590 FILLER_28_55
*1591 FILLER_28_74
*1592 FILLER_28_77
*1593 FILLER_28_85
*1594 FILLER_28_88
*1595 FILLER_28_91
*1596 FILLER_28_94
*1597 FILLER_29_107
*1598 FILLER_29_110
*1599 FILLER_29_113
*1600 FILLER_29_116
*1601 FILLER_29_119
*1602 FILLER_29_122
*1603 FILLER_29_125
*1604 FILLER_29_128
*1605 FILLER_29_131
*1606 FILLER_29_138
*1607 FILLER_29_169
*1608 FILLER_29_172
*1609 FILLER_29_175
*1610 FILLER_29_178
*1611 FILLER_29_18
*1612 FILLER_29_181
*1613 FILLER_29_184
*1614 FILLER_29_187
*1615 FILLER_29_190
*1616 FILLER_29_193
*1617 FILLER_29_196
*1618 FILLER_29_214
*1619 FILLER_29_217
*1620 FILLER_29_220
*1621 FILLER_29_223
*1622 FILLER_29_225
*1623 FILLER_29_228
*1624 FILLER_29_231
*1625 FILLER_29_234
*1626 FILLER_29_28
*1627 FILLER_29_3
*1628 FILLER_29_37
*1629 FILLER_29_40
*1630 FILLER_29_43
*1631 FILLER_29_46
*1632 FILLER_29_49
*1633 FILLER_29_52
*1634 FILLER_29_55
*1635 FILLER_29_57
*1636 FILLER_29_60
*1637 FILLER_29_63
*1638 FILLER_29_89
*1639 FILLER_2_12
*1640 FILLER_2_123
*1641 FILLER_2_15
*1642 FILLER_2_160
*1643 FILLER_2_171
*1644 FILLER_2_18
*1645 FILLER_2_21
*1646 FILLER_2_233
*1647 FILLER_2_236
*1648 FILLER_2_239
*1649 FILLER_2_242
*1650 FILLER_2_29
*1651 FILLER_2_3
*1652 FILLER_2_40
*1653 FILLER_2_6
*1654 FILLER_2_9
*1655 FILLER_30_102
*1656 FILLER_30_11
*1657 FILLER_30_117
*1658 FILLER_30_120
*1659 FILLER_30_123
*1660 FILLER_30_126
*1661 FILLER_30_129
*1662 FILLER_30_137
*1663 FILLER_30_14
*1664 FILLER_30_141
*1665 FILLER_30_144
*1666 FILLER_30_147
*1667 FILLER_30_154
*1668 FILLER_30_157
*1669 FILLER_30_160
*1670 FILLER_30_163
*1671 FILLER_30_166
*1672 FILLER_30_169
*1673 FILLER_30_17
*1674 FILLER_30_172
*1675 FILLER_30_175
*1676 FILLER_30_197
*1677 FILLER_30_20
*1678 FILLER_30_200
*1679 FILLER_30_203
*1680 FILLER_30_211
*1681 FILLER_30_214
*1682 FILLER_30_217
*1683 FILLER_30_220
*1684 FILLER_30_223
*1685 FILLER_30_226
*1686 FILLER_30_229
*1687 FILLER_30_23
*1688 FILLER_30_232
*1689 FILLER_30_235
*1690 FILLER_30_26
*1691 FILLER_30_29
*1692 FILLER_30_32
*1693 FILLER_30_35
*1694 FILLER_30_38
*1695 FILLER_30_55
*1696 FILLER_30_58
*1697 FILLER_30_61
*1698 FILLER_30_64
*1699 FILLER_30_67
*1700 FILLER_30_85
*1701 FILLER_30_88
*1702 FILLER_30_91
*1703 FILLER_30_99
*1704 FILLER_31_102
*1705 FILLER_31_105
*1706 FILLER_31_11
*1707 FILLER_31_119
*1708 FILLER_31_122
*1709 FILLER_31_125
*1710 FILLER_31_128
*1711 FILLER_31_131
*1712 FILLER_31_134
*1713 FILLER_31_141
*1714 FILLER_31_144
*1715 FILLER_31_150
*1716 FILLER_31_165
*1717 FILLER_31_169
*1718 FILLER_31_172
*1719 FILLER_31_190
*1720 FILLER_31_193
*1721 FILLER_31_196
*1722 FILLER_31_199
*1723 FILLER_31_202
*1724 FILLER_31_205
*1725 FILLER_31_208
*1726 FILLER_31_21
*1727 FILLER_31_211
*1728 FILLER_31_214
*1729 FILLER_31_217
*1730 FILLER_31_220
*1731 FILLER_31_223
*1732 FILLER_31_225
*1733 FILLER_31_228
*1734 FILLER_31_231
*1735 FILLER_31_234
*1736 FILLER_31_24
*1737 FILLER_31_243
*1738 FILLER_31_27
*1739 FILLER_31_3
*1740 FILLER_31_50
*1741 FILLER_31_53
*1742 FILLER_31_57
*1743 FILLER_31_60
*1744 FILLER_31_63
*1745 FILLER_31_66
*1746 FILLER_31_69
*1747 FILLER_31_80
*1748 FILLER_31_90
*1749 FILLER_31_93
*1750 FILLER_31_96
*1751 FILLER_31_99
*1752 FILLER_32_101
*1753 FILLER_32_104
*1754 FILLER_32_107
*1755 FILLER_32_110
*1756 FILLER_32_113
*1757 FILLER_32_116
*1758 FILLER_32_119
*1759 FILLER_32_122
*1760 FILLER_32_125
*1761 FILLER_32_128
*1762 FILLER_32_151
*1763 FILLER_32_154
*1764 FILLER_32_157
*1765 FILLER_32_173
*1766 FILLER_32_185
*1767 FILLER_32_188
*1768 FILLER_32_191
*1769 FILLER_32_194
*1770 FILLER_32_197
*1771 FILLER_32_200
*1772 FILLER_32_203
*1773 FILLER_32_206
*1774 FILLER_32_209
*1775 FILLER_32_212
*1776 FILLER_32_215
*1777 FILLER_32_218
*1778 FILLER_32_221
*1779 FILLER_32_224
*1780 FILLER_32_227
*1781 FILLER_32_230
*1782 FILLER_32_233
*1783 FILLER_32_236
*1784 FILLER_32_239
*1785 FILLER_32_24
*1786 FILLER_32_242
*1787 FILLER_32_27
*1788 FILLER_32_29
*1789 FILLER_32_3
*1790 FILLER_32_51
*1791 FILLER_32_54
*1792 FILLER_32_74
*1793 FILLER_32_77
*1794 FILLER_32_80
*1795 FILLER_32_83
*1796 FILLER_32_95
*1797 FILLER_32_98
*1798 FILLER_33_109
*1799 FILLER_33_11
*1800 FILLER_33_113
*1801 FILLER_33_116
*1802 FILLER_33_119
*1803 FILLER_33_122
*1804 FILLER_33_125
*1805 FILLER_33_128
*1806 FILLER_33_131
*1807 FILLER_33_134
*1808 FILLER_33_137
*1809 FILLER_33_140
*1810 FILLER_33_149
*1811 FILLER_33_160
*1812 FILLER_33_163
*1813 FILLER_33_166
*1814 FILLER_33_169
*1815 FILLER_33_172
*1816 FILLER_33_175
*1817 FILLER_33_178
*1818 FILLER_33_181
*1819 FILLER_33_184
*1820 FILLER_33_187
*1821 FILLER_33_19
*1822 FILLER_33_190
*1823 FILLER_33_193
*1824 FILLER_33_196
*1825 FILLER_33_199
*1826 FILLER_33_202
*1827 FILLER_33_205
*1828 FILLER_33_208
*1829 FILLER_33_211
*1830 FILLER_33_214
*1831 FILLER_33_217
*1832 FILLER_33_22
*1833 FILLER_33_220
*1834 FILLER_33_223
*1835 FILLER_33_225
*1836 FILLER_33_228
*1837 FILLER_33_231
*1838 FILLER_33_234
*1839 FILLER_33_237
*1840 FILLER_33_240
*1841 FILLER_33_243
*1842 FILLER_33_27
*1843 FILLER_33_30
*1844 FILLER_33_43
*1845 FILLER_33_55
*1846 FILLER_33_57
*1847 FILLER_33_60
*1848 FILLER_33_63
*1849 FILLER_33_66
*1850 FILLER_33_69
*1851 FILLER_33_93
*1852 FILLER_33_96
*1853 FILLER_33_99
*1854 FILLER_34_11
*1855 FILLER_34_120
*1856 FILLER_34_123
*1857 FILLER_34_126
*1858 FILLER_34_129
*1859 FILLER_34_132
*1860 FILLER_34_14
*1861 FILLER_34_141
*1862 FILLER_34_150
*1863 FILLER_34_153
*1864 FILLER_34_165
*1865 FILLER_34_177
*1866 FILLER_34_180
*1867 FILLER_34_183
*1868 FILLER_34_186
*1869 FILLER_34_189
*1870 FILLER_34_192
*1871 FILLER_34_195
*1872 FILLER_34_197
*1873 FILLER_34_200
*1874 FILLER_34_203
*1875 FILLER_34_206
*1876 FILLER_34_209
*1877 FILLER_34_212
*1878 FILLER_34_215
*1879 FILLER_34_218
*1880 FILLER_34_22
*1881 FILLER_34_221
*1882 FILLER_34_224
*1883 FILLER_34_227
*1884 FILLER_34_230
*1885 FILLER_34_233
*1886 FILLER_34_236
*1887 FILLER_34_239
*1888 FILLER_34_242
*1889 FILLER_34_25
*1890 FILLER_34_29
*1891 FILLER_34_39
*1892 FILLER_34_42
*1893 FILLER_34_51
*1894 FILLER_34_69
*1895 FILLER_34_72
*1896 FILLER_34_75
*1897 FILLER_34_78
*1898 FILLER_34_81
*1899 FILLER_34_85
*1900 FILLER_35_101
*1901 FILLER_35_111
*1902 FILLER_35_113
*1903 FILLER_35_116
*1904 FILLER_35_119
*1905 FILLER_35_12
*1906 FILLER_35_122
*1907 FILLER_35_125
*1908 FILLER_35_128
*1909 FILLER_35_131
*1910 FILLER_35_134
*1911 FILLER_35_137
*1912 FILLER_35_140
*1913 FILLER_35_143
*1914 FILLER_35_146
*1915 FILLER_35_149
*1916 FILLER_35_15
*1917 FILLER_35_152
*1918 FILLER_35_164
*1919 FILLER_35_18
*1920 FILLER_35_184
*1921 FILLER_35_187
*1922 FILLER_35_190
*1923 FILLER_35_193
*1924 FILLER_35_196
*1925 FILLER_35_199
*1926 FILLER_35_202
*1927 FILLER_35_205
*1928 FILLER_35_208
*1929 FILLER_35_21
*1930 FILLER_35_211
*1931 FILLER_35_214
*1932 FILLER_35_217
*1933 FILLER_35_220
*1934 FILLER_35_223
*1935 FILLER_35_225
*1936 FILLER_35_228
*1937 FILLER_35_231
*1938 FILLER_35_234
*1939 FILLER_35_237
*1940 FILLER_35_24
*1941 FILLER_35_240
*1942 FILLER_35_243
*1943 FILLER_35_27
*1944 FILLER_35_3
*1945 FILLER_35_30
*1946 FILLER_35_33
*1947 FILLER_35_36
*1948 FILLER_35_46
*1949 FILLER_35_49
*1950 FILLER_35_52
*1951 FILLER_35_55
*1952 FILLER_35_57
*1953 FILLER_35_6
*1954 FILLER_35_60
*1955 FILLER_35_63
*1956 FILLER_35_71
*1957 FILLER_35_74
*1958 FILLER_35_77
*1959 FILLER_35_80
*1960 FILLER_35_9
*1961 FILLER_35_95
*1962 FILLER_35_98
*1963 FILLER_36_102
*1964 FILLER_36_105
*1965 FILLER_36_108
*1966 FILLER_36_111
*1967 FILLER_36_114
*1968 FILLER_36_117
*1969 FILLER_36_12
*1970 FILLER_36_120
*1971 FILLER_36_123
*1972 FILLER_36_126
*1973 FILLER_36_129
*1974 FILLER_36_132
*1975 FILLER_36_148
*1976 FILLER_36_15
*1977 FILLER_36_151
*1978 FILLER_36_154
*1979 FILLER_36_157
*1980 FILLER_36_160
*1981 FILLER_36_163
*1982 FILLER_36_166
*1983 FILLER_36_169
*1984 FILLER_36_176
*1985 FILLER_36_18
*1986 FILLER_36_186
*1987 FILLER_36_189
*1988 FILLER_36_192
*1989 FILLER_36_195
*1990 FILLER_36_197
*1991 FILLER_36_200
*1992 FILLER_36_203
*1993 FILLER_36_206
*1994 FILLER_36_209
*1995 FILLER_36_21
*1996 FILLER_36_212
*1997 FILLER_36_215
*1998 FILLER_36_218
*1999 FILLER_36_221
*2000 FILLER_36_224
*2001 FILLER_36_227
*2002 FILLER_36_230
*2003 FILLER_36_233
*2004 FILLER_36_236
*2005 FILLER_36_239
*2006 FILLER_36_24
*2007 FILLER_36_242
*2008 FILLER_36_27
*2009 FILLER_36_29
*2010 FILLER_36_3
*2011 FILLER_36_32
*2012 FILLER_36_40
*2013 FILLER_36_43
*2014 FILLER_36_46
*2015 FILLER_36_49
*2016 FILLER_36_52
*2017 FILLER_36_55
*2018 FILLER_36_58
*2019 FILLER_36_6
*2020 FILLER_36_76
*2021 FILLER_36_83
*2022 FILLER_36_85
*2023 FILLER_36_88
*2024 FILLER_36_9
*2025 FILLER_36_93
*2026 FILLER_36_96
*2027 FILLER_36_99
*2028 FILLER_37_11
*2029 FILLER_37_124
*2030 FILLER_37_14
*2031 FILLER_37_140
*2032 FILLER_37_150
*2033 FILLER_37_153
*2034 FILLER_37_156
*2035 FILLER_37_159
*2036 FILLER_37_167
*2037 FILLER_37_169
*2038 FILLER_37_17
*2039 FILLER_37_172
*2040 FILLER_37_175
*2041 FILLER_37_178
*2042 FILLER_37_181
*2043 FILLER_37_192
*2044 FILLER_37_195
*2045 FILLER_37_198
*2046 FILLER_37_20
*2047 FILLER_37_201
*2048 FILLER_37_204
*2049 FILLER_37_207
*2050 FILLER_37_210
*2051 FILLER_37_213
*2052 FILLER_37_216
*2053 FILLER_37_219
*2054 FILLER_37_222
*2055 FILLER_37_225
*2056 FILLER_37_228
*2057 FILLER_37_23
*2058 FILLER_37_231
*2059 FILLER_37_234
*2060 FILLER_37_237
*2061 FILLER_37_240
*2062 FILLER_37_243
*2063 FILLER_37_26
*2064 FILLER_37_29
*2065 FILLER_37_38
*2066 FILLER_37_48
*2067 FILLER_37_51
*2068 FILLER_37_54
*2069 FILLER_37_57
*2070 FILLER_37_63
*2071 FILLER_37_85
*2072 FILLER_37_88
*2073 FILLER_37_91
*2074 FILLER_37_94
*2075 FILLER_38_101
*2076 FILLER_38_12
*2077 FILLER_38_141
*2078 FILLER_38_147
*2079 FILLER_38_15
*2080 FILLER_38_150
*2081 FILLER_38_153
*2082 FILLER_38_177
*2083 FILLER_38_18
*2084 FILLER_38_180
*2085 FILLER_38_192
*2086 FILLER_38_195
*2087 FILLER_38_197
*2088 FILLER_38_200
*2089 FILLER_38_203
*2090 FILLER_38_206
*2091 FILLER_38_209
*2092 FILLER_38_21
*2093 FILLER_38_212
*2094 FILLER_38_215
*2095 FILLER_38_218
*2096 FILLER_38_221
*2097 FILLER_38_224
*2098 FILLER_38_227
*2099 FILLER_38_230
*2100 FILLER_38_233
*2101 FILLER_38_236
*2102 FILLER_38_239
*2103 FILLER_38_24
*2104 FILLER_38_242
*2105 FILLER_38_27
*2106 FILLER_38_3
*2107 FILLER_38_49
*2108 FILLER_38_6
*2109 FILLER_38_64
*2110 FILLER_38_9
*2111 FILLER_38_98
*2112 FILLER_39_102
*2113 FILLER_39_12
*2114 FILLER_39_124
*2115 FILLER_39_145
*2116 FILLER_39_148
*2117 FILLER_39_15
*2118 FILLER_39_151
*2119 FILLER_39_154
*2120 FILLER_39_157
*2121 FILLER_39_18
*2122 FILLER_39_182
*2123 FILLER_39_194
*2124 FILLER_39_197
*2125 FILLER_39_200
*2126 FILLER_39_203
*2127 FILLER_39_206
*2128 FILLER_39_209
*2129 FILLER_39_21
*2130 FILLER_39_212
*2131 FILLER_39_215
*2132 FILLER_39_218
*2133 FILLER_39_221
*2134 FILLER_39_225
*2135 FILLER_39_228
*2136 FILLER_39_231
*2137 FILLER_39_234
*2138 FILLER_39_237
*2139 FILLER_39_24
*2140 FILLER_39_240
*2141 FILLER_39_243
*2142 FILLER_39_27
*2143 FILLER_39_3
*2144 FILLER_39_44
*2145 FILLER_39_47
*2146 FILLER_39_50
*2147 FILLER_39_53
*2148 FILLER_39_6
*2149 FILLER_39_9
*2150 FILLER_39_93
*2151 FILLER_3_109
*2152 FILLER_3_12
*2153 FILLER_3_130
*2154 FILLER_3_15
*2155 FILLER_3_169
*2156 FILLER_3_18
*2157 FILLER_3_185
*2158 FILLER_3_21
*2159 FILLER_3_212
*2160 FILLER_3_221
*2161 FILLER_3_225
*2162 FILLER_3_228
*2163 FILLER_3_231
*2164 FILLER_3_234
*2165 FILLER_3_237
*2166 FILLER_3_24
*2167 FILLER_3_240
*2168 FILLER_3_243
*2169 FILLER_3_27
*2170 FILLER_3_3
*2171 FILLER_3_55
*2172 FILLER_3_6
*2173 FILLER_3_9
*2174 FILLER_40_111
*2175 FILLER_40_12
*2176 FILLER_40_129
*2177 FILLER_40_15
*2178 FILLER_40_153
*2179 FILLER_40_156
*2180 FILLER_40_159
*2181 FILLER_40_18
*2182 FILLER_40_181
*2183 FILLER_40_184
*2184 FILLER_40_195
*2185 FILLER_40_205
*2186 FILLER_40_208
*2187 FILLER_40_21
*2188 FILLER_40_211
*2189 FILLER_40_214
*2190 FILLER_40_217
*2191 FILLER_40_220
*2192 FILLER_40_223
*2193 FILLER_40_225
*2194 FILLER_40_228
*2195 FILLER_40_231
*2196 FILLER_40_234
*2197 FILLER_40_237
*2198 FILLER_40_24
*2199 FILLER_40_240
*2200 FILLER_40_243
*2201 FILLER_40_27
*2202 FILLER_40_29
*2203 FILLER_40_3
*2204 FILLER_40_32
*2205 FILLER_40_35
*2206 FILLER_40_38
*2207 FILLER_40_41
*2208 FILLER_40_51
*2209 FILLER_40_54
*2210 FILLER_40_57
*2211 FILLER_40_6
*2212 FILLER_40_60
*2213 FILLER_40_85
*2214 FILLER_40_9
*2215 FILLER_4_113
*2216 FILLER_4_116
*2217 FILLER_4_12
*2218 FILLER_4_131
*2219 FILLER_4_134
*2220 FILLER_4_137
*2221 FILLER_4_141
*2222 FILLER_4_144
*2223 FILLER_4_15
*2224 FILLER_4_152
*2225 FILLER_4_155
*2226 FILLER_4_158
*2227 FILLER_4_173
*2228 FILLER_4_176
*2229 FILLER_4_18
*2230 FILLER_4_197
*2231 FILLER_4_21
*2232 FILLER_4_226
*2233 FILLER_4_229
*2234 FILLER_4_232
*2235 FILLER_4_235
*2236 FILLER_4_238
*2237 FILLER_4_24
*2238 FILLER_4_241
*2239 FILLER_4_244
*2240 FILLER_4_27
*2241 FILLER_4_29
*2242 FILLER_4_3
*2243 FILLER_4_32
*2244 FILLER_4_42
*2245 FILLER_4_6
*2246 FILLER_4_9
*2247 FILLER_4_90
*2248 FILLER_5_110
*2249 FILLER_5_113
*2250 FILLER_5_116
*2251 FILLER_5_119
*2252 FILLER_5_12
*2253 FILLER_5_122
*2254 FILLER_5_125
*2255 FILLER_5_128
*2256 FILLER_5_131
*2257 FILLER_5_15
*2258 FILLER_5_162
*2259 FILLER_5_174
*2260 FILLER_5_177
*2261 FILLER_5_18
*2262 FILLER_5_180
*2263 FILLER_5_183
*2264 FILLER_5_194
*2265 FILLER_5_21
*2266 FILLER_5_214
*2267 FILLER_5_217
*2268 FILLER_5_220
*2269 FILLER_5_223
*2270 FILLER_5_225
*2271 FILLER_5_228
*2272 FILLER_5_231
*2273 FILLER_5_234
*2274 FILLER_5_237
*2275 FILLER_5_24
*2276 FILLER_5_240
*2277 FILLER_5_243
*2278 FILLER_5_27
*2279 FILLER_5_3
*2280 FILLER_5_30
*2281 FILLER_5_33
*2282 FILLER_5_36
*2283 FILLER_5_39
*2284 FILLER_5_42
*2285 FILLER_5_51
*2286 FILLER_5_54
*2287 FILLER_5_6
*2288 FILLER_5_9
*2289 FILLER_5_90
*2290 FILLER_5_93
*2291 FILLER_6_102
*2292 FILLER_6_12
*2293 FILLER_6_124
*2294 FILLER_6_127
*2295 FILLER_6_141
*2296 FILLER_6_149
*2297 FILLER_6_15
*2298 FILLER_6_152
*2299 FILLER_6_155
*2300 FILLER_6_175
*2301 FILLER_6_178
*2302 FILLER_6_18
*2303 FILLER_6_181
*2304 FILLER_6_184
*2305 FILLER_6_187
*2306 FILLER_6_194
*2307 FILLER_6_197
*2308 FILLER_6_200
*2309 FILLER_6_21
*2310 FILLER_6_215
*2311 FILLER_6_218
*2312 FILLER_6_221
*2313 FILLER_6_24
*2314 FILLER_6_244
*2315 FILLER_6_27
*2316 FILLER_6_29
*2317 FILLER_6_3
*2318 FILLER_6_32
*2319 FILLER_6_35
*2320 FILLER_6_38
*2321 FILLER_6_41
*2322 FILLER_6_44
*2323 FILLER_6_47
*2324 FILLER_6_50
*2325 FILLER_6_53
*2326 FILLER_6_6
*2327 FILLER_6_67
*2328 FILLER_6_85
*2329 FILLER_6_9
*2330 FILLER_6_93
*2331 FILLER_6_96
*2332 FILLER_6_99
*2333 FILLER_7_100
*2334 FILLER_7_103
*2335 FILLER_7_12
*2336 FILLER_7_129
*2337 FILLER_7_132
*2338 FILLER_7_135
*2339 FILLER_7_138
*2340 FILLER_7_15
*2341 FILLER_7_167
*2342 FILLER_7_18
*2343 FILLER_7_184
*2344 FILLER_7_187
*2345 FILLER_7_190
*2346 FILLER_7_193
*2347 FILLER_7_196
*2348 FILLER_7_199
*2349 FILLER_7_202
*2350 FILLER_7_205
*2351 FILLER_7_208
*2352 FILLER_7_21
*2353 FILLER_7_211
*2354 FILLER_7_214
*2355 FILLER_7_225
*2356 FILLER_7_24
*2357 FILLER_7_244
*2358 FILLER_7_27
*2359 FILLER_7_3
*2360 FILLER_7_30
*2361 FILLER_7_33
*2362 FILLER_7_36
*2363 FILLER_7_39
*2364 FILLER_7_42
*2365 FILLER_7_45
*2366 FILLER_7_48
*2367 FILLER_7_57
*2368 FILLER_7_6
*2369 FILLER_7_60
*2370 FILLER_7_63
*2371 FILLER_7_66
*2372 FILLER_7_69
*2373 FILLER_7_79
*2374 FILLER_7_82
*2375 FILLER_7_85
*2376 FILLER_7_9
*2377 FILLER_7_94
*2378 FILLER_7_97
*2379 FILLER_8_101
*2380 FILLER_8_104
*2381 FILLER_8_113
*2382 FILLER_8_12
*2383 FILLER_8_130
*2384 FILLER_8_133
*2385 FILLER_8_136
*2386 FILLER_8_139
*2387 FILLER_8_141
*2388 FILLER_8_15
*2389 FILLER_8_179
*2390 FILLER_8_18
*2391 FILLER_8_182
*2392 FILLER_8_185
*2393 FILLER_8_188
*2394 FILLER_8_191
*2395 FILLER_8_194
*2396 FILLER_8_197
*2397 FILLER_8_207
*2398 FILLER_8_21
*2399 FILLER_8_210
*2400 FILLER_8_24
*2401 FILLER_8_27
*2402 FILLER_8_29
*2403 FILLER_8_3
*2404 FILLER_8_32
*2405 FILLER_8_35
*2406 FILLER_8_38
*2407 FILLER_8_41
*2408 FILLER_8_44
*2409 FILLER_8_47
*2410 FILLER_8_56
*2411 FILLER_8_6
*2412 FILLER_8_65
*2413 FILLER_8_68
*2414 FILLER_8_71
*2415 FILLER_8_74
*2416 FILLER_8_77
*2417 FILLER_8_80
*2418 FILLER_8_83
*2419 FILLER_8_85
*2420 FILLER_8_9
*2421 FILLER_9_100
*2422 FILLER_9_103
*2423 FILLER_9_106
*2424 FILLER_9_109
*2425 FILLER_9_12
*2426 FILLER_9_131
*2427 FILLER_9_134
*2428 FILLER_9_137
*2429 FILLER_9_15
*2430 FILLER_9_159
*2431 FILLER_9_162
*2432 FILLER_9_165
*2433 FILLER_9_173
*2434 FILLER_9_176
*2435 FILLER_9_179
*2436 FILLER_9_18
*2437 FILLER_9_182
*2438 FILLER_9_185
*2439 FILLER_9_188
*2440 FILLER_9_191
*2441 FILLER_9_194
*2442 FILLER_9_197
*2443 FILLER_9_200
*2444 FILLER_9_203
*2445 FILLER_9_206
*2446 FILLER_9_21
*2447 FILLER_9_223
*2448 FILLER_9_232
*2449 FILLER_9_235
*2450 FILLER_9_24
*2451 FILLER_9_27
*2452 FILLER_9_3
*2453 FILLER_9_30
*2454 FILLER_9_33
*2455 FILLER_9_36
*2456 FILLER_9_39
*2457 FILLER_9_42
*2458 FILLER_9_57
*2459 FILLER_9_6
*2460 FILLER_9_67
*2461 FILLER_9_70
*2462 FILLER_9_9
*2463 FILLER_9_94
*2464 FILLER_9_97
*2465 PHY_EDGE_ROW_0_Left_41
*2466 PHY_EDGE_ROW_0_Right_0
*2467 PHY_EDGE_ROW_10_Left_51
*2468 PHY_EDGE_ROW_10_Right_10
*2469 PHY_EDGE_ROW_11_Left_52
*2470 PHY_EDGE_ROW_11_Right_11
*2471 PHY_EDGE_ROW_12_Left_53
*2472 PHY_EDGE_ROW_12_Right_12
*2473 PHY_EDGE_ROW_13_Left_54
*2474 PHY_EDGE_ROW_13_Right_13
*2475 PHY_EDGE_ROW_14_Left_55
*2476 PHY_EDGE_ROW_14_Right_14
*2477 PHY_EDGE_ROW_15_Left_56
*2478 PHY_EDGE_ROW_15_Right_15
*2479 PHY_EDGE_ROW_16_Left_57
*2480 PHY_EDGE_ROW_16_Right_16
*2481 PHY_EDGE_ROW_17_Left_58
*2482 PHY_EDGE_ROW_17_Right_17
*2483 PHY_EDGE_ROW_18_Left_59
*2484 PHY_EDGE_ROW_18_Right_18
*2485 PHY_EDGE_ROW_19_Left_60
*2486 PHY_EDGE_ROW_19_Right_19
*2487 PHY_EDGE_ROW_1_Left_42
*2488 PHY_EDGE_ROW_1_Right_1
*2489 PHY_EDGE_ROW_20_Left_61
*2490 PHY_EDGE_ROW_20_Right_20
*2491 PHY_EDGE_ROW_21_Left_62
*2492 PHY_EDGE_ROW_21_Right_21
*2493 PHY_EDGE_ROW_22_Left_63
*2494 PHY_EDGE_ROW_22_Right_22
*2495 PHY_EDGE_ROW_23_Left_64
*2496 PHY_EDGE_ROW_23_Right_23
*2497 PHY_EDGE_ROW_24_Left_65
*2498 PHY_EDGE_ROW_24_Right_24
*2499 PHY_EDGE_ROW_25_Left_66
*2500 PHY_EDGE_ROW_25_Right_25
*2501 PHY_EDGE_ROW_26_Left_67
*2502 PHY_EDGE_ROW_26_Right_26
*2503 PHY_EDGE_ROW_27_Left_68
*2504 PHY_EDGE_ROW_27_Right_27
*2505 PHY_EDGE_ROW_28_Left_69
*2506 PHY_EDGE_ROW_28_Right_28
*2507 PHY_EDGE_ROW_29_Left_70
*2508 PHY_EDGE_ROW_29_Right_29
*2509 PHY_EDGE_ROW_2_Left_43
*2510 PHY_EDGE_ROW_2_Right_2
*2511 PHY_EDGE_ROW_30_Left_71
*2512 PHY_EDGE_ROW_30_Right_30
*2513 PHY_EDGE_ROW_31_Left_72
*2514 PHY_EDGE_ROW_31_Right_31
*2515 PHY_EDGE_ROW_32_Left_73
*2516 PHY_EDGE_ROW_32_Right_32
*2517 PHY_EDGE_ROW_33_Left_74
*2518 PHY_EDGE_ROW_33_Right_33
*2519 PHY_EDGE_ROW_34_Left_75
*2520 PHY_EDGE_ROW_34_Right_34
*2521 PHY_EDGE_ROW_35_Left_76
*2522 PHY_EDGE_ROW_35_Right_35
*2523 PHY_EDGE_ROW_36_Left_77
*2524 PHY_EDGE_ROW_36_Right_36
*2525 PHY_EDGE_ROW_37_Left_78
*2526 PHY_EDGE_ROW_37_Right_37
*2527 PHY_EDGE_ROW_38_Left_79
*2528 PHY_EDGE_ROW_38_Right_38
*2529 PHY_EDGE_ROW_39_Left_80
*2530 PHY_EDGE_ROW_39_Right_39
*2531 PHY_EDGE_ROW_3_Left_44
*2532 PHY_EDGE_ROW_3_Right_3
*2533 PHY_EDGE_ROW_40_Left_81
*2534 PHY_EDGE_ROW_40_Right_40
*2535 PHY_EDGE_ROW_4_Left_45
*2536 PHY_EDGE_ROW_4_Right_4
*2537 PHY_EDGE_ROW_5_Left_46
*2538 PHY_EDGE_ROW_5_Right_5
*2539 PHY_EDGE_ROW_6_Left_47
*2540 PHY_EDGE_ROW_6_Right_6
*2541 PHY_EDGE_ROW_7_Left_48
*2542 PHY_EDGE_ROW_7_Right_7
*2543 PHY_EDGE_ROW_8_Left_49
*2544 PHY_EDGE_ROW_8_Right_8
*2545 PHY_EDGE_ROW_9_Left_50
*2546 PHY_EDGE_ROW_9_Right_9
*2547 TAP_TAPCELL_ROW_0_82
*2548 TAP_TAPCELL_ROW_0_83
*2549 TAP_TAPCELL_ROW_0_84
*2550 TAP_TAPCELL_ROW_0_85
*2551 TAP_TAPCELL_ROW_0_86
*2552 TAP_TAPCELL_ROW_0_87
*2553 TAP_TAPCELL_ROW_0_88
*2554 TAP_TAPCELL_ROW_0_89
*2555 TAP_TAPCELL_ROW_10_126
*2556 TAP_TAPCELL_ROW_10_127
*2557 TAP_TAPCELL_ROW_10_128
*2558 TAP_TAPCELL_ROW_10_129
*2559 TAP_TAPCELL_ROW_11_130
*2560 TAP_TAPCELL_ROW_11_131
*2561 TAP_TAPCELL_ROW_11_132
*2562 TAP_TAPCELL_ROW_11_133
*2563 TAP_TAPCELL_ROW_12_134
*2564 TAP_TAPCELL_ROW_12_135
*2565 TAP_TAPCELL_ROW_12_136
*2566 TAP_TAPCELL_ROW_12_137
*2567 TAP_TAPCELL_ROW_13_138
*2568 TAP_TAPCELL_ROW_13_139
*2569 TAP_TAPCELL_ROW_13_140
*2570 TAP_TAPCELL_ROW_13_141
*2571 TAP_TAPCELL_ROW_14_142
*2572 TAP_TAPCELL_ROW_14_143
*2573 TAP_TAPCELL_ROW_14_144
*2574 TAP_TAPCELL_ROW_14_145
*2575 TAP_TAPCELL_ROW_15_146
*2576 TAP_TAPCELL_ROW_15_147
*2577 TAP_TAPCELL_ROW_15_148
*2578 TAP_TAPCELL_ROW_15_149
*2579 TAP_TAPCELL_ROW_16_150
*2580 TAP_TAPCELL_ROW_16_151
*2581 TAP_TAPCELL_ROW_16_152
*2582 TAP_TAPCELL_ROW_16_153
*2583 TAP_TAPCELL_ROW_17_154
*2584 TAP_TAPCELL_ROW_17_155
*2585 TAP_TAPCELL_ROW_17_156
*2586 TAP_TAPCELL_ROW_17_157
*2587 TAP_TAPCELL_ROW_18_158
*2588 TAP_TAPCELL_ROW_18_159
*2589 TAP_TAPCELL_ROW_18_160
*2590 TAP_TAPCELL_ROW_18_161
*2591 TAP_TAPCELL_ROW_19_162
*2592 TAP_TAPCELL_ROW_19_163
*2593 TAP_TAPCELL_ROW_19_164
*2594 TAP_TAPCELL_ROW_19_165
*2595 TAP_TAPCELL_ROW_1_90
*2596 TAP_TAPCELL_ROW_1_91
*2597 TAP_TAPCELL_ROW_1_92
*2598 TAP_TAPCELL_ROW_1_93
*2599 TAP_TAPCELL_ROW_20_166
*2600 TAP_TAPCELL_ROW_20_167
*2601 TAP_TAPCELL_ROW_20_168
*2602 TAP_TAPCELL_ROW_20_169
*2603 TAP_TAPCELL_ROW_21_170
*2604 TAP_TAPCELL_ROW_21_171
*2605 TAP_TAPCELL_ROW_21_172
*2606 TAP_TAPCELL_ROW_21_173
*2607 TAP_TAPCELL_ROW_22_174
*2608 TAP_TAPCELL_ROW_22_175
*2609 TAP_TAPCELL_ROW_22_176
*2610 TAP_TAPCELL_ROW_22_177
*2611 TAP_TAPCELL_ROW_23_178
*2612 TAP_TAPCELL_ROW_23_179
*2613 TAP_TAPCELL_ROW_23_180
*2614 TAP_TAPCELL_ROW_23_181
*2615 TAP_TAPCELL_ROW_24_182
*2616 TAP_TAPCELL_ROW_24_183
*2617 TAP_TAPCELL_ROW_24_184
*2618 TAP_TAPCELL_ROW_24_185
*2619 TAP_TAPCELL_ROW_25_186
*2620 TAP_TAPCELL_ROW_25_187
*2621 TAP_TAPCELL_ROW_25_188
*2622 TAP_TAPCELL_ROW_25_189
*2623 TAP_TAPCELL_ROW_26_190
*2624 TAP_TAPCELL_ROW_26_191
*2625 TAP_TAPCELL_ROW_26_192
*2626 TAP_TAPCELL_ROW_26_193
*2627 TAP_TAPCELL_ROW_27_194
*2628 TAP_TAPCELL_ROW_27_195
*2629 TAP_TAPCELL_ROW_27_196
*2630 TAP_TAPCELL_ROW_27_197
*2631 TAP_TAPCELL_ROW_28_198
*2632 TAP_TAPCELL_ROW_28_199
*2633 TAP_TAPCELL_ROW_28_200
*2634 TAP_TAPCELL_ROW_28_201
*2635 TAP_TAPCELL_ROW_29_202
*2636 TAP_TAPCELL_ROW_29_203
*2637 TAP_TAPCELL_ROW_29_204
*2638 TAP_TAPCELL_ROW_29_205
*2639 TAP_TAPCELL_ROW_2_94
*2640 TAP_TAPCELL_ROW_2_95
*2641 TAP_TAPCELL_ROW_2_96
*2642 TAP_TAPCELL_ROW_2_97
*2643 TAP_TAPCELL_ROW_30_206
*2644 TAP_TAPCELL_ROW_30_207
*2645 TAP_TAPCELL_ROW_30_208
*2646 TAP_TAPCELL_ROW_30_209
*2647 TAP_TAPCELL_ROW_31_210
*2648 TAP_TAPCELL_ROW_31_211
*2649 TAP_TAPCELL_ROW_31_212
*2650 TAP_TAPCELL_ROW_31_213
*2651 TAP_TAPCELL_ROW_32_214
*2652 TAP_TAPCELL_ROW_32_215
*2653 TAP_TAPCELL_ROW_32_216
*2654 TAP_TAPCELL_ROW_32_217
*2655 TAP_TAPCELL_ROW_33_218
*2656 TAP_TAPCELL_ROW_33_219
*2657 TAP_TAPCELL_ROW_33_220
*2658 TAP_TAPCELL_ROW_33_221
*2659 TAP_TAPCELL_ROW_34_222
*2660 TAP_TAPCELL_ROW_34_223
*2661 TAP_TAPCELL_ROW_34_224
*2662 TAP_TAPCELL_ROW_34_225
*2663 TAP_TAPCELL_ROW_35_226
*2664 TAP_TAPCELL_ROW_35_227
*2665 TAP_TAPCELL_ROW_35_228
*2666 TAP_TAPCELL_ROW_35_229
*2667 TAP_TAPCELL_ROW_36_230
*2668 TAP_TAPCELL_ROW_36_231
*2669 TAP_TAPCELL_ROW_36_232
*2670 TAP_TAPCELL_ROW_36_233
*2671 TAP_TAPCELL_ROW_37_234
*2672 TAP_TAPCELL_ROW_37_235
*2673 TAP_TAPCELL_ROW_37_236
*2674 TAP_TAPCELL_ROW_37_237
*2675 TAP_TAPCELL_ROW_38_238
*2676 TAP_TAPCELL_ROW_38_239
*2677 TAP_TAPCELL_ROW_38_240
*2678 TAP_TAPCELL_ROW_38_241
*2679 TAP_TAPCELL_ROW_39_242
*2680 TAP_TAPCELL_ROW_39_243
*2681 TAP_TAPCELL_ROW_39_244
*2682 TAP_TAPCELL_ROW_39_245
*2683 TAP_TAPCELL_ROW_3_100
*2684 TAP_TAPCELL_ROW_3_101
*2685 TAP_TAPCELL_ROW_3_98
*2686 TAP_TAPCELL_ROW_3_99
*2687 TAP_TAPCELL_ROW_40_246
*2688 TAP_TAPCELL_ROW_40_247
*2689 TAP_TAPCELL_ROW_40_248
*2690 TAP_TAPCELL_ROW_40_249
*2691 TAP_TAPCELL_ROW_40_250
*2692 TAP_TAPCELL_ROW_40_251
*2693 TAP_TAPCELL_ROW_40_252
*2694 TAP_TAPCELL_ROW_40_253
*2695 TAP_TAPCELL_ROW_4_102
*2696 TAP_TAPCELL_ROW_4_103
*2697 TAP_TAPCELL_ROW_4_104
*2698 TAP_TAPCELL_ROW_4_105
*2699 TAP_TAPCELL_ROW_5_106
*2700 TAP_TAPCELL_ROW_5_107
*2701 TAP_TAPCELL_ROW_5_108
*2702 TAP_TAPCELL_ROW_5_109
*2703 TAP_TAPCELL_ROW_6_110
*2704 TAP_TAPCELL_ROW_6_111
*2705 TAP_TAPCELL_ROW_6_112
*2706 TAP_TAPCELL_ROW_6_113
*2707 TAP_TAPCELL_ROW_7_114
*2708 TAP_TAPCELL_ROW_7_115
*2709 TAP_TAPCELL_ROW_7_116
*2710 TAP_TAPCELL_ROW_7_117
*2711 TAP_TAPCELL_ROW_8_118
*2712 TAP_TAPCELL_ROW_8_119
*2713 TAP_TAPCELL_ROW_8_120
*2714 TAP_TAPCELL_ROW_8_121
*2715 TAP_TAPCELL_ROW_9_122
*2716 TAP_TAPCELL_ROW_9_123
*2717 TAP_TAPCELL_ROW_9_124
*2718 TAP_TAPCELL_ROW_9_125
*2719 _349_
*2720 _350_
*2721 _351_
*2722 _352_
*2723 _353_
*2724 _354_
*2725 _355_
*2726 _356_
*2727 _357_
*2728 _358_
*2729 _359_
*2730 _360_
*2731 _361_
*2732 _362_
*2733 _363_
*2734 _364_
*2735 _365_
*2736 _366_
*2737 _367_
*2738 _368_
*2739 _369_
*2740 _370_
*2741 _371_
*2742 _372_
*2743 _373_
*2744 _374_
*2745 _375_
*2746 _376_
*2747 _377_
*2748 _378_
*2749 _379_
*2750 _380_
*2751 _381_
*2752 _382_
*2753 _383_
*2754 _384_
*2755 _385_
*2756 _386_
*2757 _387_
*2758 _388_
*2759 _389_
*2760 _390_
*2761 _391_
*2762 _392_
*2763 _393_
*2764 _394_
*2765 _395_
*2766 _396_
*2767 _397_
*2768 _398_
*2769 _399_
*2770 _400_
*2771 _401_
*2772 _402_
*2773 _403_
*2774 _404_
*2775 _405_
*2776 _406_
*2777 _407_
*2778 _408_
*2779 _409_
*2780 _410_
*2781 _411_
*2782 _412_
*2783 _413_
*2784 _414_
*2785 _415_
*2786 _416_
*2787 _417_
*2788 _418_
*2789 _419_
*2790 _420_
*2791 _421_
*2792 _422_
*2793 _423_
*2794 _424_
*2795 _425_
*2796 _426_
*2797 _427_
*2798 _428_
*2799 _429_
*2800 _430_
*2801 _431_
*2802 _432_
*2803 _433_
*2804 _434_
*2805 _435_
*2806 _436_
*2807 _437_
*2808 _438_
*2809 _439_
*2810 _440_
*2811 _441_
*2812 _442_
*2813 _443_
*2814 _444_
*2815 _445_
*2816 _446_
*2817 _447_
*2818 _448_
*2819 _449_
*2820 _450_
*2821 _451_
*2822 _452_
*2823 _453_
*2824 _454_
*2825 _455_
*2826 _456_
*2827 _457_
*2828 _458_
*2829 _459_
*2830 _460_
*2831 _461_
*2832 _462_
*2833 _463_
*2834 _464_
*2835 _465_
*2836 _466_
*2837 _467_
*2838 _468_
*2839 _469_
*2840 _470_
*2841 _471_
*2842 _472_
*2843 _473_
*2844 _474_
*2845 _475_
*2846 _476_
*2847 _477_
*2848 _478_
*2849 _479_
*2850 _480_
*2851 _481_
*2852 _482_
*2853 _483_
*2854 _484_
*2855 _485_
*2856 _486_
*2857 _487_
*2858 _488_
*2859 _489_
*2860 _490_
*2861 _491_
*2862 _492_
*2863 _493_
*2864 _494_
*2865 _495_
*2866 _496_
*2867 _497_
*2868 _498_
*2869 _499_
*2870 _500_
*2871 _501_
*2872 _502_
*2873 _503_
*2874 _504_
*2875 _505_
*2876 _506_
*2877 _507_
*2878 _508_
*2879 _509_
*2880 _510_
*2881 _511_
*2882 _512_
*2883 _513_
*2884 _514_
*2885 _515_
*2886 _516_
*2887 _517_
*2888 _518_
*2889 _519_
*2890 _520_
*2891 _521_
*2892 _522_
*2893 _523_
*2894 _524_
*2895 _525_
*2896 _526_
*2897 _527_
*2898 _528_
*2899 _529_
*2900 _530_
*2901 _531_
*2902 _532_
*2903 _533_
*2904 _534_
*2905 _535_
*2906 _536_
*2907 _537_
*2908 _538_
*2909 _539_
*2910 _540_
*2911 _541_
*2912 _542_
*2913 _543_
*2914 _544_
*2915 _545_
*2916 _546_
*2917 _547_
*2918 _548_
*2919 _549_
*2920 _550_
*2921 _551_
*2922 _552_
*2923 _553_
*2924 _554_
*2925 _555_
*2926 _556_
*2927 _557_
*2928 _558_
*2929 _559_
*2930 _560_
*2931 _561_
*2932 _562_
*2933 _563_
*2934 _564_
*2935 _565_
*2936 _566_
*2937 _567_
*2938 _568_
*2939 _569_
*2940 _570_
*2941 _571_
*2942 _572_
*2943 _573_
*2944 _574_
*2945 _575_
*2946 _576_
*2947 _577_
*2948 _578_
*2949 _579_
*2950 _580_
*2951 _581_
*2952 _582_
*2953 _583_
*2954 _584_
*2955 _585_
*2956 _586_
*2957 _587_
*2958 _588_
*2959 _589_
*2960 _590_
*2961 _591_
*2962 _592_
*2963 _593_
*2964 _594_
*2965 _595_
*2966 _596_
*2967 _597_
*2968 _598_
*2969 _599_
*2970 _600_
*2971 _601_
*2972 _602_
*2973 _603_
*2974 _604_
*2975 _605_
*2976 _606_
*2977 _607_
*2978 _608_
*2979 _609_
*2980 _610_
*2981 _611_
*2982 _612_
*2983 _613_
*2984 _614_
*2985 _615_
*2986 _616_
*2987 _617_
*2988 _618_
*2989 _619_
*2990 _620_
*2991 _621_
*2992 _622_
*2993 _623_
*2994 _624_
*2995 _625_
*2996 _626_
*2997 _627_
*2998 _628_
*2999 _629_
*3000 _630_
*3001 _631_
*3002 _632_
*3003 _633_
*3004 _634_
*3005 _635_
*3006 _636_
*3007 _637_
*3008 _638_
*3009 _639_
*3010 _640_
*3011 _641_
*3012 _642_
*3013 _643_
*3014 _644_
*3015 _645_
*3016 _646_
*3017 _647_
*3018 _648_
*3019 _649_
*3020 _650_
*3021 _651_
*3022 _652_
*3023 _653_
*3024 _654_
*3025 _655_
*3026 _656_
*3027 _657_
*3028 _658_
*3029 _659_
*3030 _660_
*3031 _661_
*3032 _662_
*3033 _663_
*3034 _664_
*3035 _665_
*3036 _666_
*3037 _667_
*3038 _668_
*3039 _669_
*3040 _670_
*3041 _671_
*3042 _672_
*3043 _673_
*3044 _674_
*3045 _675_
*3046 _676_
*3047 _677_
*3048 _678_
*3049 _679_
*3050 _680_
*3051 _681_
*3052 _682_
*3053 _683_
*3054 _684_
*3055 _685_
*3056 _686_
*3057 _687_
*3058 _688_
*3059 _689_
*3060 _690_
*3061 _691_
*3062 _692_
*3063 _693_
*3064 _694_
*3065 _695_
*3066 _696_
*3067 _697_
*3068 _698_
*3069 _699_
*3070 _700_
*3071 _701_
*3072 _702_
*3073 _703_
*3074 _704_
*3075 _705_
*3076 _706_
*3077 _707_
*3078 _708_
*3079 _709_
*3080 _710_
*3081 _711_
*3082 _712_
*3083 _713_
*3084 _714_
*3085 _715_
*3086 _716_
*3087 _717_
*3088 _718_
*3089 _719_
*3090 _720_
*3091 _721_
*3092 _722_
*3093 _723_
*3094 _724_
*3095 _725_
*3096 _726_
*3097 _727_
*3098 _728_
*3099 _729_
*3100 _730_
*3101 fanout100
*3102 fanout102
*3103 fanout104
*3104 fanout105
*3105 fanout106
*3106 fanout108
*3107 fanout109
*3108 fanout111
*3109 fanout113
*3110 fanout116
*3111 fanout117
*3112 fanout119
*3113 fanout121
*3114 input1
*3115 input10
*3116 input11
*3117 input12
*3118 input13
*3119 input14
*3120 input15
*3121 input16
*3122 input17
*3123 input18
*3124 input19
*3125 input2
*3126 input20
*3127 input21
*3128 input22
*3129 input23
*3130 input24
*3131 input25
*3132 input26
*3133 input27
*3134 input28
*3135 input29
*3136 input3
*3137 input30
*3138 input31
*3139 input32
*3140 input33
*3141 input34
*3142 input35
*3143 input36
*3144 input37
*3145 input38
*3146 input39
*3147 input4
*3148 input40
*3149 input41
*3150 input42
*3151 input43
*3152 input44
*3153 input45
*3154 input46
*3155 input47
*3156 input48
*3157 input49
*3158 input5
*3159 input50
*3160 input51
*3161 input52
*3162 input53
*3163 input54
*3164 input55
*3165 input56
*3166 input57
*3167 input58
*3168 input59
*3169 input6
*3170 input60
*3171 input61
*3172 input62
*3173 input63
*3174 input64
*3175 input65
*3176 input7
*3177 input8
*3178 input9
*3179 load_slew101
*3180 load_slew103
*3181 load_slew107
*3182 load_slew112
*3183 load_slew114
*3184 load_slew115
*3185 load_slew118
*3186 load_slew120
*3187 max_cap99
*3188 output66
*3189 output67
*3190 output68
*3191 output69
*3192 output70
*3193 output71
*3194 output72
*3195 output73
*3196 output74
*3197 output75
*3198 output76
*3199 output77
*3200 output78
*3201 output79
*3202 output80
*3203 output81
*3204 output82
*3205 output83
*3206 output84
*3207 output85
*3208 output86
*3209 output87
*3210 output88
*3211 output89
*3212 output90
*3213 output91
*3214 output92
*3215 output93
*3216 output94
*3217 output95
*3218 output96
*3219 output97
*3220 output98
*3221 rebuffer122
*3222 rebuffer123
*3223 rebuffer124
*3224 rebuffer125
*3225 rebuffer126
*3226 rebuffer127
*3227 rebuffer128
*3228 rebuffer129
*3229 rebuffer130
*3230 rebuffer131
*3231 rebuffer132
*3232 rebuffer133
*3233 rebuffer134
*3234 rebuffer135
*3235 rebuffer136
*3236 rebuffer137
*3237 rebuffer138
*3238 rebuffer139
*3239 rebuffer140
*3240 rebuffer141
*3241 rebuffer142
*3242 rebuffer143
*3243 rebuffer144
*3244 rebuffer145
*3245 rebuffer146
*3246 rebuffer147
*3247 rebuffer148
*3248 rebuffer149
*3249 rebuffer167
*3250 rebuffer177
*3251 rebuffer178
*3252 rebuffer179
*3253 rebuffer180
*3254 rebuffer181
*3255 rebuffer182
*3256 rebuffer224
*3257 rebuffer225
*3258 rebuffer226
*3259 rebuffer227
*3260 wire110

*PORTS
A[0] I
A[10] I
A[11] I
A[12] I
A[13] I
A[14] I
A[15] I
A[16] I
A[17] I
A[18] I
A[19] I
A[1] I
A[20] I
A[21] I
A[22] I
A[23] I
A[24] I
A[25] I
A[26] I
A[27] I
A[28] I
A[29] I
A[2] I
A[30] I
A[31] I
A[3] I
A[4] I
A[5] I
A[6] I
A[7] I
A[8] I
A[9] I
B[0] I
B[10] I
B[11] I
B[12] I
B[13] I
B[14] I
B[15] I
B[16] I
B[17] I
B[18] I
B[19] I
B[1] I
B[20] I
B[21] I
B[22] I
B[23] I
B[24] I
B[25] I
B[26] I
B[27] I
B[28] I
B[29] I
B[2] I
B[30] I
B[31] I
B[3] I
B[4] I
B[5] I
B[6] I
B[7] I
B[8] I
B[9] I
S[0] O
S[10] O
S[11] O
S[12] O
S[13] O
S[14] O
S[15] O
S[16] O
S[17] O
S[18] O
S[19] O
S[1] O
S[20] O
S[21] O
S[22] O
S[23] O
S[24] O
S[25] O
S[26] O
S[27] O
S[28] O
S[29] O
S[2] O
S[30] O
S[31] O
S[3] O
S[4] O
S[5] O
S[6] O
S[7] O
S[8] O
S[9] O
carryOut O
sub I

*D_NET *1 0.00273674
*CONN
*P A[0] I
*I *3114:A I *D sky130_fd_sc_hd__clkdlybuf4s25_1
*CAP
1 A[0] 0.000752036
2 *3114:A 0.000752036
3 *3114:A S[1] 0
4 *3114:A *2758:B 4.66108e-05
5 *3114:A *2985:A 0
6 *3114:A *2985:B 0
7 *3114:A *2987:B 7.35729e-05
8 *3114:A *3113:A 0.000111285
9 *3114:A *3140:A 0.000464377
10 *3114:A *3199:A 0
11 *3114:A *450:6 0.000196048
12 *3114:A *450:15 8.35068e-05
13 *3114:A *537:23 7.44125e-05
14 *3114:A *537:32 0.00018285
*RES
1 A[0] *3114:A 21.27 
*END

*D_NET *2 0.0023868
*CONN
*P A[10] I
*I *3125:A I *D sky130_fd_sc_hd__clkdlybuf4s25_1
*CAP
1 A[10] 0.000802294
2 *3125:A 0.000802294
3 *3125:A *3081:A 0.000300383
4 *3125:A *3088:A1 0.000109526
5 *3125:A *3141:A 0.000267677
6 *3125:A *538:10 0.000104625
*RES
1 A[10] *3125:A 9.36003 
*END

*D_NET *3 0.00226849
*CONN
*P A[11] I
*I *3136:A I *D sky130_fd_sc_hd__clkdlybuf4s25_1
*CAP
1 A[11] 0.000596943
2 *3136:A 0.000596943
3 *3136:A *3083:A_N 0.000239807
4 *3136:A *3141:A 0.000309801
5 *3136:A *3142:A 0.000244265
6 *3136:A *161:10 0.000108317
7 *3136:A *469:24 0.000116048
8 *3136:A *469:76 2.18022e-05
9 *3136:A *533:10 3.45588e-05
*RES
1 A[11] *3136:A 14.988 
*END

*D_NET *4 0.00136266
*CONN
*P A[12] I
*I *3147:A I *D sky130_fd_sc_hd__clkdlybuf4s25_1
*CAP
1 A[12] 0.000346348
2 *3147:A 0.000346348
3 *3147:A S[14] 7.83696e-05
4 *3147:A S[28] 0.000347334
5 *3147:A *3127:A 0
6 *3147:A *3143:A 0.000244265
7 *3147:A *540:20 0
*RES
1 A[12] *3147:A 8.2893 
*END

*D_NET *5 0.00117186
*CONN
*P A[13] I
*I *3158:A I *D sky130_fd_sc_hd__clkdlybuf4s25_1
*CAP
1 A[13] 0.000536267
2 *3158:A 0.000536267
3 *3158:A S[15] 0
4 *3158:A *3144:A 9.9326e-05
5 *3158:A *3169:A 0
6 *3158:A *3194:A 0
*RES
1 A[13] *3158:A 8.2893 
*END

*D_NET *6 0.000964743
*CONN
*P A[14] I
*I *3169:A I *D sky130_fd_sc_hd__clkdlybuf4s25_1
*CAP
1 A[14] 0.000392468
2 *3169:A 0.000392468
3 *3169:A *3144:A 2.58171e-05
4 *3169:A *3145:A 5.29922e-05
5 *3169:A *3146:A 0
6 *3169:A *3176:A 0
7 *3169:A *541:12 0.000100998
8 *3158:A *3169:A 0
*RES
1 A[14] *3169:A 7.0143 
*END

*D_NET *7 0.00115157
*CONN
*P A[15] I
*I *3176:A I *D sky130_fd_sc_hd__clkdlybuf4s25_1
*CAP
1 A[15] 0.000484364
2 *3176:A 0.000484364
3 *3176:A *3144:A 6.32332e-05
4 *3176:A *3146:A 0.000119605
5 *3169:A *3176:A 0
*RES
1 A[15] *3176:A 11.0066 
*END

*D_NET *8 0.000794132
*CONN
*P A[16] I
*I *3177:A I *D sky130_fd_sc_hd__clkdlybuf4s25_1
*CAP
1 A[16] 0.000335618
2 *3177:A 0.000335618
3 *3177:A S[17] 0.000113195
4 *3177:A *3148:A 9.70043e-06
*RES
1 A[16] *3177:A 8.7307 
*END

*D_NET *9 0.00108472
*CONN
*P A[17] I
*I *3178:A I *D sky130_fd_sc_hd__clkdlybuf4s25_1
*CAP
1 A[17] 0.000275535
2 *3178:A 0.000275535
3 *3178:A *3115:A 0.000188914
4 *3178:A *3149:A 0.000207222
5 *3178:A *3150:A 0.000137511
*RES
1 A[17] *3178:A 8.60377 
*END

*D_NET *10 0.000921608
*CONN
*P A[18] I
*I *3115:A I *D sky130_fd_sc_hd__clkdlybuf4s25_1
*CAP
1 A[18] 0.000366347
2 *3115:A 0.000366347
3 *3115:A *2796:A 0
4 *3115:A *3150:A 0
5 *3178:A *3115:A 0.000188914
*RES
1 A[18] *3115:A 6.74663 
*END

*D_NET *11 0.001994
*CONN
*P A[19] I
*I *3116:A I *D sky130_fd_sc_hd__clkdlybuf4s25_1
*CAP
1 A[19] 0.000335686
2 *3116:A 0.000335686
3 *3116:A *3121:A 0.000737033
4 *3116:A *3156:A 0.000585595
*RES
1 A[19] *3116:A 17.025 
*END

*D_NET *12 0.0022514
*CONN
*P A[1] I
*I *3117:A I *D sky130_fd_sc_hd__clkdlybuf4s25_1
*CAP
1 A[1] 0.000588296
2 *3117:A 0.000588296
3 *3117:A *2755:B 1.61831e-05
4 *3117:A *3152:A 0.000660235
5 *3117:A *549:16 0.000308236
6 *3117:A *564:10 3.18137e-05
7 *3117:A *567:18 5.83373e-05
*RES
1 A[1] *3117:A 17.865 
*END

*D_NET *13 0.00183111
*CONN
*P A[20] I
*I *3118:A I *D sky130_fd_sc_hd__clkdlybuf4s25_1
*CAP
1 A[20] 0.000566597
2 *3118:A 0.000566597
3 *3118:A *2828:A 0
4 *3118:A *2830:A1 0
5 *3118:A *3153:A 0.000697919
6 *3118:A *550:12 0
*RES
1 A[20] *3118:A 11.3349 
*END

*D_NET *14 0.00134116
*CONN
*P A[21] I
*I *3119:A I *D sky130_fd_sc_hd__clkdlybuf4s25_1
*CAP
1 A[21] 0.000670582
2 *3119:A 0.000670582
*RES
1 A[21] *3119:A 15.3 
*END

*D_NET *15 0.00268106
*CONN
*P A[22] I
*I *3120:A I *D sky130_fd_sc_hd__clkdlybuf4s25_1
*CAP
1 A[22] 0.000531078
2 *3120:A 0.000531078
3 *3120:A S[19] 0.000658242
4 *3120:A *2859:B 0
5 *3120:A *2861:B 0.000141592
6 *3120:A *3156:A 0.000587462
7 *3120:A *3198:A 3.26735e-05
8 *3120:A *506:6 0.000198934
9 *3120:A *553:8 0
*RES
1 A[22] *3120:A 21.21 
*END

*D_NET *16 0.00211928
*CONN
*P A[23] I
*I *3121:A I *D sky130_fd_sc_hd__clkdlybuf4s25_1
*CAP
1 A[23] 0.000659925
2 *3121:A 0.000659925
3 *3121:A S[23] 1.16578e-05
4 *3121:A *462:10 5.07419e-05
5 *3116:A *3121:A 0.000737033
*RES
1 A[23] *3121:A 19.2 
*END

*D_NET *17 0.00160577
*CONN
*P A[24] I
*I *3122:A I *D sky130_fd_sc_hd__clkdlybuf4s25_1
*CAP
1 A[24] 0.00045412
2 *3122:A 0.00045412
3 *3122:A S[24] 0
4 *3122:A *3157:A 0.000609267
5 *3122:A *554:14 8.8266e-05
*RES
1 A[24] *3122:A 15.645 
*END

*D_NET *18 0.0017673
*CONN
*P A[25] I
*I *3123:A I *D sky130_fd_sc_hd__clkdlybuf4s25_1
*CAP
1 A[25] 0.000443682
2 *3123:A 0.000443682
3 *3123:A *2905:A2 0.000122337
4 *3123:A *3159:A 0.000580282
5 *3123:A *356:8 5.33085e-05
6 *3123:A *513:6 0.000124007
*RES
1 A[25] *3123:A 15.99 
*END

*D_NET *19 0.00133629
*CONN
*P A[26] I
*I *3124:A I *D sky130_fd_sc_hd__clkdlybuf4s25_1
*CAP
1 A[26] 0.000653127
2 *3124:A 0.000653127
3 *3124:A S[26] 0
4 *3124:A *2905:A1 0
5 *3124:A *3160:A 0
6 *3124:A *517:10 3.00381e-05
*RES
1 A[26] *3124:A 15.3 
*END

*D_NET *20 0.00112276
*CONN
*P A[27] I
*I *3126:A I *D sky130_fd_sc_hd__clkdlybuf4s25_1
*CAP
1 A[27] 0.000394056
2 *3126:A 0.000394056
3 *3126:A S[27] 0.000160903
4 *3126:A *3161:A 0.000173745
*RES
1 A[27] *3126:A 10.1782 
*END

*D_NET *21 0.00171001
*CONN
*P A[28] I
*I *3127:A I *D sky130_fd_sc_hd__clkdlybuf4s25_1
*CAP
1 A[28] 0.000602881
2 *3127:A 0.000602881
3 *3127:A S[12] 0
4 *3127:A S[13] 0.000170526
5 *3127:A S[14] 0.000170526
6 *3127:A *3141:A 0.000163199
7 *3147:A *3127:A 0
*RES
1 A[28] *3127:A 14.0032 
*END

*D_NET *22 0.00214933
*CONN
*P A[29] I
*I *3128:A I *D sky130_fd_sc_hd__clkdlybuf4s25_1
*CAP
1 A[29] 0.000424285
2 *3128:A 0.000424285
3 *3128:A *2728:C 9.50342e-06
4 *3128:A *2730:C1 8.49205e-05
5 *3128:A *3133:A 0.000477821
6 *3128:A *3168:A 0.000453598
7 *3128:A *3215:A 0
8 *3128:A *456:19 9.05377e-05
9 *3128:A *560:14 0.000184382
10 *3128:A *565:16 0
*RES
1 A[29] *3128:A 18.03 
*END

*D_NET *23 0.000894393
*CONN
*P A[2] I
*I *3129:A I *D sky130_fd_sc_hd__clkdlybuf4s25_1
*CAP
1 A[2] 0.000378318
2 *3129:A 0.000378318
3 *3129:A S[3] 3.96423e-05
4 *3129:A *3164:A 9.81149e-05
*RES
1 A[2] *3129:A 8.34877 
*END

*D_NET *24 0.0017069
*CONN
*P A[30] I
*I *3130:A I *D sky130_fd_sc_hd__clkdlybuf4s25_1
*CAP
1 A[30] 0.000296853
2 *3130:A 0.000296853
3 *3130:A S[31] 0.000188914
4 *3130:A carryOut 0.000359926
5 *3130:A *3165:A 0.00056435
6 *3130:A *3220:A 0
*RES
1 A[30] *3130:A 7.52603 
*END

*D_NET *25 0.00159203
*CONN
*P A[31] I
*I *3131:A I *D sky130_fd_sc_hd__clkdlybuf4s25_1
*CAP
1 A[31] 0.000601347
2 *3131:A 0.000601347
3 *3131:A S[31] 0.00012657
4 *3131:A carryOut 0.000111915
5 *3131:A *2976:B 0
6 *3131:A *3166:A 9.48869e-05
7 *3131:A *3212:A 5.59676e-05
*RES
1 A[31] *3131:A 11.1451 
*END

*D_NET *26 0.00267818
*CONN
*P A[3] I
*I *3132:A I *D sky130_fd_sc_hd__clkdlybuf4s25_1
*CAP
1 A[3] 0.000529356
2 *3132:A 0.000529356
3 *3132:A *2721:A_N 4.66108e-05
4 *3132:A *2751:A 9.42145e-05
5 *3132:A *2755:C 0.000206123
6 *3132:A *2780:C 4.82919e-05
7 *3132:A *3152:A 0.000436357
8 *3132:A *3167:A 0.000440154
9 *3132:A *3170:A 0
10 *3132:A *454:8 0.000121314
11 *3132:A *454:17 0.000100528
12 *3132:A *455:18 1.08758e-05
13 *3132:A *529:10 8.53113e-06
14 *3132:A *567:18 3.26822e-05
15 *3132:A *567:31 6.57032e-05
16 *3132:A *567:44 8.08153e-06
*RES
1 A[3] *3132:A 20.46 
*END

*D_NET *27 0.00335581
*CONN
*P A[4] I
*I *3133:A I *D sky130_fd_sc_hd__clkdlybuf4s25_1
*CAP
1 A[4] 0.000725903
2 *3133:A 0.000725903
3 *3133:A *3102:A 0.000315527
4 *3133:A *3134:A 0
5 *3133:A *3167:A 0.000253563
6 *3133:A *3168:A 0.000194518
7 *3133:A *3170:A 0.000321282
8 *3133:A *565:16 0.000341293
9 *3128:A *3133:A 0.000477821
*RES
1 A[4] *3133:A 23.46 
*END

*D_NET *28 0.00265484
*CONN
*P A[5] I
*I *3134:A I *D sky130_fd_sc_hd__clkdlybuf4s25_1
*CAP
1 A[5] 0.000924654
2 *3134:A 0.000924654
3 *3134:A *2726:B1 0
4 *3134:A *2752:A 8.57024e-05
5 *3134:A *2752:B 0.000185176
6 *3134:A *3102:A 0
7 *3134:A *3170:A 0
8 *3134:A *212:10 9.80032e-06
9 *3134:A *454:23 0.000292506
10 *3134:A *531:8 0.000232342
11 *3134:A *560:14 0
12 *3133:A *3134:A 0
*RES
1 A[5] *3134:A 21.24 
*END

*D_NET *29 0.00155998
*CONN
*P A[6] I
*I *3135:A I *D sky130_fd_sc_hd__clkdlybuf4s25_1
*CAP
1 A[6] 0.000684158
2 *3135:A 0.000684158
3 *3135:A *3099:B 7.60965e-05
4 *3135:A *3099:C 5.70835e-05
5 *3135:A *3171:A 0
6 *3135:A *532:8 5.84828e-05
*RES
1 A[6] *3135:A 15.915 
*END

*D_NET *30 0.00174655
*CONN
*P A[7] I
*I *3137:A I *D sky130_fd_sc_hd__clkdlybuf4s25_1
*CAP
1 A[7] 0.000736741
2 *3137:A 0.000736741
3 *3137:A S[7] 0
4 *3137:A *3096:B 0.000161623
5 *3137:A *3099:C 0
6 *3137:A *3100:B1 0
7 *3137:A *3172:A 0.00011144
*RES
1 A[7] *3137:A 17.13 
*END

*D_NET *31 0.00251566
*CONN
*P A[8] I
*I *3138:A I *D sky130_fd_sc_hd__clkdlybuf4s25_1
*CAP
1 A[8] 0.000868766
2 *3138:A 0.000868766
3 *3138:A S[8] 0
4 *3138:A S[9] 0.000510882
5 *3138:A *3139:A 0
6 *3138:A *3172:A 0.000104707
7 *3138:A *3173:A 0.000162536
*RES
1 A[8] *3138:A 26.125 
*END

*D_NET *32 0.00198003
*CONN
*P A[9] I
*I *3139:A I *D sky130_fd_sc_hd__clkdlybuf4s25_1
*CAP
1 A[9] 0.000719212
2 *3139:A 0.000719212
3 *3139:A S[9] 0.000154828
4 *3139:A *3174:A 1.06698e-05
5 *3139:A *3219:A 6.05595e-05
6 *3139:A *466:10 8.53113e-06
7 *3139:A *535:14 5.05521e-05
8 *3139:A *536:10 0.000256469
9 *3138:A *3139:A 0
*RES
1 A[9] *3139:A 18.495 
*END

*D_NET *33 0.00166024
*CONN
*P B[0] I
*I *3140:A I *D sky130_fd_sc_hd__dlymetal6s4s_1
*CAP
1 B[0] 0.000412601
2 *3140:A 0.000412601
3 *3140:A S[0] 0.000275548
4 *3140:A *564:10 9.51101e-05
5 *3114:A *3140:A 0.000464377
*RES
1 B[0] *3140:A 15.12 
*END

*D_NET *34 0.00197873
*CONN
*P B[10] I
*I *3141:A I *D sky130_fd_sc_hd__clkdlybuf4s25_1
*CAP
1 B[10] 0.000514556
2 *3141:A 0.000514556
3 *3141:A *3083:B 0
4 *3141:A *3083:C 0
5 *3141:A *3142:A 0.000178904
6 *3141:A *520:16 3.00381e-05
7 *3125:A *3141:A 0.000267677
8 *3127:A *3141:A 0.000163199
9 *3136:A *3141:A 0.000309801
*RES
1 B[10] *3141:A 13.4262 
*END

*D_NET *35 0.00203942
*CONN
*P B[11] I
*I *3142:A I *D sky130_fd_sc_hd__clkdlybuf4s25_1
*CAP
1 B[11] 0.000788134
2 *3142:A 0.000788134
3 *3142:A *3162:A 0
4 *3142:A *520:16 3.99879e-05
5 *3136:A *3142:A 0.000244265
6 *3141:A *3142:A 0.000178904
*RES
1 B[11] *3142:A 12.2026 
*END

*D_NET *36 0.00156633
*CONN
*P B[12] I
*I *3143:A I *D sky130_fd_sc_hd__clkdlybuf4s25_1
*CAP
1 B[12] 0.000509661
2 *3143:A 0.000509661
3 *3143:A S[14] 0.000244265
4 *3143:A *3209:A 5.84828e-05
5 *3147:A *3143:A 0.000244265
*RES
1 B[12] *3143:A 11.763 
*END

*D_NET *37 0.00148681
*CONN
*P B[13] I
*I *3144:A I *D sky130_fd_sc_hd__clkdlybuf4s25_1
*CAP
1 B[13] 0.000594504
2 *3144:A 0.000594504
3 *3144:A *3145:A 0.000109424
4 *3158:A *3144:A 9.9326e-05
5 *3169:A *3144:A 2.58171e-05
6 *3176:A *3144:A 6.32332e-05
*RES
1 B[13] *3144:A 14.0984 
*END

*D_NET *38 0.00116496
*CONN
*P B[14] I
*I *3145:A I *D sky130_fd_sc_hd__clkdlybuf4s25_1
*CAP
1 B[14] 0.000501274
2 *3145:A 0.000501274
3 *3144:A *3145:A 0.000109424
4 *3169:A *3145:A 5.29922e-05
*RES
1 B[14] *3145:A 12.3768 
*END

*D_NET *39 0.00141736
*CONN
*P B[15] I
*I *3146:A I *D sky130_fd_sc_hd__clkdlybuf4s25_1
*CAP
1 B[15] 0.000648876
2 *3146:A 0.000648876
3 *3146:A *3161:A 0
4 *3146:A *543:12 0
5 *3169:A *3146:A 0
6 *3176:A *3146:A 0.000119605
*RES
1 B[15] *3146:A 8.7993 
*END

*D_NET *40 0.00154735
*CONN
*P B[16] I
*I *3148:A I *D sky130_fd_sc_hd__clkdlybuf4s25_1
*CAP
1 B[16] 0.000556403
2 *3148:A 0.000556403
3 *3148:A S[16] 0.000353461
4 *3148:A S[17] 7.13802e-05
5 *3148:A S[20] 0
6 *3148:A *2828:A 0
7 *3148:A *3027:A_N 0
8 *3148:A *3028:A1 0
9 *3148:A *545:8 0
10 *3148:A *545:10 0
11 *3177:A *3148:A 9.70043e-06
*RES
1 B[16] *3148:A 10.8266 
*END

*D_NET *41 0.00109858
*CONN
*P B[17] I
*I *3149:A I *D sky130_fd_sc_hd__clkdlybuf4s25_1
*CAP
1 B[17] 0.000362976
2 *3149:A 0.000362976
3 *3149:A *3150:A 0.000165407
4 *3178:A *3149:A 0.000207222
*RES
1 B[17] *3149:A 9.6555 
*END

*D_NET *42 0.00137563
*CONN
*P B[18] I
*I *3150:A I *D sky130_fd_sc_hd__clkdlybuf4s25_1
*CAP
1 B[18] 0.000525803
2 *3150:A 0.000525803
3 *3150:A S[30] 0
4 *3150:A *599:10 2.11084e-05
5 *3115:A *3150:A 0
6 *3149:A *3150:A 0.000165407
7 *3178:A *3150:A 0.000137511
*RES
1 B[18] *3150:A 9.55683 
*END

*D_NET *43 0.00150055
*CONN
*P B[19] I
*I *3151:A I *D sky130_fd_sc_hd__clkdlybuf4s25_1
*CAP
1 B[19] 0.000456544
2 *3151:A 0.000456544
3 *3151:A S[18] 0.000587462
*RES
1 B[19] *3151:A 15.3 
*END

*D_NET *44 0.00416911
*CONN
*P B[1] I
*I *3152:A I *D sky130_fd_sc_hd__clkdlybuf4s25_1
*CAP
1 B[1] 0.000769531
2 *3152:A 0.000769531
3 *3152:A *2751:A 6.81237e-05
4 *3152:A *2753:B 0.00013521
5 *3152:A *2756:A1 6.97034e-05
6 *3152:A *2756:A2 7.60965e-05
7 *3152:A *2756:B1 7.35729e-05
8 *3152:A *2780:C 1.19928e-05
9 *3152:A *223:14 0.000125987
10 *3152:A *454:8 0.000223786
11 *3152:A *454:17 0.000155625
12 *3152:A *549:8 0.000576848
13 *3152:A *564:10 1.65105e-05
14 *3117:A *3152:A 0.000660235
15 *3132:A *3152:A 0.000436357
*RES
1 B[1] *3152:A 27.885 
*END

*D_NET *45 0.00169852
*CONN
*P B[20] I
*I *3153:A I *D sky130_fd_sc_hd__clkdlybuf4s25_1
*CAP
1 B[20] 0.000439687
2 *3153:A 0.000439687
3 *3153:A S[20] 0.000121225
4 *3153:A *2828:A 0
5 *3118:A *3153:A 0.000697919
*RES
1 B[20] *3153:A 10.0616 
*END

*D_NET *46 0.000904981
*CONN
*P B[21] I
*I *3154:A I *D sky130_fd_sc_hd__clkdlybuf4s25_1
*CAP
1 B[21] 0.000452491
2 *3154:A 0.000452491
*RES
1 B[21] *3154:A 9.11377 
*END

*D_NET *47 0.0017741
*CONN
*P B[22] I
*I *3155:A I *D sky130_fd_sc_hd__clkdlybuf4s25_1
*CAP
1 B[22] 0.000301455
2 *3155:A 0.000301455
3 *3155:A S[18] 0.000585595
4 *3155:A S[19] 0.000585595
*RES
1 B[22] *3155:A 15.99 
*END

*D_NET *48 0.00160447
*CONN
*P B[23] I
*I *3156:A I *D sky130_fd_sc_hd__clkdlybuf4s25_1
*CAP
1 B[23] 0.000215709
2 *3156:A 0.000215709
3 *3116:A *3156:A 0.000585595
4 *3120:A *3156:A 0.000587462
*RES
1 B[23] *3156:A 14.85 
*END

*D_NET *49 0.00196891
*CONN
*P B[24] I
*I *3157:A I *D sky130_fd_sc_hd__clkdlybuf4s25_1
*CAP
1 B[24] 0.000626766
2 *3157:A 0.000626766
3 *3157:A *554:14 0.000106107
4 *3122:A *3157:A 0.000609267
*RES
1 B[24] *3157:A 18.165 
*END

*D_NET *50 0.00178191
*CONN
*P B[25] I
*I *3159:A I *D sky130_fd_sc_hd__clkdlybuf4s25_1
*CAP
1 B[25] 0.000545709
2 *3159:A 0.000545709
3 *3159:A S[26] 0
4 *3159:A *2904:A1 4.99619e-05
5 *3159:A *2905:A2 0
6 *3159:A *356:8 6.02447e-05
7 *3159:A *556:22 0
8 *3123:A *3159:A 0.000580282
*RES
1 B[25] *3159:A 17.085 
*END

*D_NET *51 0.00142098
*CONN
*P B[26] I
*I *3160:A I *D sky130_fd_sc_hd__clkdlybuf4s25_1
*CAP
1 B[26] 0.000706985
2 *3160:A 0.000706985
3 *3160:A *517:10 7.00889e-06
4 *3124:A *3160:A 0
*RES
1 B[26] *3160:A 15.99 
*END

*D_NET *52 0.000951983
*CONN
*P B[27] I
*I *3161:A I *D sky130_fd_sc_hd__clkdlybuf4s25_1
*CAP
1 B[27] 0.000389119
2 *3161:A 0.000389119
3 *3161:A S[27] 0
4 *3126:A *3161:A 0.000173745
5 *3146:A *3161:A 0
*RES
1 B[27] *3161:A 7.0143 
*END

*D_NET *53 0.00154048
*CONN
*P B[28] I
*I *3162:A I *D sky130_fd_sc_hd__clkdlybuf4s25_1
*CAP
1 B[28] 0.000460561
2 *3162:A 0.000460561
3 *3162:A S[12] 0.000389778
4 *3162:A S[13] 6.44598e-05
5 *3162:A *3191:A 5.8129e-05
6 *3162:A *540:20 0.000106987
7 *3142:A *3162:A 0
*RES
1 B[28] *3162:A 6.7737 
*END

*D_NET *54 0.00151686
*CONN
*P B[29] I
*I *3163:A I *D sky130_fd_sc_hd__clkdlybuf4s25_1
*CAP
1 B[29] 0.000412579
2 *3163:A 0.000412579
3 *3163:A S[4] 0
4 *3163:A *3168:A 0.000575929
5 *3163:A *565:16 0.00011577
*RES
1 B[29] *3163:A 14.43 
*END

*D_NET *55 0.000808097
*CONN
*P B[2] I
*I *3164:A I *D sky130_fd_sc_hd__clkdlybuf4s25_1
*CAP
1 B[2] 0.000307548
2 *3164:A 0.000307548
3 *3164:A S[3] 9.48869e-05
4 *3129:A *3164:A 9.81149e-05
*RES
1 B[2] *3164:A 8.7307 
*END

*D_NET *56 0.00195388
*CONN
*P B[30] I
*I *3165:A I *D sky130_fd_sc_hd__clkdlybuf4s25_1
*CAP
1 B[30] 0.000613418
2 *3165:A 0.000613418
3 *3165:A S[30] 0.000108011
4 *3165:A *2962:A 3.58184e-05
5 *3165:A *3220:A 0
6 *3165:A *527:12 1.88656e-05
7 *3130:A *3165:A 0.00056435
*RES
1 B[30] *3165:A 6.97217 
*END

*D_NET *57 0.0013877
*CONN
*P B[31] I
*I *3166:A I *D sky130_fd_sc_hd__clkdlybuf4s25_1
*CAP
1 B[31] 0.000598964
2 *3166:A 0.000598964
3 *3166:A S[31] 0
4 *3166:A S[3] 0
5 *3166:A carryOut 9.48869e-05
6 *3131:A *3166:A 9.48869e-05
*RES
1 B[31] *3166:A 13.8307 
*END

*D_NET *58 0.00379177
*CONN
*P B[3] I
*I *3167:A I *D sky130_fd_sc_hd__clkdlybuf4s25_1
*CAP
1 B[3] 0.000717055
2 *3167:A 0.000717055
3 *3167:A S[0] 0.000124895
4 *3167:A *3170:A 0.000624387
5 *3167:A *564:10 0.000291812
6 *3167:A *567:18 0.000622848
7 *3132:A *3167:A 0.000440154
8 *3133:A *3167:A 0.000253563
*RES
1 B[3] *3167:A 25.89 
*END

*D_NET *59 0.0020479
*CONN
*P B[4] I
*I *3168:A I *D sky130_fd_sc_hd__clkdlybuf4s25_1
*CAP
1 B[4] 0.000407025
2 *3168:A 0.000407025
3 *3168:A *565:16 9.80943e-06
4 *3128:A *3168:A 0.000453598
5 *3133:A *3168:A 0.000194518
6 *3163:A *3168:A 0.000575929
*RES
1 B[4] *3168:A 16.605 
*END

*D_NET *60 0.00279213
*CONN
*P B[5] I
*I *3170:A I *D sky130_fd_sc_hd__clkdlybuf4s25_1
*CAP
1 B[5] 0.000525107
2 *3170:A 0.000525107
3 *3170:A *3102:A 8.65905e-05
4 *3170:A *530:14 0.000686627
5 *3170:A *564:10 2.30292e-05
6 *3132:A *3170:A 0
7 *3133:A *3170:A 0.000321282
8 *3134:A *3170:A 0
9 *3167:A *3170:A 0.000624387
*RES
1 B[5] *3170:A 19.875 
*END

*D_NET *61 0.00172443
*CONN
*P B[6] I
*I *3171:A I *D sky130_fd_sc_hd__clkdlybuf4s25_1
*CAP
1 B[6] 0.000739328
2 *3171:A 0.000739328
3 *3171:A *3099:B 0
4 *3171:A *177:10 0
5 *3171:A *464:10 8.53113e-06
6 *3171:A *475:10 0
7 *3171:A *568:10 0.000237243
8 *3135:A *3171:A 0
*RES
1 B[6] *3171:A 17.07 
*END

*D_NET *62 0.00239732
*CONN
*P B[7] I
*I *3172:A I *D sky130_fd_sc_hd__clkdlybuf4s25_1
*CAP
1 B[7] 0.00104439
2 *3172:A 0.00104439
3 *3172:A S[7] 0
4 *3172:A *3073:B 0
5 *3172:A *3109:A 9.24049e-05
6 *3172:A *3173:A 0
7 *3172:A *570:23 0
8 *3137:A *3172:A 0.00011144
9 *3138:A *3172:A 0.000104707
*RES
1 B[7] *3172:A 26.695 
*END

*D_NET *63 0.00243793
*CONN
*P B[8] I
*I *3173:A I *D sky130_fd_sc_hd__clkdlybuf4s25_1
*CAP
1 B[8] 0.000722876
2 *3173:A 0.000722876
3 *3173:A S[7] 0
4 *3173:A *3073:A_N 4.66108e-05
5 *3173:A *466:10 0.000164874
6 *3173:A *570:6 0.00058891
7 *3173:A *570:23 2.92496e-05
8 *3138:A *3173:A 0.000162536
9 *3172:A *3173:A 0
*RES
1 B[8] *3173:A 20.16 
*END

*D_NET *64 0.00237966
*CONN
*P B[9] I
*I *3174:A I *D sky130_fd_sc_hd__clkdlybuf4s25_1
*CAP
1 B[9] 0.000894457
2 *3174:A 0.000894457
3 *3174:A *3068:A2 4.60584e-05
4 *3174:A *3219:A 3.57846e-05
5 *3174:A *504:8 0.000201508
6 *3174:A *504:19 0.000124895
7 *3174:A *536:10 0.00011852
8 *3174:A *536:19 5.33085e-05
9 *3139:A *3174:A 1.06698e-05
*RES
1 B[9] *3174:A 20.82 
*END

*D_NET *65 0.00296609
*CONN
*P S[0] O
*I *3188:X O *D sky130_fd_sc_hd__clkdlybuf4s25_1
*CAP
1 S[0] 0.000933143
2 *3188:X 0.000933143
3 S[0] S[1] 0.000453598
4 S[0] *3188:A 0.000238077
5 S[0] *564:10 7.68414e-06
6 *3140:A S[0] 0.000275548
7 *3167:A S[0] 0.000124895
*RES
1 *3188:X S[0] 22.11 
*END

*D_NET *66 0.00100708
*CONN
*P S[10] O
*I *3189:X O *D sky130_fd_sc_hd__buf_6
*CAP
1 S[10] 0.000377894
2 *3189:X 0.000377894
3 S[10] S[11] 0.000235808
4 S[10] *3190:A 1.54862e-05
*RES
1 *3189:X S[10] 5.77563 
*END

*D_NET *67 0.00100061
*CONN
*P S[11] O
*I *3190:X O *D sky130_fd_sc_hd__buf_6
*CAP
1 S[11] 0.000364519
2 *3190:X 0.000364519
3 S[11] *3190:A 3.57702e-05
4 S[10] S[11] 0.000235808
*RES
1 *3190:X S[11] 5.97237 
*END

*D_NET *68 0.00132944
*CONN
*P S[12] O
*I *3191:X O *D sky130_fd_sc_hd__buf_6
*CAP
1 S[12] 0.000268984
2 *3191:X 0.000268984
3 S[12] S[13] 0.000401693
4 S[12] *3191:A 0
5 S[12] *540:20 0
6 *3127:A S[12] 0
7 *3162:A S[12] 0.000389778
*RES
1 *3191:X S[12] 7.13083 
*END

*D_NET *69 0.00150118
*CONN
*P S[13] O
*I *3192:X O *D sky130_fd_sc_hd__buf_6
*CAP
1 S[13] 0.000342848
2 *3192:X 0.000342848
3 S[13] S[14] 0.000118114
4 S[13] S[28] 0
5 S[13] *540:20 6.06899e-05
6 S[12] S[13] 0.000401693
7 *3127:A S[13] 0.000170526
8 *3162:A S[13] 6.44598e-05
*RES
1 *3192:X S[13] 6.71543 
*END

*D_NET *70 0.00101968
*CONN
*P S[14] O
*I *3193:X O *D sky130_fd_sc_hd__buf_6
*CAP
1 S[14] 0.000204203
2 *3193:X 0.000204203
3 S[14] S[28] 0
4 S[14] *540:20 0
5 S[13] S[14] 0.000118114
6 *3127:A S[14] 0.000170526
7 *3143:A S[14] 0.000244265
8 *3147:A S[14] 7.83696e-05
*RES
1 *3193:X S[14] 5.60083 
*END

*D_NET *71 0.000959579
*CONN
*P S[15] O
*I *3194:X O *D sky130_fd_sc_hd__clkbuf_2
*CAP
1 S[15] 0.000372122
2 *3194:X 0.000372122
3 S[15] S[28] 0
4 S[15] S[29] 0.000215334
5 S[15] *3194:A 0
6 *3158:A S[15] 0
*RES
1 *3194:X S[15] 6.1691 
*END

*D_NET *72 0.00223596
*CONN
*P S[16] O
*I *3195:X O *D sky130_fd_sc_hd__buf_6
*CAP
1 S[16] 0.000749115
2 *3195:X 0.000749115
3 S[16] S[20] 0
4 S[16] *2828:A 5.16418e-05
5 S[16] *105:10 0.00012657
6 S[16] *459:32 6.44676e-05
7 S[16] *459:41 0.000141592
8 *3148:A S[16] 0.000353461
*RES
1 *3195:X S[16] 10.5826 
*END

*D_NET *73 0.00116785
*CONN
*P S[17] O
*I *3196:X O *D sky130_fd_sc_hd__buf_6
*CAP
1 S[17] 0.000491637
2 *3196:X 0.000491637
3 *3148:A S[17] 7.13802e-05
4 *3177:A S[17] 0.000113195
*RES
1 *3196:X S[17] 11.9124 
*END

*D_NET *74 0.00278989
*CONN
*P S[18] O
*I *3197:X O *D sky130_fd_sc_hd__buf_2
*CAP
1 S[18] 0.000549503
2 *3197:X 0.000549503
3 S[18] S[19] 0
4 S[18] *2859:B 0.000298374
5 S[18] *463:71 7.68414e-06
6 S[18] *463:84 0.000147019
7 S[18] *552:10 6.47516e-05
8 *3151:A S[18] 0.000587462
9 *3155:A S[18] 0.000585595
*RES
1 *3197:X S[18] 21.69 
*END

*D_NET *75 0.00199959
*CONN
*P S[19] O
*I *3198:X O *D sky130_fd_sc_hd__buf_4
*CAP
1 S[19] 0.000308043
2 *3198:X 0.000308043
3 S[19] *2858:A 8.65961e-05
4 S[19] *2858:B 5.30673e-05
5 S[18] S[19] 0
6 *3120:A S[19] 0.000658242
7 *3155:A S[19] 0.000585595
*RES
1 *3198:X S[19] 17.175 
*END

*D_NET *76 0.00234556
*CONN
*P S[1] O
*I *3199:X O *D sky130_fd_sc_hd__buf_6
*CAP
1 S[1] 0.000443224
2 *3199:X 0.000443224
3 S[1] S[2] 0.000455473
4 S[1] *2987:A 1.07797e-05
5 S[1] *2987:B 0.00039406
6 S[1] *3113:A 0.000111293
7 S[1] *3199:A 3.39064e-05
8 S[1] *3210:A 0
9 S[0] S[1] 0.000453598
10 *3114:A S[1] 0
*RES
1 *3199:X S[1] 18.945 
*END

*D_NET *77 0.00120293
*CONN
*P S[20] O
*I *3200:X O *D sky130_fd_sc_hd__clkbuf_4
*CAP
1 S[20] 0.000540855
2 *3200:X 0.000540855
3 S[16] S[20] 0
4 *3148:A S[20] 0
5 *3153:A S[20] 0.000121225
*RES
1 *3200:X S[20] 10.117 
*END

*D_NET *78 0.002313
*CONN
*P S[21] O
*I *3201:X O *D sky130_fd_sc_hd__buf_8
*CAP
1 S[21] 0.000733232
2 *3201:X 0.000733232
3 S[21] S[22] 0.000574026
4 S[21] *2867:A 3.25831e-05
5 S[21] *2867:B 0
6 S[21] *2876:A 7.35813e-05
7 S[21] *3202:A 0.000166346
8 S[21] *495:8 0
*RES
1 *3201:X S[21] 20.445 
*END

*D_NET *79 0.00167469
*CONN
*P S[22] O
*I *3202:X O *D sky130_fd_sc_hd__buf_8
*CAP
1 S[22] 0.000525353
2 *3202:X 0.000525353
3 S[22] *3202:A 4.99619e-05
4 S[21] S[22] 0.000574026
*RES
1 *3202:X S[22] 16.425 
*END

*D_NET *80 0.00207127
*CONN
*P S[23] O
*I *3203:X O *D sky130_fd_sc_hd__buf_6
*CAP
1 S[23] 0.000952504
2 *3203:X 0.000952504
3 S[23] *3203:A 7.35729e-05
4 S[23] *507:12 8.10355e-05
5 *3121:A S[23] 1.16578e-05
*RES
1 *3203:X S[23] 19.98 
*END

*D_NET *81 0.00158379
*CONN
*P S[24] O
*I *3204:X O *D sky130_fd_sc_hd__clkbuf_2
*CAP
1 S[24] 0.000779591
2 *3204:X 0.000779591
3 S[24] S[25] 0
4 S[24] *3205:A 0
5 S[24] *509:12 2.46089e-05
6 S[24] *509:18 0
7 *3122:A S[24] 0
*RES
1 *3204:X S[24] 16.83 
*END

*D_NET *82 0.00149673
*CONN
*P S[25] O
*I *3205:X O *D sky130_fd_sc_hd__clkbuf_2
*CAP
1 S[25] 0.000709034
2 *3205:X 0.000709034
3 S[25] *3205:A 6.69341e-05
4 S[25] *554:14 1.17309e-05
5 S[24] S[25] 0
*RES
1 *3205:X S[25] 16.17 
*END

*D_NET *83 0.00130464
*CONN
*P S[26] O
*I *3206:X O *D sky130_fd_sc_hd__clkbuf_2
*CAP
1 S[26] 0.000623885
2 *3206:X 0.000623885
3 S[26] *2905:A1 4.82919e-05
4 S[26] *3206:A 3.64998e-06
5 S[26] *513:6 4.9253e-06
6 *3124:A S[26] 0
7 *3159:A S[26] 0
*RES
1 *3206:X S[26] 14.79 
*END

*D_NET *84 0.00125786
*CONN
*P S[27] O
*I *3207:X O *D sky130_fd_sc_hd__buf_4
*CAP
1 S[27] 0.000548479
2 *3207:X 0.000548479
3 *3126:A S[27] 0.000160903
4 *3161:A S[27] 0
*RES
1 *3207:X S[27] 11.5264 
*END

*D_NET *85 0.00178789
*CONN
*P S[28] O
*I *3208:X O *D sky130_fd_sc_hd__buf_6
*CAP
1 S[28] 0.000479248
2 *3208:X 0.000479248
3 S[28] S[29] 0.000408812
4 S[28] *3043:B 5.20968e-05
5 S[28] *540:20 2.11552e-05
6 S[13] S[28] 0
7 S[14] S[28] 0
8 S[15] S[28] 0
9 *3147:A S[28] 0.000347334
*RES
1 *3208:X S[28] 6.97043 
*END

*D_NET *86 0.00106445
*CONN
*P S[29] O
*I *3209:X O *D sky130_fd_sc_hd__buf_6
*CAP
1 S[29] 0.000220152
2 *3209:X 0.000220152
3 S[15] S[29] 0.000215334
4 S[28] S[29] 0.000408812
*RES
1 *3209:X S[29] 6.11083 
*END

*D_NET *87 0.00111924
*CONN
*P S[2] O
*I *3210:X O *D sky130_fd_sc_hd__buf_6
*CAP
1 S[2] 0.000331884
2 *3210:X 0.000331884
3 S[1] S[2] 0.000455473
*RES
1 *3210:X S[2] 12.345 
*END

*D_NET *88 0.000863837
*CONN
*P S[30] O
*I *3211:X O *D sky130_fd_sc_hd__buf_6
*CAP
1 S[30] 0.000377913
2 *3211:X 0.000377913
3 *3150:A S[30] 0
4 *3165:A S[30] 0.000108011
*RES
1 *3211:X S[30] 8.43877 
*END

*D_NET *89 0.00155136
*CONN
*P S[31] O
*I *3212:X O *D sky130_fd_sc_hd__buf_6
*CAP
1 S[31] 0.000523483
2 *3212:X 0.000523483
3 S[31] carryOut 0.000188914
4 S[31] *2977:B 0
5 S[31] *421:10 0
6 *3130:A S[31] 0.000188914
7 *3131:A S[31] 0.00012657
8 *3166:A S[31] 0
*RES
1 *3212:X S[31] 12.7738 
*END

*D_NET *90 0.000885945
*CONN
*P S[3] O
*I *3213:X O *D sky130_fd_sc_hd__buf_8
*CAP
1 S[3] 0.000375708
2 *3213:X 0.000375708
3 *3129:A S[3] 3.96423e-05
4 *3164:A S[3] 9.48869e-05
5 *3166:A S[3] 0
*RES
1 *3213:X S[3] 8.8155 
*END

*D_NET *91 0.00173137
*CONN
*P S[4] O
*I *3214:X O *D sky130_fd_sc_hd__buf_6
*CAP
1 S[4] 0.000566332
2 *3214:X 0.000566332
3 S[4] S[5] 0.000549298
4 S[4] S[6] 4.21973e-05
5 S[4] *3215:A 0
6 S[4] *3216:A 7.21296e-06
7 *3163:A S[4] 0
*RES
1 *3214:X S[4] 16.065 
*END

*D_NET *92 0.00201157
*CONN
*P S[5] O
*I *3215:X O *D sky130_fd_sc_hd__buf_6
*CAP
1 S[5] 0.000413925
2 *3215:X 0.000413925
3 S[5] S[6] 0.000575929
4 S[5] *3216:A 8.53113e-06
5 S[5] *565:16 4.99619e-05
6 S[4] S[5] 0.000549298
*RES
1 *3215:X S[5] 16.965 
*END

*D_NET *93 0.00149878
*CONN
*P S[6] O
*I *3216:X O *D sky130_fd_sc_hd__buf_6
*CAP
1 S[6] 0.000440327
2 *3216:X 0.000440327
3 S[4] S[6] 4.21973e-05
4 S[5] S[6] 0.000575929
*RES
1 *3216:X S[6] 14.175 
*END

*D_NET *94 0.002401
*CONN
*P S[7] O
*I *3217:X O *D sky130_fd_sc_hd__buf_6
*CAP
1 S[7] 0.000861506
2 *3217:X 0.000861506
3 S[7] *3072:A 8.49205e-05
4 S[7] *3072:B 0.000131269
5 S[7] *3076:B 1.33285e-05
6 S[7] *3096:B 0
7 S[7] *3097:A 0.000178488
8 S[7] *3099:C 9.54469e-05
9 S[7] *449:12 1.07797e-05
10 S[7] *468:12 4.82919e-05
11 S[7] *534:8 0.000115464
12 S[7] *570:23 0
13 *3137:A S[7] 0
14 *3172:A S[7] 0
15 *3173:A S[7] 0
*RES
1 *3217:X S[7] 20.76 
*END

*D_NET *95 0.00206051
*CONN
*P S[8] O
*I *3218:X O *D sky130_fd_sc_hd__buf_6
*CAP
1 S[8] 0.000912921
2 *3218:X 0.000912921
3 S[8] S[9] 0
4 S[8] *3005:B 0.000118513
5 S[8] *475:40 0
6 S[8] *535:14 0.000116158
7 *3138:A S[8] 0
*RES
1 *3218:X S[8] 20.115 
*END

*D_NET *96 0.00202024
*CONN
*P S[9] O
*I *3219:X O *D sky130_fd_sc_hd__buf_6
*CAP
1 S[9] 0.000611657
2 *3219:X 0.000611657
3 S[9] *3219:A 4.99619e-05
4 S[9] *466:10 7.35813e-05
5 S[9] *535:14 7.67415e-06
6 S[8] S[9] 0
7 *3138:A S[9] 0.000510882
8 *3139:A S[9] 0.000154828
*RES
1 *3219:X S[9] 16.59 
*END

*D_NET *99 0.00212295
*CONN
*P carryOut O
*I *3220:X O *D sky130_fd_sc_hd__buf_6
*CAP
1 carryOut 0.000549087
2 *3220:X 0.000549087
3 carryOut *2976:B 0.000150623
4 carryOut *3211:A 0.000118513
5 carryOut *3220:A 0
6 S[31] carryOut 0.000188914
7 *3130:A carryOut 0.000359926
8 *3131:A carryOut 0.000111915
9 *3166:A carryOut 9.48869e-05
*RES
1 *3220:X carryOut 11.0378 
*END

*D_NET *100 0.00143574
*CONN
*P sub I
*I *3175:A I *D sky130_fd_sc_hd__buf_8
*CAP
1 sub 0.000717869
2 *3175:A 0.000717869
*RES
1 sub *3175:A 16.56 
*END

*D_NET *101 0.000262455
*CONN
*I *2728:A I *D sky130_fd_sc_hd__nand3_2
*I *3023:Y O *D sky130_fd_sc_hd__inv_2
*CAP
1 *2728:A 9.21298e-05
2 *3023:Y 9.21298e-05
3 *2728:A *2728:B 7.81954e-05
4 *2728:A *531:21 0
*RES
1 *3023:Y *2728:A 8.835 
*END

*D_NET *102 0.000852319
*CONN
*I *3027:A_N I *D sky130_fd_sc_hd__nand3b_2
*I *3028:A1 I *D sky130_fd_sc_hd__o21bai_4
*I *3024:Y O *D sky130_fd_sc_hd__nor2_8
*CAP
1 *3027:A_N 0.000212642
2 *3028:A1 7.28827e-05
3 *3024:Y 0
4 *102:6 0.000285524
5 *3027:A_N *3025:A 2.24852e-05
6 *3027:A_N *3026:A 8.65905e-05
7 *3027:A_N *3027:B 5.05437e-05
8 *3027:A_N *545:10 7.67378e-05
9 *3028:A1 *3025:A 4.49134e-05
10 *3148:A *3027:A_N 0
11 *3148:A *3028:A1 0
*RES
1 *3024:Y *102:6 3.6 
2 *102:6 *3028:A1 4.98 
3 *102:6 *3027:A_N 7.755 
*END

*D_NET *103 0.000472277
*CONN
*I *3028:A2 I *D sky130_fd_sc_hd__o21bai_4
*I *3025:X O *D sky130_fd_sc_hd__and2_4
*CAP
1 *3028:A2 0.000131744
2 *3025:X 0.000131744
3 *3028:A2 *3028:B1_N 6.71882e-05
4 *3028:A2 *3196:A 0
5 *3028:A2 *459:32 0.000141599
*RES
1 *3025:X *3028:A2 9.975 
*END

*D_NET *104 0.000533671
*CONN
*I *3027:B I *D sky130_fd_sc_hd__nand3b_2
*I *3026:Y O *D sky130_fd_sc_hd__nand2_2
*CAP
1 *3027:B 0.000114719
2 *3026:Y 0.000114719
3 *3027:B *3026:A 9.80943e-06
4 *3027:B *3026:B 0.00024388
5 *3027:A_N *3027:B 5.05437e-05
*RES
1 *3026:Y *3027:B 5.99 
*END

*D_NET *105 0.00297447
*CONN
*I *3029:A I *D sky130_fd_sc_hd__nand2_2
*I *2811:A I *D sky130_fd_sc_hd__and4_2
*I *2812:A I *D sky130_fd_sc_hd__nand2_2
*I *2802:A2 I *D sky130_fd_sc_hd__a21bo_2
*I *3027:Y O *D sky130_fd_sc_hd__nand3b_2
*CAP
1 *3029:A 0
2 *2811:A 8.90995e-05
3 *2812:A 0.000252273
4 *2802:A2 0
5 *3027:Y 0.000401948
6 *105:38 0.000133358
7 *105:21 0.000424848
8 *105:10 0.000530264
9 *2811:A *2803:B 0
10 *2811:A *2834:B 5.64507e-05
11 *2811:A *260:10 5.18317e-06
12 *2812:A *2812:B 0.000180363
13 *2812:A *2813:A 3.04704e-05
14 *2812:A *3195:A 3.09164e-05
15 *105:10 *2802:B1_N 0.000125317
16 *105:10 *3195:A 0.000141023
17 *105:21 *2803:B 0
18 *105:21 *3195:A 0.000232586
19 *105:38 *2834:B 9.10058e-05
20 *105:38 *107:8 0.000122797
21 S[16] *105:10 0.00012657
*RES
1 *3027:Y *105:10 8.725 
2 *105:10 *2802:A2 1.6 
3 *105:10 *105:21 4.94 
4 *105:21 *2812:A 7.77 
5 *105:21 *105:38 3.485 
6 *105:38 *2811:A 7.49 
7 *105:38 *3029:A 1.6 
*END

*D_NET *106 0.00256287
*CONN
*I *2802:B1_N I *D sky130_fd_sc_hd__a21bo_2
*I *3029:B I *D sky130_fd_sc_hd__nand2_2
*I *2811:B I *D sky130_fd_sc_hd__and4_2
*I *3028:Y O *D sky130_fd_sc_hd__o21bai_4
*CAP
1 *2802:B1_N 0.000150975
2 *3029:B 8.55084e-05
3 *2811:B 0.000226685
4 *3028:Y 0.000319299
5 *106:21 0.000299045
6 *106:10 0.000608547
7 *2802:B1_N *2803:B 0.000163019
8 *2802:B1_N *3195:A 0.000125317
9 *2811:B *258:21 0.000232588
10 *106:10 *2803:B 5.39961e-05
11 *106:10 *3028:B1_N 3.07153e-05
12 *106:10 *3196:A 0
13 *106:10 *258:21 2.50049e-05
14 *106:21 *2803:B 0.000116853
15 *105:10 *2802:B1_N 0.000125317
*RES
1 *3028:Y *106:10 8.625 
2 *106:10 *2811:B 6.465 
3 *106:10 *106:21 1.38 
4 *106:21 *3029:B 4.74 
5 *106:21 *2802:B1_N 7.14375 
*END

*D_NET *107 0.00129887
*CONN
*I *2834:D I *D sky130_fd_sc_hd__nor4_4
*I *2795:A I *D sky130_fd_sc_hd__xor2_2
*I *3029:Y O *D sky130_fd_sc_hd__nand2_2
*CAP
1 *2834:D 0.00016436
2 *2795:A 0
3 *3029:Y 0.000230395
4 *107:8 0.000394755
5 *2834:D *2834:B 0.000256469
6 *107:8 *2834:B 0.000130091
7 *105:38 *107:8 0.000122797
*RES
1 *3029:Y *107:8 6.205 
2 *107:8 *2795:A 1.6 
3 *107:8 *2834:D 5.5 
*END

*D_NET *108 0.000846545
*CONN
*I *3051:A1 I *D sky130_fd_sc_hd__o21bai_2
*I *3032:B I *D sky130_fd_sc_hd__or3b_4
*I *3030:Y O *D sky130_fd_sc_hd__nor2_2
*CAP
1 *3051:A1 0.000125158
2 *3032:B 0
3 *3030:Y 0.000162266
4 *108:8 0.000287424
5 *3051:A1 *3051:A2 9.16315e-05
6 *3051:A1 *541:12 0
7 *108:8 *3030:B 9.6044e-05
8 *108:8 *3031:A 8.40213e-05
*RES
1 *3030:Y *108:8 4.48 
2 *108:8 *3032:B 1.6 
3 *108:8 *3051:A1 7.94 
*END

*D_NET *109 0.000486041
*CONN
*I *3032:A I *D sky130_fd_sc_hd__or3b_4
*I *3051:A2 I *D sky130_fd_sc_hd__o21bai_2
*I *3031:X O *D sky130_fd_sc_hd__and2_4
*CAP
1 *3032:A 0
2 *3051:A2 9.01833e-05
3 *3031:X 6.09003e-05
4 *109:8 0.000151084
5 *3051:A2 *3030:B 4.43871e-06
6 *3051:A2 *3031:A 0
7 *3051:A2 *3051:B1_N 0
8 *3051:A2 *110:16 2.67022e-05
9 *109:8 *3030:B 6.11019e-05
10 *3051:A1 *3051:A2 9.16315e-05
*RES
1 *3031:X *109:8 4.98 
2 *109:8 *3051:A2 5.745 
3 *109:8 *3032:A 3.6 
*END

*D_NET *110 0.0071185
*CONN
*I *3062:A I *D sky130_fd_sc_hd__and4_4
*I *3063:A3 I *D sky130_fd_sc_hd__a41o_2
*I *3241:A I *D sky130_fd_sc_hd__buf_2
*I *3054:B1_N I *D sky130_fd_sc_hd__a21boi_2
*I *3245:A I *D sky130_fd_sc_hd__buf_2
*I *3032:X O *D sky130_fd_sc_hd__or3b_4
*CAP
1 *3062:A 0
2 *3063:A3 0
3 *3241:A 0.00013458
4 *3054:B1_N 0.000143266
5 *3245:A 0.000327253
6 *3032:X 0.00057635
7 *110:43 0.000399452
8 *110:39 0.00019905
9 *110:37 0.000759614
10 *110:16 0.00158577
11 *3054:B1_N *2792:A 0.000124007
12 *3054:B1_N *3054:A1 1.08758e-05
13 *3241:A *3054:A1 6.55406e-05
14 *3241:A *129:43 0
15 *3241:A *141:12 0
16 *3245:A *3019:A1 0.000136884
17 *3245:A *3020:A 0
18 *3245:A *3039:A 0
19 *3245:A *3043:A 0
20 *3245:A *3047:C 8.53113e-06
21 *3245:A *3048:B1 0
22 *3245:A *3056:A2 0
23 *3245:A *121:10 0
24 *3245:A *121:12 0
25 *3245:A *123:10 0
26 *3245:A *129:12 2.24102e-05
27 *3245:A *502:10 0.000333496
28 *110:16 *3031:A 8.53113e-06
29 *110:16 *3048:B1 0
30 *110:16 *3051:B1_N 3.23391e-05
31 *110:16 *129:12 0.000244167
32 *110:16 *470:10 0
33 *110:16 *470:16 0
34 *110:16 *474:14 0
35 *110:16 *566:12 1.32843e-05
36 *110:37 *3060:D1 0.000193801
37 *110:37 *3062:C 0.000189845
38 *110:37 *3063:A4 0.000201503
39 *110:37 *114:6 2.54522e-05
40 *110:37 *129:28 2.68658e-05
41 *110:37 *542:6 0.000427094
42 *110:37 *542:18 0.00015639
43 *110:39 *3062:C 0.000122331
44 *110:39 *3063:A2 7.03425e-05
45 *110:39 *3063:A4 0.0004262
46 *110:39 *140:14 0.00012657
47 *110:43 *129:43 0
48 *110:43 *141:12 0
49 *3051:A2 *110:16 2.67022e-05
*RES
1 *3032:X *110:16 17.215 
2 *110:16 *3245:A 10.335 
3 *110:16 *110:37 13.385 
4 *110:37 *110:39 3.9 
5 *110:39 *110:43 3.635 
6 *110:43 *3054:B1_N 6.135 
7 *110:43 *3241:A 6 
8 *110:39 *3063:A3 1.6 
9 *110:37 *3062:A 1.6 
*END

*D_NET *111 0.00192871
*CONN
*I *3050:A2 I *D sky130_fd_sc_hd__o21bai_4
*I *3244:A I *D sky130_fd_sc_hd__buf_2
*I *3060:A2 I *D sky130_fd_sc_hd__o2111a_2
*I *3035:A I *D sky130_fd_sc_hd__nor2_2
*I *3033:X O *D sky130_fd_sc_hd__and2_4
*CAP
1 *3050:A2 3.09792e-05
2 *3244:A 0.000111797
3 *3060:A2 0.000105908
4 *3035:A 9.71654e-05
5 *3033:X 0.000161416
6 *111:33 0.000142776
7 *111:22 0.000170158
8 *3035:A *3053:A1 8.09753e-05
9 *3035:A *3053:A2 6.58339e-05
10 *3035:A *3055:A2 1.19928e-05
11 *3050:A2 *3060:D1 4.82919e-05
12 *3050:A2 *501:10 4.08514e-05
13 *3060:A2 *3055:A2 6.81237e-05
14 *3060:A2 *3060:D1 0.000286642
15 *3060:A2 *118:20 0.000162318
16 *3244:A *3050:A1 1.19928e-05
17 *3244:A *3052:A1 4.82863e-05
18 *3244:A *3052:A2 6.97118e-05
19 *3244:A *501:10 0.000108031
20 *111:22 *3055:A2 7.4538e-05
21 *111:22 *3060:D1 3.09233e-05
22 *111:22 *542:18 0
*RES
1 *3033:X *3035:A 5.045 
2 *3033:X *111:22 5.235 
3 *111:22 *3060:A2 7.02 
4 *111:22 *111:33 2 
5 *111:33 *3244:A 4.12 
6 *111:33 *3050:A2 2.395 
*END

*D_NET *112 0.000928278
*CONN
*I *3035:B I *D sky130_fd_sc_hd__nor2_2
*I *3050:A1 I *D sky130_fd_sc_hd__o21bai_4
*I *3034:Y O *D sky130_fd_sc_hd__nor2_4
*CAP
1 *3035:B 0
2 *3050:A1 0.000108809
3 *3034:Y 0.000130196
4 *112:10 0.000239006
5 *3050:A1 *3052:A2 4.82863e-05
6 *3050:A1 *3053:A1 0.000138551
7 *3050:A1 *3112:A 1.26626e-05
8 *3050:A1 *113:17 0.000114492
9 *112:10 *3053:A1 4.21314e-05
10 *112:10 *3112:A 8.21516e-05
11 *3244:A *3050:A1 1.19928e-05
*RES
1 *3034:Y *112:10 6.03 
2 *112:10 *3050:A1 6.03 
3 *112:10 *3035:B 3.6 
*END

*D_NET *113 0.00219768
*CONN
*I *3052:A2 I *D sky130_fd_sc_hd__o21a_2
*I *3048:A1 I *D sky130_fd_sc_hd__a22oi_2
*I *3053:A2 I *D sky130_fd_sc_hd__o21ai_2
*I *3035:Y O *D sky130_fd_sc_hd__nor2_2
*CAP
1 *3052:A2 0.000222549
2 *3048:A1 0.000101148
3 *3053:A2 9.25889e-05
4 *3035:Y 0
5 *113:17 0.000367819
6 *113:4 0.00013671
7 *3048:A1 *3053:A1 3.9442e-05
8 *3048:A1 *3112:A 0.0002014
9 *3048:A1 *129:43 0
10 *3048:A1 *566:43 6.36656e-05
11 *3052:A2 *3052:A1 0.000106908
12 *3052:A2 *3052:B1 8.65905e-05
13 *3053:A2 *3053:A1 6.52252e-05
14 *3053:A2 *3055:A2 0.000272973
15 *113:17 *3053:A1 7.1301e-06
16 *113:17 *3112:A 0.00013521
17 *3035:A *3053:A2 6.58339e-05
18 *3050:A1 *3052:A2 4.82863e-05
19 *3050:A1 *113:17 0.000114492
20 *3244:A *3052:A2 6.97118e-05
*RES
1 *3035:Y *113:4 1.6 
2 *113:4 *3053:A2 4.48 
3 *113:4 *113:17 3.635 
4 *113:17 *3048:A1 6 
5 *113:17 *3052:A2 7.845 
*END

*D_NET *114 0.00140176
*CONN
*I *3060:A1 I *D sky130_fd_sc_hd__o2111a_2
*I *3058:A2 I *D sky130_fd_sc_hd__o21a_2
*I *3049:A2 I *D sky130_fd_sc_hd__o211ai_2
*I *3036:Y O *D sky130_fd_sc_hd__o21ai_2
*CAP
1 *3060:A1 0
2 *3058:A2 8.18096e-05
3 *3049:A2 0.000128709
4 *3036:Y 2.90864e-05
5 *114:8 0.000210518
6 *114:6 2.90864e-05
7 *3049:A2 *3018:D 3.96737e-05
8 *3049:A2 *3049:A1 0.00018754
9 *3049:A2 *3049:B1 6.03436e-05
10 *3049:A2 *119:16 4.43871e-06
11 *3049:A2 *119:18 5.83373e-05
12 *3049:A2 *119:20 1.52184e-05
13 *3058:A2 *3048:B1 8.23457e-05
14 *3058:A2 *3049:A1 0.000154467
15 *3058:A2 *3060:D1 0.000132178
16 *3058:A2 *119:16 5.7464e-06
17 *3058:A2 *136:10 8.23457e-05
18 *114:6 *3036:B1 4.82919e-05
19 *114:6 *129:28 1.91597e-05
20 *114:6 *542:18 7.00889e-06
21 *110:37 *114:6 2.54522e-05
*RES
1 *3036:Y *114:6 2.395 
2 *114:6 *114:8 2 
3 *114:8 *3049:A2 6.735 
4 *114:8 *3058:A2 6.285 
5 *114:6 *3060:A1 1.6 
*END

*D_NET *115 0.000677627
*CONN
*I *3041:A_N I *D sky130_fd_sc_hd__nand3b_4
*I *3040:A1 I *D sky130_fd_sc_hd__o21bai_4
*I *3037:Y O *D sky130_fd_sc_hd__nor2_2
*CAP
1 *3041:A_N 0.000130716
2 *3040:A1 3.62695e-05
3 *3037:Y 4.16703e-05
4 *115:6 0.000208656
5 *3040:A1 *3037:A 4.99619e-05
6 *3040:A1 *541:25 2.05056e-05
7 *3041:A_N *3041:B 0
8 *3041:A_N *541:12 0.000162325
9 *115:6 *541:25 2.75229e-05
*RES
1 *3037:Y *115:6 2.395 
2 *115:6 *3040:A1 2.395 
3 *115:6 *3041:A_N 8.195 
*END

*D_NET *116 0.00111764
*CONN
*I *3040:A2 I *D sky130_fd_sc_hd__o21bai_4
*I *3038:X O *D sky130_fd_sc_hd__and2_4
*CAP
1 *3040:A2 0.000309433
2 *3038:X 0.000309433
3 *3040:A2 *3038:B 0.000101723
4 *3040:A2 *3040:B1_N 0.000234674
5 *3040:A2 *118:14 2.09303e-05
6 *3040:A2 *470:16 8.96017e-05
7 *3040:A2 *541:25 5.18486e-05
*RES
1 *3038:X *3040:A2 8.84 
*END

*D_NET *117 0.00122477
*CONN
*I *3041:B I *D sky130_fd_sc_hd__nand3b_4
*I *3039:Y O *D sky130_fd_sc_hd__nand2_2
*CAP
1 *3041:B 0.000300508
2 *3039:Y 0.000300508
3 *3041:B *3039:B 8.09021e-06
4 *3041:B *3041:C 0.000162325
5 *3041:B *3043:A 5.05521e-05
6 *3041:B *3194:A 4.40812e-05
7 *3041:B *555:10 0.000358703
8 *3041:A_N *3041:B 0
*RES
1 *3039:Y *3041:B 13.71 
*END

*D_NET *118 0.0053285
*CONN
*I *3048:B2 I *D sky130_fd_sc_hd__a22oi_2
*I *3060:C1 I *D sky130_fd_sc_hd__o2111a_2
*I *3047:A I *D sky130_fd_sc_hd__nand3_2
*I *3059:A I *D sky130_fd_sc_hd__nand2_2
*I *3061:C I *D sky130_fd_sc_hd__and3_2
*I *3040:Y O *D sky130_fd_sc_hd__o21bai_4
*CAP
1 *3048:B2 1.88809e-05
2 *3060:C1 6.05552e-05
3 *3047:A 2.1053e-05
4 *3059:A 0
5 *3061:C 0.000325731
6 *3040:Y 0.000498774
7 *118:47 0.000159162
8 *118:22 0.00058198
9 *118:20 0.000305193
10 *118:14 0.000644152
11 *3047:A *3209:A 0.00012657
12 *3047:A *125:8 6.52265e-05
13 *3048:B2 *3048:A2 0
14 *3048:B2 *3048:B1 5.4155e-06
15 *3048:B2 *566:37 0
16 *3060:C1 *129:28 8.49205e-05
17 *3061:C *3061:B 6.3124e-06
18 *3061:C *3062:D 8.65905e-05
19 *3061:C *3112:A 1.74341e-05
20 *3061:C *3242:A 9.53428e-06
21 *3061:C *3251:A 4.82919e-05
22 *3061:C *119:37 4.60234e-05
23 *3061:C *499:10 1.91597e-05
24 *118:14 *3038:B 0
25 *118:14 *3048:B1 0.000211731
26 *118:14 *3058:B1 8.49205e-05
27 *118:14 *470:16 0.0001138
28 *118:14 *470:20 0.000160641
29 *118:14 *566:37 0.000119756
30 *118:20 *3048:B1 4.66826e-05
31 *118:20 *3055:A2 9.50342e-06
32 *118:20 *3060:D1 1.252e-05
33 *118:20 *3112:A 0.000139004
34 *118:20 *119:16 3.10777e-05
35 *118:20 *119:18 4.9968e-05
36 *118:20 *136:10 8.73389e-06
37 *118:20 *566:37 0.000119762
38 *118:22 *3044:A 0
39 *118:22 *3046:B1 7.70758e-05
40 *118:22 *3112:A 0.000153029
41 *118:22 *119:18 6.21553e-05
42 *118:22 *119:20 0.000172845
43 *118:47 *3013:A2 0
44 *118:47 *3015:A2 9.50342e-06
45 *118:47 *3015:B1 3.09233e-05
46 *118:47 *3044:A 0
47 *118:47 *3112:A 0
48 *118:47 *3209:A 8.57321e-05
49 *118:47 *3251:A 4.83324e-05
50 *118:47 *125:8 0.000162311
51 *118:47 *442:16 0
52 *118:47 *499:10 0.000104287
53 *3040:A2 *118:14 2.09303e-05
54 *3060:A2 *118:20 0.000162318
*RES
1 *3040:Y *118:14 10.39 
2 *118:14 *118:20 6.305 
3 *118:20 *118:22 3.8025 
4 *118:22 *3061:C 8.2125 
5 *118:22 *118:47 5.8625 
6 *118:47 *3059:A 1.6 
7 *118:47 *3047:A 2.74 
8 *118:20 *3060:C1 4.395 
9 *118:14 *3048:B2 1.96 
*END

*D_NET *119 0.00591218
*CONN
*I *3060:B1 I *D sky130_fd_sc_hd__o2111a_2
*I *3049:B1 I *D sky130_fd_sc_hd__o211ai_2
*I *3242:A I *D sky130_fd_sc_hd__buf_2
*I *3061:B I *D sky130_fd_sc_hd__and3_2
*I *3046:B1 I *D sky130_fd_sc_hd__o21ai_2
*I *3041:Y O *D sky130_fd_sc_hd__nand3b_4
*CAP
1 *3060:B1 1.36534e-05
2 *3049:B1 0.000151244
3 *3242:A 4.80504e-05
4 *3061:B 0.000132491
5 *3046:B1 0.000295359
6 *3041:Y 0.00122149
7 *119:37 0.000399846
8 *119:20 0.00060113
9 *119:18 0.00029517
10 *119:16 0.0012926
11 *3046:B1 *3012:B 0.000157951
12 *3046:B1 *3044:A 0
13 *3046:B1 *3044:B 0
14 *3046:B1 *3251:A 1.60388e-05
15 *3046:B1 *499:10 1.08758e-05
16 *3049:B1 *3018:D 4.29107e-05
17 *3060:B1 *3060:D1 4.66108e-05
18 *3060:B1 *129:28 4.66108e-05
19 *3061:B *3062:D 2.77183e-05
20 *119:16 *3039:B 0.000146281
21 *119:16 *3041:C 0.000153794
22 *119:16 *3060:D1 1.7635e-05
23 *119:16 *129:12 0
24 *119:16 *555:10 0.000167
25 *119:20 *3044:B 0
26 *119:20 *3049:A1 9.29751e-06
27 *119:37 *3251:A 1.33293e-05
28 *119:37 *499:10 6.0147e-06
29 *3049:A2 *3049:B1 6.03436e-05
30 *3049:A2 *119:16 4.43871e-06
31 *3049:A2 *119:18 5.83373e-05
32 *3049:A2 *119:20 1.52184e-05
33 *3058:A2 *119:16 5.7464e-06
34 *3061:C *3061:B 6.3124e-06
35 *3061:C *3242:A 9.53428e-06
36 *3061:C *119:37 4.60234e-05
37 *118:20 *119:16 3.10777e-05
38 *118:20 *119:18 4.9968e-05
39 *118:22 *3046:B1 7.70758e-05
40 *118:22 *119:18 6.21553e-05
41 *118:22 *119:20 0.000172845
*RES
1 *3041:Y *119:16 10.6979 
2 *119:16 *119:18 1.38 
3 *119:18 *119:20 2.145 
4 *119:20 *3046:B1 8.73 
5 *119:20 *119:37 4.52 
6 *119:37 *3061:B 3.085 
7 *119:37 *3242:A 2.47 
8 *119:18 *3049:B1 5.7 
9 *119:16 *3060:B1 4.05 
*END

*D_NET *120 0.00283212
*CONN
*I *3044:A I *D sky130_fd_sc_hd__nor2_2
*I *3056:A1 I *D sky130_fd_sc_hd__o21bai_2
*I *3042:Y O *D sky130_fd_sc_hd__nor2_2
*CAP
1 *3044:A 0.000331967
2 *3056:A1 0.000352289
3 *3042:Y 0.000204112
4 *120:8 0.000888368
5 *3044:A *3012:B 0.00011293
6 *3044:A *3014:B 5.21046e-05
7 *3044:A *3015:B1 0
8 *3044:A *3044:B 0.000162332
9 *3044:A *3048:B1 9.3062e-06
10 *3044:A *122:12 0.000332809
11 *3044:A *137:10 0
12 *3044:A *499:10 0
13 *3056:A1 *3014:A 4.82919e-05
14 *3056:A1 *544:10 0.000237249
15 *120:8 *3012:B 7.24866e-05
16 *120:8 *3014:B 2.78732e-05
17 *120:8 *123:10 0
18 *120:8 *137:10 0
19 *3046:B1 *3044:A 0
20 *118:22 *3044:A 0
21 *118:47 *3044:A 0
*RES
1 *3042:Y *120:8 7.53 
2 *120:8 *3056:A1 9.345 
3 *120:8 *3044:A 11.61 
*END

*D_NET *121 0.00340053
*CONN
*I *3046:A1 I *D sky130_fd_sc_hd__o21ai_2
*I *3044:B I *D sky130_fd_sc_hd__nor2_2
*I *3057:A1 I *D sky130_fd_sc_hd__o21a_2
*I *3056:A2 I *D sky130_fd_sc_hd__o21bai_2
*I *3043:X O *D sky130_fd_sc_hd__and2_2
*CAP
1 *3046:A1 3.55506e-05
2 *3044:B 0.000213822
3 *3057:A1 9.73191e-06
4 *3056:A2 0.000263505
5 *3043:X 0.000144279
6 *121:36 0.000493197
7 *121:12 0.00029902
8 *121:10 0.000413887
9 *3044:B *3012:B 0.000119756
10 *3044:B *135:10 2.65814e-06
11 *3056:A2 *3013:A2 0
12 *3056:A2 *3043:A 0.000506349
13 *3056:A2 *3250:A 8.71079e-05
14 *3056:A2 *544:10 4.66108e-05
15 *3057:A1 *3057:B1 4.82863e-05
16 *3057:A1 *3208:A 4.82863e-05
17 *121:10 *3039:B 2.65814e-06
18 *121:10 *3043:A 0.000144325
19 *121:12 *3043:A 4.9968e-05
20 *121:36 *3057:A2 0.000127929
21 *121:36 *3057:B1 0.000163199
22 *121:36 *3208:A 1.19928e-05
23 *121:36 *135:10 6.07575e-06
24 *3044:A *3044:B 0.000162332
25 *3046:B1 *3044:B 0
26 *3245:A *3056:A2 0
27 *3245:A *121:10 0
28 *3245:A *121:12 0
29 *119:20 *3044:B 0
*RES
1 *3043:X *121:10 5.865 
2 *121:10 *121:12 0.615 
3 *121:12 *3056:A2 10.02 
4 *121:12 *3057:A1 4.05 
5 *121:10 *121:36 6.245 
6 *121:36 *3044:B 9.32 
7 *121:36 *3046:A1 2.215 
*END

*D_NET *122 0.00210335
*CONN
*I *3047:B I *D sky130_fd_sc_hd__nand3_2
*I *3013:A2 I *D sky130_fd_sc_hd__a22o_4
*I *3044:Y O *D sky130_fd_sc_hd__nor2_2
*CAP
1 *3047:B 0
2 *3013:A2 0.000280449
3 *3044:Y 0.000194586
4 *122:12 0.000475036
5 *3013:A2 *3047:C 0.00029593
6 *3013:A2 *3209:A 0.000106078
7 *3013:A2 *3250:A 4.18603e-06
8 *3013:A2 *135:36 6.97118e-05
9 *3013:A2 *544:23 4.43871e-06
10 *122:12 *3012:B 0.000180682
11 *122:12 *3018:D 9.39078e-05
12 *122:12 *3048:B1 6.55328e-05
13 *122:12 *502:10 0
14 *3044:A *122:12 0.000332809
15 *3056:A2 *3013:A2 0
16 *118:47 *3013:A2 0
*RES
1 *3044:Y *122:12 11.015 
2 *122:12 *3013:A2 11.66 
3 *122:12 *3047:B 1.6 
*END

*D_NET *123 0.00230514
*CONN
*I *3057:A2 I *D sky130_fd_sc_hd__o21a_2
*I *3046:A2 I *D sky130_fd_sc_hd__o21ai_2
*I *3045:Y O *D sky130_fd_sc_hd__o21ai_2
*CAP
1 *3057:A2 6.17652e-05
2 *3046:A2 0
3 *3045:Y 0.000455939
4 *123:10 0.000517705
5 *3057:A2 *3057:B1 8.8266e-05
6 *3057:A2 *3208:A 0.000311288
7 *123:10 *3012:A 0.000188518
8 *123:10 *3012:B 1.01661e-05
9 *123:10 *3042:A 0
10 *123:10 *3045:B1 0.000152203
11 *123:10 *3047:C 7.46619e-05
12 *123:10 *3208:A 9.14049e-05
13 *123:10 *135:10 5.65627e-05
14 *123:10 *135:12 7.63125e-05
15 *123:10 *502:10 4.11194e-05
16 *123:10 *544:23 5.12946e-05
17 *3245:A *123:10 0
18 *120:8 *123:10 0
19 *121:36 *3057:A2 0.000127929
*RES
1 *3045:Y *123:10 16.16 
2 *123:10 *3046:A2 1.6 
3 *123:10 *3057:A2 4.465 
*END

*D_NET *124 0.00176787
*CONN
*I *3048:B1 I *D sky130_fd_sc_hd__a22oi_2
*I *3046:Y O *D sky130_fd_sc_hd__o21ai_2
*CAP
1 *3048:B1 0.000540571
2 *3046:Y 0.000540571
3 *3048:B1 *3018:B 0
4 *3048:B1 *3018:C 4.94404e-05
5 *3048:B1 *3019:B1 8.08153e-06
6 *3048:B1 *3048:A2 0
7 *3048:B1 *3049:A1 0
8 *3048:B1 *3058:B1 8.49205e-05
9 *3048:B1 *136:10 0.000118836
10 *3048:B1 *470:16 4.43871e-06
11 *3048:B1 *492:10 0
12 *3048:B1 *502:10 0
13 *3044:A *3048:B1 9.3062e-06
14 *3048:B2 *3048:B1 5.4155e-06
15 *3058:A2 *3048:B1 8.23457e-05
16 *3245:A *3048:B1 0
17 *110:16 *3048:B1 0
18 *118:14 *3048:B1 0.000211731
19 *118:20 *3048:B1 4.66826e-05
20 *122:12 *3048:B1 6.55328e-05
*RES
1 *3046:Y *3048:B1 17.265 
*END

*D_NET *125 0.00283755
*CONN
*I *3049:C1 I *D sky130_fd_sc_hd__o211ai_2
*I *3015:C1 I *D sky130_fd_sc_hd__o211ai_2
*I *3047:Y O *D sky130_fd_sc_hd__nand3_2
*CAP
1 *3049:C1 0.000120841
2 *3015:C1 8.28135e-05
3 *3047:Y 0.000109502
4 *125:8 0.000313156
5 *3015:C1 *3017:A 0.000159957
6 *3015:C1 *3112:A 8.87475e-05
7 *3015:C1 *442:10 0.000318473
8 *3049:C1 *3016:A1 0.000332795
9 *3049:C1 *3017:A 0.000353513
10 *3049:C1 *442:10 2.14129e-05
11 *125:8 *3209:A 5.5626e-05
12 *125:8 *135:36 0.000533416
13 *125:8 *442:16 0.000119762
14 *3047:A *125:8 6.52265e-05
15 *118:47 *125:8 0.000162311
*RES
1 *3047:Y *125:8 8.535 
2 *125:8 *3015:C1 7.275 
3 *125:8 *3049:C1 7.785 
*END

*D_NET *126 0.00191068
*CONN
*I *3055:A2 I *D sky130_fd_sc_hd__o21ai_4
*I *3048:Y O *D sky130_fd_sc_hd__a22oi_2
*CAP
1 *3055:A2 0.000529828
2 *3048:Y 0.000529828
3 *3055:A2 *3055:A1 0.000124895
4 *3055:A2 *3112:A 0.000289004
5 *3055:A2 *542:18 0
6 *3035:A *3055:A2 1.19928e-05
7 *3053:A2 *3055:A2 0.000272973
8 *3060:A2 *3055:A2 6.81237e-05
9 *111:22 *3055:A2 7.4538e-05
10 *118:20 *3055:A2 9.50342e-06
*RES
1 *3048:Y *3055:A2 17.655 
*END

*D_NET *127 0.0016423
*CONN
*I *3016:B1 I *D sky130_fd_sc_hd__a21o_2
*I *3054:A2 I *D sky130_fd_sc_hd__a21boi_2
*I *3049:Y O *D sky130_fd_sc_hd__o211ai_2
*CAP
1 *3016:B1 0
2 *3054:A2 0.000373811
3 *3049:Y 8.11629e-05
4 *127:6 0.000454974
5 *3054:A2 *3017:A 0
6 *3054:A2 *3054:A1 4.99619e-05
7 *3054:A2 *3062:D 5.84378e-05
8 *3054:A2 *3112:A 0
9 *3054:A2 *129:43 0.000225182
10 *3054:A2 *136:10 0
11 *127:6 *3016:A1 0.000199833
12 *127:6 *3018:D 0.000198939
*RES
1 *3049:Y *127:6 4.12 
2 *127:6 *3054:A2 12.395 
3 *127:6 *3016:B1 1.6 
*END

*D_NET *128 0.00286216
*CONN
*I *3236:A I *D sky130_fd_sc_hd__buf_2
*I *3060:D1 I *D sky130_fd_sc_hd__o2111a_2
*I *3050:Y O *D sky130_fd_sc_hd__o21bai_4
*CAP
1 *3236:A 0.000228734
2 *3060:D1 0.000236814
3 *3050:Y 0.000465548
4 *3060:D1 *3049:A1 2.42236e-05
5 *3060:D1 *129:28 7.86154e-05
6 *3060:D1 *501:10 6.81302e-05
7 *3060:D1 *542:18 2.46007e-05
8 *3236:A *3036:A1 4.9968e-05
9 *3236:A *471:19 0.000186099
10 *3236:A *471:34 0.0001051
11 *3236:A *471:47 0.000122474
12 *3236:A *474:14 0
13 *3236:A *492:8 0.000456637
14 *3236:A *566:18 4.66108e-05
15 *3050:A2 *3060:D1 4.82919e-05
16 *3058:A2 *3060:D1 0.000132178
17 *3060:A2 *3060:D1 0.000286642
18 *3060:B1 *3060:D1 4.66108e-05
19 *110:37 *3060:D1 0.000193801
20 *111:22 *3060:D1 3.09233e-05
21 *118:20 *3060:D1 1.252e-05
22 *119:16 *3060:D1 1.7635e-05
*RES
1 *3050:Y *3060:D1 14.01 
2 *3050:Y *3236:A 14.94 
*END

*D_NET *129 0.00615191
*CONN
*I *3019:A2 I *D sky130_fd_sc_hd__a22oi_2
*I *3018:C I *D sky130_fd_sc_hd__and4_2
*I *3062:B I *D sky130_fd_sc_hd__and4_4
*I *3053:B1 I *D sky130_fd_sc_hd__o21ai_2
*I *3052:B1 I *D sky130_fd_sc_hd__o21a_2
*I *3063:A2 I *D sky130_fd_sc_hd__a41o_2
*I *3051:Y O *D sky130_fd_sc_hd__o21bai_2
*CAP
1 *3019:A2 0
2 *3018:C 5.20611e-05
3 *3062:B 0
4 *3053:B1 0.000186055
5 *3052:B1 7.07377e-05
6 *3063:A2 0.00021687
7 *3051:Y 0.00034332
8 *129:43 0.000529124
9 *129:30 0.000521381
10 *129:28 0.000756255
11 *129:16 0.000967702
12 *129:12 0.000534884
13 *3018:C *3019:B1 9.30717e-05
14 *3052:B1 *3052:A1 2.75145e-05
15 *3053:B1 *3053:A1 0
16 *3053:B1 *3055:A1 2.75145e-05
17 *3053:B1 *3055:B1 0
18 *3063:A2 *3062:C 5.83121e-06
19 *3063:A2 *140:14 5.46217e-05
20 *129:12 *3020:A 9.50342e-06
21 *129:12 *3039:A 7.4813e-05
22 *129:12 *3039:B 7.21296e-06
23 *129:12 *566:12 9.66106e-05
24 *129:16 *3020:B 0.000114424
25 *129:16 *542:6 4.16353e-05
26 *129:28 *3019:B2 0.000115779
27 *129:28 *3036:A2 1.47256e-05
28 *129:28 *3036:B1 8.65961e-05
29 *129:28 *3062:C 0.000163175
30 *129:28 *542:6 7.67415e-06
31 *129:28 *542:18 2.26018e-05
32 *129:30 *3062:C 2.49909e-05
33 *129:43 *3053:A1 0
34 *129:43 *3054:A1 0
35 *129:43 *3062:D 3.09233e-05
36 *129:43 *566:43 0
37 *3048:A1 *129:43 0
38 *3048:B1 *3018:C 4.94404e-05
39 *3052:A2 *3052:B1 8.65905e-05
40 *3054:A2 *129:43 0.000225182
41 *3060:B1 *129:28 4.66108e-05
42 *3060:C1 *129:28 8.49205e-05
43 *3060:D1 *129:28 7.86154e-05
44 *3241:A *129:43 0
45 *3245:A *129:12 2.24102e-05
46 *110:16 *129:12 0.000244167
47 *110:37 *129:28 2.68658e-05
48 *110:39 *3063:A2 7.03425e-05
49 *110:43 *129:43 0
50 *114:6 *129:28 1.91597e-05
51 *119:16 *129:12 0
*RES
1 *3051:Y *129:12 13.31 
2 *129:12 *129:16 3.225 
3 *129:16 *129:28 10.71 
4 *129:28 *129:30 0.45 
5 *129:30 *3063:A2 4.48 
6 *129:30 *129:43 6.95 
7 *129:43 *3052:B1 5.085 
8 *129:43 *3053:B1 6.45 
9 *129:28 *3062:B 1.6 
10 *129:16 *3018:C 6.725 
11 *129:12 *3019:A2 1.6 
*END

*D_NET *130 0.000344571
*CONN
*I *3054:A1 I *D sky130_fd_sc_hd__a21boi_2
*I *3052:X O *D sky130_fd_sc_hd__o21a_2
*CAP
1 *3054:A1 0.000109096
2 *3052:X 0.000109096
3 *3054:A2 *3054:A1 4.99619e-05
4 *3054:B1_N *3054:A1 1.08758e-05
5 *3241:A *3054:A1 6.55406e-05
6 *129:43 *3054:A1 0
*RES
1 *3052:X *3054:A1 9.375 
*END

*D_NET *131 0.000228755
*CONN
*I *3055:A1 I *D sky130_fd_sc_hd__o21ai_4
*I *3053:Y O *D sky130_fd_sc_hd__o21ai_2
*CAP
1 *3055:A1 3.81727e-05
2 *3053:Y 3.81727e-05
3 *3053:B1 *3055:A1 2.75145e-05
4 *3055:A2 *3055:A1 0.000124895
*RES
1 *3053:Y *3055:A1 4.34 
*END

*D_NET *132 0.000686916
*CONN
*I *2792:A I *D sky130_fd_sc_hd__nand2_4
*I *3054:Y O *D sky130_fd_sc_hd__a21boi_2
*CAP
1 *2792:A 0.000281455
2 *3054:Y 0.000281455
3 *3054:B1_N *2792:A 0.000124007
*RES
1 *3054:Y *2792:A 7.79 
*END

*D_NET *133 0.00715326
*CONN
*I *2794:A2 I *D sky130_fd_sc_hd__o22ai_4
*I *2890:A2 I *D sky130_fd_sc_hd__o221ai_2
*I *3063:B1 I *D sky130_fd_sc_hd__a41o_2
*I *2944:A2 I *D sky130_fd_sc_hd__o221ai_4
*I *2791:B1 I *D sky130_fd_sc_hd__a31oi_2
*I *3055:Y O *D sky130_fd_sc_hd__o21ai_4
*CAP
1 *2794:A2 8.55084e-05
2 *2890:A2 0.000117396
3 *3063:B1 0.000315934
4 *2944:A2 0
5 *2791:B1 0.00102373
6 *3055:Y 0.000523694
7 *133:29 0.000334468
8 *133:14 0.00116076
9 *133:12 0.000311452
10 *133:10 0.000684762
11 *2791:B1 *2791:A1 8.8266e-05
12 *2791:B1 *2792:B 0.00122771
13 *2791:B1 *2793:A 0
14 *2791:B1 *2793:C 0
15 *2791:B1 *2793:D 4.70256e-05
16 *2791:B1 *3010:C 0
17 *2791:B1 *3010:D 0.000210846
18 *2791:B1 *3225:A 8.53113e-06
19 *2890:A2 *245:25 0
20 *2890:A2 *252:8 5.85443e-05
21 *3063:B1 *2944:A1 0.00012657
22 *3063:B1 *3063:A4 9.53428e-06
23 *3063:B1 *140:14 0.000279462
24 *3063:B1 *140:22 0.000193245
25 *133:10 *2794:A1 1.26626e-05
26 *133:10 *254:12 0
27 *133:12 *2794:A1 7.26629e-05
28 *133:14 *2792:B 0.000200648
29 *133:14 *2794:A1 1.1561e-05
30 *133:29 *140:22 4.82919e-05
*RES
1 *3055:Y *133:10 11.715 
2 *133:10 *133:12 1.635 
3 *133:12 *133:14 2.655 
4 *133:14 *2791:B1 25.245 
5 *133:14 *133:29 2.45 
6 *133:29 *2944:A2 1.6 
7 *133:29 *3063:B1 8.98 
8 *133:12 *2890:A2 5.445 
9 *133:10 *2794:A2 4.74 
*END

*D_NET *134 0.00165201
*CONN
*I *3057:B1 I *D sky130_fd_sc_hd__o21a_2
*I *3056:Y O *D sky130_fd_sc_hd__o21bai_2
*CAP
1 *3057:B1 0.000252999
2 *3056:Y 0.000252999
3 *3057:B1 *3043:A 0.000551821
4 *3057:B1 *3043:B 5.21458e-05
5 *3057:B1 *3208:A 3.518e-05
6 *3057:B1 *520:16 0.000127416
7 *3057:B1 *540:20 7.96996e-05
8 *3057:A1 *3057:B1 4.82863e-05
9 *3057:A2 *3057:B1 8.8266e-05
10 *121:36 *3057:B1 0.000163199
*RES
1 *3056:Y *3057:B1 15.855 
*END

*D_NET *135 0.00538489
*CONN
*I *3061:A I *D sky130_fd_sc_hd__and3_2
*I *3062:D I *D sky130_fd_sc_hd__and4_4
*I *3011:B I *D sky130_fd_sc_hd__nand2_2
*I *3013:B2 I *D sky130_fd_sc_hd__a22o_4
*I *3012:A I *D sky130_fd_sc_hd__xor2_2
*I *3057:X O *D sky130_fd_sc_hd__o21a_2
*CAP
1 *3061:A 0
2 *3062:D 0.000348699
3 *3011:B 3.3754e-05
4 *3013:B2 0
5 *3012:A 9.79605e-05
6 *3057:X 0.000244741
7 *135:49 0.000431616
8 *135:36 0.000741329
9 *135:12 0.000146022
10 *135:10 0.000917462
11 *3011:B *3209:A 0.000118081
12 *3011:B *442:16 8.23457e-05
13 *3012:A *3012:B 0.000339205
14 *3062:D *3016:A1 0
15 *3062:D *3063:A1 0
16 *3062:D *139:10 2.77283e-05
17 *135:10 *3012:B 9.34489e-05
18 *135:10 *3208:A 0.000265381
19 *135:12 *3012:B 0.000101423
20 *135:36 *3016:A1 2.14129e-05
21 *135:36 *3209:A 3.13457e-05
22 *135:36 *442:10 5.4003e-05
23 *135:36 *442:16 1.91597e-05
24 *135:49 *3016:A1 0.000132842
25 *3013:A2 *135:36 6.97118e-05
26 *3044:B *135:10 2.65814e-06
27 *3054:A2 *3062:D 5.84378e-05
28 *3061:B *3062:D 2.77183e-05
29 *3061:C *3062:D 8.65905e-05
30 *121:36 *135:10 6.07575e-06
31 *123:10 *3012:A 0.000188518
32 *123:10 *135:10 5.65627e-05
33 *123:10 *135:12 7.63125e-05
34 *125:8 *135:36 0.000533416
35 *129:43 *3062:D 3.09233e-05
*RES
1 *3057:X *135:10 7.92 
2 *135:10 *135:12 1.635 
3 *135:12 *3012:A 7.53 
4 *135:12 *3013:B2 3.6 
5 *135:10 *135:36 12.565 
6 *135:36 *3011:B 4.74 
7 *135:36 *135:49 3.635 
8 *135:49 *3062:D 11.96 
9 *135:49 *3061:A 1.6 
*END

*D_NET *136 0.0043617
*CONN
*I *3063:A4 I *D sky130_fd_sc_hd__a41o_2
*I *3017:A I *D sky130_fd_sc_hd__xor2_2
*I *3058:X O *D sky130_fd_sc_hd__o21a_2
*CAP
1 *3063:A4 0.000349259
2 *3017:A 0.000336339
3 *3058:X 0.000482539
4 *136:10 0.00116814
5 *3017:A *3016:A1 3.31204e-05
6 *3017:A *3112:A 0.000518873
7 *3063:A4 *140:14 3.92124e-05
8 *136:10 *3112:A 3.47837e-05
9 *136:10 *566:37 2.44101e-05
10 *136:10 *566:43 1.4399e-05
11 *3015:C1 *3017:A 0.000159957
12 *3048:B1 *136:10 0.000118836
13 *3049:C1 *3017:A 0.000353513
14 *3054:A2 *3017:A 0
15 *3054:A2 *136:10 0
16 *3058:A2 *136:10 8.23457e-05
17 *3063:B1 *3063:A4 9.53428e-06
18 *110:37 *3063:A4 0.000201503
19 *110:39 *3063:A4 0.0004262
20 *118:20 *136:10 8.73389e-06
*RES
1 *3058:X *136:10 9.66 
2 *136:10 *3017:A 12.375 
3 *136:10 *3063:A4 10.275 
*END

*D_NET *137 0.000941641
*CONN
*I *3014:A I *D sky130_fd_sc_hd__xnor2_2
*I *3015:A1 I *D sky130_fd_sc_hd__o211ai_2
*I *3059:Y O *D sky130_fd_sc_hd__nand2_2
*CAP
1 *3014:A 0.000136254
2 *3015:A1 5.4625e-05
3 *3059:Y 0.000255796
4 *137:10 0.000446674
5 *137:10 *3015:A2 0
6 *137:10 *3015:B1 0
7 *3044:A *137:10 0
8 *3056:A1 *3014:A 4.82919e-05
9 *120:8 *137:10 0
*RES
1 *3059:Y *137:10 9.53 
2 *137:10 *3015:A1 2.395 
3 *137:10 *3014:A 3.775 
*END

*D_NET *138 0.000637914
*CONN
*I *3062:C I *D sky130_fd_sc_hd__and4_4
*I *3060:X O *D sky130_fd_sc_hd__o2111a_2
*CAP
1 *3062:C 6.58708e-05
2 *3060:X 6.58708e-05
3 *3063:A2 *3062:C 5.83121e-06
4 *110:37 *3062:C 0.000189845
5 *110:39 *3062:C 0.000122331
6 *129:28 *3062:C 0.000163175
7 *129:30 *3062:C 2.49909e-05
*RES
1 *3060:X *3062:C 6.065 
*END

*D_NET *139 0.00114284
*CONN
*I *3063:A1 I *D sky130_fd_sc_hd__a41o_2
*I *3016:A2 I *D sky130_fd_sc_hd__a21o_2
*I *3061:X O *D sky130_fd_sc_hd__and3_2
*CAP
1 *3063:A1 0.000104815
2 *3016:A2 0.000110736
3 *3061:X 0.000342007
4 *139:10 0.000557558
5 *3062:D *3063:A1 0
6 *3062:D *139:10 2.77283e-05
*RES
1 *3061:X *139:10 8.01 
2 *139:10 *3016:A2 5.085 
3 *139:10 *3063:A1 4.98 
*END

*D_NET *140 0.00265892
*CONN
*I *3233:A I *D sky130_fd_sc_hd__buf_4
*I *2794:A1 I *D sky130_fd_sc_hd__o22ai_4
*I *2890:A1 I *D sky130_fd_sc_hd__o221ai_2
*I *3062:X O *D sky130_fd_sc_hd__and4_4
*CAP
1 *3233:A 0
2 *2794:A1 9.24337e-05
3 *2890:A1 0
4 *3062:X 0.000201465
5 *140:22 0.000508735
6 *140:14 0.000617767
7 *2794:A1 *2792:B 9.50342e-06
8 *2794:A1 *2958:A2 0
9 *2794:A1 *254:12 0
10 *140:22 *2792:B 0.000231571
11 *140:22 *2944:A1 0.00012657
12 *140:22 *2944:B1 0
13 *140:22 *2944:B2 3.25831e-05
14 *140:22 *2958:A2 0
15 *3063:A2 *140:14 5.46217e-05
16 *3063:A4 *140:14 3.92124e-05
17 *3063:B1 *140:14 0.000279462
18 *3063:B1 *140:22 0.000193245
19 *110:39 *140:14 0.00012657
20 *133:10 *2794:A1 1.26626e-05
21 *133:12 *2794:A1 7.26629e-05
22 *133:14 *2794:A1 1.1561e-05
23 *133:29 *140:22 4.82919e-05
*RES
1 *3062:X *140:14 7.12 
2 *140:14 *140:22 10.295 
3 *140:22 *2890:A1 3.6 
4 *140:22 *2794:A1 5.745 
5 *140:14 *3233:A 1.6 
*END

*D_NET *141 0.00530528
*CONN
*I *2948:A1 I *D sky130_fd_sc_hd__a31oi_2
*I *2817:C I *D sky130_fd_sc_hd__nand4b_2
*I *2814:A1 I *D sky130_fd_sc_hd__a31oi_2
*I *3063:X O *D sky130_fd_sc_hd__a41o_2
*CAP
1 *2948:A1 0
2 *2817:C 0
3 *2814:A1 6.2934e-05
4 *3063:X 0.00108484
5 *141:24 0.00110279
6 *141:12 0.0021247
7 *2814:A1 *2814:A3 0.000139245
8 *2814:A1 *2817:D 6.14689e-05
9 *141:12 *2958:A2 4.66108e-05
10 *141:12 *3055:B1 5.92849e-05
11 *141:24 *2948:A2 8.40269e-05
12 *141:24 *2948:A3 2.05056e-05
13 *141:24 *269:18 1.37328e-05
14 *141:24 *463:12 0.00050514
15 *3241:A *141:12 0
16 *110:43 *141:12 0
*RES
1 *3063:X *141:12 22.865 
2 *141:12 *141:24 17.52 
3 *141:24 *2814:A1 7.49 
4 *141:24 *2817:C 1.6 
5 *141:12 *2948:A1 1.6 
*END

*D_NET *142 0.000647813
*CONN
*I *3066:A1 I *D sky130_fd_sc_hd__o21ba_2
*I *3067:A1 I *D sky130_fd_sc_hd__o21bai_4
*I *3064:Y O *D sky130_fd_sc_hd__nor2_2
*CAP
1 *3066:A1 3.37585e-05
2 *3067:A1 8.24551e-05
3 *3064:Y 7.11197e-05
4 *142:8 0.000187333
5 *3067:A1 *3066:A2 7.75412e-05
6 *3067:A1 *3069:B1 0
7 *3067:A1 *504:19 5.53249e-06
8 *3067:A1 *504:32 0.000111096
9 *142:8 *2782:A2 0
10 *142:8 *3069:B1 0
11 *142:8 *504:32 7.89767e-05
*RES
1 *3064:Y *142:8 5.235 
2 *142:8 *3067:A1 6 
3 *142:8 *3066:A1 4.05 
*END

*D_NET *143 0.00117225
*CONN
*I *3067:A2 I *D sky130_fd_sc_hd__o21bai_4
*I *3066:A2 I *D sky130_fd_sc_hd__o21ba_2
*I *3065:X O *D sky130_fd_sc_hd__and2_4
*CAP
1 *3067:A2 2.08101e-05
2 *3066:A2 0.000105263
3 *3065:X 0.000264116
4 *143:6 0.000390189
5 *3066:A2 *3069:B1 0.000189426
6 *3067:A2 *145:8 0
7 *143:6 *3065:A 0.0001249
8 *3067:A1 *3066:A2 7.75412e-05
*RES
1 *3065:X *143:6 5.845 
2 *143:6 *3066:A2 8.54 
3 *143:6 *3067:A2 1.96 
*END

*D_NET *144 0.000468729
*CONN
*I *2782:A2 I *D sky130_fd_sc_hd__o21ai_2
*I *3066:X O *D sky130_fd_sc_hd__o21ba_2
*CAP
1 *2782:A2 0.000211282
2 *3066:X 0.000211282
3 *2782:A2 *3069:B1 0
4 *2782:A2 *3070:B 4.61658e-05
5 *142:8 *2782:A2 0
*RES
1 *3066:X *2782:A2 10.065 
*END

*D_NET *145 0.00171417
*CONN
*I *3070:A I *D sky130_fd_sc_hd__nand2_2
*I *3079:A I *D sky130_fd_sc_hd__nand4_4
*I *3078:A I *D sky130_fd_sc_hd__and4_2
*I *3067:Y O *D sky130_fd_sc_hd__o21bai_4
*CAP
1 *3070:A 2.08101e-05
2 *3079:A 0.000225532
3 *3078:A 0
4 *3067:Y 0.000137894
5 *145:14 0.000417449
6 *145:8 0.000350621
7 *3079:A *3070:B 2.97561e-05
8 *3079:A *3079:B 8.68724e-05
9 *3079:A *3079:C 3.05373e-05
10 *3079:A *153:25 8.42161e-05
11 *145:8 *3067:B1_N 8.8266e-05
12 *145:8 *3070:B 4.66108e-05
13 *145:14 *3070:B 0.000178504
14 *145:14 *153:25 1.71013e-05
15 *145:14 *475:40 0
16 *3067:A2 *145:8 0
*RES
1 *3067:Y *145:8 4.135 
2 *145:8 *145:14 6.125 
3 *145:14 *3078:A 3.6 
4 *145:14 *3079:A 8.19 
5 *145:8 *3070:A 1.96 
*END

*D_NET *146 0.00099857
*CONN
*I *3069:B1 I *D sky130_fd_sc_hd__o21ai_2
*I *3068:Y O *D sky130_fd_sc_hd__a21boi_2
*CAP
1 *3069:B1 0.00033173
2 *3068:Y 0.00033173
3 *3069:B1 *2782:A1 0
4 *3069:B1 *3066:B1_N 7.75412e-05
5 *3069:B1 *3070:B 0
6 *3069:B1 *3184:A 0
7 *3069:B1 *147:6 2.11084e-05
8 *3069:B1 *504:19 0
9 *3069:B1 *536:19 4.70343e-05
10 *2782:A2 *3069:B1 0
11 *3066:A2 *3069:B1 0.000189426
12 *3067:A1 *3069:B1 0
13 *142:8 *3069:B1 0
*RES
1 *3068:Y *3069:B1 13.65 
*END

*D_NET *147 0.00192808
*CONN
*I *3079:B I *D sky130_fd_sc_hd__nand4_4
*I *3070:B I *D sky130_fd_sc_hd__nand2_2
*I *2782:B1 I *D sky130_fd_sc_hd__o21ai_2
*I *3078:B I *D sky130_fd_sc_hd__and4_2
*I *3069:Y O *D sky130_fd_sc_hd__o21ai_2
*CAP
1 *3079:B 5.90284e-05
2 *3070:B 0.000203903
3 *2782:B1 0
4 *3078:B 5.8418e-05
5 *3069:Y 0.000154008
6 *147:24 0.000262931
7 *147:10 0.000101776
8 *147:6 0.000197366
9 *3070:B *3184:A 0.000208484
10 *3070:B *475:40 0
11 *3078:B *2782:A1 6.97202e-05
12 *3078:B *3078:C 5.83121e-06
13 *3079:B *3079:C 0
14 *3079:B *242:10 0.000163992
15 *147:6 *2782:A1 1.47347e-05
16 *147:10 *2782:A1 1.88658e-05
17 *2782:A2 *3070:B 4.61658e-05
18 *3069:B1 *3070:B 0
19 *3069:B1 *147:6 2.11084e-05
20 *3079:A *3070:B 2.97561e-05
21 *3079:A *3079:B 8.68724e-05
22 *145:8 *3070:B 4.66108e-05
23 *145:14 *3070:B 0.000178504
*RES
1 *3069:Y *147:6 4.12 
2 *147:6 *147:10 0.81 
3 *147:10 *3078:B 2.74 
4 *147:10 *2782:B1 1.6 
5 *147:6 *147:24 2 
6 *147:24 *3070:B 8.49 
7 *147:24 *3079:B 5.745 
*END

*D_NET *148 0.000480938
*CONN
*I *3005:A I *D sky130_fd_sc_hd__xnor2_2
*I *3070:Y O *D sky130_fd_sc_hd__nand2_2
*CAP
1 *3005:A 0.000198107
2 *3070:Y 0.000198107
3 *3005:A *3184:A 5.4239e-05
4 *3005:A *466:10 2.97004e-06
5 *3005:A *475:40 2.75145e-05
*RES
1 *3070:Y *3005:A 10.665 
*END

*D_NET *149 0.00155354
*CONN
*I *3075:B I *D sky130_fd_sc_hd__nand2_4
*I *3004:A2 I *D sky130_fd_sc_hd__a22o_4
*I *3071:Y O *D sky130_fd_sc_hd__nand2_2
*CAP
1 *3075:B 0.000281632
2 *3004:A2 0.000100446
3 *3071:Y 0.000382078
4 *3004:A2 *3073:B 0.000139231
5 *3004:A2 *468:12 8.40213e-05
6 *3004:A2 *569:10 0.000139231
7 *3075:B *3003:A 0.00011562
8 *3075:B *3004:B1 0.000141606
9 *3075:B *3077:A 7.87426e-05
10 *3075:B *467:10 0
11 *3075:B *468:12 9.09288e-05
*RES
1 *3071:Y *3004:A2 9.63 
2 *3071:Y *3075:B 13.305 
*END

*D_NET *150 0.00116997
*CONN
*I *3076:B I *D sky130_fd_sc_hd__nand3b_2
*I *3072:Y O *D sky130_fd_sc_hd__nand2_2
*CAP
1 *3076:B 0.000276934
2 *3072:Y 0.000276934
3 *3076:B *3072:A 0.000272978
4 *3076:B *3074:A1 0.000141592
5 *3076:B *468:12 4.66108e-05
6 *3076:B *570:34 0.000141592
7 S[7] *3076:B 1.33285e-05
*RES
1 *3072:Y *3076:B 12.045 
*END

*D_NET *151 0.000526726
*CONN
*I *3076:C I *D sky130_fd_sc_hd__nand3b_2
*I *3073:Y O *D sky130_fd_sc_hd__nand2b_4
*CAP
1 *3076:C 0.000110948
2 *3073:Y 0.000110948
3 *3076:C *3073:B 0
4 *3076:C *3076:A_N 0.000107716
5 *3076:C *570:23 0.000102834
6 *3076:C *570:34 9.428e-05
*RES
1 *3073:Y *3076:C 10.62 
*END

*D_NET *152 0.00146069
*CONN
*I *3075:A I *D sky130_fd_sc_hd__nand2_4
*I *3004:A1 I *D sky130_fd_sc_hd__a22o_4
*I *3074:X O *D sky130_fd_sc_hd__o21a_4
*CAP
1 *3075:A 0.000230597
2 *3004:A1 3.07736e-05
3 *3074:X 7.29502e-05
4 *152:8 0.000334321
5 *3004:A1 *154:6 1.56428e-05
6 *3075:A *3003:A 8.97832e-05
7 *3075:A *3004:B1 0
8 *3075:A *569:10 0.000551068
9 *3075:A *569:21 8.53113e-06
10 *152:8 *3073:B 1.01661e-05
11 *152:8 *569:10 0.000116853
*RES
1 *3074:X *152:8 5.235 
2 *152:8 *3004:A1 4.05 
3 *152:8 *3075:A 10.08 
*END

*D_NET *153 0.00230323
*CONN
*I *3079:C I *D sky130_fd_sc_hd__nand4_4
*I *2782:A1 I *D sky130_fd_sc_hd__o21ai_2
*I *3078:C I *D sky130_fd_sc_hd__and4_2
*I *3077:A I *D sky130_fd_sc_hd__nand2_2
*I *3075:Y O *D sky130_fd_sc_hd__nand2_4
*CAP
1 *3079:C 2.03856e-05
2 *2782:A1 0.000173985
3 *3078:C 4.06577e-05
4 *3077:A 0.000160776
5 *3075:Y 0
6 *153:25 0.000275853
7 *153:21 0.00047836
8 *153:4 0.00055754
9 *3077:A *3003:A 5.30144e-05
10 *3077:A *467:10 0
11 *3077:A *569:21 0
12 *3078:C *3006:A2 1.54061e-06
13 *3079:C *3006:A2 6.85516e-05
14 *153:21 *3079:D 1.83847e-05
15 *153:25 *3006:A2 7.06865e-05
16 *153:25 *475:40 6.37505e-05
17 *3069:B1 *2782:A1 0
18 *3075:B *3077:A 7.87426e-05
19 *3078:B *2782:A1 6.97202e-05
20 *3078:B *3078:C 5.83121e-06
21 *3079:A *3079:C 3.05373e-05
22 *3079:A *153:25 8.42161e-05
23 *3079:B *3079:C 0
24 *145:14 *153:25 1.71013e-05
25 *147:6 *2782:A1 1.47347e-05
26 *147:10 *2782:A1 1.88658e-05
*RES
1 *3075:Y *153:4 1.6 
2 *153:4 *3077:A 8.705 
3 *153:4 *153:21 6.245 
4 *153:21 *153:25 4.145 
5 *153:25 *3078:C 2.05 
6 *153:25 *2782:A1 4.045 
7 *153:21 *3079:C 4.47 
*END

*D_NET *154 0.00310282
*CONN
*I *3077:B I *D sky130_fd_sc_hd__nand2_2
*I *3079:D I *D sky130_fd_sc_hd__nand4_4
*I *3078:D I *D sky130_fd_sc_hd__and4_2
*I *3004:B2 I *D sky130_fd_sc_hd__a22o_4
*I *3076:Y O *D sky130_fd_sc_hd__nand3b_2
*CAP
1 *3077:B 0.000132419
2 *3079:D 2.56208e-05
3 *3078:D 0.000114089
4 *3004:B2 3.55506e-05
5 *3076:Y 0.000366316
6 *154:30 0.000267825
7 *154:19 0.000558674
8 *154:6 0.000736666
9 *3077:B *3006:A1 9.2741e-05
10 *3077:B *3095:B 6.52906e-05
11 *3077:B *467:10 8.68724e-05
12 *3078:D *3006:A2 2.77183e-05
13 *3078:D *3218:A 4.66108e-05
14 *154:6 *3004:B1 1.83756e-05
15 *154:19 *3004:B1 0
16 *154:19 *3005:B 1.54837e-05
17 *154:19 *3218:A 0.000248254
18 *154:19 *467:10 9.16237e-05
19 *154:30 *3095:B 1.22676e-05
20 *154:30 *467:10 0.000126399
21 *154:30 *475:40 0
22 *3004:A1 *154:6 1.56428e-05
23 *153:21 *3079:D 1.83847e-05
*RES
1 *3076:Y *154:6 5.5 
2 *154:6 *3004:B2 2.215 
3 *154:6 *154:19 7.685 
4 *154:19 *3078:D 5.43 
5 *154:19 *154:30 2.655 
6 *154:30 *3079:D 4.05 
7 *154:30 *3077:B 6.975 
*END

*D_NET *155 0.000608667
*CONN
*I *3003:A I *D sky130_fd_sc_hd__xnor2_2
*I *3077:Y O *D sky130_fd_sc_hd__nand2_2
*CAP
1 *3003:A 0.000161181
2 *3077:Y 0.000161181
3 *3003:A *3004:B1 9.50342e-06
4 *3003:A *3006:A1 1.83847e-05
5 *3003:A *569:21 0
6 *3075:A *3003:A 8.97832e-05
7 *3075:B *3003:A 0.00011562
8 *3077:A *3003:A 5.30144e-05
*RES
1 *3077:Y *3003:A 11.58 
*END

*D_NET *156 0.000876023
*CONN
*I *3006:A2 I *D sky130_fd_sc_hd__a21oi_4
*I *3078:X O *D sky130_fd_sc_hd__and4_2
*CAP
1 *3006:A2 0.000205723
2 *3078:X 0.000205723
3 *3006:A2 *2784:A1 0
4 *3006:A2 *242:10 0
5 *3006:A2 *475:40 0.000296081
6 *3078:C *3006:A2 1.54061e-06
7 *3078:D *3006:A2 2.77183e-05
8 *3079:C *3006:A2 6.85516e-05
9 *153:25 *3006:A2 7.06865e-05
*RES
1 *3078:X *3006:A2 11.76 
*END

*D_NET *157 0.000865408
*CONN
*I *3095:B I *D sky130_fd_sc_hd__nor2_4
*I *3079:Y O *D sky130_fd_sc_hd__nand4_4
*CAP
1 *3095:B 0.000239208
2 *3079:Y 0.000239208
3 *3095:B *467:10 0
4 *3095:B *475:40 0.000309435
5 *3077:B *3095:B 6.52906e-05
6 *154:30 *3095:B 1.22676e-05
*RES
1 *3079:Y *3095:B 13.425 
*END

*D_NET *158 0.000229312
*CONN
*I *3083:C I *D sky130_fd_sc_hd__nand3b_4
*I *3080:Y O *D sky130_fd_sc_hd__nand2b_2
*CAP
1 *3083:C 7.55584e-05
2 *3080:Y 7.55584e-05
3 *3083:C *3083:B 7.81954e-05
4 *3141:A *3083:C 0
*RES
1 *3080:Y *3083:C 8.835 
*END

*D_NET *159 0.000982882
*CONN
*I *3083:B I *D sky130_fd_sc_hd__nand3b_4
*I *3081:Y O *D sky130_fd_sc_hd__nand2_4
*CAP
1 *3083:B 0.000169018
2 *3081:Y 0.000169018
3 *3083:B *3080:A_N 0.000150451
4 *3083:B *3081:B 0.000141599
5 *3083:B *3083:A_N 0.000209067
6 *3083:B *518:10 6.55328e-05
7 *3083:C *3083:B 7.81954e-05
8 *3141:A *3083:B 0
*RES
1 *3081:Y *3083:B 12.915 
*END

*D_NET *160 0.000868244
*CONN
*I *2783:A1 I *D sky130_fd_sc_hd__a31o_2
*I *3085:B I *D sky130_fd_sc_hd__nand2_4
*I *3082:Y O *D sky130_fd_sc_hd__nand2_2
*CAP
1 *2783:A1 0.00026545
2 *3085:B 0.000301862
3 *3082:Y 3.64111e-05
4 *2783:A1 *2783:A2 4.66108e-05
5 *2783:A1 *2783:A3 8.43946e-05
6 *2783:A1 *162:8 4.69252e-05
7 *3085:B *162:8 8.65905e-05
*RES
1 *3082:Y *3085:B 3.995 
2 *3085:B *2783:A1 6.68 
*END

*D_NET *161 0.00468557
*CONN
*I *3094:D1 I *D sky130_fd_sc_hd__o2111ai_4
*I *3093:C1 I *D sky130_fd_sc_hd__o2111a_2
*I *3240:A I *D sky130_fd_sc_hd__buf_2
*I *3083:Y O *D sky130_fd_sc_hd__nand3b_4
*CAP
1 *3094:D1 0.000137222
2 *3093:C1 4.25238e-05
3 *3240:A 0.000281749
4 *3083:Y 0.000339003
5 *161:27 0.000538172
6 *161:10 0.000979179
7 *3093:C1 *3093:D1 3.64998e-06
8 *3093:C1 *3243:A 8.73389e-06
9 *3094:D1 *3092:A1 4.43871e-06
10 *3094:D1 *3094:C1 0.00020895
11 *3094:D1 *165:8 2.4997e-05
12 *3094:D1 *165:10 9.87616e-05
13 *3094:D1 *169:12 7.5416e-05
14 *3240:A *3086:A 6.69341e-05
15 *3240:A *3088:A1 7.47215e-05
16 *3240:A *3088:A2 5.23362e-05
17 *3240:A *3094:A1 0.000191561
18 *3240:A *163:8 0
19 *161:10 *3088:A1 0.000315132
20 *161:10 *3088:A2 0.000108322
21 *161:10 *469:28 0.000283528
22 *161:10 *533:10 6.81237e-05
23 *161:10 *539:36 0.000358944
24 *161:27 *3088:A2 2.49909e-05
25 *161:27 *3093:B1 2.67184e-05
26 *161:27 *3243:A 7.68414e-06
27 *161:27 *166:12 0.000234948
28 *161:27 *166:16 2.0514e-05
29 *3136:A *161:10 0.000108317
*RES
1 *3083:Y *161:10 12.42 
2 *161:10 *3240:A 9.48 
3 *161:10 *161:27 6.59 
4 *161:27 *3093:C1 2.05 
5 *161:27 *3094:D1 9.41 
*END

*D_NET *162 0.00125489
*CONN
*I *3085:A I *D sky130_fd_sc_hd__nand2_4
*I *2783:A3 I *D sky130_fd_sc_hd__a31o_2
*I *3084:X O *D sky130_fd_sc_hd__o21a_4
*CAP
1 *3085:A 0
2 *2783:A3 0.00013114
3 *3084:X 0.00029055
4 *162:8 0.00042169
5 *2783:A3 *2783:A2 8.40213e-05
6 *162:8 *3082:A 4.66108e-05
7 *162:8 *469:50 1.46828e-05
8 *162:8 *538:17 4.82863e-05
9 *2783:A1 *2783:A3 8.43946e-05
10 *2783:A1 *162:8 4.69252e-05
11 *3085:B *162:8 8.65905e-05
*RES
1 *3084:X *162:8 6.55 
2 *162:8 *2783:A3 4.12 
3 *162:8 *3085:A 1.6 
*END

*D_NET *163 0.00248409
*CONN
*I *3093:B1 I *D sky130_fd_sc_hd__o2111a_2
*I *3094:B1 I *D sky130_fd_sc_hd__o2111ai_4
*I *3086:B I *D sky130_fd_sc_hd__nand2_2
*I *3008:B1 I *D sky130_fd_sc_hd__o21ai_2
*I *3085:Y O *D sky130_fd_sc_hd__nand2_4
*CAP
1 *3093:B1 4.26906e-05
2 *3094:B1 0
3 *3086:B 6.3868e-05
4 *3008:B1 0.000173336
5 *3085:Y 0.000224818
6 *163:16 0.000398501
7 *163:10 0.000229237
8 *163:8 0.000335448
9 *3008:B1 *3086:A 0
10 *3008:B1 *3092:A2 0
11 *3008:B1 *3092:B1 0
12 *3008:B1 *164:10 0
13 *3086:B *3009:A 4.47209e-05
14 *3093:B1 *3243:A 0.000158066
15 *3093:B1 *166:12 2.05056e-05
16 *3093:B1 *166:16 4.82919e-05
17 *163:8 *3088:A2 0
18 *163:8 *3088:B1 0
19 *163:8 *3089:B1 0.000198196
20 *163:8 *3092:A2 1.07797e-05
21 *163:10 *3092:A2 9.50036e-05
22 *163:10 *3092:B1 0.000140912
23 *163:10 *3094:A1 0
24 *163:16 *3009:A 5.05437e-05
25 *163:16 *3092:A2 8.08439e-05
26 *163:16 *3092:B1 0.000141606
27 *3240:A *163:8 0
28 *161:27 *3093:B1 2.67184e-05
*RES
1 *3085:Y *163:8 8.04 
2 *163:8 *163:10 2.145 
3 *163:10 *163:16 5.465 
4 *163:16 *3008:B1 8.255 
5 *163:16 *3086:B 2.755 
6 *163:10 *3094:B1 3.6 
7 *163:8 *3093:B1 5.085 
*END

*D_NET *164 0.000494588
*CONN
*I *3007:A I *D sky130_fd_sc_hd__xor2_2
*I *3008:A1 I *D sky130_fd_sc_hd__o21ai_2
*I *3086:Y O *D sky130_fd_sc_hd__nand2_2
*CAP
1 *3007:A 3.40164e-05
2 *3008:A1 0
3 *3086:Y 0.000136311
4 *164:10 0.000170327
5 *3007:A *3007:B 5.78345e-05
6 *3007:A *3008:A2 0
7 *3007:A *3009:B 8.65961e-05
8 *164:10 *3009:B 0
9 *164:10 *3086:A 9.50342e-06
10 *3008:B1 *164:10 0
*RES
1 *3086:Y *164:10 7.745 
2 *164:10 *3008:A1 1.6 
3 *164:10 *3007:A 2.755 
*END

*D_NET *165 0.00175702
*CONN
*I *3093:A2 I *D sky130_fd_sc_hd__o2111a_2
*I *3094:A2 I *D sky130_fd_sc_hd__o2111ai_4
*I *3092:A1 I *D sky130_fd_sc_hd__o21a_2
*I *3087:X O *D sky130_fd_sc_hd__and2_4
*CAP
1 *3093:A2 0
2 *3094:A2 0.000232719
3 *3092:A1 0.000117094
4 *3087:X 6.76141e-05
5 *165:10 0.000402717
6 *165:8 0.000120518
7 *3092:A1 *2784:A1 0
8 *3092:A1 *3092:A2 0.00019193
9 *3092:A1 *3094:C1 7.21296e-06
10 *165:8 *3089:B1 0.000221366
11 *165:8 *3092:A2 9.50342e-06
12 *165:8 *169:12 6.65635e-05
13 *165:8 *449:88 8.53113e-06
14 *165:10 *3092:A2 0.00018305
15 *3094:D1 *3092:A1 4.43871e-06
16 *3094:D1 *165:8 2.4997e-05
17 *3094:D1 *165:10 9.87616e-05
*RES
1 *3087:X *165:8 6.255 
2 *165:8 *165:10 2.145 
3 *165:10 *3092:A1 6.195 
4 *165:10 *3094:A2 6.825 
5 *165:8 *3093:A2 3.6 
*END

*D_NET *166 0.00372493
*CONN
*I *3094:A1 I *D sky130_fd_sc_hd__o2111ai_4
*I *3093:A1 I *D sky130_fd_sc_hd__o2111a_2
*I *3089:B1 I *D sky130_fd_sc_hd__a21oi_2
*I *3092:A2 I *D sky130_fd_sc_hd__o21a_2
*I *3088:Y O *D sky130_fd_sc_hd__o21ai_2
*CAP
1 *3094:A1 0.000139917
2 *3093:A1 0
3 *3089:B1 0.000330739
4 *3092:A2 0.000173937
5 *3088:Y 0
6 *166:16 0.000516135
7 *166:12 0.000167473
8 *166:4 0.00029593
9 *3089:B1 *3088:B1 0
10 *3089:B1 *3089:A2 0.000131069
11 *3089:B1 *169:10 0.00015896
12 *3089:B1 *449:88 0.000155324
13 *3089:B1 *449:105 8.08153e-06
14 *3089:B1 *539:10 0
15 *3092:A2 *2784:A1 0
16 *3092:A2 *3092:B1 8.09021e-06
17 *3094:A1 *3092:B1 0
18 *166:12 *3088:A2 5.83121e-06
19 *166:12 *3243:A 0.000126951
20 *3008:B1 *3092:A2 0
21 *3092:A1 *3092:A2 0.00019193
22 *3093:B1 *166:12 2.05056e-05
23 *3093:B1 *166:16 4.82919e-05
24 *3240:A *3094:A1 0.000191561
25 *161:27 *166:12 0.000234948
26 *161:27 *166:16 2.0514e-05
27 *163:8 *3089:B1 0.000198196
28 *163:8 *3092:A2 1.07797e-05
29 *163:10 *3092:A2 9.50036e-05
30 *163:10 *3094:A1 0
31 *163:16 *3092:A2 8.08439e-05
32 *165:8 *3089:B1 0.000221366
33 *165:8 *3092:A2 9.50342e-06
34 *165:10 *3092:A2 0.00018305
*RES
1 *3088:Y *166:4 1.6 
2 *166:4 *166:12 4.2 
3 *166:12 *166:16 2.45 
4 *166:16 *3092:A2 8.745 
5 *166:16 *3089:B1 12 
6 *166:12 *3093:A1 1.6 
7 *166:4 *3094:A1 8.285 
*END

*D_NET *167 0.00064866
*CONN
*I *2783:B1 I *D sky130_fd_sc_hd__a31o_2
*I *3089:Y O *D sky130_fd_sc_hd__a21oi_2
*CAP
1 *2783:B1 0.000148796
2 *3089:Y 0.000148796
3 *2783:B1 *3089:A2 0.00015806
4 *2783:B1 *169:10 9.14049e-05
5 *2783:B1 *169:12 8.53113e-06
6 *2783:B1 *449:88 9.30717e-05
*RES
1 *3089:Y *2783:B1 9.81 
*END

*D_NET *168 0.000348452
*CONN
*I *3091:B1 I *D sky130_fd_sc_hd__o21ai_4
*I *3090:Y O *D sky130_fd_sc_hd__a21oi_4
*CAP
1 *3091:B1 7.42278e-05
2 *3090:Y 7.42278e-05
3 *3091:B1 *3090:A2 1.78306e-05
4 *3091:B1 *3091:A2 0
5 *3091:B1 *449:105 9.52646e-05
6 *3091:B1 *539:32 8.69014e-05
*RES
1 *3090:Y *3091:B1 5.405 
*END

*D_NET *169 0.00347369
*CONN
*I *2783:A2 I *D sky130_fd_sc_hd__a31o_2
*I *3243:A I *D sky130_fd_sc_hd__buf_2
*I *3093:D1 I *D sky130_fd_sc_hd__o2111a_2
*I *3094:C1 I *D sky130_fd_sc_hd__o2111ai_4
*I *3091:Y O *D sky130_fd_sc_hd__o21ai_4
*CAP
1 *2783:A2 5.32077e-05
2 *3243:A 0.000219904
3 *3093:D1 2.84444e-05
4 *3094:C1 0.000164777
5 *3091:Y 0.000138029
6 *169:25 0.000248348
7 *169:12 0.00031097
8 *169:10 0.00033743
9 *3094:C1 *2784:A1 0
10 *169:10 *3042:A 0.00016979
11 *169:10 *3089:A2 1.47347e-05
12 *169:10 *449:88 1.79098e-05
13 *169:10 *449:105 0.000328076
14 *169:10 *539:12 5.07419e-05
15 *169:10 *539:32 3.64998e-06
16 *169:12 *2784:A1 0
17 *169:12 *2784:A2 4.70343e-05
18 *169:12 *3042:A 0.000204456
19 *169:12 *449:88 8.34348e-05
20 *2783:A1 *2783:A2 4.66108e-05
21 *2783:A3 *2783:A2 8.40213e-05
22 *2783:B1 *169:10 9.14049e-05
23 *2783:B1 *169:12 8.53113e-06
24 *3089:B1 *169:10 0.00015896
25 *3092:A1 *3094:C1 7.21296e-06
26 *3093:B1 *3243:A 0.000158066
27 *3093:C1 *3093:D1 3.64998e-06
28 *3093:C1 *3243:A 8.73389e-06
29 *3094:D1 *3094:C1 0.00020895
30 *3094:D1 *169:12 7.5416e-05
31 *161:27 *3243:A 7.68414e-06
32 *165:8 *169:12 6.65635e-05
33 *166:12 *3243:A 0.000126951
*RES
1 *3091:Y *169:10 8.61 
2 *169:10 *169:12 4.695 
3 *169:12 *3094:C1 6.54 
4 *169:12 *169:25 2 
5 *169:25 *3093:D1 2.05 
6 *169:25 *3243:A 5.89 
7 *169:10 *2783:A2 4.755 
*END

*D_NET *170 0.000567319
*CONN
*I *3009:A I *D sky130_fd_sc_hd__xor2_2
*I *3092:X O *D sky130_fd_sc_hd__o21a_2
*CAP
1 *3009:A 0.000236027
2 *3092:X 0.000236027
3 *3086:B *3009:A 4.47209e-05
4 *163:16 *3009:A 5.05437e-05
*RES
1 *3092:X *3009:A 7.115 
*END

*D_NET *171 0.000294202
*CONN
*I *2784:A2 I *D sky130_fd_sc_hd__a21oi_4
*I *3093:X O *D sky130_fd_sc_hd__o2111a_2
*CAP
1 *2784:A2 6.66742e-05
2 *3093:X 6.66742e-05
3 *2784:A2 *2784:A1 6.55328e-05
4 *2784:A2 *467:19 4.82863e-05
5 *169:12 *2784:A2 4.70343e-05
*RES
1 *3093:X *2784:A2 9.03 
*END

*D_NET *172 0.000254755
*CONN
*I *3095:A I *D sky130_fd_sc_hd__nor2_4
*I *3094:Y O *D sky130_fd_sc_hd__o2111ai_4
*CAP
1 *3095:A 0.000127378
2 *3094:Y 0.000127378
*RES
1 *3094:Y *3095:A 5.03 
*END

*D_NET *173 0.00434002
*CONN
*I *3225:A I *D sky130_fd_sc_hd__buf_2
*I *2780:D I *D sky130_fd_sc_hd__nand4_4
*I *2781:B I *D sky130_fd_sc_hd__nand3_4
*I *2790:C I *D sky130_fd_sc_hd__nand3_4
*I *3095:Y O *D sky130_fd_sc_hd__nor2_4
*CAP
1 *3225:A 8.32624e-05
2 *2780:D 2.18567e-05
3 *2781:B 0.000182129
4 *2790:C 0.00114778
5 *3095:Y 0.00107222
6 *173:36 0.000448199
7 *173:28 0.000403035
8 *2780:D *2790:A 4.80285e-05
9 *2780:D *2790:B 8.49205e-05
10 *2781:B *2781:C 0
11 *2781:B *3010:C 3.09164e-05
12 *2781:B *241:8 0.000205376
13 *2790:C *2784:B1 2.42236e-05
14 *2790:C *244:12 0.000162318
15 *2790:C *467:10 0.000144882
16 *2790:C *475:40 0
17 *3225:A *2935:A 0
18 *3225:A *3010:C 0
19 *173:28 *2935:A 0
20 *173:28 *3010:C 0
21 *173:36 *2790:B 0.000198939
22 *173:36 *3010:C 4.9968e-05
23 *173:36 *241:8 2.34423e-05
24 *2791:B1 *3225:A 8.53113e-06
*RES
1 *3095:Y *2790:C 25.26 
2 *2790:C *173:28 4.665 
3 *173:28 *173:36 7.48 
4 *173:36 *2781:B 7.785 
5 *173:36 *2780:D 4.395 
6 *173:28 *3225:A 4.98 
*END

*D_NET *174 0.000473193
*CONN
*I *3099:B I *D sky130_fd_sc_hd__nand3b_4
*I *3096:Y O *D sky130_fd_sc_hd__nand2b_4
*CAP
1 *3099:B 0.000107189
2 *3096:Y 0.000107189
3 *3099:B *3099:C 0.000138627
4 *3099:B *3100:B1 4.40899e-05
5 *3099:B *532:8 0
6 *3135:A *3099:B 7.60965e-05
7 *3171:A *3099:B 0
*RES
1 *3096:Y *3099:B 10.08 
*END

*D_NET *175 0.00170425
*CONN
*I *3099:C I *D sky130_fd_sc_hd__nand3b_4
*I *3097:Y O *D sky130_fd_sc_hd__nand2_2
*CAP
1 *3099:C 0.000530467
2 *3097:Y 0.000530467
3 *3099:C *532:8 0.000352161
4 S[7] *3099:C 9.54469e-05
5 *3099:B *3099:C 0.000138627
6 *3135:A *3099:C 5.70835e-05
7 *3137:A *3099:C 0
*RES
1 *3097:Y *3099:C 16.635 
*END

*D_NET *176 0.0043445
*CONN
*I *2777:A1 I *D sky130_fd_sc_hd__o21ai_2
*I *2730:A1 I *D sky130_fd_sc_hd__o2111ai_4
*I *2720:A1 I *D sky130_fd_sc_hd__o21ai_2
*I *3098:X O *D sky130_fd_sc_hd__and2_2
*CAP
1 *2777:A1 0.000145137
2 *2730:A1 0
3 *2720:A1 0.000765754
4 *3098:X 0.000483789
5 *176:27 0.00017711
6 *176:10 0.00128152
7 *2720:A1 *2720:B1 0.000136877
8 *2720:A1 *2730:B1 0.000495107
9 *2720:A1 *2777:B1 2.11084e-05
10 *2720:A1 *3215:A 0
11 *2777:A1 *2777:A2 0
12 *2777:A1 *3182:A 9.50342e-06
13 *176:10 *3097:B 4.60584e-05
14 *176:10 *3100:A2 4.19797e-05
15 *176:10 *3182:A 0.000137578
16 *176:10 *178:16 0
17 *176:10 *178:30 0
18 *176:10 *475:10 5.39718e-05
19 *176:10 *568:19 0.000124895
20 *176:10 *568:34 0.000347029
21 *176:27 *2777:A2 0
22 *176:27 *3182:A 7.70828e-05
23 *176:27 *178:30 0
*RES
1 *3098:X *176:10 11.445 
2 *176:10 *2720:A1 17.62 
3 *176:10 *176:27 0.87 
4 *176:27 *2730:A1 3.6 
5 *176:27 *2777:A1 5.94 
*END

*D_NET *177 0.00520076
*CONN
*I *2776:C I *D sky130_fd_sc_hd__nand4_2
*I *2778:B1 I *D sky130_fd_sc_hd__a2bb2oi_2
*I *3000:A1_N I *D sky130_fd_sc_hd__o2bb2a_4
*I *2730:D1 I *D sky130_fd_sc_hd__o2111ai_4
*I *2720:B1 I *D sky130_fd_sc_hd__o21ai_2
*I *3099:Y O *D sky130_fd_sc_hd__nand3b_4
*CAP
1 *2776:C 0.000128857
2 *2778:B1 0.000217051
3 *3000:A1_N 2.08101e-05
4 *2730:D1 2.08101e-05
5 *2720:B1 0.000294701
6 *3099:Y 0.000537403
7 *177:44 0.000293716
8 *177:40 0.000295397
9 *177:14 0.000351892
10 *177:10 0.000684469
11 *2720:B1 *2730:B1 0.000275553
12 *2720:B1 *2730:C1 4.65607e-05
13 *2720:B1 *2998:B1 8.53113e-06
14 *2720:B1 *2999:A 1.71013e-05
15 *2720:B1 *3214:A 8.39764e-05
16 *2720:B1 *3215:A 0
17 *2720:B1 *190:10 7.60965e-05
18 *2730:D1 *2730:B1 0
19 *2776:C *2776:D 0.000109016
20 *2776:C *2779:A 4.66742e-05
21 *2776:C *190:21 0.00011686
22 *2778:B1 *2778:B2 0.000161529
23 *2778:B1 *3000:A2_N 0.000160635
24 *2778:B1 *237:10 0
25 *177:10 *2719:A2 0
26 *177:10 *2730:C1 2.23485e-05
27 *177:10 *2776:D 0.00011379
28 *177:10 *3214:A 0
29 *177:10 *178:16 0
30 *177:10 *178:30 0
31 *177:10 *464:10 0
32 *177:14 *2730:B1 0.000108098
33 *177:14 *190:10 6.58339e-05
34 *177:40 *2776:D 0.000398253
35 *177:40 *2777:B1 0
36 *177:40 *178:30 0
37 *177:40 *190:10 0.000340587
38 *177:40 *190:21 2.07184e-05
39 *177:44 *3000:B1 4.66108e-05
40 *2720:A1 *2720:B1 0.000136877
41 *3171:A *177:10 0
*RES
1 *3099:Y *177:10 11.745 
2 *177:10 *177:14 3.14 
3 *177:14 *2720:B1 12.275 
4 *177:14 *2730:D1 1.96 
5 *177:10 *177:40 4.695 
6 *177:40 *177:44 2.795 
7 *177:44 *3000:A1_N 1.96 
8 *177:44 *2778:B1 9.425 
9 *177:40 *2776:C 6.48 
*END

*D_NET *178 0.00240558
*CONN
*I *2777:A2 I *D sky130_fd_sc_hd__o21ai_2
*I *2730:A2 I *D sky130_fd_sc_hd__o2111ai_4
*I *2719:B1 I *D sky130_fd_sc_hd__a21o_2
*I *2720:A2 I *D sky130_fd_sc_hd__o21ai_2
*I *3100:Y O *D sky130_fd_sc_hd__o21ai_2
*CAP
1 *2777:A2 0.000123032
2 *2730:A2 0
3 *2719:B1 0
4 *2720:A2 7.67186e-05
5 *3100:Y 0.000160834
6 *178:30 0.000248263
7 *178:16 0.000289061
8 *178:8 0.000498407
9 *2720:A2 *2719:A1 4.60584e-05
10 *2720:A2 *2730:C1 0.000238919
11 *2777:A2 *2777:B1 5.4239e-05
12 *2777:A2 *190:10 0
13 *178:8 *464:23 0.000102005
14 *178:16 *2719:A1 0.000352156
15 *178:16 *2730:C1 2.30292e-05
16 *178:16 *3113:A 6.05513e-05
17 *178:16 *464:23 0.0001249
18 *178:16 *475:10 4.43871e-06
19 *178:30 *2777:B1 2.97004e-06
20 *2777:A1 *2777:A2 0
21 *176:10 *178:16 0
22 *176:10 *178:30 0
23 *176:27 *2777:A2 0
24 *176:27 *178:30 0
25 *177:10 *178:16 0
26 *177:10 *178:30 0
27 *177:40 *178:30 0
*RES
1 *3100:Y *178:8 6.12 
2 *178:8 *178:16 7.475 
3 *178:16 *2720:A2 3.775 
4 *178:16 *2719:B1 1.6 
5 *178:8 *178:30 1.89 
6 *178:30 *2730:A2 3.6 
7 *178:30 *2777:A2 5.94 
*END

*D_NET *179 0.00136048
*CONN
*I *2776:D I *D sky130_fd_sc_hd__nand4_2
*I *2719:X O *D sky130_fd_sc_hd__a21o_2
*CAP
1 *2776:D 0.000295285
2 *2719:X 0.000295285
3 *2776:D *2730:C1 0.000136182
4 *2776:D *2776:B 0
5 *2776:D *3214:A 0
6 *2776:D *190:21 1.26626e-05
7 *2776:C *2776:D 0.000109016
8 *177:10 *2776:D 0.00011379
9 *177:40 *2776:D 0.000398253
*RES
1 *2719:X *2776:D 14.7 
*END

*D_NET *180 0.00043706
*CONN
*I *2999:A I *D sky130_fd_sc_hd__xnor2_2
*I *2720:Y O *D sky130_fd_sc_hd__o21ai_2
*CAP
1 *2999:A 0.000209979
2 *2720:Y 0.000209979
3 *2999:A *3214:A 0
4 *2999:A *3215:A 0
5 *2720:B1 *2999:A 1.71013e-05
*RES
1 *2720:Y *2999:A 10.32 
*END

*D_NET *181 0.00196182
*CONN
*I *2998:A1 I *D sky130_fd_sc_hd__a22oi_2
*I *2729:B2 I *D sky130_fd_sc_hd__a22oi_4
*I *2728:B I *D sky130_fd_sc_hd__nand3_2
*I *2721:Y O *D sky130_fd_sc_hd__nand2b_4
*CAP
1 *2998:A1 8.07312e-05
2 *2729:B2 5.35105e-05
3 *2728:B 6.245e-05
4 *2721:Y 3.77164e-05
5 *181:8 0.000115961
6 *181:6 0.000118448
7 *2728:B *2726:B1 0.000183043
8 *2728:B *531:21 0
9 *2729:B2 *2726:B1 0.000183043
10 *2729:B2 *2998:A2 0.000160658
11 *2729:B2 *187:10 8.53113e-06
12 *2729:B2 *531:21 0
13 *2998:A1 *2722:A_N 0.000289659
14 *2998:A1 *2722:B 4.01778e-05
15 *2998:A1 *2998:A2 0.000158066
16 *181:6 *2722:A_N 0.000239807
17 *181:6 *2722:B 2.7441e-05
18 *181:6 *2998:A2 4.82863e-05
19 *181:6 *3023:A 7.60965e-05
20 *2728:A *2728:B 7.81954e-05
*RES
1 *2721:Y *181:6 3.775 
2 *181:6 *181:8 2 
3 *181:8 *2728:B 5.745 
4 *181:8 *2729:B2 5.745 
5 *181:6 *2998:A1 4.48 
*END

*D_NET *182 0.00144673
*CONN
*I *2728:C I *D sky130_fd_sc_hd__nand3_2
*I *2722:Y O *D sky130_fd_sc_hd__nand2b_2
*CAP
1 *2728:C 0.000397677
2 *2722:Y 0.000397677
3 *2728:C *2722:A_N 0.000212252
4 *2728:C *2730:B1 0.000164874
5 *2728:C *2998:B1 2.0514e-05
6 *2728:C *2999:B 4.66108e-05
7 *2728:C *456:19 2.04147e-05
8 *2728:C *521:14 3.86529e-05
9 *2728:C *560:14 0.000138551
10 *3128:A *2728:C 9.50342e-06
*RES
1 *2722:Y *2728:C 13.425 
*END

*D_NET *183 0.000432221
*CONN
*I *2729:A1 I *D sky130_fd_sc_hd__a22oi_4
*I *2723:Y O *D sky130_fd_sc_hd__nand2_2
*CAP
1 *2729:A1 0.000156909
2 *2723:Y 0.000156909
3 *2729:A1 *2780:C 2.8185e-05
4 *2729:A1 *457:101 9.02174e-05
*RES
1 *2723:Y *2729:A1 5.735 
*END

*D_NET *184 0.000709161
*CONN
*I *2729:A2 I *D sky130_fd_sc_hd__a22oi_4
*I *2724:X O *D sky130_fd_sc_hd__o21a_2
*CAP
1 *2729:A2 0.000198901
2 *2724:X 0.000198901
3 *2729:A2 *2724:B1 4.60584e-05
4 *2729:A2 *2727:A1 7.23602e-05
5 *2729:A2 *2750:A 7.23533e-05
6 *2729:A2 *531:40 9.8515e-05
7 *2729:A2 *567:70 2.20732e-05
*RES
1 *2724:X *2729:A2 10.665 
*END

*D_NET *185 0.00235852
*CONN
*I *2726:B1 I *D sky130_fd_sc_hd__o21ai_4
*I *2725:Y O *D sky130_fd_sc_hd__a21boi_2
*CAP
1 *2726:B1 0.000378869
2 *2725:Y 0.000378869
3 *2726:B1 *2734:B1 0.000120655
4 *2726:B1 *2752:B 0
5 *2726:B1 *187:10 9.7907e-05
6 *2726:B1 *456:6 7.00889e-06
7 *2726:B1 *456:19 3.00381e-05
8 *2726:B1 *456:25 0.000137578
9 *2726:B1 *456:38 3.09233e-05
10 *2726:B1 *560:14 0.000810588
11 *2728:B *2726:B1 0.000183043
12 *2729:B2 *2726:B1 0.000183043
13 *3134:A *2726:B1 0
*RES
1 *2725:Y *2726:B1 18.33 
*END

*D_NET *186 0.00356089
*CONN
*I *2777:B1 I *D sky130_fd_sc_hd__o21ai_2
*I *2998:B2 I *D sky130_fd_sc_hd__a22oi_2
*I *2730:B1 I *D sky130_fd_sc_hd__o2111ai_4
*I *2726:Y O *D sky130_fd_sc_hd__o21ai_4
*CAP
1 *2777:B1 0.000100819
2 *2998:B2 0
3 *2730:B1 0.000340001
4 *2726:Y 0.000419626
5 *186:12 0.000658808
6 *2730:B1 *2998:B1 0.000278117
7 *2730:B1 *3215:A 5.33085e-05
8 *2730:B1 *190:10 1.47347e-05
9 *2777:B1 *190:10 0
10 *186:12 *2734:B1 2.11084e-05
11 *186:12 *2998:B1 0
12 *186:12 *3215:A 0.000104287
13 *186:12 *194:10 2.8585e-06
14 *186:12 *435:8 0
15 *186:12 *435:10 0
16 *186:12 *457:101 0.000312771
17 *186:12 *565:16 0.000132498
18 *2720:A1 *2730:B1 0.000495107
19 *2720:A1 *2777:B1 2.11084e-05
20 *2720:B1 *2730:B1 0.000275553
21 *2728:C *2730:B1 0.000164874
22 *2730:D1 *2730:B1 0
23 *2777:A2 *2777:B1 5.4239e-05
24 *177:14 *2730:B1 0.000108098
25 *177:40 *2777:B1 0
26 *178:30 *2777:B1 2.97004e-06
*RES
1 *2726:Y *186:12 11.25 
2 *186:12 *2730:B1 11.835 
3 *186:12 *2998:B2 3.6 
4 *2730:B1 *2777:B1 9.285 
*END

*D_NET *187 0.00190565
*CONN
*I *2729:B1 I *D sky130_fd_sc_hd__a22oi_4
*I *2998:A2 I *D sky130_fd_sc_hd__a22oi_2
*I *2727:Y O *D sky130_fd_sc_hd__a21oi_2
*CAP
1 *2729:B1 3.64111e-05
2 *2998:A2 0.000130827
3 *2727:Y 0.000145795
4 *187:10 0.000313032
5 *2729:B1 *457:101 8.65905e-05
6 *2998:A2 *2722:B 0.000155066
7 *2998:A2 *531:40 0
8 *187:10 *2722:B 5.43211e-05
9 *187:10 *2724:A2 4.35348e-05
10 *187:10 *2724:B1 0.000162311
11 *187:10 *2994:A1 6.52265e-05
12 *187:10 *456:25 8.53113e-06
13 *187:10 *531:40 4.99619e-05
14 *187:10 *567:70 0.000163199
15 *187:10 *567:72 1.7396e-05
16 *2726:B1 *187:10 9.7907e-05
17 *2729:B2 *2998:A2 0.000160658
18 *2729:B2 *187:10 8.53113e-06
19 *2998:A1 *2998:A2 0.000158066
20 *181:6 *2998:A2 4.82863e-05
*RES
1 *2727:Y *187:10 8.52 
2 *187:10 *2998:A2 7.32 
3 *187:10 *2729:B1 4.395 
*END

*D_NET *188 0.0023674
*CONN
*I *2730:C1 I *D sky130_fd_sc_hd__o2111ai_4
*I *2728:Y O *D sky130_fd_sc_hd__nand3_2
*CAP
1 *2730:C1 0.000415873
2 *2728:Y 0.000415873
3 *2730:C1 *3113:A 0.000983688
4 *2730:C1 *3214:A 0
5 *2720:A2 *2730:C1 0.000238919
6 *2720:B1 *2730:C1 4.65607e-05
7 *2776:D *2730:C1 0.000136182
8 *3128:A *2730:C1 8.49205e-05
9 *177:10 *2730:C1 2.23485e-05
10 *178:16 *2730:C1 2.30292e-05
*RES
1 *2728:Y *2730:C1 18.42 
*END

*D_NET *189 0.00216015
*CONN
*I *2776:A I *D sky130_fd_sc_hd__nand4_2
*I *2997:A I *D sky130_fd_sc_hd__xnor2_2
*I *2729:Y O *D sky130_fd_sc_hd__a22oi_4
*CAP
1 *2776:A 0.000177875
2 *2997:A 0
3 *2729:Y 0.000185441
4 *189:8 0.000363316
5 *2776:A *2780:C 6.27029e-05
6 *2776:A *2998:B1 1.71013e-05
7 *2776:A *3214:A 0.000202735
8 *2776:A *435:8 9.24127e-05
9 *2776:A *435:10 0.000103192
10 *189:8 *2780:C 0.000610025
11 *189:8 *457:101 0.000345353
*RES
1 *2729:Y *189:8 7.585 
2 *189:8 *2997:A 1.6 
3 *189:8 *2776:A 10.925 
*END

*D_NET *190 0.0033037
*CONN
*I *2747:B I *D sky130_fd_sc_hd__nor2_4
*I *2748:A I *D sky130_fd_sc_hd__or2_4
*I *3000:B1 I *D sky130_fd_sc_hd__o2bb2a_4
*I *2730:Y O *D sky130_fd_sc_hd__o2111ai_4
*CAP
1 *2747:B 0.000215639
2 *2748:A 3.93314e-05
3 *3000:B1 7.90389e-05
4 *2730:Y 0.000289684
5 *190:21 0.000617979
6 *190:10 0.000731731
7 *2747:B *2747:A 4.82919e-05
8 *2747:B *2780:C 5.51245e-05
9 *2747:B *3253:A 0
10 *2747:B *249:21 4.82919e-05
11 *2747:B *434:10 0
12 *2748:A *449:40 5.05521e-05
13 *190:10 *2780:C 6.52906e-05
14 *190:21 *2776:B 0
15 *190:21 *2780:C 0.000227725
16 *190:21 *3002:B1 0.000140912
17 *190:21 *3214:A 0
18 *190:21 *434:10 0
19 *2720:B1 *190:10 7.60965e-05
20 *2730:B1 *190:10 1.47347e-05
21 *2776:C *190:21 0.00011686
22 *2776:D *190:21 1.26626e-05
23 *2777:A2 *190:10 0
24 *2777:B1 *190:10 0
25 *177:14 *190:10 6.58339e-05
26 *177:40 *190:10 0.000340587
27 *177:40 *190:21 2.07184e-05
28 *177:44 *3000:B1 4.66108e-05
*RES
1 *2730:Y *190:10 10.05 
2 *190:10 *3000:B1 4.74 
3 *190:10 *190:21 8.265 
4 *190:21 *2748:A 4.395 
5 *190:21 *2747:B 7.53 
*END

*D_NET *191 0.00108349
*CONN
*I *2738:A1 I *D sky130_fd_sc_hd__o21a_2
*I *2996:A1 I *D sky130_fd_sc_hd__o22a_4
*I *2731:X O *D sky130_fd_sc_hd__and2_2
*CAP
1 *2738:A1 0
2 *2996:A1 0.000138603
3 *2731:X 2.71232e-05
4 *191:6 0.000165726
5 *2996:A1 *2733:A_N 0
6 *2996:A1 *2738:A2 0.000121876
7 *2996:A1 *2996:B1 1.19928e-05
8 *2996:A1 *192:10 0.000116165
9 *2996:A1 *193:12 5.83121e-06
10 *2996:A1 *521:14 0.000335177
11 *2996:A1 *565:42 4.66108e-05
12 *191:6 *235:10 3.03684e-05
13 *191:6 *249:10 8.40213e-05
*RES
1 *2731:X *191:6 2.395 
2 *191:6 *2996:A1 10.34 
3 *191:6 *2738:A1 1.6 
*END

*D_NET *192 0.00152344
*CONN
*I *2737:B I *D sky130_fd_sc_hd__nand3b_2
*I *2736:B I *D sky130_fd_sc_hd__and3b_2
*I *2732:Y O *D sky130_fd_sc_hd__nand2_2
*CAP
1 *2737:B 3.06929e-05
2 *2736:B 0.000219093
3 *2732:Y 9.28537e-05
4 *192:10 0.00034264
5 *2736:B *2735:B1 0
6 *2736:B *2736:C 2.4269e-05
7 *2736:B *2737:A_N 0.000245263
8 *2737:B *2735:B1 3.64998e-06
9 *192:10 *2738:A2 0.000129047
10 *192:10 *193:12 0.000136877
11 *192:10 *194:29 0.000162325
12 *192:10 *521:14 2.05661e-05
13 *2996:A1 *192:10 0.000116165
*RES
1 *2732:Y *192:10 9.02 
2 *192:10 *2736:B 5.44 
3 *192:10 *2737:B 2.05 
*END

*D_NET *193 0.00131466
*CONN
*I *2736:C I *D sky130_fd_sc_hd__and3b_2
*I *2737:C I *D sky130_fd_sc_hd__nand3b_2
*I *2733:Y O *D sky130_fd_sc_hd__nand2b_2
*CAP
1 *2736:C 0.00017295
2 *2737:C 0
3 *2733:Y 0.000164673
4 *193:12 0.000337622
5 *2736:C *2737:A_N 0.000125211
6 *193:12 *2733:B 5.83121e-06
7 *193:12 *2996:B1 0.000153816
8 *193:12 *521:14 0.000136877
9 *193:12 *565:42 5.0704e-05
10 *2736:B *2736:C 2.4269e-05
11 *2996:A1 *193:12 5.83121e-06
12 *192:10 *193:12 0.000136877
*RES
1 *2733:Y *193:12 9.41 
2 *193:12 *2737:C 1.6 
3 *193:12 *2736:C 4.3075 
*END

*D_NET *194 0.00261212
*CONN
*I *2738:A2 I *D sky130_fd_sc_hd__o21a_2
*I *2996:A2 I *D sky130_fd_sc_hd__o22a_4
*I *2735:B1 I *D sky130_fd_sc_hd__a21oi_2
*I *2734:Y O *D sky130_fd_sc_hd__o21ai_2
*CAP
1 *2738:A2 0.000117913
2 *2996:A2 1.93533e-05
3 *2735:B1 0.000318317
4 *2734:Y 7.39363e-05
5 *194:29 0.000216192
6 *194:10 0.00047118
7 *2735:B1 *2735:A1 8.71465e-05
8 *2735:B1 *2746:C 5.34552e-05
9 *2735:B1 *195:6 4.82863e-05
10 *2738:A2 *2738:B1 0.000356597
11 *2738:A2 *235:10 1.83756e-05
12 *2738:A2 *249:10 4.82863e-05
13 *2996:A2 *2996:B1 2.49909e-05
14 *2996:A2 *565:42 2.49909e-05
15 *194:10 *2734:B1 7.00889e-06
16 *194:10 *2735:A1 3.67779e-05
17 *194:10 *521:14 2.87867e-05
18 *194:10 *565:16 2.65814e-06
19 *194:29 *2735:A1 1.15688e-05
20 *194:29 *2738:B1 0.000206123
21 *194:29 *521:14 2.04147e-05
22 *2736:B *2735:B1 0
23 *2737:B *2735:B1 3.64998e-06
24 *2996:A1 *2738:A2 0.000121876
25 *186:12 *194:10 2.8585e-06
26 *192:10 *2738:A2 0.000129047
27 *192:10 *194:29 0.000162325
*RES
1 *2734:Y *194:10 4.92 
2 *194:10 *2735:B1 8.43 
3 *194:10 *194:29 2.655 
4 *194:29 *2996:A2 4.05 
5 *194:29 *2738:A2 8.235 
*END

*D_NET *195 0.00132684
*CONN
*I *2746:A_N I *D sky130_fd_sc_hd__nand4b_4
*I *2776:B I *D sky130_fd_sc_hd__nand4_2
*I *2735:Y O *D sky130_fd_sc_hd__a21oi_2
*CAP
1 *2746:A_N 0.000102263
2 *2776:B 0.000101934
3 *2735:Y 0.000101174
4 *195:6 0.00030537
5 *2746:A_N *2746:C 0.000275553
6 *2776:B *3214:A 0.000119277
7 *195:6 *2746:C 0.000272984
8 *2735:B1 *195:6 4.82863e-05
9 *2776:D *2776:B 0
10 *190:21 *2776:B 0
*RES
1 *2735:Y *195:6 4.12 
2 *195:6 *2776:B 8 
3 *195:6 *2746:A_N 4.12 
*END

*D_NET *196 0.00119613
*CONN
*I *2996:B1 I *D sky130_fd_sc_hd__o22a_4
*I *2736:X O *D sky130_fd_sc_hd__and3b_2
*CAP
1 *2996:B1 0.000392262
2 *2736:X 0.000392262
3 *2996:B1 *456:38 6.47594e-05
4 *2996:B1 *560:14 0.000116158
5 *2996:B1 *565:40 2.20732e-05
6 *2996:B1 *565:42 1.78166e-05
7 *2996:A1 *2996:B1 1.19928e-05
8 *2996:A2 *2996:B1 2.49909e-05
9 *193:12 *2996:B1 0.000153816
*RES
1 *2736:X *2996:B1 13.005 
*END

*D_NET *197 0.00339245
*CONN
*I *2746:C I *D sky130_fd_sc_hd__nand4b_4
*I *2738:B1 I *D sky130_fd_sc_hd__o21a_2
*I *2737:Y O *D sky130_fd_sc_hd__nand3b_2
*CAP
1 *2746:C 0.000670908
2 *2738:B1 0.000160065
3 *2737:Y 0.000830974
4 *2738:B1 *2732:B 0.000160665
5 *2738:B1 *2735:A1 5.56629e-05
6 *2738:B1 *457:101 0.000189326
7 *2746:C *2735:A1 0.000124007
8 *2746:C *2746:B 3.61308e-05
9 *2746:C *2746:D 0
10 *2735:B1 *2746:C 5.34552e-05
11 *2738:A2 *2738:B1 0.000356597
12 *2746:A_N *2746:C 0.000275553
13 *194:29 *2738:B1 0.000206123
14 *195:6 *2746:C 0.000272984
*RES
1 *2737:Y *2738:B1 13.68 
2 *2737:Y *2746:C 14.36 
*END

*D_NET *198 0.00035782
*CONN
*I *2995:A I *D sky130_fd_sc_hd__xnor2_2
*I *2738:X O *D sky130_fd_sc_hd__o21a_2
*CAP
1 *2995:A 9.63483e-05
2 *2738:X 9.63483e-05
3 *2995:A *2995:B 0
4 *2995:A *249:10 4.66108e-05
5 *2995:A *457:101 0.000118513
*RES
1 *2738:X *2995:A 9.03 
*END

*D_NET *199 0.00220571
*CONN
*I *2741:A2 I *D sky130_fd_sc_hd__o21bai_4
*I *2745:A1 I *D sky130_fd_sc_hd__o21ai_2
*I *2778:A2_N I *D sky130_fd_sc_hd__a2bb2oi_2
*I *2739:Y O *D sky130_fd_sc_hd__nor2_2
*CAP
1 *2741:A2 0.000203399
2 *2745:A1 3.94027e-05
3 *2778:A2_N 0.000188217
4 *2739:Y 0.000101974
5 *199:23 0.00033493
6 *199:6 0.000382318
7 *2741:A2 *2746:D 6.58423e-05
8 *2741:A2 *201:6 8.05167e-05
9 *2745:A1 *2745:B1 4.82919e-05
10 *2745:A1 *2746:B 4.66742e-05
11 *2745:A1 *2746:D 4.21889e-05
12 *2745:A1 *201:6 2.49909e-05
13 *2778:A2_N *3001:B 1.4389e-05
14 *2778:A2_N *3229:A 4.82919e-05
15 *199:6 *2739:A 2.75229e-05
16 *199:23 *3229:A 0.000245199
17 *199:23 *465:38 7.23602e-05
18 *199:23 *465:53 6.28498e-05
19 *199:23 *465:66 0.000152127
20 *199:23 *485:8 2.42236e-05
*RES
1 *2739:Y *199:6 2.74 
2 *199:6 *2778:A2_N 4.495 
3 *199:6 *199:23 7.42 
4 *199:23 *2745:A1 2.74 
5 *199:23 *2741:A2 5.17 
*END

*D_NET *200 0.000300916
*CONN
*I *2741:A1 I *D sky130_fd_sc_hd__o21bai_4
*I *2740:X O *D sky130_fd_sc_hd__and2_4
*CAP
1 *2741:A1 0.000126315
2 *2740:X 0.000126315
3 *2741:A1 *438:10 0
4 *2741:A1 *449:12 0
5 *2741:A1 *569:47 4.82863e-05
*RES
1 *2740:X *2741:A1 9.285 
*END

*D_NET *201 0.00239649
*CONN
*I *3229:A I *D sky130_fd_sc_hd__buf_2
*I *2746:B I *D sky130_fd_sc_hd__nand4b_4
*I *2741:Y O *D sky130_fd_sc_hd__o21bai_4
*CAP
1 *3229:A 0.000110681
2 *2746:B 0.000526615
3 *2741:Y 0.000148846
4 *201:6 0.000786142
5 *2746:B *2746:D 5.74656e-05
6 *3229:A *3001:A 1.73877e-05
7 *3229:A *465:27 4.43871e-06
8 *3229:A *465:38 1.79098e-05
9 *3229:A *485:8 0.000245199
10 *2741:A2 *201:6 8.05167e-05
11 *2745:A1 *2746:B 4.66742e-05
12 *2745:A1 *201:6 2.49909e-05
13 *2746:C *2746:B 3.61308e-05
14 *2778:A2_N *3229:A 4.82919e-05
15 *199:23 *3229:A 0.000245199
*RES
1 *2741:Y *201:6 3.43 
2 *201:6 *2746:B 8.095 
3 *201:6 *3229:A 9.47 
*END

*D_NET *202 0.00074704
*CONN
*I *2744:B1 I *D sky130_fd_sc_hd__o21ai_2
*I *2742:Y O *D sky130_fd_sc_hd__a21boi_2
*CAP
1 *2744:B1 0.00014364
2 *2742:Y 0.00014364
3 *2744:B1 *2741:B1_N 8.71079e-05
4 *2744:B1 *2743:A2 8.65961e-05
5 *2744:B1 *2746:D 0.000118527
6 *2744:B1 *449:12 0.000162419
7 *2744:B1 *465:66 5.11148e-06
*RES
1 *2742:Y *2744:B1 11.415 
*END

*D_NET *203 0.00069084
*CONN
*I *2745:A2 I *D sky130_fd_sc_hd__o21ai_2
*I *2778:A1_N I *D sky130_fd_sc_hd__a2bb2oi_2
*I *2743:X O *D sky130_fd_sc_hd__a21bo_2
*CAP
1 *2745:A2 0.000170072
2 *2778:A1_N 8.56218e-05
3 *2743:X 0.000255693
4 *2745:A2 *2743:B1_N 2.70892e-05
5 *2745:A2 *3001:A 9.30787e-05
6 *2745:A2 *485:8 2.03321e-05
7 *2778:A1_N *2779:B 3.89528e-05
8 *2778:A1_N *3001:A 0
*RES
1 *2743:X *2778:A1_N 8.835 
2 *2743:X *2745:A2 9.975 
*END

*D_NET *204 0.000993642
*CONN
*I *2746:D I *D sky130_fd_sc_hd__nand4b_4
*I *2744:Y O *D sky130_fd_sc_hd__o21ai_2
*CAP
1 *2746:D 0.000297893
2 *2744:Y 0.000297893
3 *2746:D *2745:B1 4.82919e-05
4 *2746:D *465:66 6.55406e-05
5 *2741:A2 *2746:D 6.58423e-05
6 *2744:B1 *2746:D 0.000118527
7 *2745:A1 *2746:D 4.21889e-05
8 *2746:B *2746:D 5.74656e-05
9 *2746:C *2746:D 0
*RES
1 *2744:Y *2746:D 12.84 
*END

*D_NET *205 0.0009167
*CONN
*I *3001:A I *D sky130_fd_sc_hd__xor2_2
*I *2745:Y O *D sky130_fd_sc_hd__o21ai_2
*CAP
1 *3001:A 0.000269763
2 *2745:Y 0.000269763
3 *3001:A *2779:B 0
4 *3001:A *3001:B 0.000118513
5 *3001:A *465:27 0
6 *3001:A *485:8 0.000148194
7 *2745:A2 *3001:A 9.30787e-05
8 *2778:A1_N *3001:A 0
9 *3229:A *3001:A 1.73877e-05
*RES
1 *2745:Y *3001:A 12.915 
*END

*D_NET *206 0.00136594
*CONN
*I *2747:A I *D sky130_fd_sc_hd__nor2_4
*I *2748:B I *D sky130_fd_sc_hd__or2_4
*I *2746:Y O *D sky130_fd_sc_hd__nand4b_4
*CAP
1 *2747:A 0.000184901
2 *2748:B 0
3 *2746:Y 0.000136733
4 *206:8 0.000321634
5 *2747:A *2780:C 0.000133763
6 *2747:A *2781:A 4.18603e-06
7 *2747:A *241:8 0
8 *206:8 *2780:C 0.000383003
9 *206:8 *2781:A 7.16268e-05
10 *206:8 *239:8 8.18011e-05
11 *2747:B *2747:A 4.82919e-05
*RES
1 *2746:Y *206:8 8.04 
2 *206:8 *2748:B 3.6 
3 *206:8 *2747:A 7.08 
*END

*D_NET *207 0.00174649
*CONN
*I *3224:A I *D sky130_fd_sc_hd__buf_2
*I *2790:B I *D sky130_fd_sc_hd__nand3_4
*I *2780:B I *D sky130_fd_sc_hd__nand4_4
*I *2747:Y O *D sky130_fd_sc_hd__nor2_4
*CAP
1 *3224:A 9.81247e-05
2 *2790:B 0.000234292
3 *2780:B 7.31346e-05
4 *2747:Y 9.81723e-05
5 *207:10 0.000307427
6 *207:8 0.000196297
7 *2780:B *2790:A 3.03684e-05
8 *2790:B *2790:A 0.000124191
9 *3224:A *2791:A3 0.000103385
10 *3224:A *240:8 0
11 *207:8 *2780:C 0.000187071
12 *207:8 *2791:A3 1.01661e-05
13 *207:8 *240:8 0
14 *207:8 *241:8 0
15 *2780:D *2790:B 8.49205e-05
16 *173:36 *2790:B 0.000198939
*RES
1 *2747:Y *207:8 6 
2 *207:8 *207:10 2 
3 *207:10 *2780:B 2.755 
4 *207:10 *2790:B 6.55 
5 *207:8 *3224:A 5.685 
*END

*D_NET *208 0.000465578
*CONN
*I *3002:B1 I *D sky130_fd_sc_hd__o2bb2ai_4
*I *2748:X O *D sky130_fd_sc_hd__or2_4
*CAP
1 *3002:B1 8.17126e-05
2 *2748:X 8.17126e-05
3 *3002:B1 *2780:C 7.63204e-05
4 *3002:B1 *3002:B2 8.49205e-05
5 *190:21 *3002:B1 0.000140912
*RES
1 *2748:X *3002:B1 9.63 
*END

*D_NET *209 0.00072487
*CONN
*I *2755:B I *D sky130_fd_sc_hd__nand3b_4
*I *2749:Y O *D sky130_fd_sc_hd__nand2b_4
*CAP
1 *2755:B 0.000206401
2 *2749:Y 0.000206401
3 *2755:B *473:12 0.000166812
4 *2755:B *549:12 1.07797e-05
5 *2755:B *549:16 0.000118294
6 *3117:A *2755:B 1.61831e-05
*RES
1 *2749:Y *2755:B 11.355 
*END

*D_NET *210 0.00116922
*CONN
*I *2755:C I *D sky130_fd_sc_hd__nand3b_4
*I *2750:Y O *D sky130_fd_sc_hd__nand2_4
*CAP
1 *2755:C 0.000189115
2 *2750:Y 0.000189115
3 *2755:C *2753:B 0.000162311
4 *2755:C *212:10 5.68717e-05
5 *2755:C *454:23 0.000120655
6 *2755:C *531:8 0.00013106
7 *2755:C *567:18 5.53249e-06
8 *2755:C *567:31 0.00010844
9 *3132:A *2755:C 0.000206123
*RES
1 *2750:Y *2755:C 13.155 
*END

*D_NET *211 0.000383074
*CONN
*I *2753:A I *D sky130_fd_sc_hd__nand2_2
*I *2751:Y O *D sky130_fd_sc_hd__nand2_2
*CAP
1 *2753:A 6.06225e-05
2 *2751:Y 6.06225e-05
3 *2753:A *2753:B 0.000140905
4 *2753:A *213:6 4.82919e-05
5 *2753:A *457:61 1.83847e-05
6 *2753:A *529:10 5.42473e-05
*RES
1 *2751:Y *2753:A 9.285 
*END

*D_NET *212 0.00436268
*CONN
*I *2786:A1 I *D sky130_fd_sc_hd__o22ai_2
*I *2754:A I *D sky130_fd_sc_hd__nor2_2
*I *2756:A1 I *D sky130_fd_sc_hd__o21ai_4
*I *2752:Y O *D sky130_fd_sc_hd__nor2_2
*CAP
1 *2786:A1 0.00013438
2 *2754:A 5.64868e-05
3 *2756:A1 2.9775e-05
4 *2752:Y 0.000269024
5 *212:21 0.000320417
6 *212:10 0.000428349
7 *2754:A *2754:B 5.4155e-06
8 *2754:A *2988:B1 4.66108e-05
9 *2754:A *213:6 4.21973e-05
10 *2754:A *213:10 2.49909e-05
11 *2754:A *457:61 4.21973e-05
12 *2756:A1 *223:14 0.000122325
13 *2786:A1 *2787:A1 1.53179e-05
14 *2786:A1 *2989:A1 0.000112123
15 *2786:A1 *3259:A 4.99619e-05
16 *2786:A1 *215:29 1.23244e-05
17 *2786:A1 *522:10 7.30547e-05
18 *2786:A1 *564:10 3.3075e-05
19 *212:10 *2751:B 7.30547e-05
20 *212:10 *2752:A 4.21973e-05
21 *212:10 *2752:B 2.75229e-05
22 *212:10 *2753:B 0.000198939
23 *212:10 *3113:A 0.000939369
24 *212:10 *454:23 0.000454239
25 *212:10 *522:10 8.53113e-06
26 *212:10 *549:12 9.14049e-05
27 *212:10 *564:10 5.64143e-05
28 *212:21 *2751:B 0.00010596
29 *212:21 *215:29 8.18749e-05
30 *212:21 *522:10 0.000328774
31 *2755:C *212:10 5.68717e-05
32 *3134:A *212:10 9.80032e-06
33 *3152:A *2756:A1 6.97034e-05
*RES
1 *2752:Y *212:10 14.22 
2 *212:10 *2756:A1 4.74 
3 *212:10 *212:21 3.93 
4 *212:21 *2754:A 5.1 
5 *212:21 *2786:A1 6.75 
*END

*D_NET *213 0.00244857
*CONN
*I *2754:B I *D sky130_fd_sc_hd__nor2_2
*I *2786:A2 I *D sky130_fd_sc_hd__o22ai_2
*I *2756:A2 I *D sky130_fd_sc_hd__o21ai_4
*I *2753:Y O *D sky130_fd_sc_hd__nand2_2
*CAP
1 *2754:B 1.88809e-05
2 *2786:A2 4.18632e-05
3 *2756:A2 0.000184789
4 *2753:Y 7.37543e-05
5 *213:10 0.000281931
6 *213:6 0.000147914
7 *2756:A2 *2751:B 3.99039e-05
8 *2756:A2 *2787:A2 3.05373e-05
9 *2756:A2 *2988:B1 0.00013521
10 *2756:A2 *2988:C1 1.01661e-05
11 *2756:A2 *3210:A 0
12 *2756:A2 *215:23 0
13 *2756:A2 *215:29 0.000268285
14 *2756:A2 *220:12 1.1561e-05
15 *2756:A2 *223:14 0.000124895
16 *2786:A2 *2787:A1 2.30797e-05
17 *2786:A2 *2787:A2 7.26551e-05
18 *2786:A2 *215:29 0.000116158
19 *213:6 *2994:A1 0.000301306
20 *213:6 *457:61 5.18105e-05
21 *213:6 *522:14 1.08758e-05
22 *213:10 *2988:B1 9.80032e-06
23 *213:10 *2989:A1 8.49205e-05
24 *213:10 *2989:A2 1.91597e-05
25 *213:10 *522:14 0.000192125
26 *2753:A *213:6 4.82919e-05
27 *2754:A *2754:B 5.4155e-06
28 *2754:A *213:6 4.21973e-05
29 *2754:A *213:10 2.49909e-05
30 *3152:A *2756:A2 7.60965e-05
*RES
1 *2753:Y *213:6 4.465 
2 *213:6 *213:10 3.83 
3 *213:10 *2756:A2 9.18 
4 *213:10 *2786:A2 5.235 
5 *213:6 *2754:B 1.96 
*END

*D_NET *214 0.00100061
*CONN
*I *2988:B1 I *D sky130_fd_sc_hd__a211o_4
*I *2754:Y O *D sky130_fd_sc_hd__nor2_2
*CAP
1 *2988:B1 0.000119236
2 *2754:Y 0.000119236
3 *2988:B1 *2988:A1 3.66286e-05
4 *2988:B1 *2988:C1 2.42236e-05
5 *2988:B1 *2989:A1 2.30292e-05
6 *2988:B1 *2989:A2 0.000119762
7 *2988:B1 *215:23 3.00381e-05
8 *2988:B1 *220:6 1.16578e-05
9 *2988:B1 *220:12 9.47454e-05
10 *2988:B1 *457:61 0.000230429
11 *2754:A *2988:B1 4.66108e-05
12 *2756:A2 *2988:B1 0.00013521
13 *213:10 *2988:B1 9.80032e-06
*RES
1 *2754:Y *2988:B1 11.46 
*END

*D_NET *215 0.00295587
*CONN
*I *3258:A I *D sky130_fd_sc_hd__buf_2
*I *2787:A1 I *D sky130_fd_sc_hd__a21oi_2
*I *3259:A I *D sky130_fd_sc_hd__buf_2
*I *2756:B1 I *D sky130_fd_sc_hd__o21ai_4
*I *2755:Y O *D sky130_fd_sc_hd__nand3b_4
*CAP
1 *3258:A 6.36831e-05
2 *2787:A1 0.000134468
3 *3259:A 8.92567e-05
4 *2756:B1 2.24916e-05
5 *2755:Y 0.00010995
6 *215:29 0.000423264
7 *215:23 0.000499823
8 *215:8 0.000369042
9 *2756:B1 *223:14 0.000124895
10 *2787:A1 *2772:A2 0
11 *2787:A1 *2787:A2 0.000118688
12 *2787:A1 *2789:B2 2.75145e-05
13 *3258:A *2751:B 6.03436e-05
14 *3258:A *2988:A1 7.65539e-06
15 *3258:A *2988:A2 5.05437e-05
16 *3259:A *2786:B2 0
17 *3259:A *2989:A1 4.66108e-05
18 *215:8 *2751:B 0
19 *215:8 *3210:A 0
20 *215:8 *549:12 0
21 *215:23 *2988:A1 2.54431e-05
22 *215:23 *3210:A 0
23 *215:23 *220:6 4.58257e-05
24 *215:23 *223:14 0
25 *215:29 *2751:B 5.53249e-06
26 *215:29 *2989:A1 6.02202e-05
27 *2756:A2 *215:23 0
28 *2756:A2 *215:29 0.000268285
29 *2786:A1 *2787:A1 1.53179e-05
30 *2786:A1 *3259:A 4.99619e-05
31 *2786:A1 *215:29 1.23244e-05
32 *2786:A2 *2787:A1 2.30797e-05
33 *2786:A2 *215:29 0.000116158
34 *2988:B1 *215:23 3.00381e-05
35 *3152:A *2756:B1 7.35729e-05
36 *212:21 *215:29 8.18749e-05
*RES
1 *2755:Y *215:8 5.235 
2 *215:8 *2756:B1 4.74 
3 *215:8 *215:23 5.81 
4 *215:23 *215:29 6.8 
5 *215:29 *3259:A 5.1 
6 *215:29 *2787:A1 6.705 
7 *215:23 *3258:A 3.1 
*END

*D_NET *216 0.000849772
*CONN
*I *2763:A I *D sky130_fd_sc_hd__nor2_4
*I *3257:A I *D sky130_fd_sc_hd__buf_6
*I *2756:Y O *D sky130_fd_sc_hd__o21ai_4
*CAP
1 *2763:A 6.42429e-05
2 *3257:A 0.000164271
3 *2756:Y 0
4 *216:6 0.000228514
5 *2763:A *2763:B 0
6 *2763:A *3210:A 0.000140905
7 *3257:A *2763:B 0
8 *3257:A *3113:A 2.49909e-05
9 *3257:A *3199:A 0
10 *3257:A *3210:A 0.000226848
*RES
1 *2756:Y *216:6 3.6 
2 *216:6 *3257:A 6.705 
3 *216:6 *2763:A 5.235 
*END

*D_NET *217 0.000296853
*CONN
*I *2761:A1 I *D sky130_fd_sc_hd__o21bai_2
*I *2757:X O *D sky130_fd_sc_hd__and2_4
*CAP
1 *2761:A1 0.000115429
2 *2757:X 0.000115429
3 *2761:A1 *2761:A2 5.18317e-06
4 *2761:A1 *3101:A 0
5 *2761:A1 *457:10 1.77595e-05
6 *2761:A1 *572:35 4.30524e-05
*RES
1 *2757:X *2761:A1 9.285 
*END

*D_NET *218 0.0013328
*CONN
*I *2761:A2 I *D sky130_fd_sc_hd__o21bai_2
*I *2758:Y O *D sky130_fd_sc_hd__nor2_2
*CAP
1 *2761:A2 0.000329033
2 *2758:Y 0.000329033
3 *2761:A2 *2758:B 0.000504864
4 *2761:A2 *572:10 8.53113e-06
5 *2761:A2 *572:35 0.000156155
6 *2761:A1 *2761:A2 5.18317e-06
*RES
1 *2758:Y *2761:A2 14.025 
*END

*D_NET *219 0.00107046
*CONN
*I *2760:B1 I *D sky130_fd_sc_hd__a21oi_2
*I *2762:A2 I *D sky130_fd_sc_hd__o211ai_2
*I *2759:Y O *D sky130_fd_sc_hd__o21ai_2
*CAP
1 *2760:B1 1.5088e-05
2 *2762:A2 0.000135767
3 *2759:Y 5.11229e-05
4 *219:8 0.000201978
5 *2760:B1 *2760:A2 8.65961e-05
6 *2760:B1 *457:61 4.82919e-05
7 *2760:B1 *572:60 2.30292e-05
8 *2762:A2 *2759:A2 9.50342e-06
9 *2762:A2 *2759:B1 9.76678e-05
10 *2762:A2 *2762:A1 8.8266e-05
11 *2762:A2 *2762:B1 8.65961e-05
12 *2762:A2 *450:30 4.43871e-06
13 *219:8 *2759:A2 0.00012904
14 *219:8 *457:61 9.30787e-05
15 *219:8 *572:60 0
*RES
1 *2759:Y *219:8 5.235 
2 *219:8 *2762:A2 6.54 
3 *219:8 *2760:B1 4.395 
*END

*D_NET *220 0.00331975
*CONN
*I *2988:A1 I *D sky130_fd_sc_hd__a211o_4
*I *2787:A2 I *D sky130_fd_sc_hd__a21oi_2
*I *2989:A2 I *D sky130_fd_sc_hd__a211o_4
*I *2760:Y O *D sky130_fd_sc_hd__a21oi_2
*CAP
1 *2988:A1 0.000108175
2 *2787:A2 0.000250866
3 *2989:A2 4.76249e-05
4 *2760:Y 0.000437896
5 *220:12 0.000356397
6 *220:6 0.000603976
7 *2787:A2 *2787:B1 9.24127e-05
8 *2787:A2 *2789:B2 1.47347e-05
9 *2787:A2 *2988:C1 2.30797e-05
10 *2787:A2 *2989:B1 9.76522e-05
11 *2988:A1 *2988:A2 0
12 *2989:A2 *2989:A1 4.82919e-05
13 *2989:A2 *457:61 1.91597e-05
14 *2989:A2 *522:14 2.8185e-05
15 *220:6 *2760:A2 0.000170065
16 *220:6 *2990:B 0.000200615
17 *220:6 *223:14 5.85154e-05
18 *220:6 *572:60 4.99619e-05
19 *220:12 *2988:C1 0.000117825
20 *2756:A2 *2787:A2 3.05373e-05
21 *2756:A2 *220:12 1.1561e-05
22 *2786:A2 *2787:A2 7.26551e-05
23 *2787:A1 *2787:A2 0.000118688
24 *2988:B1 *2988:A1 3.66286e-05
25 *2988:B1 *2989:A2 0.000119762
26 *2988:B1 *220:6 1.16578e-05
27 *2988:B1 *220:12 9.47454e-05
28 *3258:A *2988:A1 7.65539e-06
29 *213:10 *2989:A2 1.91597e-05
30 *215:23 *2988:A1 2.54431e-05
31 *215:23 *220:6 4.58257e-05
*RES
1 *2760:Y *220:6 9.64 
2 *220:6 *220:12 3.74 
3 *220:12 *2989:A2 5.085 
4 *220:12 *2787:A2 9.27 
5 *220:6 *2988:A1 3.355 
*END

*D_NET *221 0.00020059
*CONN
*I *2762:C1 I *D sky130_fd_sc_hd__o211ai_2
*I *2761:Y O *D sky130_fd_sc_hd__o21bai_2
*CAP
1 *2762:C1 5.44074e-05
2 *2761:Y 5.44074e-05
3 *2762:C1 *2761:B1_N 4.77719e-05
4 *2762:C1 *452:8 4.40028e-05
*RES
1 *2761:Y *2762:C1 4.34 
*END

*D_NET *222 0.000801284
*CONN
*I *2763:B I *D sky130_fd_sc_hd__nor2_4
*I *2762:Y O *D sky130_fd_sc_hd__o211ai_2
*CAP
1 *2763:B 0.000304285
2 *2762:Y 0.000304285
3 *2763:B *2762:A1 8.8266e-05
4 *2763:B *2762:B1 1.61831e-05
5 *2763:B *453:10 0
6 *2763:B *549:8 8.8266e-05
7 *2763:A *2763:B 0
8 *3257:A *2763:B 0
*RES
1 *2762:Y *2763:B 12.465 
*END

*D_NET *223 0.00863457
*CONN
*I *2780:C I *D sky130_fd_sc_hd__nand4_4
*I *3256:A I *D sky130_fd_sc_hd__buf_6
*I *2763:Y O *D sky130_fd_sc_hd__nor2_4
*CAP
1 *2780:C 0.00167046
2 *3256:A 2.08101e-05
3 *2763:Y 0.000567462
4 *223:14 0.00225874
5 *2780:C *2723:B 2.75145e-05
6 *2780:C *2791:A3 3.05373e-05
7 *2780:C *3253:A 0
8 *2780:C *237:10 5.72004e-05
9 *2780:C *239:8 0
10 *2780:C *241:8 0
11 *2780:C *249:21 9.05377e-05
12 *2780:C *449:52 0.000569157
13 *2780:C *457:101 0.000506765
14 *2780:C *529:10 0.00018987
15 *2780:C *567:44 7.89767e-05
16 *2780:C *567:59 2.4997e-05
17 *223:14 *3210:A 9.5433e-05
18 *2729:A1 *2780:C 2.8185e-05
19 *2747:A *2780:C 0.000133763
20 *2747:B *2780:C 5.51245e-05
21 *2756:A1 *223:14 0.000122325
22 *2756:A2 *223:14 0.000124895
23 *2756:B1 *223:14 0.000124895
24 *2776:A *2780:C 6.27029e-05
25 *3002:B1 *2780:C 7.63204e-05
26 *3132:A *2780:C 4.82919e-05
27 *3152:A *2780:C 1.19928e-05
28 *3152:A *223:14 0.000125987
29 *189:8 *2780:C 0.000610025
30 *190:10 *2780:C 6.52906e-05
31 *190:21 *2780:C 0.000227725
32 *206:8 *2780:C 0.000383003
33 *207:8 *2780:C 0.000187071
34 *215:23 *223:14 0
35 *220:6 *223:14 5.85154e-05
*RES
1 *2763:Y *223:14 14.87 
2 *223:14 *3256:A 1.96 
3 *223:14 *2780:C 46.095 
*END

*D_NET *224 0.000803506
*CONN
*I *2766:A1 I *D sky130_fd_sc_hd__o21bai_4
*I *2764:Y O *D sky130_fd_sc_hd__nor2_2
*CAP
1 *2766:A1 0.00028173
2 *2764:Y 0.00028173
3 *2766:A1 *2993:A_N 3.68682e-05
4 *2766:A1 *2993:B 0
5 *2766:A1 *3213:A 0.000203178
*RES
1 *2764:Y *2766:A1 11.88 
*END

*D_NET *225 0.00374138
*CONN
*I *2775:A2 I *D sky130_fd_sc_hd__o2111a_2
*I *2766:A2 I *D sky130_fd_sc_hd__o21bai_4
*I *2786:B1 I *D sky130_fd_sc_hd__o22ai_2
*I *2768:A1 I *D sky130_fd_sc_hd__o21a_2
*I *2765:X O *D sky130_fd_sc_hd__and2_4
*CAP
1 *2775:A2 0.000205475
2 *2766:A2 2.08101e-05
3 *2786:B1 0.000407797
4 *2768:A1 0
5 *2765:X 0
6 *225:40 0.000407018
7 *225:10 0.000448338
8 *225:6 0.000221273
9 *2775:A2 *3255:A 0
10 *2775:A2 *226:6 0.000204018
11 *2775:A2 *226:15 0.000113809
12 *2775:A2 *516:10 0.000264672
13 *2786:B1 *2768:B1 0.000170818
14 *2786:B1 *2786:B2 0.000170571
15 *2786:B1 *431:10 0.000163019
16 *225:10 *227:10 0.000187766
17 *225:10 *453:36 0.000187759
18 *225:40 *2765:B 0.000112971
19 *225:40 *2775:A1 0.000137971
20 *225:40 *226:6 3.00381e-05
21 *225:40 *227:10 0.000210839
22 *225:40 *516:10 1.08758e-05
23 *225:40 *561:12 6.55406e-05
*RES
1 *2765:X *225:6 3.6 
2 *225:6 *225:10 4.145 
3 *225:10 *2768:A1 1.6 
4 *225:10 *2786:B1 13.595 
5 *225:6 *225:40 7.16 
6 *225:40 *2766:A2 1.96 
7 *225:40 *2775:A2 6.895 
*END

*D_NET *226 0.00179469
*CONN
*I *2775:B1 I *D sky130_fd_sc_hd__o2111a_2
*I *2788:A I *D sky130_fd_sc_hd__nand2_2
*I *3255:A I *D sky130_fd_sc_hd__buf_2
*I *2766:Y O *D sky130_fd_sc_hd__o21bai_4
*CAP
1 *2775:B1 0
2 *2788:A 0.000184977
3 *3255:A 2.08101e-05
4 *2766:Y 7.55829e-05
5 *226:15 0.000261007
6 *226:6 0.000172423
7 *2788:A *2993:A_N 0
8 *2788:A *233:21 6.23375e-05
9 *2788:A *234:10 0.000160641
10 *226:6 *2775:A1 0.000387891
11 *226:15 *2775:A1 0.000121153
12 *2775:A2 *3255:A 0
13 *2775:A2 *226:6 0.000204018
14 *2775:A2 *226:15 0.000113809
15 *225:40 *226:6 3.00381e-05
*RES
1 *2766:Y *226:6 5.155 
2 *226:6 *3255:A 1.96 
3 *226:6 *226:15 2.175 
4 *226:15 *2788:A 9.335 
5 *226:15 *2775:B1 1.6 
*END

*D_NET *227 0.00420834
*CONN
*I *2775:A1 I *D sky130_fd_sc_hd__o2111a_2
*I *2768:A2 I *D sky130_fd_sc_hd__o21a_2
*I *2786:B2 I *D sky130_fd_sc_hd__o22ai_2
*I *2767:Y O *D sky130_fd_sc_hd__o21ai_4
*CAP
1 *2775:A1 0.00035867
2 *2768:A2 3.28728e-05
3 *2786:B2 0.000642508
4 *2767:Y 3.99824e-05
5 *227:10 0.000806065
6 *227:8 0.000529336
7 *2768:A2 *2768:B1 8.49205e-05
8 *2768:A2 *2990:A 4.66108e-05
9 *2775:A1 *2993:B 0
10 *2775:A1 *516:10 3.68769e-05
11 *2775:A1 *561:12 3.04982e-05
12 *2786:B2 *2990:A 0.000141592
13 *2786:B2 *2990:B 0
14 *2786:B2 *246:8 1.83847e-05
15 *2786:B2 *431:10 0
16 *2786:B2 *453:36 3.76518e-05
17 *227:10 *2768:B1 8.47542e-05
18 *227:10 *453:36 1.79098e-05
19 *227:10 *516:10 8.08153e-06
20 *227:10 *516:12 7.5431e-05
21 *2786:B1 *2786:B2 0.000170571
22 *3259:A *2786:B2 0
23 *225:10 *227:10 0.000187766
24 *225:40 *2775:A1 0.000137971
25 *225:40 *227:10 0.000210839
26 *226:6 *2775:A1 0.000387891
27 *226:15 *2775:A1 0.000121153
*RES
1 *2767:Y *227:8 4.05 
2 *227:8 *227:10 4.95 
3 *227:10 *2786:B2 12.585 
4 *227:10 *2768:A2 4.395 
5 *227:8 *2775:A1 10.9913 
*END

*D_NET *228 0.000752622
*CONN
*I *2990:A I *D sky130_fd_sc_hd__xor2_2
*I *2768:X O *D sky130_fd_sc_hd__o21a_2
*CAP
1 *2990:A 0.000190315
2 *2768:X 0.000190315
3 *2990:A *2768:B1 4.21973e-05
4 *2990:A *453:36 0.000141592
5 *2768:A2 *2990:A 4.66108e-05
6 *2786:B2 *2990:A 0.000141592
*RES
1 *2768:X *2990:A 10.665 
*END

*D_NET *229 0.00223613
*CONN
*I *2789:A1 I *D sky130_fd_sc_hd__o22ai_4
*I *2774:A1 I *D sky130_fd_sc_hd__o21ai_2
*I *2773:A1 I *D sky130_fd_sc_hd__o21bai_4
*I *2769:X O *D sky130_fd_sc_hd__and2_4
*CAP
1 *2789:A1 4.63757e-05
2 *2774:A1 0.000167627
3 *2773:A1 5.57309e-05
4 *2769:X 0.000173472
5 *229:23 0.00030948
6 *229:10 0.000324681
7 *2773:A1 *2772:B1 1.56428e-05
8 *2774:A1 *2774:A2 0
9 *2774:A1 *2789:B1 0
10 *2774:A1 *235:10 0.000161529
11 *2789:A1 *235:10 8.40269e-05
12 *2789:A1 *249:10 2.7919e-05
13 *229:10 *2771:A2 0.000164686
14 *229:10 *2773:A2 9.3062e-06
15 *229:10 *2773:B1_N 9.86611e-05
16 *229:10 *231:10 9.37731e-05
17 *229:10 *231:25 6.68849e-05
18 *229:10 *455:70 3.76596e-05
19 *229:10 *455:81 1.1561e-05
20 *229:10 *529:10 8.68724e-05
21 *229:10 *564:29 9.10587e-05
22 *229:23 *2774:A2 4.44927e-05
23 *229:23 *2789:B2 0
24 *229:23 *231:25 0.000164686
*RES
1 *2769:X *229:10 9 
2 *229:10 *2773:A1 4.395 
3 *229:10 *229:23 4.4 
4 *229:23 *2774:A1 8.72 
5 *229:23 *2789:A1 2.755 
*END

*D_NET *230 0.00120307
*CONN
*I *2773:A2 I *D sky130_fd_sc_hd__o21bai_4
*I *2770:Y O *D sky130_fd_sc_hd__nor2_2
*CAP
1 *2773:A2 0.000179752
2 *2770:Y 0.000179752
3 *2773:A2 *2772:A2 0
4 *2773:A2 *2773:B1_N 0.00017354
5 *2773:A2 *2789:B2 0.000314452
6 *2773:A2 *529:10 0.000346268
7 *229:10 *2773:A2 9.3062e-06
*RES
1 *2770:Y *2773:A2 13.425 
*END

*D_NET *231 0.00301993
*CONN
*I *2789:A2 I *D sky130_fd_sc_hd__o22ai_4
*I *2774:A2 I *D sky130_fd_sc_hd__o21ai_2
*I *2772:B1 I *D sky130_fd_sc_hd__a21o_2
*I *2771:Y O *D sky130_fd_sc_hd__o21ai_4
*CAP
1 *2789:A2 5.64466e-05
2 *2774:A2 0.000331391
3 *2772:B1 0.000511907
4 *2771:Y 8.08762e-05
5 *231:25 0.000502891
6 *231:10 0.000707837
7 *2772:B1 *2773:B1_N 0.000179973
8 *2772:B1 *2775:D1 4.99619e-05
9 *2772:B1 *233:10 0.000164874
10 *231:10 *2772:A1 4.82919e-05
11 *2773:A1 *2772:B1 1.56428e-05
12 *2774:A1 *2774:A2 0
13 *229:10 *231:10 9.37731e-05
14 *229:10 *231:25 6.68849e-05
15 *229:23 *2774:A2 4.44927e-05
16 *229:23 *231:25 0.000164686
*RES
1 *2771:Y *231:10 5.175 
2 *231:10 *2772:B1 10.545 
3 *231:10 *231:25 2.655 
4 *231:25 *2774:A2 8.52 
5 *231:25 *2789:A2 4.395 
*END

*D_NET *232 0.000583512
*CONN
*I *2775:D1 I *D sky130_fd_sc_hd__o2111a_2
*I *2772:X O *D sky130_fd_sc_hd__a21o_2
*CAP
1 *2775:D1 0.000185491
2 *2772:X 0.000185491
3 *2775:D1 *2775:C1 2.49909e-05
4 *2775:D1 *233:10 9.37731e-05
5 *2775:D1 *233:21 4.38051e-05
6 *2775:D1 *234:10 0
7 *2772:B1 *2775:D1 4.99619e-05
*RES
1 *2772:X *2775:D1 10.425 
*END

*D_NET *233 0.00143383
*CONN
*I *3254:A I *D sky130_fd_sc_hd__buf_2
*I *2788:B I *D sky130_fd_sc_hd__nand2_2
*I *2775:C1 I *D sky130_fd_sc_hd__o2111a_2
*I *2773:Y O *D sky130_fd_sc_hd__o21bai_4
*CAP
1 *3254:A 0.000110344
2 *2788:B 0
3 *2775:C1 3.98087e-05
4 *2773:Y 0.000151693
5 *233:21 0.000240919
6 *233:10 0.000322077
7 *3254:A *2774:B1 0
8 *233:10 *2772:A1 1.03423e-05
9 *233:10 *2772:A2 1.61831e-05
10 *233:10 *2773:B1_N 8.8266e-05
11 *233:10 *2991:B1 0
12 *233:21 *2789:B1 6.44134e-05
13 *233:21 *2789:B2 0
14 *233:21 *2993:A_N 0
15 *233:21 *234:10 0
16 *2772:B1 *233:10 0.000164874
17 *2775:D1 *2775:C1 2.49909e-05
18 *2775:D1 *233:10 9.37731e-05
19 *2775:D1 *233:21 4.38051e-05
20 *2788:A *233:21 6.23375e-05
*RES
1 *2773:Y *233:10 6.975 
2 *233:10 *2775:C1 4.05 
3 *233:10 *233:21 2.91 
4 *233:21 *2788:B 3.6 
5 *233:21 *3254:A 5.49 
*END

*D_NET *234 0.00248845
*CONN
*I *2992:B I *D sky130_fd_sc_hd__nand3_2
*I *2991:B1 I *D sky130_fd_sc_hd__a21oi_2
*I *2774:Y O *D sky130_fd_sc_hd__o21ai_2
*CAP
1 *2992:B 0.000179829
2 *2991:B1 0.00018027
3 *2774:Y 0.000508277
4 *234:10 0.000868377
5 *2991:B1 *2993:A_N 0.000259921
6 *2992:B *2992:C 4.82919e-05
7 *234:10 *2993:A_N 0.000282848
8 *2775:D1 *234:10 0
9 *2788:A *234:10 0.000160641
10 *233:10 *2991:B1 0
11 *233:21 *234:10 0
*RES
1 *2774:Y *234:10 11.955 
2 *234:10 *2991:B1 7.485 
3 *234:10 *2992:B 6.135 
*END

*D_NET *235 0.00419898
*CONN
*I *2780:A I *D sky130_fd_sc_hd__nand4_4
*I *2994:A2 I *D sky130_fd_sc_hd__a21oi_4
*I *2775:X O *D sky130_fd_sc_hd__o2111a_2
*CAP
1 *2780:A 0.000310978
2 *2994:A2 0
3 *2775:X 0.00125731
4 *235:10 0.00156829
5 *2780:A *2995:B 0
6 *2780:A *3253:A 0.000161529
7 *2780:A *249:10 8.69098e-05
8 *2780:A *457:101 0
9 *235:10 *2789:B1 0.000142669
10 *235:10 *249:10 0.00037699
11 *2738:A2 *235:10 1.83756e-05
12 *2774:A1 *235:10 0.000161529
13 *2789:A1 *235:10 8.40269e-05
14 *191:6 *235:10 3.03684e-05
*RES
1 *2775:X *235:10 18.295 
2 *235:10 *2994:A2 1.6 
3 *235:10 *2780:A 11.06 
*END

*D_NET *236 0.000472477
*CONN
*I *2779:A I *D sky130_fd_sc_hd__nand2_2
*I *2776:Y O *D sky130_fd_sc_hd__nand4_2
*CAP
1 *2779:A 0.000212902
2 *2776:Y 0.000212902
3 *2776:C *2779:A 4.66742e-05
*RES
1 *2776:Y *2779:A 6.425 
*END

*D_NET *237 0.000889122
*CONN
*I *2778:B2 I *D sky130_fd_sc_hd__a2bb2oi_2
*I *3000:A2_N I *D sky130_fd_sc_hd__o2bb2a_4
*I *2777:Y O *D sky130_fd_sc_hd__o21ai_2
*CAP
1 *2778:B2 6.72493e-05
2 *3000:A2_N 6.69324e-05
3 *2777:Y 7.77769e-05
4 *237:10 0.000211959
5 *2778:B2 *3001:B 8.5841e-05
6 *2778:B1 *2778:B2 0.000161529
7 *2778:B1 *3000:A2_N 0.000160635
8 *2778:B1 *237:10 0
9 *2780:C *237:10 5.72004e-05
*RES
1 *2777:Y *237:10 7.235 
2 *237:10 *3000:A2_N 3.085 
3 *237:10 *2778:B2 3.775 
*END

*D_NET *238 0.00052427
*CONN
*I *2779:B I *D sky130_fd_sc_hd__nand2_2
*I *2778:Y O *D sky130_fd_sc_hd__a2bb2oi_2
*CAP
1 *2779:B 0.000242658
2 *2778:Y 0.000242658
3 *2778:A1_N *2779:B 3.89528e-05
4 *3001:A *2779:B 0
*RES
1 *2778:Y *2779:B 11.1 
*END

*D_NET *239 0.00182394
*CONN
*I *2781:A I *D sky130_fd_sc_hd__nand3_4
*I *3002:A2_N I *D sky130_fd_sc_hd__o2bb2ai_4
*I *2779:Y O *D sky130_fd_sc_hd__nand2_2
*CAP
1 *2781:A 9.53721e-05
2 *3002:A2_N 0.000187781
3 *2779:Y 0.00021528
4 *239:8 0.000498433
5 *2781:A *241:8 1.43521e-05
6 *3002:A2_N *2781:C 4.82919e-05
7 *3002:A2_N *3002:B2 4.82919e-05
8 *3002:A2_N *438:10 0.000507048
9 *3002:A2_N *485:27 5.14739e-05
10 *2747:A *2781:A 4.18603e-06
11 *2780:C *239:8 0
12 *206:8 *2781:A 7.16268e-05
13 *206:8 *239:8 8.18011e-05
*RES
1 *2779:Y *239:8 7.275 
2 *239:8 *3002:A2_N 8.895 
3 *239:8 *2781:A 5.745 
*END

*D_NET *240 0.00188366
*CONN
*I *3252:A I *D sky130_fd_sc_hd__buf_6
*I *2785:C I *D sky130_fd_sc_hd__nand3_4
*I *2780:Y O *D sky130_fd_sc_hd__nand4_4
*CAP
1 *3252:A 0.000170623
2 *2785:C 0
3 *2780:Y 0.000288107
4 *240:8 0.00045873
5 *3252:A *2939:A 0.000122331
6 *3252:A *3010:B 3.47757e-05
7 *3252:A *241:17 5.53249e-06
8 *3252:A *245:8 0.000296088
9 *3252:A *253:12 0.000148778
10 *240:8 *2791:A3 0
11 *240:8 *241:8 0.00021539
12 *240:8 *241:17 8.6099e-05
13 *240:8 *253:12 5.72091e-05
14 *3224:A *240:8 0
15 *207:8 *240:8 0
*RES
1 *2780:Y *240:8 9.825 
2 *240:8 *2785:C 3.6 
3 *240:8 *3252:A 8.925 
*END

*D_NET *241 0.0019961
*CONN
*I *3010:B I *D sky130_fd_sc_hd__nand4_4
*I *2785:B I *D sky130_fd_sc_hd__nand3_4
*I *2793:B I *D sky130_fd_sc_hd__nand4_2
*I *2781:Y O *D sky130_fd_sc_hd__nand3_4
*CAP
1 *3010:B 5.58596e-05
2 *2785:B 5.66328e-05
3 *2793:B 0
4 *2781:Y 0.000324882
5 *241:17 0.00016772
6 *241:8 0.00038011
7 *3010:B *3010:C 8.77073e-05
8 *3010:B *245:8 0.000143266
9 *241:8 *2781:C 0
10 *241:8 *3010:C 0.000127586
11 *241:17 *3010:C 6.73665e-05
12 *2747:A *241:8 0
13 *2780:C *241:8 0
14 *2781:A *241:8 1.43521e-05
15 *2781:B *241:8 0.000205376
16 *3252:A *3010:B 3.47757e-05
17 *3252:A *241:17 5.53249e-06
18 *173:36 *241:8 2.34423e-05
19 *207:8 *241:8 0
20 *240:8 *241:8 0.00021539
21 *240:8 *241:17 8.6099e-05
*RES
1 *2781:Y *241:8 12.12 
2 *241:8 *2793:B 3.6 
3 *241:8 *241:17 1.89 
4 *241:17 *2785:B 4.395 
5 *241:17 *3010:B 6 
*END

*D_NET *242 0.00206636
*CONN
*I *2784:A1 I *D sky130_fd_sc_hd__a21oi_4
*I *3006:B1 I *D sky130_fd_sc_hd__a21oi_4
*I *2782:Y O *D sky130_fd_sc_hd__o21ai_2
*CAP
1 *2784:A1 0.000525499
2 *3006:B1 0.000126731
3 *2782:Y 0.00021939
4 *242:10 0.00087162
5 *2784:A1 *467:19 8.65905e-05
6 *2784:A1 *475:40 0
7 *3006:B1 *440:8 7.00889e-06
8 *2784:A2 *2784:A1 6.55328e-05
9 *3006:A2 *2784:A1 0
10 *3006:A2 *242:10 0
11 *3079:B *242:10 0.000163992
12 *3092:A1 *2784:A1 0
13 *3092:A2 *2784:A1 0
14 *3094:C1 *2784:A1 0
15 *169:12 *2784:A1 0
*RES
1 *2782:Y *242:10 7.725 
2 *242:10 *3006:B1 5.43 
3 *242:10 *2784:A1 12.66 
*END

*D_NET *243 0.000770085
*CONN
*I *2784:B1 I *D sky130_fd_sc_hd__a21oi_4
*I *2783:X O *D sky130_fd_sc_hd__a31o_2
*CAP
1 *2784:B1 0.000270468
2 *2783:X 0.000270468
3 *2784:B1 *244:12 0.000117825
4 *2784:B1 *475:40 8.71001e-05
5 *2790:C *2784:B1 2.42236e-05
*RES
1 *2783:X *2784:B1 11.955 
*END

*D_NET *244 0.00350802
*CONN
*I *3231:A I *D sky130_fd_sc_hd__buf_2
*I *3010:D I *D sky130_fd_sc_hd__nand4_4
*I *2785:A I *D sky130_fd_sc_hd__nand3_4
*I *2784:Y O *D sky130_fd_sc_hd__a21oi_4
*CAP
1 *3231:A 0
2 *3010:D 9.65125e-05
3 *2785:A 2.52444e-05
4 *2784:Y 0.00108556
5 *244:14 0.000215261
6 *244:12 0.00117907
7 *2785:A *2793:D 2.75229e-05
8 *3010:D *2935:A 0
9 *244:12 *475:40 0.000177174
10 *244:12 *475:50 0.000141599
11 *244:14 *2793:D 6.90876e-05
12 *2784:B1 *244:12 0.000117825
13 *2790:C *244:12 0.000162318
14 *2791:B1 *3010:D 0.000210846
*RES
1 *2784:Y *244:12 25.19 
2 *244:12 *244:14 1.83 
3 *244:14 *2785:A 2.05 
4 *244:14 *3010:D 8 
5 *244:12 *3231:A 1.6 
*END

*D_NET *245 0.00381123
*CONN
*I *2890:B2 I *D sky130_fd_sc_hd__o221ai_2
*I *2794:B1 I *D sky130_fd_sc_hd__o22ai_4
*I *3230:A I *D sky130_fd_sc_hd__buf_4
*I *2785:Y O *D sky130_fd_sc_hd__nand3_4
*CAP
1 *2890:B2 3.23007e-05
2 *2794:B1 4.2318e-05
3 *3230:A 0.00013127
4 *2785:Y 0.000471013
5 *245:25 0.00024941
6 *245:8 0.000777074
7 *2794:B1 *2944:C1 1.26548e-05
8 *2794:B1 *2958:A2 0.000164686
9 *2794:B1 *342:10 0.000141606
10 *245:8 *2792:B 0
11 *245:8 *2793:C 0
12 *245:8 *2939:C_N 0.000160651
13 *245:8 *2949:B1 8.47542e-05
14 *245:8 *2958:A2 0.00011741
15 *245:8 *2958:B1_N 5.72573e-05
16 *245:8 *2960:A1 0
17 *245:8 *253:12 0
18 *245:8 *383:17 7.21296e-06
19 *245:8 *385:12 0.000141599
20 *245:8 *388:8 0.000136031
21 *245:8 *404:12 6.73751e-05
22 *245:8 *512:8 0
23 *245:8 *520:22 0.000179235
24 *245:25 *2944:C1 0.000187759
25 *245:25 *2958:A2 0.000194596
26 *245:25 *252:8 4.00541e-06
27 *245:25 *253:12 0
28 *245:25 *342:10 1.16578e-05
29 *2890:A2 *245:25 0
30 *3010:B *245:8 0.000143266
31 *3252:A *245:8 0.000296088
*RES
1 *2785:Y *245:8 17.475 
2 *245:8 *3230:A 5.43 
3 *245:8 *245:25 6.74 
4 *245:25 *2794:B1 7.49 
5 *245:25 *2890:B2 2.05 
*END

*D_NET *246 0.000726737
*CONN
*I *2787:B1 I *D sky130_fd_sc_hd__a21oi_2
*I *2989:B1 I *D sky130_fd_sc_hd__a211o_4
*I *2786:Y O *D sky130_fd_sc_hd__o22ai_2
*CAP
1 *2787:B1 8.10856e-05
2 *2989:B1 0.000109353
3 *2786:Y 5.24135e-05
4 *246:8 0.000242852
5 *2787:B1 *431:10 0
6 *2989:B1 *2988:C1 3.25831e-05
7 *2989:B1 *3210:A 0
8 *2989:B1 *431:10 0
9 *2786:B2 *246:8 1.83847e-05
10 *2787:A2 *2787:B1 9.24127e-05
11 *2787:A2 *2989:B1 9.76522e-05
*RES
1 *2786:Y *246:8 4.395 
2 *246:8 *2989:B1 6 
3 *246:8 *2787:B1 5.49 
*END

*D_NET *247 0.00172749
*CONN
*I *2789:B2 I *D sky130_fd_sc_hd__o22ai_4
*I *2787:Y O *D sky130_fd_sc_hd__a21oi_2
*CAP
1 *2789:B2 0.000571622
2 *2787:Y 0.000571622
3 *2789:B2 *2772:A1 0.000227543
4 *2789:B2 *2772:A2 0
5 *2773:A2 *2789:B2 0.000314452
6 *2787:A1 *2789:B2 2.75145e-05
7 *2787:A2 *2789:B2 1.47347e-05
8 *229:23 *2789:B2 0
9 *233:21 *2789:B2 0
*RES
1 *2787:Y *2789:B2 16.56 
*END

*D_NET *248 0.000581718
*CONN
*I *2789:B1 I *D sky130_fd_sc_hd__o22ai_4
*I *2788:Y O *D sky130_fd_sc_hd__nand2_2
*CAP
1 *2789:B1 0.000187318
2 *2788:Y 0.000187318
3 *2774:A1 *2789:B1 0
4 *233:21 *2789:B1 6.44134e-05
5 *235:10 *2789:B1 0.000142669
*RES
1 *2788:Y *2789:B1 11.265 
*END

*D_NET *249 0.0047237
*CONN
*I *2791:A3 I *D sky130_fd_sc_hd__a31oi_2
*I *2790:A I *D sky130_fd_sc_hd__nand3_4
*I *2994:B1 I *D sky130_fd_sc_hd__a21oi_4
*I *2789:Y O *D sky130_fd_sc_hd__o22ai_4
*CAP
1 *2791:A3 0.000246481
2 *2790:A 0.000316511
3 *2994:B1 0
4 *2789:Y 0.000883503
5 *249:21 0.000856089
6 *249:10 0.0011766
7 *2791:A3 *2791:A2 8.8266e-05
8 *2791:A3 *3253:A 0
9 *249:21 *3253:A 0
10 *2738:A2 *249:10 4.82863e-05
11 *2747:B *249:21 4.82919e-05
12 *2780:A *249:10 8.69098e-05
13 *2780:B *2790:A 3.03684e-05
14 *2780:C *2791:A3 3.05373e-05
15 *2780:C *249:21 9.05377e-05
16 *2780:D *2790:A 4.80285e-05
17 *2789:A1 *249:10 2.7919e-05
18 *2790:B *2790:A 0.000124191
19 *2995:A *249:10 4.66108e-05
20 *3224:A *2791:A3 0.000103385
21 *191:6 *249:10 8.40213e-05
22 *207:8 *2791:A3 1.01661e-05
23 *235:10 *249:10 0.00037699
24 *240:8 *2791:A3 0
*RES
1 *2789:Y *249:10 16.48 
2 *249:10 *2994:B1 1.6 
3 *249:10 *249:21 7.1 
4 *249:21 *2790:A 8.805 
5 *249:21 *2791:A3 8.43 
*END

*D_NET *250 0.00452027
*CONN
*I *2792:B I *D sky130_fd_sc_hd__nand2_4
*I *3010:C I *D sky130_fd_sc_hd__nand4_4
*I *2790:Y O *D sky130_fd_sc_hd__nand3_4
*CAP
1 *2792:B 0.000492781
2 *3010:C 0.000824662
3 *2790:Y 0.000331881
4 *2792:B *2793:C 1.22676e-05
5 *2792:B *2936:B 0.000164686
6 *2792:B *2938:B 3.47668e-05
7 *2792:B *2939:B 1.73877e-05
8 *2792:B *2944:B2 6.00081e-05
9 *2792:B *2958:A2 0
10 *2792:B *2960:A1 0.000118504
11 *2792:B *2960:A2 5.12942e-05
12 *2792:B *383:17 0
13 *2792:B *404:12 0
14 *2792:B *512:8 4.7043e-05
15 *3010:C *2793:A 7.89689e-05
16 *3010:C *2793:C 0.000194588
17 *3010:C *2793:D 1.01661e-05
18 *3010:C *3010:A 4.82919e-05
19 *2781:B *3010:C 3.09164e-05
20 *2791:B1 *2792:B 0.00122771
21 *2791:B1 *3010:C 0
22 *2794:A1 *2792:B 9.50342e-06
23 *3010:B *3010:C 8.77073e-05
24 *3225:A *3010:C 0
25 *133:14 *2792:B 0.000200648
26 *140:22 *2792:B 0.000231571
27 *173:28 *3010:C 0
28 *173:36 *3010:C 4.9968e-05
29 *241:8 *3010:C 0.000127586
30 *241:17 *3010:C 6.73665e-05
31 *245:8 *2792:B 0
*RES
1 *2790:Y *3010:C 16.17 
2 *3010:C *2792:B 24.075 
*END

*D_NET *251 0.000714656
*CONN
*I *2793:A I *D sky130_fd_sc_hd__nand4_2
*I *2791:Y O *D sky130_fd_sc_hd__a31oi_2
*CAP
1 *2793:A 0.000285562
2 *2791:Y 0.000285562
3 *2793:A *2793:C 2.75145e-05
4 *2793:A *253:12 3.70488e-05
5 *2791:B1 *2793:A 0
6 *3010:C *2793:A 7.89689e-05
*RES
1 *2791:Y *2793:A 12.06 
*END

*D_NET *252 0.00136761
*CONN
*I *2794:B2 I *D sky130_fd_sc_hd__o22ai_4
*I *2890:B1 I *D sky130_fd_sc_hd__o221ai_2
*I *2944:B1 I *D sky130_fd_sc_hd__o221ai_4
*I *2792:Y O *D sky130_fd_sc_hd__nand2_4
*CAP
1 *2794:B2 6.88681e-05
2 *2890:B1 6.88681e-05
3 *2944:B1 9.75008e-05
4 *2792:Y 0.000196355
5 *252:8 0.000293855
6 *2794:B2 *2890:C1 0.000166346
7 *2794:B2 *2944:C1 0.000185411
8 *2794:B2 *253:12 1.34361e-05
9 *2794:B2 *342:10 2.49909e-05
10 *2944:B1 *2944:B2 0
11 *2944:B1 *2958:A2 0.000189426
12 *2890:A2 *252:8 5.85443e-05
13 *140:22 *2944:B1 0
14 *245:25 *252:8 4.00541e-06
*RES
1 *2792:Y *252:8 4.48 
2 *252:8 *2944:B1 7.745 
3 *252:8 *2890:B1 1.6 
4 *2890:B1 *2794:B2 9.795 
*END

*D_NET *253 0.00675694
*CONN
*I *2948:A2 I *D sky130_fd_sc_hd__a31oi_2
*I *2814:A2 I *D sky130_fd_sc_hd__a31oi_2
*I *2817:D I *D sky130_fd_sc_hd__nand4b_2
*I *2793:Y O *D sky130_fd_sc_hd__nand4_2
*CAP
1 *2948:A2 0.000116794
2 *2814:A2 0
3 *2817:D 0.000138072
4 *2793:Y 0.00108283
5 *253:16 0.00104008
6 *253:12 0.00210163
7 *2948:A2 *2890:C1 0.000183738
8 *2948:A2 *2948:A3 4.82919e-05
9 *2948:A2 *393:10 0
10 *253:12 *2793:C 0
11 *253:12 *2890:C1 0.000344601
12 *253:12 *2944:C1 7.24866e-05
13 *253:12 *2947:B 2.68721e-05
14 *253:12 *2949:B1 0.000200648
15 *253:12 *2951:B 0
16 *253:12 *385:12 5.42473e-05
17 *253:12 *387:14 0.000177715
18 *253:12 *388:8 0.000339191
19 *253:12 *392:10 0.000105841
20 *253:12 *393:10 0
21 *253:12 *397:12 0.000294414
22 *253:16 *2814:A3 2.75229e-05
23 *2793:A *253:12 3.70488e-05
24 *2794:B2 *253:12 1.34361e-05
25 *2814:A1 *2817:D 6.14689e-05
26 *3252:A *253:12 0.000148778
27 *141:24 *2948:A2 8.40269e-05
28 *240:8 *253:12 5.72091e-05
29 *245:8 *253:12 0
30 *245:25 *253:12 0
*RES
1 *2793:Y *253:12 29.175 
2 *253:12 *253:16 15.56 
3 *253:16 *2817:D 7.745 
4 *253:16 *2814:A2 1.6 
5 *253:12 *2948:A2 6.54 
*END

*D_NET *254 0.00920497
*CONN
*I *3227:A I *D sky130_fd_sc_hd__buf_2
*I *3249:A I *D sky130_fd_sc_hd__buf_2
*I *3228:A I *D sky130_fd_sc_hd__buf_2
*I *2840:B1 I *D sky130_fd_sc_hd__o22ai_4
*I *2794:Y O *D sky130_fd_sc_hd__o22ai_4
*CAP
1 *3227:A 0
2 *3249:A 8.91244e-05
3 *3228:A 0
4 *2840:B1 0.00250916
5 *2794:Y 0.000470738
6 *254:41 0.000739382
7 *254:12 0.00232964
8 *2840:B1 *2820:A 5.30673e-05
9 *2840:B1 *2821:A 1.37328e-05
10 *2840:B1 *2823:A2 4.58257e-05
11 *2840:B1 *2889:A 2.75229e-05
12 *2840:B1 *2889:B 2.75229e-05
13 *2840:B1 *277:10 4.7662e-05
14 *2840:B1 *277:21 0.00043555
15 *2840:B1 *280:10 0.000467074
16 *2840:B1 *341:8 0.00016569
17 *3249:A *2795:B 2.66148e-05
18 *254:12 *2900:A1 3.45588e-05
19 *254:12 *2946:A2 0
20 *254:12 *2948:B1 0.000285211
21 *254:12 *2958:A2 0.000321522
22 *254:12 *342:10 0.000299227
23 *254:12 *609:12 0
24 *254:41 *2837:A2 2.10034e-05
25 *254:41 *2850:A1 8.5108e-05
26 *254:41 *2850:A2 0.00012657
27 *254:41 *2850:B1 4.99619e-05
28 *254:41 *2850:C1 0.000238919
29 *254:41 *2852:B 9.27255e-06
30 *254:41 *277:21 6.27529e-05
31 *254:41 *296:8 0.000222561
32 *2794:A1 *254:12 0
33 *133:10 *254:12 0
*RES
1 *2794:Y *254:12 18.485 
2 *254:12 *2840:B1 26.755 
3 *254:12 *3228:A 1.6 
4 *2840:B1 *254:41 13.465 
5 *254:41 *3249:A 3.085 
6 *254:41 *3227:A 1.6 
*END

*D_NET *255 0.000356644
*CONN
*I *2799:A_N I *D sky130_fd_sc_hd__nand3b_4
*I *2800:A1 I *D sky130_fd_sc_hd__o21bai_4
*I *2796:Y O *D sky130_fd_sc_hd__nor2_4
*CAP
1 *2799:A_N 5.87157e-05
2 *2800:A1 6.06904e-05
3 *2796:Y 0.000119406
4 *2800:A1 *2796:A 0.000117832
5 *2800:A1 *2800:A2 0
*RES
1 *2796:Y *2800:A1 8.58 
2 *2796:Y *2799:A_N 3.995 
*END

*D_NET *256 0.000492267
*CONN
*I *2800:A2 I *D sky130_fd_sc_hd__o21bai_4
*I *2797:X O *D sky130_fd_sc_hd__and2_4
*CAP
1 *2800:A2 0.000246133
2 *2797:X 0.000246133
3 *2800:A2 *2796:A 0
4 *2800:A2 *2796:B 0
5 *2800:A2 *458:23 0
6 *2800:A1 *2800:A2 0
*RES
1 *2797:X *2800:A2 11.13 
*END

*D_NET *257 0.000467126
*CONN
*I *2799:B I *D sky130_fd_sc_hd__nand3b_4
*I *2798:Y O *D sky130_fd_sc_hd__nand2_2
*CAP
1 *2799:B 0.000102313
2 *2798:Y 0.000102313
3 *2799:B *458:23 5.92849e-05
4 *2799:B *547:6 1.33293e-05
5 *2799:B *599:10 0.000189886
*RES
1 *2798:Y *2799:B 9.63 
*END

*D_NET *258 0.00216378
*CONN
*I *2812:B I *D sky130_fd_sc_hd__nand2_2
*I *2811:C I *D sky130_fd_sc_hd__and4_2
*I *2801:A I *D sky130_fd_sc_hd__nand2_4
*I *2799:Y O *D sky130_fd_sc_hd__nand3b_4
*CAP
1 *2812:B 6.76715e-05
2 *2811:C 0
3 *2801:A 0
4 *2799:Y 0.000343535
5 *258:21 0.000299056
6 *258:8 0.000574919
7 *2812:B *2813:A 9.38846e-05
8 *258:8 *2800:B1_N 0.000162318
9 *258:8 *3196:A 0
10 *258:8 *259:10 0
11 *258:8 *458:23 0
12 *258:8 *599:10 3.25831e-05
13 *258:21 *2803:B 3.25831e-05
14 *258:21 *2834:B 1.1561e-05
15 *258:21 *3196:A 0
16 *258:21 *259:10 0
17 *258:21 *259:30 0
18 *258:21 *260:10 0.000107716
19 *2811:B *258:21 0.000232588
20 *2812:A *2812:B 0.000180363
21 *106:10 *258:21 2.50049e-05
*RES
1 *2799:Y *258:8 9.825 
2 *258:8 *2801:A 3.6 
3 *258:8 *258:21 7.175 
4 *258:21 *2811:C 1.6 
5 *258:21 *2812:B 3.79 
*END

*D_NET *259 0.00279508
*CONN
*I *2811:D I *D sky130_fd_sc_hd__and4_2
*I *2813:A I *D sky130_fd_sc_hd__and2_2
*I *2838:B2 I *D sky130_fd_sc_hd__a22oi_2
*I *2801:B I *D sky130_fd_sc_hd__nand2_4
*I *2800:Y O *D sky130_fd_sc_hd__o21bai_4
*CAP
1 *2811:D 0
2 *2813:A 0.000185951
3 *2838:B2 0.000194402
4 *2801:B 3.39387e-05
5 *2800:Y 0.000583765
6 *259:30 0.000332415
7 *259:12 0.000228341
8 *259:10 0.000730229
9 *2813:A *270:6 4.99619e-05
10 *2838:B2 *269:18 0.000129035
11 *259:10 *2800:B1_N 3.45588e-05
12 *259:10 *451:6 0.000127592
13 *259:30 *269:18 4.05358e-05
14 *2812:A *2813:A 3.04704e-05
15 *2812:B *2813:A 9.38846e-05
16 *258:8 *259:10 0
17 *258:21 *259:10 0
18 *258:21 *259:30 0
*RES
1 *2800:Y *259:10 11.61 
2 *259:10 *259:12 2 
3 *259:12 *2801:B 2.05 
4 *259:12 *2838:B2 5.155 
5 *259:10 *259:30 4.4 
6 *259:30 *2813:A 5.17 
7 *259:30 *2811:D 1.6 
*END

*D_NET *260 0.00298405
*CONN
*I *2834:B I *D sky130_fd_sc_hd__nor4_4
*I *2803:A I *D sky130_fd_sc_hd__xor2_2
*I *2801:Y O *D sky130_fd_sc_hd__nand2_4
*CAP
1 *2834:B 0.00101009
2 *2803:A 0
3 *2801:Y 0.000122827
4 *260:10 0.00113292
5 *2834:B *2803:B 3.18137e-05
6 *2834:B *2834:C 2.7919e-05
7 *2811:A *2834:B 5.64507e-05
8 *2811:A *260:10 5.18317e-06
9 *2834:D *2834:B 0.000256469
10 *105:38 *2834:B 9.10058e-05
11 *107:8 *2834:B 0.000130091
12 *258:21 *2834:B 1.1561e-05
13 *258:21 *260:10 0.000107716
*RES
1 *2801:Y *260:10 6.195 
2 *260:10 *2803:A 3.6 
3 *260:10 *2834:B 17.085 
*END

*D_NET *261 0.000670455
*CONN
*I *2803:B I *D sky130_fd_sc_hd__xor2_2
*I *2802:X O *D sky130_fd_sc_hd__a21bo_2
*CAP
1 *2803:B 0.000136095
2 *2802:X 0.000136095
3 *2802:B1_N *2803:B 0.000163019
4 *2811:A *2803:B 0
5 *2834:B *2803:B 3.18137e-05
6 *105:21 *2803:B 0
7 *106:10 *2803:B 5.39961e-05
8 *106:21 *2803:B 0.000116853
9 *258:21 *2803:B 3.25831e-05
*RES
1 *2802:X *2803:B 9.275 
*END

*D_NET *262 0.00107621
*CONN
*I *2807:A I *D sky130_fd_sc_hd__nor2_2
*I *2809:A1 I *D sky130_fd_sc_hd__o21bai_4
*I *2808:A_N I *D sky130_fd_sc_hd__nand3b_2
*I *2804:Y O *D sky130_fd_sc_hd__nor2_4
*CAP
1 *2807:A 0.00014158
2 *2809:A1 0
3 *2808:A_N 0
4 *2804:Y 9.62486e-05
5 *262:19 0.000244934
6 *262:10 0.000199602
7 *2807:A *2807:B 0
8 *2807:A *3260:A 9.50342e-06
9 *2807:A *263:10 0
10 *2807:A *451:10 0
11 *2807:A *461:23 0.00015997
12 *262:10 *2805:B 8.8266e-05
13 *262:10 *2808:B 7.63282e-05
14 *262:10 *572:60 5.42473e-05
15 *262:19 *2808:B 5.53249e-06
16 *262:19 *263:10 0
17 *262:19 *451:10 0
*RES
1 *2804:Y *262:10 6.03 
2 *262:10 *2808:A_N 3.6 
3 *262:10 *262:19 1.635 
4 *262:19 *2809:A1 3.6 
5 *262:19 *2807:A 6.255 
*END

*D_NET *263 0.00103019
*CONN
*I *2807:B I *D sky130_fd_sc_hd__nor2_2
*I *2809:A2 I *D sky130_fd_sc_hd__o21bai_4
*I *2805:X O *D sky130_fd_sc_hd__and2_4
*CAP
1 *2807:B 0.000136032
2 *2809:A2 0
3 *2805:X 0.000261812
4 *263:10 0.000397844
5 *2807:B *2839:A2 8.65905e-05
6 *2807:B *3260:A 8.65905e-05
7 *2807:B *267:8 0
8 *2807:B *267:21 4.12166e-06
9 *263:10 *2808:B 5.72004e-05
10 *263:10 *266:10 0
11 *263:10 *267:8 0
12 *2807:A *2807:B 0
13 *2807:A *263:10 0
14 *262:19 *263:10 0
*RES
1 *2805:X *263:10 7.98 
2 *263:10 *2809:A2 3.6 
3 *263:10 *2807:B 6.285 
*END

*D_NET *264 0.000666496
*CONN
*I *2808:B I *D sky130_fd_sc_hd__nand3b_2
*I *2806:Y O *D sky130_fd_sc_hd__nand2_2
*CAP
1 *2808:B 0.000193369
2 *2806:Y 0.000193369
3 *2808:B *2806:A 9.24049e-05
4 *2808:B *3248:A 4.82919e-05
5 *2808:B *572:60 0
6 *262:10 *2808:B 7.63282e-05
7 *262:19 *2808:B 5.53249e-06
8 *263:10 *2808:B 5.72004e-05
*RES
1 *2806:Y *2808:B 11.58 
*END

*D_NET *265 0.000252636
*CONN
*I *2838:A2 I *D sky130_fd_sc_hd__a22oi_2
*I *2807:Y O *D sky130_fd_sc_hd__nor2_2
*CAP
1 *2838:A2 9.1746e-05
2 *2807:Y 9.1746e-05
3 *2838:A2 *2839:A2 3.48003e-05
4 *2838:A2 *3260:A 3.4344e-05
*RES
1 *2807:Y *2838:A2 4.82 
*END

*D_NET *266 0.00125081
*CONN
*I *2816:B1_N I *D sky130_fd_sc_hd__a21boi_4
*I *2810:A I *D sky130_fd_sc_hd__nand2_2
*I *2808:Y O *D sky130_fd_sc_hd__nand3b_2
*CAP
1 *2816:B1_N 8.36222e-05
2 *2810:A 0
3 *2808:Y 0.000265038
4 *266:10 0.00034866
5 *2816:B1_N *2814:B1 0
6 *2816:B1_N *2839:A2 0.000160658
7 *2816:B1_N *267:21 2.07945e-05
8 *2816:B1_N *268:8 0.000120186
9 *2816:B1_N *271:6 4.66108e-05
10 *266:10 *2814:B1 0
11 *266:10 *2873:A1 4.05674e-06
12 *266:10 *3248:A 3.00381e-05
13 *266:10 *267:8 0.000161637
14 *266:10 *267:21 9.50342e-06
15 *263:10 *266:10 0
*RES
1 *2808:Y *266:10 8.415 
2 *266:10 *2810:A 3.6 
3 *266:10 *2816:B1_N 6.195 
*END

*D_NET *267 0.00269127
*CONN
*I *2837:B1 I *D sky130_fd_sc_hd__o21ai_2
*I *2816:A2 I *D sky130_fd_sc_hd__a21boi_4
*I *2810:B I *D sky130_fd_sc_hd__nand2_2
*I *2809:Y O *D sky130_fd_sc_hd__o21bai_4
*CAP
1 *2837:B1 0.00021965
2 *2816:A2 0.000137531
3 *2810:B 0
4 *2809:Y 8.35785e-05
5 *267:21 0.000560378
6 *267:8 0.000286776
7 *2816:A2 *268:16 0.000505378
8 *2816:A2 *271:6 0.000462835
9 *2816:A2 *273:10 4.7101e-05
10 *2837:B1 *2834:C 7.07801e-05
11 *2837:B1 *2837:A1 1.43521e-05
12 *2837:B1 *2839:A2 0
13 *2837:B1 *3106:A 0
14 *2837:B1 *268:8 1.71013e-05
15 *267:21 *3106:A 0
16 *267:21 *3260:A 0
17 *267:21 *268:8 8.97486e-05
18 *2807:B *267:8 0
19 *2807:B *267:21 4.12166e-06
20 *2816:B1_N *267:21 2.07945e-05
21 *263:10 *267:8 0
22 *266:10 *267:8 0.000161637
23 *266:10 *267:21 9.50342e-06
*RES
1 *2809:Y *267:8 5.49 
2 *267:8 *2810:B 3.6 
3 *267:8 *267:21 3.555 
4 *267:21 *2816:A2 9.24 
5 *267:21 *2837:B1 7.53 
*END

*D_NET *268 0.00369311
*CONN
*I *2834:C I *D sky130_fd_sc_hd__nor4_4
*I *2815:A I *D sky130_fd_sc_hd__xor2_2
*I *2817:A_N I *D sky130_fd_sc_hd__nand4b_2
*I *2810:Y O *D sky130_fd_sc_hd__nand2_2
*CAP
1 *2834:C 0.000140599
2 *2815:A 5.23473e-05
3 *2817:A_N 0.000103022
4 *2810:Y 6.20926e-05
5 *268:16 0.000973182
6 *268:8 0.0010205
7 *2817:A_N *2815:B 7.97165e-05
8 *2817:A_N *2873:A1 0
9 *2817:A_N *269:18 5.05437e-05
10 *2817:A_N *274:10 0.000139933
11 *2817:A_N *463:12 5.30673e-05
12 *2834:C *2839:A2 7.70938e-05
13 *268:8 *2839:A2 3.31204e-05
14 *268:16 *273:10 7.67749e-05
15 *2816:A2 *268:16 0.000505378
16 *2816:B1_N *268:8 0.000120186
17 *2834:B *2834:C 2.7919e-05
18 *2837:B1 *2834:C 7.07801e-05
19 *2837:B1 *268:8 1.71013e-05
20 *267:21 *268:8 8.97486e-05
*RES
1 *2810:Y *268:8 5.745 
2 *268:8 *268:16 13.865 
3 *268:16 *2817:A_N 8.795 
4 *268:16 *2815:A 2.395 
5 *268:8 *2834:C 6.39 
*END

*D_NET *269 0.00479045
*CONN
*I *2817:B I *D sky130_fd_sc_hd__nand4b_2
*I *2814:A3 I *D sky130_fd_sc_hd__a31oi_2
*I *2811:X O *D sky130_fd_sc_hd__and4_2
*CAP
1 *2817:B 0
2 *2814:A3 0.00019345
3 *2811:X 0.00148037
4 *269:18 0.00167382
5 *2814:A3 *2815:B 0.000140905
6 *269:18 *2839:A2 0.000472636
7 *269:18 *3260:A 4.85494e-05
8 *269:18 *274:10 8.57024e-05
9 *269:18 *463:12 0.000294396
10 *2814:A1 *2814:A3 0.000139245
11 *2817:A_N *269:18 5.05437e-05
12 *2838:B2 *269:18 0.000129035
13 *141:24 *269:18 1.37328e-05
14 *253:16 *2814:A3 2.75229e-05
15 *259:30 *269:18 4.05358e-05
*RES
1 *2811:X *269:18 29.045 
2 *269:18 *2814:A3 9.425 
3 *269:18 *2817:B 1.6 
*END

*D_NET *270 0.000486313
*CONN
*I *2813:B I *D sky130_fd_sc_hd__and2_2
*I *2838:B1 I *D sky130_fd_sc_hd__a22oi_2
*I *2812:Y O *D sky130_fd_sc_hd__nand2_2
*CAP
1 *2813:B 0
2 *2838:B1 0.000150062
3 *2812:Y 6.81135e-05
4 *270:6 0.000218176
5 *2838:B1 *2838:A1 0
6 *2838:B1 *3106:A 0
7 *2838:B1 *461:23 0
8 *2813:A *270:6 4.99619e-05
*RES
1 *2812:Y *270:6 2.74 
2 *270:6 *2838:B1 8 
3 *270:6 *2813:B 1.6 
*END

*D_NET *271 0.00311981
*CONN
*I *2816:A1 I *D sky130_fd_sc_hd__a21boi_4
*I *2814:B1 I *D sky130_fd_sc_hd__a31oi_2
*I *2813:X O *D sky130_fd_sc_hd__and2_2
*CAP
1 *2816:A1 0
2 *2814:B1 0.000813707
3 *2813:X 0.00045469
4 *271:6 0.0012684
5 *2814:B1 *2839:A2 0
6 *2814:B1 *273:10 0
7 *271:6 *273:10 7.35729e-05
8 *2816:A2 *271:6 0.000462835
9 *2816:B1_N *2814:B1 0
10 *2816:B1_N *271:6 4.66108e-05
11 *266:10 *2814:B1 0
*RES
1 *2813:X *271:6 10.33 
2 *271:6 *2814:B1 17.825 
3 *271:6 *2816:A1 1.6 
*END

*D_NET *272 0.000617582
*CONN
*I *2815:B I *D sky130_fd_sc_hd__xor2_2
*I *2814:Y O *D sky130_fd_sc_hd__a31oi_2
*CAP
1 *2815:B 0.00019848
2 *2814:Y 0.00019848
3 *2814:A3 *2815:B 0.000140905
4 *2817:A_N *2815:B 7.97165e-05
*RES
1 *2814:Y *2815:B 9.53 
*END

*D_NET *273 0.00287132
*CONN
*I *2826:D I *D sky130_fd_sc_hd__nand4_2
*I *2836:A I *D sky130_fd_sc_hd__and2_4
*I *2825:B2 I *D sky130_fd_sc_hd__a22o_2
*I *2816:Y O *D sky130_fd_sc_hd__a21boi_4
*CAP
1 *2826:D 0.000123261
2 *2836:A 0
3 *2825:B2 6.62652e-05
4 *2816:Y 0.000403109
5 *273:23 0.000270534
6 *273:10 0.000616647
7 *2825:B2 *2824:A 0.000426206
8 *2825:B2 *2824:B 0.000387902
9 *2825:B2 *2825:A2 3.83041e-05
10 *2826:D *278:47 0.000181005
11 *2826:D *290:16 0.000160641
12 *273:10 *2873:A1 0
13 *273:23 *3232:A 0
14 *273:23 *290:10 0
15 *2814:B1 *273:10 0
16 *2816:A2 *273:10 4.7101e-05
17 *268:16 *273:10 7.67749e-05
18 *271:6 *273:10 7.35729e-05
*RES
1 *2816:Y *273:10 9.9 
2 *273:10 *2825:B2 7.5 
3 *273:10 *273:23 4.145 
4 *273:23 *2836:A 1.6 
5 *273:23 *2826:D 4.825 
*END

*D_NET *274 0.00139416
*CONN
*I *2826:A I *D sky130_fd_sc_hd__nand4_2
*I *2825:B1 I *D sky130_fd_sc_hd__a22o_2
*I *2817:Y O *D sky130_fd_sc_hd__nand4b_2
*CAP
1 *2826:A 0.000197313
2 *2825:B1 0
3 *2817:Y 0.000229953
4 *274:10 0.000427266
5 *2826:A *2827:A 0
6 *2826:A *2827:B 8.8266e-05
7 *2826:A *278:14 0.000193191
8 *2826:A *278:36 9.50342e-06
9 *2826:A *290:16 2.30292e-05
10 *274:10 *2873:A1 0
11 *2817:A_N *274:10 0.000139933
12 *269:18 *274:10 8.57024e-05
*RES
1 *2817:Y *274:10 7.56 
2 *274:10 *2825:B1 3.6 
3 *274:10 *2826:A 7.95 
*END

*D_NET *275 0.000498452
*CONN
*I *2820:A I *D sky130_fd_sc_hd__nor2_2
*I *2823:A1 I *D sky130_fd_sc_hd__o21bai_2
*I *2818:Y O *D sky130_fd_sc_hd__nor2_2
*CAP
1 *2820:A 1.43266e-05
2 *2823:A1 0
3 *2818:Y 8.42527e-05
4 *275:10 9.85794e-05
5 *2820:A *2823:A2 8.65961e-05
6 *275:10 *3198:A 0.00016163
7 *275:10 *276:10 0
8 *275:10 *463:12 0
9 *2840:B1 *2820:A 5.30673e-05
*RES
1 *2818:Y *275:10 7.49 
2 *275:10 *2823:A1 1.6 
3 *275:10 *2820:A 2.395 
*END

*D_NET *276 0.000708073
*CONN
*I *2823:A2 I *D sky130_fd_sc_hd__o21bai_2
*I *2820:B I *D sky130_fd_sc_hd__nor2_2
*I *2819:X O *D sky130_fd_sc_hd__and2_2
*CAP
1 *2823:A2 7.17182e-05
2 *2820:B 0
3 *2819:X 0.000117476
4 *276:10 0.000189194
5 *2823:A2 *277:10 0.000197264
6 *276:10 *463:12 0
7 *2820:A *2823:A2 8.65961e-05
8 *2840:B1 *2823:A2 4.58257e-05
9 *275:10 *276:10 0
*RES
1 *2819:X *276:10 7.235 
2 *276:10 *2820:B 1.6 
3 *276:10 *2823:A2 4.15 
*END

*D_NET *277 0.0040074
*CONN
*I *2837:A2 I *D sky130_fd_sc_hd__o21ai_2
*I *2822:B I *D sky130_fd_sc_hd__nor2_2
*I *2821:A I *D sky130_fd_sc_hd__nand2_2
*I *2820:Y O *D sky130_fd_sc_hd__nor2_2
*CAP
1 *2837:A2 0.000292124
2 *2822:B 8.96668e-05
3 *2821:A 1.30122e-05
4 *2820:Y 0.000376258
5 *277:21 0.000835575
6 *277:10 0.000843054
7 *2822:B *2835:A 0
8 *2822:B *2837:A1 0
9 *2822:B *2840:A1 0.000117825
10 *2822:B *2887:A2 7.44375e-05
11 *2837:A2 *2837:A1 0.000230876
12 *2837:A2 *2839:A2 9.50342e-06
13 *2837:A2 *2840:A1 0
14 *2837:A2 *2840:A2 0
15 *2837:A2 *2887:A2 0
16 *2837:A2 *296:8 0.000102026
17 *277:10 *2823:B1_N 0.000124684
18 *277:10 *280:10 9.07467e-05
19 *277:21 *280:10 2.96426e-05
20 *2823:A2 *277:10 0.000197264
21 *2840:B1 *2821:A 1.37328e-05
22 *2840:B1 *277:10 4.7662e-05
23 *2840:B1 *277:21 0.00043555
24 *254:41 *2837:A2 2.10034e-05
25 *254:41 *277:21 6.27529e-05
*RES
1 *2820:Y *277:10 8.725 
2 *277:10 *2821:A 1.96 
3 *277:10 *277:21 8.055 
4 *277:21 *2822:B 7.49 
5 *277:21 *2837:A2 10.79 
*END

*D_NET *278 0.00356434
*CONN
*I *2836:B I *D sky130_fd_sc_hd__and2_4
*I *2839:B1 I *D sky130_fd_sc_hd__o21ai_2
*I *2826:B I *D sky130_fd_sc_hd__nand4_2
*I *2825:A1 I *D sky130_fd_sc_hd__a22o_2
*I *2824:A I *D sky130_fd_sc_hd__nand2_2
*I *2821:Y O *D sky130_fd_sc_hd__nand2_2
*CAP
1 *2836:B 0
2 *2839:B1 0.000128721
3 *2826:B 0
4 *2825:A1 3.67867e-05
5 *2824:A 0.000239811
6 *2821:Y 0.000133852
7 *278:47 0.00043925
8 *278:36 0.000316539
9 *278:14 0.000385312
10 *278:8 0.000248576
11 *2824:A *2824:B 2.70988e-05
12 *2824:A *2825:A2 2.00257e-05
13 *2824:A *290:10 0.000275548
14 *2825:A1 *2825:A2 8.40269e-05
15 *2839:B1 *2840:A2 4.99619e-05
16 *278:8 *2873:A1 0
17 *278:8 *280:10 4.26331e-05
18 *278:8 *462:14 5.33085e-05
19 *278:14 *280:10 1.17036e-05
20 *278:14 *280:14 0.0001032
21 *278:47 *2827:B 0
22 *278:47 *2835:A 8.8266e-05
23 *278:47 *290:16 6.98113e-05
24 *2825:B2 *2824:A 0.000426206
25 *2826:A *278:14 0.000193191
26 *2826:A *278:36 9.50342e-06
27 *2826:D *278:47 0.000181005
*RES
1 *2821:Y *278:8 5.8725 
2 *278:8 *278:14 4.9775 
3 *278:14 *2824:A 7.6 
4 *278:14 *2825:A1 2.395 
5 *278:8 *278:36 2.2325 
6 *278:36 *2826:B 1.6 
7 *278:36 *278:47 5.655 
8 *278:47 *2839:B1 3.775 
9 *278:47 *2836:B 1.6 
*END

*D_NET *279 0.000279674
*CONN
*I *2840:A1 I *D sky130_fd_sc_hd__o22ai_4
*I *2822:Y O *D sky130_fd_sc_hd__nor2_2
*CAP
1 *2840:A1 7.58416e-05
2 *2822:Y 7.58416e-05
3 *2840:A1 *2837:A1 0
4 *2840:A1 *2887:A2 1.01661e-05
5 *2822:B *2840:A1 0.000117825
6 *2837:A2 *2840:A1 0
*RES
1 *2822:Y *2840:A1 8.835 
*END

*D_NET *280 0.00267756
*CONN
*I *2826:C I *D sky130_fd_sc_hd__nand4_2
*I *2825:A2 I *D sky130_fd_sc_hd__a22o_2
*I *2824:B I *D sky130_fd_sc_hd__nand2_2
*I *2823:Y O *D sky130_fd_sc_hd__o21bai_2
*CAP
1 *2826:C 0
2 *2825:A2 0.000117589
3 *2824:B 0.000199528
4 *2823:Y 0.000165343
5 *280:14 0.000420669
6 *280:10 0.000268894
7 *280:10 *2823:B1_N 0.000203178
8 *280:10 *2873:A1 0
9 *280:14 *2873:A1 0
10 *2824:A *2824:B 2.70988e-05
11 *2824:A *2825:A2 2.00257e-05
12 *2825:A1 *2825:A2 8.40269e-05
13 *2825:B2 *2824:B 0.000387902
14 *2825:B2 *2825:A2 3.83041e-05
15 *2840:B1 *280:10 0.000467074
16 *277:10 *280:10 9.07467e-05
17 *277:21 *280:10 2.96426e-05
18 *278:8 *280:10 4.26331e-05
19 *278:14 *280:10 1.17036e-05
20 *278:14 *280:14 0.0001032
*RES
1 *2823:Y *280:10 9.48 
2 *280:10 *280:14 4.145 
3 *280:14 *2824:B 5.86 
4 *280:14 *2825:A2 3.91375 
5 *280:10 *2826:C 3.6 
*END

*D_NET *281 0.000323272
*CONN
*I *2834:A I *D sky130_fd_sc_hd__nor4_4
*I *2824:Y O *D sky130_fd_sc_hd__nand2_2
*CAP
1 *2834:A 8.9044e-05
2 *2824:Y 8.9044e-05
3 *2834:A *290:10 0.000145184
*RES
1 *2824:Y *2834:A 5.375 
*END

*D_NET *282 0.000423391
*CONN
*I *2827:A I *D sky130_fd_sc_hd__nand2_2
*I *2825:X O *D sky130_fd_sc_hd__a22o_2
*CAP
1 *2827:A 0.000211695
2 *2825:X 0.000211695
3 *2826:A *2827:A 0
*RES
1 *2825:X *2827:A 9.975 
*END

*D_NET *283 0.000304651
*CONN
*I *2827:B I *D sky130_fd_sc_hd__nand2_2
*I *2826:Y O *D sky130_fd_sc_hd__nand4_2
*CAP
1 *2827:B 4.49073e-05
2 *2826:Y 4.49073e-05
3 *2827:B *290:16 0.00012657
4 *2826:A *2827:B 8.8266e-05
5 *278:47 *2827:B 0
*RES
1 *2826:Y *2827:B 4.7 
*END

*D_NET *284 0.00271197
*CONN
*I *2854:B2 I *D sky130_fd_sc_hd__o22a_2
*I *2849:B1 I *D sky130_fd_sc_hd__o2bb2ai_2
*I *2832:A1 I *D sky130_fd_sc_hd__o21ba_2
*I *2828:X O *D sky130_fd_sc_hd__and2_4
*CAP
1 *2854:B2 0.000363178
2 *2849:B1 8.92016e-05
3 *2832:A1 0.000185785
4 *2828:X 0
5 *284:10 0.000413522
6 *284:4 0.000501712
7 *2832:A1 *2829:A 6.44047e-05
8 *2832:A1 *2832:A2 0.000112123
9 *2832:A1 *2832:B1_N 0
10 *2832:A1 *286:12 6.28843e-05
11 *2832:A1 *484:10 0
12 *2849:B1 *286:23 0.000352395
13 *2849:B1 *287:8 0.000427094
14 *2849:B1 *287:23 1.08758e-05
15 *2854:B2 *2848:A2 1.20052e-05
16 *2854:B2 *308:10 3.56746e-05
17 *284:10 *2828:B 0
18 *284:10 *2829:A 1.7396e-05
19 *284:10 *286:12 1.1561e-05
20 *284:10 *460:41 5.21545e-05
*RES
1 *2828:X *284:4 1.6 
2 *284:4 *284:10 4.595 
3 *284:10 *2832:A1 7.275 
4 *284:10 *2849:B1 7.86 
5 *284:4 *2854:B2 6.895 
*END

*D_NET *285 0.000459283
*CONN
*I *2832:A2 I *D sky130_fd_sc_hd__o21ba_2
*I *2829:Y O *D sky130_fd_sc_hd__nor2_2
*CAP
1 *2832:A2 0.000126131
2 *2829:Y 0.000126131
3 *2832:A2 *2829:B 4.66108e-05
4 *2832:A2 *2832:B1_N 0
5 *2832:A2 *3200:A 4.82863e-05
6 *2832:A1 *2832:A2 0.000112123
*RES
1 *2829:Y *2832:A2 9.48 
*END

*D_NET *286 0.00180812
*CONN
*I *2854:B1 I *D sky130_fd_sc_hd__o22a_2
*I *2849:B2 I *D sky130_fd_sc_hd__o2bb2ai_2
*I *2831:B1 I *D sky130_fd_sc_hd__a21oi_2
*I *2830:Y O *D sky130_fd_sc_hd__o21ai_4
*CAP
1 *2854:B1 0.000141995
2 *2849:B2 0
3 *2831:B1 0
4 *2830:Y 0.00011093
5 *286:23 0.000285378
6 *286:12 0.000254313
7 *2854:B1 *3106:A 2.68464e-05
8 *2854:B1 *287:23 1.43396e-05
9 *286:12 *2828:B 4.43871e-06
10 *286:12 *2829:B 3.72916e-05
11 *286:12 *484:10 5.42303e-05
12 *286:23 *3106:A 0.000182698
13 *286:23 *287:8 4.21973e-05
14 *286:23 *287:23 2.93538e-05
15 *286:23 *460:6 0.000197269
16 *2832:A1 *286:12 6.28843e-05
17 *2849:B1 *286:23 0.000352395
18 *284:10 *286:12 1.1561e-05
*RES
1 *2830:Y *286:12 8.03 
2 *286:12 *2831:B1 1.6 
3 *286:12 *286:23 5.745 
4 *286:23 *2849:B2 1.6 
5 *286:23 *2854:B1 7.94 
*END

*D_NET *287 0.0059319
*CONN
*I *2878:A1 I *D sky130_fd_sc_hd__o211ai_2
*I *2855:A1 I *D sky130_fd_sc_hd__o21ai_2
*I *2885:A I *D sky130_fd_sc_hd__nor4_4
*I *2850:B1 I *D sky130_fd_sc_hd__a211o_2
*I *2833:A I *D sky130_fd_sc_hd__nor2_2
*I *2831:Y O *D sky130_fd_sc_hd__a21oi_2
*CAP
1 *2878:A1 3.66741e-05
2 *2855:A1 0.000188877
3 *2885:A 0.000423541
4 *2850:B1 0.000230797
5 *2833:A 0.000100649
6 *2831:Y 0.000381098
7 *287:25 0.00070592
8 *287:23 0.000812609
9 *287:8 0.00109057
10 *2833:A *2829:A 0
11 *2833:A *2841:A 0
12 *2833:A *2849:A1_N 0
13 *2833:A *288:12 4.18603e-06
14 *2850:B1 *2850:A1 4.82919e-05
15 *2850:B1 *2850:A2 0
16 *2850:B1 *2852:B 0.000339893
17 *2850:B1 *3106:A 0
18 *2855:A1 *2852:B 6.85516e-05
19 *2855:A1 *2853:C1 0
20 *2855:A1 *3106:A 0
21 *2855:A1 *296:49 0
22 *2878:A1 *2855:A2 0
23 *2878:A1 *2878:A2 0.000140303
24 *2878:A1 *2878:C1 3.00381e-05
25 *2878:A1 *300:40 5.30673e-05
26 *2885:A *2885:C 2.16917e-05
27 *2885:A *296:27 0.000386226
28 *287:8 *460:6 1.47256e-05
29 *287:23 *2851:B1 3.71759e-05
30 *287:23 *2853:C1 0.000118403
31 *287:23 *3106:A 3.88594e-05
32 *287:25 *2852:B 8.59296e-05
33 *287:25 *3106:A 0
34 *2849:B1 *287:8 0.000427094
35 *2849:B1 *287:23 1.08758e-05
36 *2854:B1 *287:23 1.43396e-05
37 *254:41 *2850:B1 4.99619e-05
38 *286:23 *287:8 4.21973e-05
39 *286:23 *287:23 2.93538e-05
*RES
1 *2831:Y *287:8 6.895 
2 *287:8 *2833:A 7.235 
3 *287:8 *287:23 9.35 
4 *287:23 *287:25 1.125 
5 *287:25 *2850:B1 8.745 
6 *287:25 *2885:A 10.53 
7 *287:23 *2855:A1 6.255 
8 *2855:A1 *2878:A1 4.7 
*END

*D_NET *288 0.00355599
*CONN
*I *2885:D I *D sky130_fd_sc_hd__nor4_4
*I *2833:B I *D sky130_fd_sc_hd__nor2_2
*I *2832:X O *D sky130_fd_sc_hd__o21ba_2
*CAP
1 *2885:D 0.000485369
2 *2833:B 0
3 *2832:X 0.000562773
4 *288:12 0.00104814
5 *2885:D *2841:B 4.82863e-05
6 *2885:D *2849:A1_N 0.000113235
7 *2885:D *2849:A2_N 2.67222e-05
8 *2885:D *3221:A 0.00031441
9 *2885:D *289:6 4.77719e-05
10 *2885:D *296:27 0.000195671
11 *288:12 *2841:A 5.96203e-05
12 *288:12 *3200:A 0.000649801
13 *2833:A *288:12 4.18603e-06
*RES
1 *2832:X *288:12 13.64 
2 *288:12 *2833:B 1.6 
3 *288:12 *2885:D 10.81 
*END

*D_NET *289 0.00393478
*CONN
*I *2853:C1 I *D sky130_fd_sc_hd__o211a_2
*I *2850:A2 I *D sky130_fd_sc_hd__a211o_2
*I *2849:A1_N I *D sky130_fd_sc_hd__o2bb2ai_2
*I *2841:A I *D sky130_fd_sc_hd__xor2_4
*I *2833:Y O *D sky130_fd_sc_hd__nor2_2
*CAP
1 *2853:C1 0.000616413
2 *2850:A2 0.000177381
3 *2849:A1_N 0.000746127
4 *2841:A 0.000270617
5 *2833:Y 2.27131e-05
6 *289:6 0.000245663
7 *2841:A *2841:B 5.10008e-05
8 *2849:A1_N *2849:A2_N 0.000162325
9 *2850:A2 *2841:B 0
10 *2850:A2 *2852:B 3.72916e-05
11 *2853:C1 *2846:B1 4.77757e-05
12 *2853:C1 *2847:B1 7.00889e-06
13 *2853:C1 *2852:A 0.00031209
14 *2853:C1 *2852:B 0
15 *2853:C1 *2853:A2 4.77757e-05
16 *2853:C1 *2853:B1 4.43871e-06
17 *2853:C1 *3106:A 7.96482e-05
18 *2853:C1 *298:36 0.000128375
19 *2853:C1 *300:36 0.000406771
20 *2853:C1 *301:10 9.5433e-05
21 *2853:C1 *302:10 1.03323e-05
22 *2833:A *2841:A 0
23 *2833:A *2849:A1_N 0
24 *2850:B1 *2850:A2 0
25 *2855:A1 *2853:C1 0
26 *2885:D *2849:A1_N 0.000113235
27 *2885:D *289:6 4.77719e-05
28 *254:41 *2850:A2 0.00012657
29 *287:23 *2853:C1 0.000118403
30 *288:12 *2841:A 5.96203e-05
*RES
1 *2833:Y *289:6 2.05 
2 *289:6 *2841:A 7.745 
3 *289:6 *2849:A1_N 8.63 
4 *2841:A *2850:A2 10.74 
5 *2849:A1_N *2853:C1 24.97 
*END

*D_NET *290 0.00471292
*CONN
*I *3232:A I *D sky130_fd_sc_hd__buf_2
*I *2889:A I *D sky130_fd_sc_hd__nand2_2
*I *2888:A I *D sky130_fd_sc_hd__and2_2
*I *2834:Y O *D sky130_fd_sc_hd__nor4_4
*CAP
1 *3232:A 2.6975e-05
2 *2889:A 0.000156841
3 *2888:A 0
4 *2834:Y 0.000542011
5 *290:16 0.00119611
6 *290:10 0.00160825
7 *2889:A *2888:B 0.000136168
8 *2889:A *2943:A 0
9 *2889:A *337:23 4.43871e-06
10 *2889:A *393:10 0
11 *3232:A *2873:A1 2.7881e-05
12 *290:10 *2873:A1 0.000109441
13 *290:16 *2888:B 2.30292e-05
14 *290:16 *3198:A 5.34747e-05
15 *2824:A *290:10 0.000275548
16 *2826:A *290:16 2.30292e-05
17 *2826:D *290:16 0.000160641
18 *2827:B *290:16 0.00012657
19 *2834:A *290:10 0.000145184
20 *2840:B1 *2889:A 2.75229e-05
21 *273:23 *3232:A 0
22 *273:23 *290:10 0
23 *278:47 *290:16 6.98113e-05
*RES
1 *2834:Y *290:10 11.625 
2 *290:10 *290:16 17.645 
3 *290:16 *2888:A 1.6 
4 *290:16 *2889:A 8.645 
5 *290:10 *3232:A 4.215 
*END

*D_NET *291 0.000338204
*CONN
*I *2840:B2 I *D sky130_fd_sc_hd__o22ai_4
*I *2835:Y O *D sky130_fd_sc_hd__inv_2
*CAP
1 *2840:B2 0.000116788
2 *2835:Y 0.000116788
3 *2840:B2 *2835:A 0
4 *2840:B2 *2887:A2 5.63405e-05
5 *2840:B2 *462:32 4.82863e-05
*RES
1 *2835:Y *2840:B2 9.285 
*END

*D_NET *292 0.000482517
*CONN
*I *2840:A2 I *D sky130_fd_sc_hd__o22ai_4
*I *2836:X O *D sky130_fd_sc_hd__and2_4
*CAP
1 *2840:A2 0.000178113
2 *2836:X 0.000178113
3 *2840:A2 *2887:A2 7.63282e-05
4 *2837:A2 *2840:A2 0
5 *2839:B1 *2840:A2 4.99619e-05
*RES
1 *2836:X *2840:A2 10.32 
*END

*D_NET *293 0.000257625
*CONN
*I *2839:A1 I *D sky130_fd_sc_hd__o21ai_2
*I *2837:Y O *D sky130_fd_sc_hd__o21ai_2
*CAP
1 *2839:A1 8.55146e-05
2 *2837:Y 8.55146e-05
3 *2839:A1 *2839:A2 8.65961e-05
*RES
1 *2837:Y *2839:A1 4.7 
*END

*D_NET *294 0.0023839
*CONN
*I *2839:A2 I *D sky130_fd_sc_hd__o21ai_2
*I *2838:Y O *D sky130_fd_sc_hd__a22oi_2
*CAP
1 *2839:A2 0.000617152
2 *2838:Y 0.000617152
3 *2839:A2 *2837:A1 1.34361e-05
4 *2839:A2 *3260:A 0.000175166
5 *2807:B *2839:A2 8.65905e-05
6 *2814:B1 *2839:A2 0
7 *2816:B1_N *2839:A2 0.000160658
8 *2834:C *2839:A2 7.70938e-05
9 *2837:A2 *2839:A2 9.50342e-06
10 *2837:B1 *2839:A2 0
11 *2838:A2 *2839:A2 3.48003e-05
12 *2839:A1 *2839:A2 8.65961e-05
13 *268:8 *2839:A2 3.31204e-05
14 *269:18 *2839:A2 0.000472636
*RES
1 *2838:Y *2839:A2 21.435 
*END

*D_NET *295 0.00116458
*CONN
*I *2887:A2 I *D sky130_fd_sc_hd__a21oi_2
*I *2839:Y O *D sky130_fd_sc_hd__o21ai_2
*CAP
1 *2887:A2 0.000252161
2 *2839:Y 0.000252161
3 *2887:A2 *2835:A 0.000164874
4 *2887:A2 *462:32 0.000278117
5 *2822:B *2887:A2 7.44375e-05
6 *2837:A2 *2887:A2 0
7 *2840:A1 *2887:A2 1.01661e-05
8 *2840:A2 *2887:A2 7.63282e-05
9 *2840:B2 *2887:A2 5.63405e-05
*RES
1 *2839:Y *2887:A2 13.65 
*END

*D_NET *296 0.00737926
*CONN
*I *2877:B I *D sky130_fd_sc_hd__nand2_2
*I *2881:A1 I *D sky130_fd_sc_hd__a211oi_2
*I *3222:A I *D sky130_fd_sc_hd__buf_6
*I *3226:A I *D sky130_fd_sc_hd__buf_2
*I *3223:A I *D sky130_fd_sc_hd__buf_6
*I *3221:A I *D sky130_fd_sc_hd__buf_4
*I *2850:A1 I *D sky130_fd_sc_hd__a211o_2
*I *2840:Y O *D sky130_fd_sc_hd__o22ai_4
*CAP
1 *2877:B 6.90805e-05
2 *2881:A1 1.45655e-05
3 *3222:A 0.000124731
4 *3226:A 0
5 *3223:A 0
6 *3221:A 8.99563e-05
7 *2850:A1 0.000198729
8 *2840:Y 0.00015235
9 *296:64 0.000285179
10 *296:58 0.000335557
11 *296:49 0.000888971
12 *296:27 0.000253078
13 *296:21 0.00112039
14 *296:8 0.000539975
15 *2850:A1 *2850:C1 0.000237243
16 *2850:A1 *2852:B 7.00889e-06
17 *2877:B *2879:A1 0.000122331
18 *2877:B *2880:B1 0.000124007
19 *2877:B *2882:A1 2.05056e-05
20 *2877:B *317:12 2.0514e-05
21 *2881:A1 *2881:A2 4.99619e-05
22 *3221:A *2849:A2_N 8.64421e-05
23 *3222:A *2881:A2 3.30408e-05
24 *296:21 *2837:A1 0
25 *296:21 *2850:C1 0.000192721
26 *296:21 *303:12 1.52184e-05
27 *296:27 *2885:C 8.49205e-05
28 *296:49 *2864:A 0.000115146
29 *296:49 *2866:A 0
30 *296:49 *2878:B1 5.70541e-05
31 *296:49 *2885:B 0
32 *296:49 *3201:A 0
33 *296:49 *303:12 0.000156098
34 *296:49 *308:10 0
35 *296:49 *309:10 0.000186092
36 *296:49 *317:12 0.00011852
37 *296:49 *317:27 3.23663e-05
38 *296:49 *318:10 4.82863e-05
39 *296:58 *2866:A 0
40 *296:58 *2881:B1 2.03321e-05
41 *296:58 *317:12 0.000163985
42 *296:64 *2881:B1 6.06004e-05
43 *296:64 *307:19 0
44 *2837:A2 *296:8 0.000102026
45 *2850:B1 *2850:A1 4.82919e-05
46 *2855:A1 *296:49 0
47 *2885:A *296:27 0.000386226
48 *2885:D *3221:A 0.00031441
49 *2885:D *296:27 0.000195671
50 *254:41 *2850:A1 8.5108e-05
51 *254:41 *296:8 0.000222561
*RES
1 *2840:Y *296:8 5.515 
2 *296:8 *2850:A1 5.86 
3 *296:8 *296:21 6.185 
4 *296:21 *296:27 6.95 
5 *296:27 *3221:A 4.465 
6 *296:27 *3223:A 1.6 
7 *296:21 *296:49 16.705 
8 *296:49 *3226:A 3.6 
9 *296:49 *296:58 2.4 
10 *296:58 *296:64 4.34 
11 *296:64 *3222:A 3.805 
12 *296:64 *2881:A1 2.05 
13 *296:58 *2877:B 5.535 
*END

*D_NET *297 0.000497043
*CONN
*I *2844:A1 I *D sky130_fd_sc_hd__o21ba_2
*I *2845:A1 I *D sky130_fd_sc_hd__o21bai_4
*I *2842:Y O *D sky130_fd_sc_hd__nor2_2
*CAP
1 *2844:A1 0.000157891
2 *2845:A1 0.000188106
3 *2842:Y 3.02148e-05
4 *2844:A1 *2853:B1 1.89685e-05
5 *2844:A1 *298:6 4.88478e-05
6 *2844:A1 *298:19 5.30144e-05
*RES
1 *2842:Y *2845:A1 3.65 
2 *2845:A1 *2844:A1 10.245 
*END

*D_NET *298 0.00292826
*CONN
*I *2853:A1 I *D sky130_fd_sc_hd__o211a_2
*I *2848:A1 I *D sky130_fd_sc_hd__o21ai_2
*I *2854:A2 I *D sky130_fd_sc_hd__o22a_2
*I *2845:A2 I *D sky130_fd_sc_hd__o21bai_4
*I *2844:A2 I *D sky130_fd_sc_hd__o21ba_2
*I *2843:X O *D sky130_fd_sc_hd__and2_4
*CAP
1 *2853:A1 2.13699e-05
2 *2848:A1 0
3 *2854:A2 8.23183e-05
4 *2845:A2 0
5 *2844:A2 0
6 *2843:X 6.2355e-05
7 *298:36 0.000419311
8 *298:30 0.000571982
9 *298:19 0.000407947
10 *298:6 0.000256683
11 *2853:A1 *2846:B1 4.73641e-05
12 *2854:A2 *2848:A2 0.000229044
13 *2854:A2 *302:16 0.000161467
14 *2854:A2 *308:10 5.54859e-05
15 *298:19 *2853:B1 3.11927e-05
16 *298:19 *299:10 5.83121e-06
17 *298:30 *300:36 5.36514e-05
18 *298:36 *2848:A2 3.75126e-05
19 *298:36 *2852:A 0.000153139
20 *298:36 *300:36 5.35919e-05
21 *298:36 *301:10 0
22 *298:36 *301:14 0
23 *298:36 *302:16 4.77719e-05
24 *2844:A1 *298:6 4.88478e-05
25 *2844:A1 *298:19 5.30144e-05
26 *2853:C1 *298:36 0.000128375
*RES
1 *2843:X *298:6 2.74 
2 *298:6 *2844:A2 1.6 
3 *298:6 *298:19 7.54 
4 *298:19 *2845:A2 1.6 
5 *298:19 *298:30 5.375 
6 *298:30 *298:36 8.93 
7 *298:36 *2854:A2 4.585 
8 *298:36 *2848:A1 1.6 
9 *298:30 *2853:A1 4.04625 
*END

*D_NET *299 0.00441341
*CONN
*I *2857:B1 I *D sky130_fd_sc_hd__o2bb2ai_2
*I *2880:A1 I *D sky130_fd_sc_hd__o31a_2
*I *2851:A1 I *D sky130_fd_sc_hd__o21ai_2
*I *2844:X O *D sky130_fd_sc_hd__o21ba_2
*CAP
1 *2857:B1 7.39687e-05
2 *2880:A1 0.000425559
3 *2851:A1 0.000295395
4 *2844:X 0.000321911
5 *299:12 0.000758473
6 *299:10 0.000433398
7 *2851:A1 *2846:B1 2.92496e-05
8 *2851:A1 *2852:A 2.49909e-05
9 *2851:A1 *300:36 0.000409139
10 *2851:A1 *308:10 0
11 *2857:B1 *2845:B1_N 4.66108e-05
12 *2880:A1 *2846:B1 4.66108e-05
13 *2880:A1 *2866:A 0.000233781
14 *2880:A1 *2867:A 1.94805e-05
15 *2880:A1 *2867:B 1.7396e-05
16 *2880:A1 *2880:A2 0.000541723
17 *2880:A1 *307:8 4.7662e-05
18 *299:10 *2844:B1_N 0.000161938
19 *299:10 *300:36 2.14129e-05
20 *299:10 *495:8 4.38051e-05
21 *299:10 *495:10 0.000186099
22 *299:12 *2846:B1 0.000116853
23 *299:12 *300:36 0.000131408
24 *299:12 *495:10 2.07184e-05
25 *298:19 *299:10 5.83121e-06
*RES
1 *2844:X *299:10 9.12 
2 *299:10 *299:12 1.635 
3 *299:12 *2851:A1 9.78 
4 *299:12 *2880:A1 14.98 
5 *299:10 *2857:B1 4.74 
*END

*D_NET *300 0.00368018
*CONN
*I *2848:B1 I *D sky130_fd_sc_hd__o21ai_2
*I *2878:C1 I *D sky130_fd_sc_hd__o211ai_2
*I *2855:B1 I *D sky130_fd_sc_hd__o21ai_2
*I *2853:B1 I *D sky130_fd_sc_hd__o211a_2
*I *2845:Y O *D sky130_fd_sc_hd__o21bai_4
*CAP
1 *2848:B1 0
2 *2878:C1 0.000214593
3 *2855:B1 0
4 *2853:B1 0.000168058
5 *2845:Y 0.000529687
6 *300:40 0.000285878
7 *300:36 0.000432913
8 *2853:B1 *2846:B1 4.77757e-05
9 *2853:B1 *2853:A2 4.89295e-05
10 *2878:C1 *2878:A2 4.58166e-05
11 *2878:C1 *2886:A3 4.99619e-05
12 *2878:C1 *303:12 7.49327e-05
13 *2878:C1 *309:10 1.17409e-05
14 *300:36 *2845:B1_N 5.83121e-06
15 *300:36 *302:16 8.65961e-05
16 *300:36 *303:12 2.30292e-05
17 *300:36 *308:10 0
18 *300:40 *2848:A2 0
19 *300:40 *2855:A2 0
20 *300:40 *2878:A2 2.7441e-05
21 *300:40 *302:16 8.82557e-05
22 *300:40 *303:12 0.000325062
23 *2844:A1 *2853:B1 1.89685e-05
24 *2851:A1 *300:36 0.000409139
25 *2853:C1 *2853:B1 4.43871e-06
26 *2853:C1 *300:36 0.000406771
27 *2878:A1 *2878:C1 3.00381e-05
28 *2878:A1 *300:40 5.30673e-05
29 *298:19 *2853:B1 3.11927e-05
30 *298:30 *300:36 5.36514e-05
31 *298:36 *300:36 5.35919e-05
32 *299:10 *300:36 2.14129e-05
33 *299:12 *300:36 0.000131408
*RES
1 *2845:Y *2853:B1 10.35 
2 *2845:Y *300:36 15.965 
3 *300:36 *300:40 3.225 
4 *300:40 *2855:B1 1.6 
5 *300:40 *2878:C1 5.62 
6 *300:36 *2848:B1 1.6 
*END

*D_NET *301 0.00227702
*CONN
*I *2853:A2 I *D sky130_fd_sc_hd__o211a_2
*I *2847:B1 I *D sky130_fd_sc_hd__a21oi_2
*I *2854:A1 I *D sky130_fd_sc_hd__o22a_2
*I *2848:A2 I *D sky130_fd_sc_hd__o21ai_2
*I *2846:Y O *D sky130_fd_sc_hd__o21ai_2
*CAP
1 *2853:A2 0.0001384
2 *2847:B1 2.08307e-05
3 *2854:A1 0
4 *2848:A2 0.000199235
5 *2846:Y 6.93398e-05
6 *301:14 0.000395153
7 *301:10 0.000298224
8 *301:6 0.000289215
9 *2847:B1 *302:10 2.75229e-05
10 *2848:A2 *302:16 2.01504e-05
11 *2848:A2 *303:12 4.00541e-06
12 *2853:A2 *2846:B1 5.899e-05
13 *301:6 *2846:B1 1.046e-05
14 *301:10 *460:45 0
15 *301:14 *2851:B1 0.00020779
16 *301:14 *302:10 5.99925e-05
17 *2853:B1 *2853:A2 4.89295e-05
18 *2853:C1 *2847:B1 7.00889e-06
19 *2853:C1 *2853:A2 4.77757e-05
20 *2853:C1 *301:10 9.5433e-05
21 *2854:A2 *2848:A2 0.000229044
22 *2854:B2 *2848:A2 1.20052e-05
23 *298:36 *2848:A2 3.75126e-05
24 *298:36 *301:10 0
25 *298:36 *301:14 0
26 *300:40 *2848:A2 0
*RES
1 *2846:Y *301:6 2.395 
2 *301:6 *301:10 3.635 
3 *301:10 *301:14 6.185 
4 *301:14 *2848:A2 5.185 
5 *301:14 *2854:A1 1.6 
6 *301:10 *2847:B1 4.05 
7 *301:6 *2853:A2 4.405 
*END

*D_NET *302 0.00261109
*CONN
*I *2851:A2 I *D sky130_fd_sc_hd__o21ai_2
*I *2878:A2 I *D sky130_fd_sc_hd__o211ai_2
*I *2855:A2 I *D sky130_fd_sc_hd__o21ai_2
*I *2847:Y O *D sky130_fd_sc_hd__a21oi_2
*CAP
1 *2851:A2 7.80286e-05
2 *2878:A2 0.000132971
3 *2855:A2 2.08101e-05
4 *2847:Y 0.000133055
5 *302:16 0.000383847
6 *302:10 0.00044115
7 *2851:A2 *2852:A 6.69608e-06
8 *2878:A2 *308:10 1.16578e-05
9 *2878:A2 *309:10 0.000201503
10 *302:16 *2851:B1 0.000185405
11 *302:16 *308:10 0.000300315
12 *2847:B1 *302:10 2.75229e-05
13 *2848:A2 *302:16 2.01504e-05
14 *2853:C1 *302:10 1.03323e-05
15 *2854:A2 *302:16 0.000161467
16 *2878:A1 *2855:A2 0
17 *2878:A1 *2878:A2 0.000140303
18 *2878:C1 *2878:A2 4.58166e-05
19 *298:36 *302:16 4.77719e-05
20 *300:36 *302:16 8.65961e-05
21 *300:40 *2855:A2 0
22 *300:40 *2878:A2 2.7441e-05
23 *300:40 *302:16 8.82557e-05
24 *301:14 *302:10 5.99925e-05
*RES
1 *2847:Y *302:10 5.775 
2 *302:10 *302:16 9.08 
3 *302:16 *2855:A2 1.96 
4 *302:16 *2878:A2 5.44 
5 *302:10 *2851:A2 4.74 
*END

*D_NET *303 0.00288208
*CONN
*I *2885:C I *D sky130_fd_sc_hd__nor4_4
*I *2850:C1 I *D sky130_fd_sc_hd__a211o_2
*I *2848:Y O *D sky130_fd_sc_hd__o21ai_2
*CAP
1 *2885:C 5.77677e-05
2 *2850:C1 0.000227429
3 *2848:Y 0.000468923
4 *303:12 0.000754119
5 *2850:C1 *3106:A 0
6 *303:12 *3106:A 0
7 *2848:A2 *303:12 4.00541e-06
8 *2850:A1 *2850:C1 0.000237243
9 *2878:C1 *303:12 7.49327e-05
10 *2885:A *2885:C 2.16917e-05
11 *254:41 *2850:C1 0.000238919
12 *296:21 *2850:C1 0.000192721
13 *296:21 *303:12 1.52184e-05
14 *296:27 *2885:C 8.49205e-05
15 *296:49 *303:12 0.000156098
16 *300:36 *303:12 2.30292e-05
17 *300:40 *303:12 0.000325062
*RES
1 *2848:Y *303:12 11.535 
2 *303:12 *2850:C1 9.96 
3 *303:12 *2885:C 4.74 
*END

*D_NET *304 0.000975423
*CONN
*I *2851:B1 I *D sky130_fd_sc_hd__o21ai_2
*I *2849:Y O *D sky130_fd_sc_hd__o2bb2ai_2
*CAP
1 *2851:B1 0.000210732
2 *2849:Y 0.000210732
3 *2851:B1 *2852:A 0
4 *2851:B1 *3106:A 0.000123589
5 *287:23 *2851:B1 3.71759e-05
6 *301:14 *2851:B1 0.00020779
7 *302:16 *2851:B1 0.000185405
*RES
1 *2849:Y *2851:B1 12.27 
*END

*D_NET *305 0.00121418
*CONN
*I *2852:B I *D sky130_fd_sc_hd__nand2_4
*I *2850:X O *D sky130_fd_sc_hd__a211o_2
*CAP
1 *2852:B 0.000333118
2 *2850:X 0.000333118
3 *2850:A1 *2852:B 7.00889e-06
4 *2850:A2 *2852:B 3.72916e-05
5 *2850:B1 *2852:B 0.000339893
6 *2853:C1 *2852:B 0
7 *2855:A1 *2852:B 6.85516e-05
8 *254:41 *2852:B 9.27255e-06
9 *287:25 *2852:B 8.59296e-05
*RES
1 *2850:X *2852:B 14.055 
*END

*D_NET *306 0.000950381
*CONN
*I *2852:A I *D sky130_fd_sc_hd__nand2_4
*I *2851:Y O *D sky130_fd_sc_hd__o21ai_2
*CAP
1 *2852:A 0.000226732
2 *2851:Y 0.000226732
3 *2851:A1 *2852:A 2.49909e-05
4 *2851:A2 *2852:A 6.69608e-06
5 *2851:B1 *2852:A 0
6 *2853:C1 *2852:A 0.00031209
7 *298:36 *2852:A 0.000153139
*RES
1 *2851:Y *2852:A 12.015 
*END

*D_NET *307 0.00344513
*CONN
*I *2876:A I *D sky130_fd_sc_hd__and3_2
*I *2857:A1_N I *D sky130_fd_sc_hd__o2bb2ai_2
*I *2865:A2 I *D sky130_fd_sc_hd__a211o_2
*I *2853:X O *D sky130_fd_sc_hd__o211a_2
*CAP
1 *2876:A 0.000365977
2 *2857:A1_N 9.94476e-05
3 *2865:A2 8.74098e-05
4 *2853:X 0.000359166
5 *307:19 0.00059024
6 *307:8 0.000571391
7 *2857:A1_N *2857:A2_N 0.00016063
8 *2865:A2 *2866:A 0
9 *2865:A2 *3201:A 0.00015829
10 *2865:A2 *318:10 0
11 *2876:A *3201:A 0.00017688
12 *2876:A *3202:A 0
13 *307:8 *2846:B1 4.51031e-05
14 *307:8 *2866:A 0.000234669
15 *307:8 *2879:A2 0.00015639
16 *307:8 *2880:A2 0.000106377
17 *307:19 *3201:A 0.000211914
18 S[21] *2876:A 7.35813e-05
19 *2880:A1 *307:8 4.7662e-05
20 *296:64 *307:19 0
*RES
1 *2853:X *307:8 10.605 
2 *307:8 *2865:A2 5.49 
3 *307:8 *307:19 2.655 
4 *307:19 *2857:A1_N 5.43 
5 *307:19 *2876:A 9.9 
*END

*D_NET *308 0.00379674
*CONN
*I *2857:B2 I *D sky130_fd_sc_hd__o2bb2ai_2
*I *2880:A2 I *D sky130_fd_sc_hd__o31a_2
*I *2854:X O *D sky130_fd_sc_hd__o22a_2
*CAP
1 *2857:B2 0.000108605
2 *2880:A2 0.000178198
3 *2854:X 0.00098541
4 *308:10 0.00127221
5 *2857:B2 *2846:B1 0
6 *2857:B2 *2866:B 0
7 *2857:B2 *2867:A 0
8 *2880:A2 *2866:A 4.60584e-05
9 *2880:A2 *2880:A3 3.26889e-05
10 *2880:A2 *2882:A1 0.000122331
11 *308:10 *2866:B 0
12 *308:10 *2867:A 0
13 *308:10 *2879:A2 0
14 *308:10 *309:10 0
15 *2851:A1 *308:10 0
16 *2854:A2 *308:10 5.54859e-05
17 *2854:B2 *308:10 3.56746e-05
18 *2878:A2 *308:10 1.16578e-05
19 *2880:A1 *2880:A2 0.000541723
20 *296:49 *308:10 0
21 *300:36 *308:10 0
22 *302:16 *308:10 0.000300315
23 *307:8 *2880:A2 0.000106377
*RES
1 *2854:X *308:10 17.265 
2 *308:10 *2880:A2 9.24 
3 *308:10 *2857:B2 5.235 
*END

*D_NET *309 0.00253748
*CONN
*I *2879:A2 I *D sky130_fd_sc_hd__o21ai_2
*I *2856:A I *D sky130_fd_sc_hd__inv_2
*I *2855:Y O *D sky130_fd_sc_hd__o21ai_2
*CAP
1 *2879:A2 0.000447172
2 *2856:A 4.51661e-05
3 *2855:Y 0.000273919
4 *309:10 0.000766257
5 *2856:A *2865:B1 4.82863e-05
6 *2879:A2 *2866:A 8.82557e-05
7 *2879:A2 *2867:A 0
8 *2879:A2 *2867:B 6.36578e-05
9 *2879:A2 *2880:B1 0.000105898
10 *2879:A2 *3201:A 7.21296e-06
11 *309:10 *2878:B1 6.55328e-05
12 *309:10 *3201:A 7.03934e-05
13 *2878:A2 *309:10 0.000201503
14 *2878:C1 *309:10 1.17409e-05
15 *296:49 *309:10 0.000186092
16 *307:8 *2879:A2 0.00015639
17 *308:10 *2879:A2 0
18 *308:10 *309:10 0
*RES
1 *2855:Y *309:10 9.195 
2 *309:10 *2856:A 4.395 
3 *309:10 *2879:A2 10.35 
*END

*D_NET *310 0.000536802
*CONN
*I *2865:B1 I *D sky130_fd_sc_hd__a211o_2
*I *2856:Y O *D sky130_fd_sc_hd__inv_2
*CAP
1 *2865:B1 0.000212309
2 *2856:Y 0.000212309
3 *2865:B1 *2865:A1 6.38983e-05
4 *2856:A *2865:B1 4.82863e-05
*RES
1 *2856:Y *2865:B1 7.355 
*END

*D_NET *311 0.000367952
*CONN
*I *2866:B I *D sky130_fd_sc_hd__nand2_2
*I *2857:Y O *D sky130_fd_sc_hd__o2bb2ai_2
*CAP
1 *2866:B 0.000115538
2 *2857:Y 0.000115538
3 *2866:B *2867:A 0.000136877
4 *2857:B2 *2866:B 0
5 *308:10 *2866:B 0
*RES
1 *2857:Y *2866:B 9.285 
*END

*D_NET *312 0.00138617
*CONN
*I *2861:A_N I *D sky130_fd_sc_hd__nand3b_4
*I *2863:A1 I *D sky130_fd_sc_hd__o21bai_4
*I *2862:A1 I *D sky130_fd_sc_hd__o21ba_2
*I *2858:Y O *D sky130_fd_sc_hd__nor2_4
*CAP
1 *2861:A_N 4.45744e-05
2 *2863:A1 9.39288e-05
3 *2862:A1 0.000142691
4 *2858:Y 3.75281e-05
5 *312:17 0.000233313
6 *312:6 0.000275029
7 *2861:A_N *315:14 8.65961e-05
8 *2861:A_N *506:10 0.000161529
9 *2862:A1 *2858:A 4.82863e-05
10 *2863:A1 *3198:A 8.97486e-05
11 *2863:A1 *553:8 0
12 *312:6 *2858:A 2.06853e-05
13 *312:6 *2858:B 4.82863e-05
14 *312:17 *3198:A 0.000103974
15 *312:17 *553:8 0
*RES
1 *2858:Y *312:6 2.395 
2 *312:6 *2862:A1 3.775 
3 *312:6 *312:17 4.145 
4 *312:17 *2863:A1 5.49 
5 *312:17 *2861:A_N 5.085 
*END

*D_NET *313 0.00143625
*CONN
*I *2863:A2 I *D sky130_fd_sc_hd__o21bai_4
*I *2862:A2 I *D sky130_fd_sc_hd__o21ba_2
*I *2859:X O *D sky130_fd_sc_hd__and2_4
*CAP
1 *2863:A2 0
2 *2862:A2 0.000341005
3 *2859:X 0.000191298
4 *313:8 0.000532303
5 *2862:A2 *317:6 7.00889e-06
6 *2862:A2 *462:10 0.000364639
7 *2862:A2 *553:8 0
*RES
1 *2859:X *313:8 4.48 
2 *313:8 *2862:A2 12.305 
3 *313:8 *2863:A2 1.6 
*END

*D_NET *314 0.000993387
*CONN
*I *2861:B I *D sky130_fd_sc_hd__nand3b_4
*I *2860:Y O *D sky130_fd_sc_hd__nand2_2
*CAP
1 *2861:B 0.000288981
2 *2860:Y 0.000288981
3 *2861:B *2858:B 0.000129109
4 *2861:B *3198:A 8.08439e-05
5 *2861:B *552:14 6.38806e-05
6 *3120:A *2861:B 0.000141592
*RES
1 *2860:Y *2861:B 12.045 
*END

*D_NET *315 0.00301256
*CONN
*I *3235:A I *D sky130_fd_sc_hd__buf_2
*I *2884:B1 I *D sky130_fd_sc_hd__o2111ai_4
*I *2861:Y O *D sky130_fd_sc_hd__nand3b_4
*CAP
1 *3235:A 0
2 *2884:B1 0.000226106
3 *2861:Y 0.00067505
4 *315:14 0.000901156
5 *2884:B1 *2881:C1 0.000116853
6 *2884:B1 *2884:A1 0
7 *2884:B1 *2884:A2 0
8 *2884:B1 *2886:A1 0.000202727
9 *2884:B1 *2886:A3 5.72004e-05
10 *2884:B1 *3237:A 0
11 *2884:B1 *325:25 0
12 *2884:B1 *491:8 6.55406e-05
13 *2884:B1 *491:32 3.24046e-05
14 *2884:B1 *493:12 0
15 *315:14 *2879:A1 0.000204456
16 *315:14 *2881:C1 0.000121884
17 *315:14 *2882:A2 0.000185849
18 *315:14 *329:8 1.01661e-05
19 *315:14 *506:10 0.000126575
20 *315:14 *507:12 0
21 *2861:A_N *315:14 8.65961e-05
*RES
1 *2861:Y *315:14 18.185 
2 *315:14 *2884:B1 11.57 
3 *315:14 *3235:A 1.6 
*END

*D_NET *316 0.00257858
*CONN
*I *2880:A3 I *D sky130_fd_sc_hd__o31a_2
*I *2879:A1 I *D sky130_fd_sc_hd__o21ai_2
*I *2862:X O *D sky130_fd_sc_hd__o21ba_2
*CAP
1 *2880:A3 2.7107e-05
2 *2879:A1 0.000626682
3 *2862:X 0.000599575
4 *2879:A1 *2862:B1_N 2.11084e-05
5 *2879:A1 *2876:C 0
6 *2879:A1 *2882:A1 0.000125305
7 *2879:A1 *2883:A 9.24127e-05
8 *2879:A1 *2883:B 9.27326e-05
9 *2879:A1 *3203:A 9.50342e-06
10 *2879:A1 *317:6 0.000196381
11 *2879:A1 *317:12 0.000158066
12 *2879:A1 *329:8 0
13 *2879:A1 *507:12 0
14 *2880:A3 *2866:A 2.30292e-05
15 *2880:A3 *2880:B1 0.00012063
16 *2880:A3 *2882:A1 0.00012657
17 *2877:B *2879:A1 0.000122331
18 *2880:A2 *2880:A3 3.26889e-05
19 *315:14 *2879:A1 0.000204456
*RES
1 *2862:X *2879:A1 18.915 
2 *2879:A1 *2880:A3 5.06 
*END

*D_NET *317 0.00486746
*CONN
*I *2876:C I *D sky130_fd_sc_hd__and3_2
*I *2864:B I *D sky130_fd_sc_hd__nand2_2
*I *2878:B1 I *D sky130_fd_sc_hd__o211ai_2
*I *2884:D1 I *D sky130_fd_sc_hd__o2111ai_4
*I *2863:Y O *D sky130_fd_sc_hd__o21bai_4
*CAP
1 *2876:C 0.000179507
2 *2864:B 2.08101e-05
3 *2878:B1 0.00010254
4 *2884:D1 0.00024167
5 *2863:Y 0.000418375
6 *317:27 0.000258236
7 *317:12 0.000653889
8 *317:6 0.000875216
9 *2876:C *2876:B 0.000281013
10 *2876:C *2877:A 0.000139238
11 *2876:C *2881:C1 2.23485e-05
12 *2876:C *2883:A 3.04982e-05
13 *2876:C *329:8 0.000156155
14 *2876:C *491:32 6.08203e-05
15 *2878:B1 *3201:A 0.000187759
16 *2884:D1 *2884:C1 8.47629e-05
17 *2884:D1 *2886:A1 0
18 *2884:D1 *3201:A 0
19 *317:6 *2882:A1 3.99879e-05
20 *317:12 *2881:B1 1.70935e-05
21 *317:12 *3201:A 0
22 *317:12 *491:8 0
23 *317:12 *491:32 0
24 *317:27 *2864:A 0.000278111
25 *2862:A2 *317:6 7.00889e-06
26 *2877:B *317:12 2.0514e-05
27 *2879:A1 *2876:C 0
28 *2879:A1 *317:6 0.000196381
29 *2879:A1 *317:12 0.000158066
30 *296:49 *2878:B1 5.70541e-05
31 *296:49 *317:12 0.00011852
32 *296:49 *317:27 3.23663e-05
33 *296:58 *317:12 0.000163985
34 *309:10 *2878:B1 6.55328e-05
*RES
1 *2863:Y *317:6 7.915 
2 *317:6 *317:12 7.76 
3 *317:12 *2884:D1 7.98 
4 *317:12 *317:27 5.21 
5 *317:27 *2878:B1 8.54 
6 *317:27 *2864:B 1.96 
7 *317:6 *2876:C 11 
*END

*D_NET *318 0.00147914
*CONN
*I *2866:A I *D sky130_fd_sc_hd__nand2_2
*I *2865:C1 I *D sky130_fd_sc_hd__a211o_2
*I *2864:Y O *D sky130_fd_sc_hd__nand2_2
*CAP
1 *2866:A 0.000243378
2 *2865:C1 0
3 *2864:Y 0.000117949
4 *318:10 0.000361327
5 *2866:A *2880:B1 2.11921e-05
6 *2866:A *2882:A1 1.12578e-05
7 *318:10 *2864:A 4.99619e-05
8 *318:10 *3201:A 0
9 *2865:A2 *2866:A 0
10 *2865:A2 *318:10 0
11 *2879:A2 *2866:A 8.82557e-05
12 *2880:A1 *2866:A 0.000233781
13 *2880:A2 *2866:A 4.60584e-05
14 *2880:A3 *2866:A 2.30292e-05
15 *296:49 *2866:A 0
16 *296:49 *318:10 4.82863e-05
17 *296:58 *2866:A 0
18 *307:8 *2866:A 0.000234669
*RES
1 *2864:Y *318:10 5.685 
2 *318:10 *2865:C1 3.6 
3 *318:10 *2866:A 9.765 
*END

*D_NET *319 0.00109174
*CONN
*I *2867:B I *D sky130_fd_sc_hd__nand2_4
*I *2865:X O *D sky130_fd_sc_hd__a211o_2
*CAP
1 *2867:B 0.000240147
2 *2865:X 0.000240147
3 *2867:B *2867:A 0
4 *2867:B *3201:A 0.000530394
5 *2867:B *3202:A 0
6 S[21] *2867:B 0
7 *2879:A2 *2867:B 6.36578e-05
8 *2880:A1 *2867:B 1.7396e-05
*RES
1 *2865:X *2867:B 13.425 
*END

*D_NET *320 0.000717336
*CONN
*I *2867:A I *D sky130_fd_sc_hd__nand2_4
*I *2866:Y O *D sky130_fd_sc_hd__nand2_2
*CAP
1 *2867:A 0.000264198
2 *2866:Y 0.000264198
3 *2867:A *495:10 0
4 S[21] *2867:A 3.25831e-05
5 *2857:B2 *2867:A 0
6 *2866:B *2867:A 0.000136877
7 *2867:B *2867:A 0
8 *2879:A2 *2867:A 0
9 *2880:A1 *2867:A 1.94805e-05
10 *308:10 *2867:A 0
*RES
1 *2866:Y *2867:A 12.15 
*END

*D_NET *321 0.000845981
*CONN
*I *2871:A2 I *D sky130_fd_sc_hd__o21bai_4
*I *2870:A1 I *D sky130_fd_sc_hd__o21ba_2
*I *2868:Y O *D sky130_fd_sc_hd__nor2_2
*CAP
1 *2871:A2 0
2 *2870:A1 0.000106597
3 *2868:Y 0.000104568
4 *321:8 0.000211165
5 *2870:A1 *2868:B 1.91597e-05
6 *2870:A1 *2870:B1_N 0
7 *2870:A1 *2872:A1 0
8 *2870:A1 *2886:B1 0
9 *2870:A1 *3198:A 0.000164679
10 *2870:A1 *462:10 0
11 *321:8 *2868:B 0.000239813
*RES
1 *2868:Y *321:8 4.135 
2 *321:8 *2870:A1 7.94 
3 *321:8 *2871:A2 1.6 
*END

*D_NET *322 0.00325921
*CONN
*I *2870:A2 I *D sky130_fd_sc_hd__o21ba_2
*I *2884:A1 I *D sky130_fd_sc_hd__o2111ai_4
*I *2874:A1 I *D sky130_fd_sc_hd__o21a_2
*I *2871:A1 I *D sky130_fd_sc_hd__o21bai_4
*I *2875:A1 I *D sky130_fd_sc_hd__o21ai_2
*I *2869:X O *D sky130_fd_sc_hd__and2_4
*CAP
1 *2870:A2 0.000342229
2 *2884:A1 0.000468986
3 *2874:A1 4.78923e-05
4 *2871:A1 0.000200994
5 *2875:A1 0.000381477
6 *2869:X 0
7 *322:33 0.000194255
8 *322:4 0.000562866
9 *2871:A1 *3198:A 0
10 *2871:A1 *463:41 0
11 *2871:A1 *463:45 8.95933e-05
12 *2871:A1 *463:71 0
13 *2874:A1 *2874:A2 4.82863e-05
14 *2874:A1 *2874:B1 3.40435e-05
15 *2874:A1 *2875:A2 4.66108e-05
16 *2875:A1 *2869:B 8.65961e-05
17 *2875:A1 *2872:A1 8.82557e-05
18 *2875:A1 *2875:A2 4.00541e-06
19 *2875:A1 *2882:B1 1.83756e-05
20 *2875:A1 *463:45 0.000111285
21 *2884:A1 *2873:A1 0.000120186
22 *2884:A1 *2873:A2 0
23 *2884:A1 *2884:A2 0.000163019
24 *2884:A1 *3237:A 5.21714e-05
25 *2884:A1 *325:25 0.000160665
26 *2884:A1 *507:12 0
27 *322:33 *2875:A2 3.74161e-05
28 *2884:B1 *2884:A1 0
*RES
1 *2869:X *322:4 1.6 
2 *322:4 *2875:A1 7.585 
3 *322:4 *2871:A1 8.975 
4 *2875:A1 *322:33 2.05 
5 *322:33 *2874:A1 2.755 
6 *322:33 *2884:A1 9.53 
7 *2884:A1 *2870:A2 8.135 
*END

*D_NET *323 0.000824581
*CONN
*I *2886:B1 I *D sky130_fd_sc_hd__a31oi_2
*I *2870:X O *D sky130_fd_sc_hd__o21ba_2
*CAP
1 *2886:B1 0.0003009
2 *2870:X 0.0003009
3 *2886:B1 *2870:B1_N 7.63883e-05
4 *2886:B1 *3198:A 0
5 *2886:B1 *337:23 0.000146392
6 *2886:B1 *462:10 0
7 *2870:A1 *2886:B1 0
*RES
1 *2870:X *2886:B1 13.065 
*END

*D_NET *324 0.00255662
*CONN
*I *3237:A I *D sky130_fd_sc_hd__buf_2
*I *2884:C1 I *D sky130_fd_sc_hd__o2111ai_4
*I *2871:Y O *D sky130_fd_sc_hd__o21bai_4
*CAP
1 *3237:A 0.000146318
2 *2884:C1 0.000366328
3 *2871:Y 0.000199955
4 *324:6 0.0007126
5 *2884:C1 *2886:A1 0.000208484
6 *2884:C1 *2886:A3 8.8196e-05
7 *2884:C1 *325:6 7.35813e-05
8 *2884:C1 *325:10 2.49909e-05
9 *3237:A *2881:C1 0
10 *3237:A *493:12 0
11 *3237:A *507:12 0.00031682
12 *324:6 *325:6 4.21973e-05
13 *324:6 *507:19 4.21666e-05
14 *324:6 *553:16 0.000198046
15 *2884:A1 *3237:A 5.21714e-05
16 *2884:B1 *3237:A 0
17 *2884:D1 *2884:C1 8.47629e-05
*RES
1 *2871:Y *324:6 5.155 
2 *324:6 *2884:C1 12.59 
3 *324:6 *3237:A 9.275 
*END

*D_NET *325 0.00169589
*CONN
*I *2873:B1 I *D sky130_fd_sc_hd__a21o_2
*I *2875:A2 I *D sky130_fd_sc_hd__o21ai_2
*I *2874:A2 I *D sky130_fd_sc_hd__o21a_2
*I *2884:A2 I *D sky130_fd_sc_hd__o2111ai_4
*I *2872:Y O *D sky130_fd_sc_hd__o21ai_2
*CAP
1 *2873:B1 0
2 *2875:A2 0.000127489
3 *2874:A2 4.39804e-05
4 *2884:A2 8.03474e-05
5 *2872:Y 5.7166e-05
6 *325:25 0.00024984
7 *325:10 0.000187692
8 *325:6 8.61402e-05
9 *2874:A2 *2874:B1 1.61831e-05
10 *2875:A2 *2882:B1 5.83121e-06
11 *2884:A2 *2886:A2 0.000141606
12 *325:6 *2873:A1 2.75229e-05
13 *325:6 *2873:A2 2.30292e-05
14 *325:6 *507:19 4.82919e-05
15 *2874:A1 *2874:A2 4.82863e-05
16 *2874:A1 *2875:A2 4.66108e-05
17 *2875:A1 *2875:A2 4.00541e-06
18 *2884:A1 *2884:A2 0.000163019
19 *2884:A1 *325:25 0.000160665
20 *2884:B1 *2884:A2 0
21 *2884:B1 *325:25 0
22 *2884:C1 *325:6 7.35813e-05
23 *2884:C1 *325:10 2.49909e-05
24 *322:33 *2875:A2 3.74161e-05
25 *324:6 *325:6 4.21973e-05
*RES
1 *2872:Y *325:6 3.43 
2 *325:6 *325:10 2.45 
3 *325:10 *2884:A2 5.94 
4 *325:10 *325:25 3.89 
5 *325:25 *2874:A2 2.395 
6 *325:25 *2875:A2 3.805 
7 *325:6 *2873:B1 1.6 
*END

*D_NET *326 0.000591432
*CONN
*I *2886:A2 I *D sky130_fd_sc_hd__a31oi_2
*I *2873:X O *D sky130_fd_sc_hd__a21o_2
*CAP
1 *2886:A2 9.98519e-05
2 *2873:X 9.98519e-05
3 *2886:A2 *2873:A1 7.16181e-05
4 *2886:A2 *2886:A3 0.000178504
5 *2884:A2 *2886:A2 0.000141606
*RES
1 *2873:X *2886:A2 10.875 
*END

*D_NET *327 0.00106667
*CONN
*I *2881:C1 I *D sky130_fd_sc_hd__a211oi_2
*I *2874:X O *D sky130_fd_sc_hd__o21a_2
*CAP
1 *2881:C1 0.000217157
2 *2874:X 0.000217157
3 *2881:C1 *2877:A 0.000139238
4 *2881:C1 *2882:A2 0.000140905
5 *2881:C1 *329:8 3.09233e-05
6 *2881:C1 *491:32 6.02104e-05
7 *2881:C1 *493:12 0
8 *2876:C *2881:C1 2.23485e-05
9 *2884:B1 *2881:C1 0.000116853
10 *3237:A *2881:C1 0
11 *315:14 *2881:C1 0.000121884
*RES
1 *2874:X *2881:C1 13.11 
*END

*D_NET *328 0.00114523
*CONN
*I *2882:B1 I *D sky130_fd_sc_hd__a21oi_4
*I *2875:Y O *D sky130_fd_sc_hd__o21ai_2
*CAP
1 *2882:B1 0.000271257
2 *2875:Y 0.000271257
3 *2882:B1 *2862:B1_N 1.34361e-05
4 *2882:B1 *2863:B1_N 8.08439e-05
5 *2882:B1 *462:10 0.00016323
6 *2882:B1 *507:12 0.000321003
7 *2875:A1 *2882:B1 1.83756e-05
8 *2875:A2 *2882:B1 5.83121e-06
*RES
1 *2875:Y *2882:B1 14.82 
*END

*D_NET *329 0.00124324
*CONN
*I *2881:A2 I *D sky130_fd_sc_hd__a211oi_2
*I *2877:A I *D sky130_fd_sc_hd__nand2_2
*I *2876:X O *D sky130_fd_sc_hd__and3_2
*CAP
1 *2881:A2 0.000187059
2 *2877:A 3.82227e-05
3 *2876:X 4.66393e-05
4 *329:8 0.000271921
5 *2881:A2 *2881:B1 8.49205e-05
6 *2881:A2 *2883:A 3.64998e-06
7 *329:8 *2883:A 5.21046e-05
8 *2876:C *2877:A 0.000139238
9 *2876:C *329:8 0.000156155
10 *2879:A1 *329:8 0
11 *2881:A1 *2881:A2 4.99619e-05
12 *2881:C1 *2877:A 0.000139238
13 *2881:C1 *329:8 3.09233e-05
14 *3222:A *2881:A2 3.30408e-05
15 *315:14 *329:8 1.01661e-05
*RES
1 *2876:X *329:8 5.49 
2 *329:8 *2877:A 5.235 
3 *329:8 *2881:A2 6.48 
*END

*D_NET *330 0.000511831
*CONN
*I *2882:A2 I *D sky130_fd_sc_hd__a21oi_4
*I *2877:Y O *D sky130_fd_sc_hd__nand2_2
*CAP
1 *2882:A2 8.9623e-05
2 *2877:Y 8.9623e-05
3 *2882:A2 *2883:A 5.83121e-06
4 *2881:C1 *2882:A2 0.000140905
5 *315:14 *2882:A2 0.000185849
*RES
1 *2877:Y *2882:A2 9.63 
*END

*D_NET *331 0.00152577
*CONN
*I *2886:A3 I *D sky130_fd_sc_hd__a31oi_2
*I *2878:Y O *D sky130_fd_sc_hd__o211ai_2
*CAP
1 *2886:A3 0.000575953
2 *2878:Y 0.000575953
3 *2886:A3 *2886:A1 0
4 *2878:C1 *2886:A3 4.99619e-05
5 *2884:B1 *2886:A3 5.72004e-05
6 *2884:C1 *2886:A3 8.8196e-05
7 *2886:A2 *2886:A3 0.000178504
*RES
1 *2878:Y *2886:A3 17.19 
*END

*D_NET *332 0.000578925
*CONN
*I *2881:B1 I *D sky130_fd_sc_hd__a211oi_2
*I *2879:Y O *D sky130_fd_sc_hd__o21ai_2
*CAP
1 *2881:B1 0.000135071
2 *2879:Y 0.000135071
3 *2881:B1 *2876:B 6.73424e-05
4 *2881:B1 *491:32 3.96041e-05
5 *2881:B1 *491:38 1.88904e-05
6 *2881:A2 *2881:B1 8.49205e-05
7 *296:58 *2881:B1 2.03321e-05
8 *296:64 *2881:B1 6.06004e-05
9 *317:12 *2881:B1 1.70935e-05
*RES
1 *2879:Y *2881:B1 10.65 
*END

*D_NET *333 0.00204283
*CONN
*I *2882:A1 I *D sky130_fd_sc_hd__a21oi_4
*I *2880:X O *D sky130_fd_sc_hd__o31a_2
*CAP
1 *2882:A1 0.000694624
2 *2880:X 0.000694624
3 *2882:A1 *2880:B1 0.000207628
4 *2882:A1 *507:12 0
5 *2866:A *2882:A1 1.12578e-05
6 *2877:B *2882:A1 2.05056e-05
7 *2879:A1 *2882:A1 0.000125305
8 *2880:A2 *2882:A1 0.000122331
9 *2880:A3 *2882:A1 0.00012657
10 *317:6 *2882:A1 3.99879e-05
*RES
1 *2880:X *2882:A1 16.62 
*END

*D_NET *334 0.000417092
*CONN
*I *2883:A I *D sky130_fd_sc_hd__nor2_4
*I *2881:Y O *D sky130_fd_sc_hd__a211oi_2
*CAP
1 *2883:A 0.000116297
2 *2881:Y 0.000116297
3 *2876:C *2883:A 3.04982e-05
4 *2879:A1 *2883:A 9.24127e-05
5 *2881:A2 *2883:A 3.64998e-06
6 *2882:A2 *2883:A 5.83121e-06
7 *329:8 *2883:A 5.21046e-05
*RES
1 *2881:Y *2883:A 9.885 
*END

*D_NET *335 0.000565367
*CONN
*I *2883:B I *D sky130_fd_sc_hd__nor2_4
*I *2882:Y O *D sky130_fd_sc_hd__a21oi_4
*CAP
1 *2883:B 0.000124335
2 *2882:Y 0.000124335
3 *2883:B *2862:B1_N 5.92849e-05
4 *2883:B *462:10 0
5 *2883:B *507:12 0.000164679
6 *2879:A1 *2883:B 9.27326e-05
*RES
1 *2882:Y *2883:B 10.575 
*END

*D_NET *336 0.00050299
*CONN
*I *2885:B I *D sky130_fd_sc_hd__nor4_4
*I *2884:Y O *D sky130_fd_sc_hd__o2111ai_4
*CAP
1 *2885:B 0.000251495
2 *2884:Y 0.000251495
3 *296:49 *2885:B 0
*RES
1 *2884:Y *2885:B 10.32 
*END

*D_NET *337 0.00518563
*CONN
*I *2889:B I *D sky130_fd_sc_hd__nand2_2
*I *2888:B I *D sky130_fd_sc_hd__and2_2
*I *2887:A1 I *D sky130_fd_sc_hd__a21oi_2
*I *2885:Y O *D sky130_fd_sc_hd__nor4_4
*CAP
1 *2889:B 2.32169e-05
2 *2888:B 0.000155445
3 *2887:A1 8.71091e-05
4 *2885:Y 0.000391756
5 *337:23 0.00175364
6 *337:6 0.00205384
7 *2887:A1 *2835:A 8.53113e-06
8 *2887:A1 *2887:B1 0
9 *337:6 *2886:A1 6.77062e-05
10 *337:23 *2886:A1 4.87317e-05
11 *337:23 *2887:B1 0.000122331
12 *337:23 *3187:A 9.37731e-05
13 *337:23 *548:12 4.19967e-05
14 *2840:B1 *2889:B 2.75229e-05
15 *2886:B1 *337:23 0.000146392
16 *2889:A *2888:B 0.000136168
17 *2889:A *337:23 4.43871e-06
18 *290:16 *2888:B 2.30292e-05
*RES
1 *2885:Y *337:6 6.19 
2 *337:6 *2887:A1 6.98 
3 *337:6 *337:23 21.65 
4 *337:23 *2888:B 6.63 
5 *337:23 *2889:B 4.05 
*END

*D_NET *338 0.000513013
*CONN
*I *2887:B1 I *D sky130_fd_sc_hd__a21oi_2
*I *2886:Y O *D sky130_fd_sc_hd__a31oi_2
*CAP
1 *2887:B1 0.000125078
2 *2886:Y 0.000125078
3 *2887:B1 *2873:A1 0.000136877
4 *2887:B1 *2886:A1 3.64998e-06
5 *2887:A1 *2887:B1 0
6 *337:23 *2887:B1 0.000122331
*RES
1 *2886:Y *2887:B1 9.975 
*END

*D_NET *339 0.00333495
*CONN
*I *3234:A I *D sky130_fd_sc_hd__buf_2
*I *3187:A I *D sky130_fd_sc_hd__buf_6
*I *2887:Y O *D sky130_fd_sc_hd__a21oi_2
*CAP
1 *3234:A 0.000151045
2 *3187:A 8.09812e-05
3 *2887:Y 0.000913074
4 *339:6 0.0011451
5 *3187:A *2900:C1 0
6 *3187:A *548:12 0
7 *339:6 *2818:A 8.51503e-05
8 *339:6 *2818:B 0.000241483
9 *339:6 *462:32 0.000159843
10 *339:6 *548:12 0.000464505
11 *337:23 *3187:A 9.37731e-05
*RES
1 *2887:Y *339:6 16.885 
2 *339:6 *3187:A 7.235 
3 *339:6 *3234:A 3.79 
*END

*D_NET *340 0.00259359
*CONN
*I *2890:C1 I *D sky130_fd_sc_hd__o221ai_2
*I *2888:X O *D sky130_fd_sc_hd__and2_2
*CAP
1 *2890:C1 0.000679498
2 *2888:X 0.000679498
3 *2890:C1 *2943:B 3.64998e-06
4 *2890:C1 *2944:C1 0.000210615
5 *2890:C1 *391:8 0.000263586
6 *2890:C1 *393:10 6.2061e-05
7 *2794:B2 *2890:C1 0.000166346
8 *2948:A2 *2890:C1 0.000183738
9 *253:12 *2890:C1 0.000344601
*RES
1 *2888:X *2890:C1 22.335 
*END

*D_NET *341 0.00108317
*CONN
*I *3238:A I *D sky130_fd_sc_hd__buf_2
*I *2943:A I *D sky130_fd_sc_hd__nor2_4
*I *2889:Y O *D sky130_fd_sc_hd__nand2_2
*CAP
1 *3238:A 0.000223457
2 *2943:A 0.000118758
3 *2889:Y 0.000107978
4 *341:8 0.000450193
5 *2943:A *342:10 0
6 *2943:A *393:10 1.70935e-05
7 *3238:A *342:10 0
8 *2840:B1 *341:8 0.00016569
9 *2889:A *2943:A 0
*RES
1 *2889:Y *341:8 6.12 
2 *341:8 *2943:A 5.49 
3 *341:8 *3238:A 7.14 
*END

*D_NET *342 0.00514498
*CONN
*I *2912:A1 I *D sky130_fd_sc_hd__a21boi_2
*I *2899:A1 I *D sky130_fd_sc_hd__a21o_2
*I *2898:A1 I *D sky130_fd_sc_hd__a21oi_2
*I *2929:A1 I *D sky130_fd_sc_hd__a21oi_4
*I *2890:Y O *D sky130_fd_sc_hd__o221ai_2
*CAP
1 *2912:A1 0.000141412
2 *2899:A1 0.000262176
3 *2898:A1 3.61513e-05
4 *2929:A1 0.000165638
5 *2890:Y 0.000559368
6 *342:21 0.000363279
7 *342:10 0.000931371
8 *2898:A1 *2898:A2 4.82863e-05
9 *2898:A1 *2911:A 0.000124895
10 *2899:A1 *2911:B 0
11 *2899:A1 *349:16 0
12 *2912:A1 *2899:A2 0.000353831
13 *2912:A1 *2912:A2 4.82919e-05
14 *2929:A1 *2929:A2 4.99619e-05
15 *342:10 *2900:A1 0.000141599
16 *342:10 *2944:C1 0.000520509
17 *342:10 *2958:A2 0.000189056
18 *342:10 *391:8 0.000524531
19 *342:10 *393:10 0
20 *342:10 *609:12 0
21 *342:21 *2898:A2 0
22 *342:21 *2900:A1 0.000141606
23 *342:21 *2900:A2 6.55328e-05
24 *342:21 *2900:B1 0
25 *342:21 *609:10 0
26 *342:21 *609:47 0
27 *2794:B1 *342:10 0.000141606
28 *2794:B2 *342:10 2.49909e-05
29 *2943:A *342:10 0
30 *3238:A *342:10 0
31 *245:25 *342:10 1.16578e-05
32 *254:12 *342:10 0.000299227
*RES
1 *2890:Y *342:10 20.565 
2 *342:10 *2929:A1 6.12 
3 *342:10 *342:21 4.185 
4 *342:21 *2898:A1 4.74 
5 *342:21 *2899:A1 5.43 
6 *2899:A1 *2912:A1 6.755 
*END

*D_NET *343 0.000924974
*CONN
*I *2896:A1 I *D sky130_fd_sc_hd__o21bai_2
*I *2894:A_N I *D sky130_fd_sc_hd__and3b_2
*I *2895:A_N I *D sky130_fd_sc_hd__nand3b_2
*I *2891:Y O *D sky130_fd_sc_hd__nor2_2
*CAP
1 *2896:A1 0
2 *2894:A_N 9.35039e-05
3 *2895:A_N 0
4 *2891:Y 3.53364e-05
5 *343:10 0.000145685
6 *343:6 8.75172e-05
7 *2894:A_N *2896:A2 0.000154881
8 *2894:A_N *509:18 3.76596e-05
9 *2894:A_N *554:14 4.18603e-06
10 *2894:A_N *554:16 8.26527e-05
11 *343:6 *474:40 5.05437e-05
12 *343:10 *2891:B 6.64979e-05
13 *343:10 *2896:A2 0.000162325
14 *343:10 *554:16 4.18603e-06
*RES
1 *2891:Y *343:6 2.395 
2 *343:6 *343:10 3.89 
3 *343:10 *2895:A_N 3.6 
4 *343:10 *2894:A_N 6.45 
5 *343:6 *2896:A1 1.6 
*END

*D_NET *344 0.000915647
*CONN
*I *2896:A2 I *D sky130_fd_sc_hd__o21bai_2
*I *2892:X O *D sky130_fd_sc_hd__and2_2
*CAP
1 *2896:A2 0.000152361
2 *2892:X 0.000152361
3 *2896:A2 *2896:B1_N 0.000163985
4 *2896:A2 *509:18 0.000129735
5 *2894:A_N *2896:A2 0.000154881
6 *343:10 *2896:A2 0.000162325
*RES
1 *2892:X *2896:A2 11.415 
*END

*D_NET *345 0.00071334
*CONN
*I *2894:B I *D sky130_fd_sc_hd__and3b_2
*I *2895:B I *D sky130_fd_sc_hd__nand3b_2
*I *2893:Y O *D sky130_fd_sc_hd__nand2_2
*CAP
1 *2894:B 9.5659e-05
2 *2895:B 1.77753e-05
3 *2893:Y 0.000186944
4 *345:8 0.000300378
5 *2894:B *2909:A1 6.55406e-05
6 *2894:B *509:18 4.7043e-05
*RES
1 *2893:Y *345:8 4.135 
2 *345:8 *2895:B 1.96 
3 *345:8 *2894:B 7.775 
*END

*D_NET *346 0.00106003
*CONN
*I *2909:A1 I *D sky130_fd_sc_hd__o21ai_2
*I *2894:X O *D sky130_fd_sc_hd__and3b_2
*CAP
1 *2909:A1 0.00020509
2 *2894:X 0.00020509
3 *2909:A1 *2896:B1_N 0
4 *2909:A1 *2897:A 0.000164679
5 *2909:A1 *2910:A 7.55391e-05
6 *2909:A1 *3204:A 0.000132723
7 *2909:A1 *347:10 0.000158297
8 *2909:A1 *349:10 5.30673e-05
9 *2909:A1 *509:18 0
10 *2894:B *2909:A1 6.55406e-05
*RES
1 *2894:X *2909:A1 13.455 
*END

*D_NET *347 0.00225802
*CONN
*I *2913:A1 I *D sky130_fd_sc_hd__a21oi_2
*I *2908:C I *D sky130_fd_sc_hd__nand3b_2
*I *2897:A I *D sky130_fd_sc_hd__nand2_2
*I *2895:Y O *D sky130_fd_sc_hd__nand3b_2
*CAP
1 *2913:A1 0.000453494
2 *2908:C 0.000180536
3 *2897:A 5.51254e-05
4 *2895:Y 0
5 *347:10 0.000358534
6 *347:4 0.000576367
7 *2897:A *2897:B 7.96171e-05
8 *2897:A *3204:A 0
9 *2908:C *2896:B1_N 4.66108e-05
10 *2908:C *474:40 0.000100738
11 *2913:A1 *2910:A 8.40269e-05
12 *347:10 *2896:B1_N 0
13 *347:10 *548:12 0
14 *2909:A1 *2897:A 0.000164679
15 *2909:A1 *347:10 0.000158297
*RES
1 *2895:Y *347:4 1.6 
2 *347:4 *347:10 4.34 
3 *347:10 *2897:A 5.745 
4 *347:10 *2908:C 6.825 
5 *347:4 *2913:A1 7.93 
*END

*D_NET *348 0.000265946
*CONN
*I *2897:B I *D sky130_fd_sc_hd__nand2_2
*I *2896:Y O *D sky130_fd_sc_hd__o21bai_2
*CAP
1 *2897:B 9.31644e-05
2 *2896:Y 9.31644e-05
3 *2897:B *548:12 0
4 *2897:A *2897:B 7.96171e-05
*RES
1 *2896:Y *2897:B 9.345 
*END

*D_NET *349 0.00288894
*CONN
*I *2928:A I *D sky130_fd_sc_hd__or3b_4
*I *2899:B1 I *D sky130_fd_sc_hd__a21o_2
*I *2911:A I *D sky130_fd_sc_hd__nor2_4
*I *2898:B1 I *D sky130_fd_sc_hd__a21oi_2
*I *2900:B1 I *D sky130_fd_sc_hd__o211ai_2
*I *2897:Y O *D sky130_fd_sc_hd__nand2_2
*CAP
1 *2928:A 0.000291481
2 *2899:B1 0
3 *2911:A 0.000153641
4 *2898:B1 7.58268e-05
5 *2900:B1 0.000175485
6 *2897:Y 0.000270433
7 *349:29 0.000229467
8 *349:16 0.000298812
9 *349:12 0.000217373
10 *349:10 0.000655959
11 *2900:B1 *2900:A2 4.43871e-06
12 *2900:B1 *2901:B 0
13 *2900:B1 *609:8 4.82863e-05
14 *2911:A *2898:A2 4.47209e-05
15 *349:10 *2908:B 8.68724e-05
16 *349:12 *2908:B 6.74079e-05
17 *349:12 *2909:A2 2.33678e-05
18 *349:16 *2901:B 0
19 *349:16 *2909:A2 6.74079e-05
20 *2898:A1 *2911:A 0.000124895
21 *2899:A1 *349:16 0
22 *2909:A1 *349:10 5.30673e-05
23 *342:21 *2900:B1 0
*RES
1 *2897:Y *349:10 8.01 
2 *349:10 *349:12 2.145 
3 *349:12 *349:16 2.34 
4 *349:16 *2900:B1 6.45 
5 *349:16 *349:29 2 
6 *349:29 *2898:B1 2.74 
7 *349:29 *2911:A 4.495 
8 *349:12 *2899:B1 3.6 
9 *349:10 *2928:A 7.845 
*END

*D_NET *350 0.00101
*CONN
*I *2909:A2 I *D sky130_fd_sc_hd__o21ai_2
*I *2898:Y O *D sky130_fd_sc_hd__a21oi_2
*CAP
1 *2909:A2 0.00016269
2 *2898:Y 0.00016269
3 *2909:A2 *2901:B 0
4 *2909:A2 *2908:B 0.000297754
5 *2909:A2 *3204:A 0.000296088
6 *349:12 *2909:A2 2.33678e-05
7 *349:16 *2909:A2 6.74079e-05
*RES
1 *2898:Y *2909:A2 12.66 
*END

*D_NET *351 0.00122719
*CONN
*I *2908:B I *D sky130_fd_sc_hd__nand3b_2
*I *2901:A I *D sky130_fd_sc_hd__and2_2
*I *2899:X O *D sky130_fd_sc_hd__a21o_2
*CAP
1 *2908:B 0.000155523
2 *2901:A 9.84213e-05
3 *2899:X 0.000253945
4 *2901:A *3204:A 7.60965e-05
5 *2908:B *2910:B 7.81954e-05
6 *2908:B *3204:A 0.000112971
7 *2909:A2 *2908:B 0.000297754
8 *349:10 *2908:B 8.68724e-05
9 *349:12 *2908:B 6.74079e-05
*RES
1 *2899:X *2901:A 5.03 
2 *2899:X *2908:B 12.915 
*END

*D_NET *352 0.000801853
*CONN
*I *2901:B I *D sky130_fd_sc_hd__and2_2
*I *2900:Y O *D sky130_fd_sc_hd__o211ai_2
*CAP
1 *2901:B 0.000342176
2 *2900:Y 0.000342176
3 *2901:B *3204:A 1.83756e-05
4 *2901:B *548:12 0
5 *2901:B *609:8 9.91257e-05
6 *2900:B1 *2901:B 0
7 *2909:A2 *2901:B 0
8 *349:16 *2901:B 0
*RES
1 *2900:Y *2901:B 12.555 
*END

*D_NET *353 0.000578113
*CONN
*I *2904:A1 I *D sky130_fd_sc_hd__o21ba_2
*I *2902:Y O *D sky130_fd_sc_hd__nor2_2
*CAP
1 *2904:A1 0.000192876
2 *2902:Y 0.000192876
3 *2904:A1 *2902:B 4.82863e-05
4 *2904:A1 *2904:A2 4.82863e-05
5 *2904:A1 *556:20 4.58257e-05
6 *3159:A *2904:A1 4.99619e-05
*RES
1 *2902:Y *2904:A1 6.755 
*END

*D_NET *354 0.000635326
*CONN
*I *2907:A1 I *D sky130_fd_sc_hd__o21bai_2
*I *2904:A2 I *D sky130_fd_sc_hd__o21ba_2
*I *2903:X O *D sky130_fd_sc_hd__and2_4
*CAP
1 *2907:A1 0
2 *2904:A2 0.000201947
3 *2903:X 5.47544e-05
4 *354:6 0.000256702
5 *2904:A2 *2906:B1 4.18603e-06
6 *2904:A2 *356:8 6.9451e-05
7 *2904:A2 *556:22 0
8 *2904:A1 *2904:A2 4.82863e-05
*RES
1 *2903:X *354:6 2.395 
2 *354:6 *2904:A2 9.35 
3 *354:6 *2907:A1 1.6 
*END

*D_NET *355 0.000548666
*CONN
*I *2907:B1_N I *D sky130_fd_sc_hd__o21bai_2
*I *2913:B1 I *D sky130_fd_sc_hd__a21oi_2
*I *2904:X O *D sky130_fd_sc_hd__o21ba_2
*CAP
1 *2907:B1_N 0
2 *2913:B1 1.72301e-05
3 *2904:X 0.000131119
4 *355:12 0.000148349
5 *2913:B1 *358:10 4.99619e-05
6 *355:12 *2904:B1_N 5.56629e-05
7 *355:12 *2906:B1 2.97004e-06
8 *355:12 *2913:A2 0
9 *355:12 *356:8 0.000105069
10 *355:12 *358:10 3.83041e-05
*RES
1 *2904:X *355:12 8.96 
2 *355:12 *2913:B1 2.05 
3 *355:12 *2907:B1_N 1.6 
*END

*D_NET *356 0.00106255
*CONN
*I *2907:A2 I *D sky130_fd_sc_hd__o21bai_2
*I *2906:B1 I *D sky130_fd_sc_hd__a21o_2
*I *2905:Y O *D sky130_fd_sc_hd__o21ai_2
*CAP
1 *2907:A2 0
2 *2906:B1 0.000170772
3 *2905:Y 0.000197868
4 *356:8 0.000368639
5 *2906:B1 *2906:A2 0
6 *2906:B1 *358:10 0
7 *2906:B1 *363:12 0
8 *2906:B1 *474:40 3.00381e-05
9 *356:8 *2904:B1_N 0
10 *356:8 *556:22 0
11 *2904:A2 *2906:B1 4.18603e-06
12 *2904:A2 *356:8 6.9451e-05
13 *3123:A *356:8 5.33085e-05
14 *3159:A *356:8 6.02447e-05
15 *355:12 *2906:B1 2.97004e-06
16 *355:12 *356:8 0.000105069
*RES
1 *2905:Y *356:8 8.295 
2 *356:8 *2906:B1 6.39 
3 *356:8 *2907:A2 3.6 
*END

*D_NET *357 0.000781011
*CONN
*I *2913:A2 I *D sky130_fd_sc_hd__a21oi_2
*I *2906:X O *D sky130_fd_sc_hd__a21o_2
*CAP
1 *2913:A2 0.000170565
2 *2906:X 0.000170565
3 *2913:A2 *2908:A_N 0.000124895
4 *2913:A2 *2910:B 0
5 *2913:A2 *358:10 4.19967e-05
6 *2913:A2 *474:40 0.00027299
7 *355:12 *2913:A2 0
*RES
1 *2906:X *2913:A2 11.355 
*END

*D_NET *358 0.00282061
*CONN
*I *2908:A_N I *D sky130_fd_sc_hd__nand3b_2
*I *2909:B1 I *D sky130_fd_sc_hd__o21ai_2
*I *2928:B I *D sky130_fd_sc_hd__or3b_4
*I *2911:B I *D sky130_fd_sc_hd__nor2_4
*I *2907:Y O *D sky130_fd_sc_hd__o21bai_2
*CAP
1 *2908:A_N 0.000132376
2 *2909:B1 0.000239744
3 *2928:B 0
4 *2911:B 0.000238355
5 *2907:Y 0.000243517
6 *358:14 0.000354819
7 *358:12 0.000466096
8 *358:10 0.000485781
9 *2908:A_N *474:40 0.000138175
10 *2911:B *2912:A2 2.15594e-05
11 *2911:B *2929:B1 0
12 *2911:B *609:62 7.89689e-05
13 *358:10 *363:12 6.02202e-05
14 *358:12 *363:12 0.000105841
15 *358:12 *363:18 0
16 *358:14 *363:18 0
17 *2899:A1 *2911:B 0
18 *2906:B1 *358:10 0
19 *2913:A2 *2908:A_N 0.000124895
20 *2913:A2 *358:10 4.19967e-05
21 *2913:B1 *358:10 4.99619e-05
22 *355:12 *358:10 3.83041e-05
*RES
1 *2907:Y *358:10 7.755 
2 *358:10 *358:12 2.4 
3 *358:12 *358:14 1.89 
4 *358:14 *2911:B 7.785 
5 *358:14 *2928:B 3.6 
6 *358:12 *2909:B1 7.155 
7 *358:10 *2908:A_N 6.81 
*END

*D_NET *359 0.00047355
*CONN
*I *2910:A I *D sky130_fd_sc_hd__nand2_2
*I *2908:Y O *D sky130_fd_sc_hd__nand3b_2
*CAP
1 *2910:A 8.85535e-05
2 *2908:Y 8.85535e-05
3 *2910:A *3204:A 0.000136877
4 *2909:A1 *2910:A 7.55391e-05
5 *2913:A1 *2910:A 8.40269e-05
*RES
1 *2908:Y *2910:A 9.63 
*END

*D_NET *360 0.000495878
*CONN
*I *2910:B I *D sky130_fd_sc_hd__nand2_2
*I *2909:Y O *D sky130_fd_sc_hd__o21ai_2
*CAP
1 *2910:B 0.000208841
2 *2909:Y 0.000208841
3 *2910:B *3204:A 0
4 *2908:B *2910:B 7.81954e-05
5 *2913:A2 *2910:B 0
*RES
1 *2909:Y *2910:B 10.62 
*END

*D_NET *361 0.00113008
*CONN
*I *2912:B1_N I *D sky130_fd_sc_hd__a21boi_2
*I *2941:A I *D sky130_fd_sc_hd__nand3_4
*I *2911:Y O *D sky130_fd_sc_hd__nor2_4
*CAP
1 *2912:B1_N 0.00011197
2 *2941:A 5.44016e-05
3 *2911:Y 6.05382e-05
4 *361:8 0.00022691
5 *2912:B1_N *2912:A2 4.43871e-06
6 *2912:B1_N *2929:B1 0.000163019
7 *2912:B1_N *362:8 0.000122331
8 *2912:B1_N *609:62 8.6099e-05
9 *2941:A *2929:B1 0.000187759
10 *2941:A *609:10 1.70935e-05
11 *2941:A *609:47 8.51478e-05
12 *2941:A *609:62 1.03755e-05
*RES
1 *2911:Y *361:8 4.395 
2 *361:8 *2941:A 5.745 
3 *361:8 *2912:B1_N 6.63 
*END

*D_NET *362 0.000914449
*CONN
*I *2921:A_N I *D sky130_fd_sc_hd__nand3b_2
*I *2920:A1 I *D sky130_fd_sc_hd__o21bai_2
*I *2912:Y O *D sky130_fd_sc_hd__a21boi_2
*CAP
1 *2921:A_N 0
2 *2920:A1 7.74017e-05
3 *2912:Y 0.00017272
4 *362:8 0.000250122
5 *2920:A1 *2921:B 2.84224e-05
6 *2920:A1 *2922:B 7.55391e-05
7 *2920:A1 *369:19 0.000101317
8 *362:8 *2921:C 8.65961e-05
9 *2912:B1_N *362:8 0.000122331
*RES
1 *2912:Y *362:8 4.825 
2 *362:8 *2920:A1 8 
3 *362:8 *2921:A_N 1.6 
*END

*D_NET *363 0.00231217
*CONN
*I *2930:A1 I *D sky130_fd_sc_hd__a21boi_2
*I *2920:A2 I *D sky130_fd_sc_hd__o21bai_2
*I *2914:A I *D sky130_fd_sc_hd__inv_2
*I *2913:Y O *D sky130_fd_sc_hd__a21oi_2
*CAP
1 *2930:A1 0.00027286
2 *2920:A2 9.76439e-05
3 *2914:A 6.83982e-05
4 *2913:Y 0.000357364
5 *363:18 0.000290407
6 *363:12 0.000754589
7 *2914:A *2928:C_N 5.05437e-05
8 *2914:A *369:8 5.83121e-06
9 *2920:A2 *2920:B1_N 0
10 *2920:A2 *369:8 8.43946e-05
11 *2930:A1 *2930:A2 4.99619e-05
12 *2930:A1 *3206:A 8.65905e-05
13 *2930:A1 *379:10 2.75229e-05
14 *363:18 *2922:B 0
15 *363:18 *3206:A 0
16 *2906:B1 *363:12 0
17 *358:10 *363:12 6.02202e-05
18 *358:12 *363:12 0.000105841
19 *358:12 *363:18 0
20 *358:14 *363:18 0
*RES
1 *2913:Y *363:12 11.885 
2 *363:12 *363:18 5.89 
3 *363:18 *2914:A 2.755 
4 *363:18 *2920:A2 3.445 
5 *363:12 *2930:A1 6.31 
*END

*D_NET *364 0.000737881
*CONN
*I *2921:B I *D sky130_fd_sc_hd__nand3b_2
*I *2914:Y O *D sky130_fd_sc_hd__inv_2
*CAP
1 *2921:B 0.000253852
2 *2914:Y 0.000253852
3 *2921:B *2922:B 7.06865e-05
4 *2921:B *2928:C_N 2.75145e-05
5 *2921:B *369:8 0.000103554
6 *2921:B *379:10 0
7 *2920:A1 *2921:B 2.84224e-05
*RES
1 *2914:Y *2921:B 11.01 
*END

*D_NET *365 0.000806787
*CONN
*I *2917:A I *D sky130_fd_sc_hd__or3b_4
*I *2918:A1 I *D sky130_fd_sc_hd__o21bai_2
*I *2915:Y O *D sky130_fd_sc_hd__nor2_2
*CAP
1 *2917:A 3.37454e-05
2 *2918:A1 0.00017406
3 *2915:Y 9.05633e-05
4 *365:8 0.000298369
5 *2918:A1 *2918:A2 9.05377e-05
6 *2918:A1 *2918:B1_N 0
7 *2918:A1 *367:8 5.39718e-05
8 *2918:A1 *517:10 0
9 *365:8 *2918:A2 4.43871e-06
10 *365:8 *366:8 6.11019e-05
11 *365:8 *517:10 0
*RES
1 *2915:Y *365:8 5.49 
2 *365:8 *2918:A1 6.99 
3 *365:8 *2917:A 4.05 
*END

*D_NET *366 0.000482554
*CONN
*I *2917:B I *D sky130_fd_sc_hd__or3b_4
*I *2918:A2 I *D sky130_fd_sc_hd__o21bai_2
*I *2916:X O *D sky130_fd_sc_hd__and2_2
*CAP
1 *2917:B 0
2 *2918:A2 0.000102338
3 *2916:X 6.09003e-05
4 *366:8 0.000163238
5 *2918:A2 *367:8 0
6 *2918:A1 *2918:A2 9.05377e-05
7 *365:8 *2918:A2 4.43871e-06
8 *365:8 *366:8 6.11019e-05
*RES
1 *2916:X *366:8 4.98 
2 *366:8 *2918:A2 5.745 
3 *366:8 *2917:B 3.6 
*END

*D_NET *367 0.00102386
*CONN
*I *2930:B1_N I *D sky130_fd_sc_hd__a21boi_2
*I *2919:A I *D sky130_fd_sc_hd__and2_2
*I *2917:X O *D sky130_fd_sc_hd__or3b_4
*CAP
1 *2930:B1_N 0
2 *2919:A 0.000136032
3 *2917:X 0.000127207
4 *367:8 0.00026324
5 *2919:A *2919:B 0.000212981
6 *2919:A *368:10 8.53113e-06
7 *2919:A *379:10 0
8 *367:8 *2918:B1_N 6.74079e-05
9 *367:8 *3206:A 0
10 *367:8 *368:10 0.000154488
11 *2918:A1 *367:8 5.39718e-05
12 *2918:A2 *367:8 0
*RES
1 *2917:X *367:8 7.02 
2 *367:8 *2919:A 6.54 
3 *367:8 *2930:B1_N 3.6 
*END

*D_NET *368 0.00127526
*CONN
*I *2930:A2 I *D sky130_fd_sc_hd__a21boi_2
*I *2919:B I *D sky130_fd_sc_hd__and2_2
*I *2918:Y O *D sky130_fd_sc_hd__o21bai_2
*CAP
1 *2930:A2 0.000136775
2 *2919:B 0.000176338
3 *2918:Y 0.000111535
4 *368:10 0.000424648
5 *2919:B *2920:B1_N 0
6 *2919:B *2922:A 0
7 *2919:B *3206:A 0
8 *2919:B *379:10 0
9 *368:10 *3206:A 0
10 *2919:A *2919:B 0.000212981
11 *2919:A *368:10 8.53113e-06
12 *2930:A1 *2930:A2 4.99619e-05
13 *367:8 *368:10 0.000154488
*RES
1 *2918:Y *368:10 5.94 
2 *368:10 *2919:B 6.99 
3 *368:10 *2930:A2 5.775 
*END

*D_NET *369 0.00199982
*CONN
*I *2920:B1_N I *D sky130_fd_sc_hd__o21bai_2
*I *2921:C I *D sky130_fd_sc_hd__nand3b_2
*I *2941:B I *D sky130_fd_sc_hd__nand3_4
*I *2928:C_N I *D sky130_fd_sc_hd__or3b_4
*I *2919:X O *D sky130_fd_sc_hd__and2_2
*CAP
1 *2920:B1_N 2.08101e-05
2 *2921:C 8.80431e-05
3 *2941:B 0.000237962
4 *2928:C_N 7.45961e-05
5 *2919:X 5.50924e-05
6 *369:19 0.000440167
7 *369:8 0.000368128
8 *369:6 0.000255273
9 *2941:B *2929:B1 0
10 *2941:B *376:26 0
11 *369:19 *2929:B1 0
12 *2914:A *2928:C_N 5.05437e-05
13 *2914:A *369:8 5.83121e-06
14 *2919:B *2920:B1_N 0
15 *2920:A1 *369:19 0.000101317
16 *2920:A2 *2920:B1_N 0
17 *2920:A2 *369:8 8.43946e-05
18 *2921:B *2928:C_N 2.75145e-05
19 *2921:B *369:8 0.000103554
20 *362:8 *2921:C 8.65961e-05
*RES
1 *2919:X *369:6 2.395 
2 *369:6 *369:8 3.555 
3 *369:8 *2928:C_N 3.085 
4 *369:8 *369:19 4.4 
5 *369:19 *2941:B 7.53 
6 *369:19 *2921:C 5.1 
7 *369:6 *2920:B1_N 1.96 
*END

*D_NET *370 0.00021164
*CONN
*I *2922:A I *D sky130_fd_sc_hd__nand2_2
*I *2920:Y O *D sky130_fd_sc_hd__o21bai_2
*CAP
1 *2922:A 7.00395e-05
2 *2920:Y 7.00395e-05
3 *2922:A *2922:B 5.72091e-05
4 *2922:A *3206:A 1.43521e-05
5 *2922:A *379:10 0
6 *2919:B *2922:A 0
*RES
1 *2920:Y *2922:A 8.835 
*END

*D_NET *371 0.000607714
*CONN
*I *2922:B I *D sky130_fd_sc_hd__nand2_2
*I *2921:Y O *D sky130_fd_sc_hd__nand3b_2
*CAP
1 *2922:B 0.00020214
2 *2921:Y 0.00020214
3 *2922:B *379:10 0
4 *2920:A1 *2922:B 7.55391e-05
5 *2921:B *2922:B 7.06865e-05
6 *2922:A *2922:B 5.72091e-05
7 *363:18 *2922:B 0
*RES
1 *2921:Y *2922:B 11.07 
*END

*D_NET *372 0.000656669
*CONN
*I *2925:A1 I *D sky130_fd_sc_hd__o21ba_2
*I *2926:A I *D sky130_fd_sc_hd__or3b_4
*I *2923:Y O *D sky130_fd_sc_hd__nor2_2
*CAP
1 *2925:A1 0
2 *2926:A 0.000132317
3 *2923:Y 7.49687e-05
4 *372:8 0.000207286
5 *2926:A *2923:A 5.12017e-06
6 *2926:A *2923:B 5.53249e-06
7 *2926:A *2926:B 0.000153257
8 *2926:A *2926:C_N 0
9 *2926:A *519:10 0
10 *372:8 *2923:B 7.81876e-05
11 *372:8 *519:10 0
*RES
1 *2923:Y *372:8 5.235 
2 *372:8 *2926:A 6.3 
3 *372:8 *2925:A1 3.6 
*END

*D_NET *373 0.000734898
*CONN
*I *2926:B I *D sky130_fd_sc_hd__or3b_4
*I *2925:A2 I *D sky130_fd_sc_hd__o21ba_2
*I *2924:X O *D sky130_fd_sc_hd__and2_4
*CAP
1 *2926:B 9.39241e-05
2 *2925:A2 0.000106332
3 *2924:X 0
4 *373:4 0.000200256
5 *2926:B *2923:A 1.64436e-05
6 *2926:B *2926:C_N 0
7 *2926:B *471:47 0.000164686
8 *2926:A *2926:B 0.000153257
*RES
1 *2924:X *373:4 1.6 
2 *373:4 *2925:A2 3.1 
3 *373:4 *2926:B 8.195 
*END

*D_NET *374 0.00134602
*CONN
*I *2927:A I *D sky130_fd_sc_hd__nor2b_4
*I *2942:A1 I *D sky130_fd_sc_hd__o21a_2
*I *2925:X O *D sky130_fd_sc_hd__o21ba_2
*CAP
1 *2927:A 0
2 *2942:A1 4.44824e-05
3 *2925:X 0.000520395
4 *374:12 0.000564877
5 *2942:A1 *2942:B1 0.000163199
6 *2942:A1 *376:20 5.30673e-05
7 *374:12 *375:12 0
8 *374:12 *376:20 0
*RES
1 *2925:X *374:12 11.57 
2 *374:12 *2942:A1 3.085 
3 *374:12 *2927:A 1.6 
*END

*D_NET *375 0.00172669
*CONN
*I *2942:B1 I *D sky130_fd_sc_hd__o21a_2
*I *2927:B_N I *D sky130_fd_sc_hd__nor2b_4
*I *2926:X O *D sky130_fd_sc_hd__or3b_4
*CAP
1 *2942:B1 0.000272941
2 *2927:B_N 0
3 *2926:X 0.000420472
4 *375:12 0.000693413
5 *2942:B1 *2942:A2 0.000163204
6 *2942:B1 *376:20 1.34594e-05
7 *375:12 *2926:C_N 0
8 *375:12 *519:10 0
9 *2942:A1 *2942:B1 0.000163199
10 *374:12 *375:12 0
*RES
1 *2926:X *375:12 12.05 
2 *375:12 *2927:B_N 1.6 
3 *375:12 *2942:B1 6.895 
*END

*D_NET *376 0.00154443
*CONN
*I *2933:B I *D sky130_fd_sc_hd__nand2_2
*I *2932:B1_N I *D sky130_fd_sc_hd__o21bai_2
*I *2941:C I *D sky130_fd_sc_hd__nand3_4
*I *2927:Y O *D sky130_fd_sc_hd__nor2b_4
*CAP
1 *2933:B 0
2 *2932:B1_N 0
3 *2941:C 0.00010242
4 *2927:Y 0.000408388
5 *376:26 0.000194502
6 *376:20 0.00050047
7 *376:20 *2934:A2 0.000135806
8 *376:20 *2942:A2 0
9 *376:20 *3207:A 0
10 *376:20 *378:10 4.65641e-05
11 *376:26 *2933:A 6.47516e-05
12 *376:26 *379:10 2.4997e-05
13 *2941:B *376:26 0
14 *2942:A1 *376:20 5.30673e-05
15 *2942:B1 *376:20 1.34594e-05
16 *374:12 *376:20 0
*RES
1 *2927:Y *376:20 12.485 
2 *376:20 *376:26 5.89 
3 *376:26 *2941:C 3.085 
4 *376:26 *2932:B1_N 1.6 
5 *376:20 *2933:B 1.6 
*END

*D_NET *377 0.00129294
*CONN
*I *2929:B1 I *D sky130_fd_sc_hd__a21oi_4
*I *2928:X O *D sky130_fd_sc_hd__or3b_4
*CAP
1 *2929:B1 0.000418974
2 *2928:X 0.000418974
3 *2929:B1 *2912:A2 1.73877e-05
4 *2929:B1 *389:10 8.08439e-05
5 *2929:B1 *609:10 5.98004e-06
6 *2911:B *2929:B1 0
7 *2912:B1_N *2929:B1 0.000163019
8 *2941:A *2929:B1 0.000187759
9 *2941:B *2929:B1 0
10 *369:19 *2929:B1 0
*RES
1 *2928:X *2929:B1 15.66 
*END

*D_NET *378 0.00198525
*CONN
*I *2934:A1 I *D sky130_fd_sc_hd__o21ai_2
*I *2932:A1 I *D sky130_fd_sc_hd__o21bai_2
*I *2929:Y O *D sky130_fd_sc_hd__a21oi_4
*CAP
1 *2934:A1 3.56004e-05
2 *2932:A1 8.58715e-05
3 *2929:Y 0.000587109
4 *378:10 0.000708581
5 *2932:A1 *2932:A2 0.000116158
6 *2934:A1 *2932:A2 0.0001249
7 *2934:A1 *2934:A2 3.83041e-05
8 *2934:A1 *3207:A 4.60584e-05
9 *378:10 *2932:A2 4.82863e-05
10 *378:10 *2934:A2 9.95239e-05
11 *378:10 *2934:B1 4.82919e-05
12 *376:20 *378:10 4.65641e-05
*RES
1 *2929:Y *378:10 9.07 
2 *378:10 *2932:A1 7.235 
3 *378:10 *2934:A1 3.1 
*END

*D_NET *379 0.00278434
*CONN
*I *2931:A I *D sky130_fd_sc_hd__inv_2
*I *2942:A2 I *D sky130_fd_sc_hd__o21a_2
*I *2933:A I *D sky130_fd_sc_hd__nand2_2
*I *2930:Y O *D sky130_fd_sc_hd__a21boi_2
*CAP
1 *2931:A 0
2 *2942:A2 0.000201831
3 *2933:A 4.52192e-05
4 *2930:Y 0.000533714
5 *379:27 0.000611001
6 *379:10 0.000988103
7 *2933:A *2934:B1 9.30717e-05
8 *379:10 *2932:A2 0
9 *379:10 *2934:B1 3.09233e-05
10 *2919:A *379:10 0
11 *2919:B *379:10 0
12 *2921:B *379:10 0
13 *2922:A *379:10 0
14 *2922:B *379:10 0
15 *2930:A1 *379:10 2.75229e-05
16 *2942:B1 *2942:A2 0.000163204
17 *376:20 *2942:A2 0
18 *376:26 *2933:A 6.47516e-05
19 *376:26 *379:10 2.4997e-05
*RES
1 *2930:Y *379:10 12.315 
2 *379:10 *2933:A 4.98 
3 *379:10 *379:27 8.59 
4 *379:27 *2942:A2 6.975 
5 *379:27 *2931:A 3.6 
*END

*D_NET *380 0.000789211
*CONN
*I *2932:A2 I *D sky130_fd_sc_hd__o21bai_2
*I *2931:Y O *D sky130_fd_sc_hd__inv_2
*CAP
1 *2932:A2 0.000218883
2 *2931:Y 0.000218883
3 *2932:A2 *2934:B1 3.39151e-05
4 *2932:A2 *3207:A 2.8185e-05
5 *2932:A1 *2932:A2 0.000116158
6 *2934:A1 *2932:A2 0.0001249
7 *378:10 *2932:A2 4.82863e-05
8 *379:10 *2932:A2 0
*RES
1 *2931:Y *2932:A2 10.755 
*END

*D_NET *381 0.000361395
*CONN
*I *2934:B1 I *D sky130_fd_sc_hd__o21ai_2
*I *2932:Y O *D sky130_fd_sc_hd__o21bai_2
*CAP
1 *2934:B1 6.25774e-05
2 *2932:Y 6.25774e-05
3 *2934:B1 *2934:A2 3.00381e-05
4 *2932:A2 *2934:B1 3.39151e-05
5 *2933:A *2934:B1 9.30717e-05
6 *378:10 *2934:B1 4.82919e-05
7 *379:10 *2934:B1 3.09233e-05
*RES
1 *2932:Y *2934:B1 9.03 
*END

*D_NET *382 0.000430875
*CONN
*I *2934:A2 I *D sky130_fd_sc_hd__o21ai_2
*I *2933:Y O *D sky130_fd_sc_hd__nand2_2
*CAP
1 *2934:A2 5.57696e-05
2 *2933:Y 5.57696e-05
3 *2934:A2 *3207:A 1.56632e-05
4 *2934:A1 *2934:A2 3.83041e-05
5 *2934:B1 *2934:A2 3.00381e-05
6 *376:20 *2934:A2 0.000135806
7 *378:10 *2934:A2 9.95239e-05
*RES
1 *2933:Y *2934:A2 5.495 
*END

*D_NET *383 0.00151552
*CONN
*I *2938:A I *D sky130_fd_sc_hd__nor3b_2
*I *2937:A1 I *D sky130_fd_sc_hd__o21bai_2
*I *2939:A I *D sky130_fd_sc_hd__or3b_2
*I *2935:Y O *D sky130_fd_sc_hd__nor2_2
*CAP
1 *2938:A 8.86898e-05
2 *2937:A1 0
3 *2939:A 5.47958e-05
4 *2935:Y 0.000128536
5 *383:17 0.000171987
6 *383:6 0.000266629
7 *2938:A *2938:B 4.28483e-05
8 *2938:A *2939:B 2.15738e-05
9 *2938:A *520:22 0.00013626
10 *2939:A *2939:B 4.35348e-05
11 *2939:A *2939:C_N 0.000124007
12 *383:6 *2936:B 8.40213e-05
13 *383:6 *2939:B 7.35813e-05
14 *383:17 *2936:B 0
15 *383:17 *2939:B 5.72004e-05
16 *383:17 *2939:C_N 8.78735e-05
17 *383:17 *520:22 4.43871e-06
18 *2792:B *383:17 0
19 *3252:A *2939:A 0.000122331
20 *245:8 *383:17 7.21296e-06
*RES
1 *2935:Y *383:6 4.12 
2 *383:6 *2939:A 3.43 
3 *383:6 *383:17 4.145 
4 *383:17 *2937:A1 3.6 
5 *383:17 *2938:A 5.94 
*END

*D_NET *384 0.00134595
*CONN
*I *2938:B I *D sky130_fd_sc_hd__nor3b_2
*I *2939:B I *D sky130_fd_sc_hd__or3b_2
*I *2937:A2 I *D sky130_fd_sc_hd__o21bai_2
*I *2936:X O *D sky130_fd_sc_hd__and2_2
*CAP
1 *2938:B 4.28027e-05
2 *2939:B 0.00025052
3 *2937:A2 0.000155125
4 *2936:X 0
5 *384:17 0.000293323
6 *384:4 0.000155125
7 *2938:B *2960:A1 3.25831e-05
8 *2939:B *2936:B 7.89689e-05
9 *2939:B *2939:C_N 4.66108e-05
10 *2792:B *2938:B 3.47668e-05
11 *2792:B *2939:B 1.73877e-05
12 *2938:A *2938:B 4.28483e-05
13 *2938:A *2939:B 2.15738e-05
14 *2939:A *2939:B 4.35348e-05
15 *383:6 *2939:B 7.35813e-05
16 *383:17 *2939:B 5.72004e-05
*RES
1 *2936:X *384:4 1.6 
2 *384:4 *2937:A2 3.805 
3 *384:4 *384:17 2 
4 *384:17 *2939:B 7.92 
5 *384:17 *2938:B 4.98 
*END

*D_NET *385 0.00240166
*CONN
*I *2967:A I *D sky130_fd_sc_hd__and4_2
*I *2940:A I *D sky130_fd_sc_hd__nand2_2
*I *2950:A1 I *D sky130_fd_sc_hd__a21o_2
*I *2937:Y O *D sky130_fd_sc_hd__o21bai_2
*CAP
1 *2967:A 6.70014e-05
2 *2940:A 0
3 *2950:A1 0.000469763
4 *2937:Y 0.000102572
5 *385:12 0.000505333
6 *2950:A1 *387:18 0.000526503
7 *2950:A1 *404:12 1.9415e-05
8 *2967:A *2957:A 5.55927e-05
9 *2967:A *2957:B 4.99619e-05
10 *2967:A *387:18 4.99619e-05
11 *2967:A *387:22 8.03455e-05
12 *2967:A *395:31 0.00012267
13 *2967:A *404:12 8.56308e-05
14 *385:12 *404:12 7.10578e-05
15 *245:8 *385:12 0.000141599
16 *253:12 *385:12 5.42473e-05
*RES
1 *2937:Y *385:12 8.375 
2 *385:12 *2950:A1 7.495 
3 *385:12 *2940:A 1.6 
4 *2950:A1 *2967:A 6.53 
*END

*D_NET *386 0.00052993
*CONN
*I *2959:A1 I *D sky130_fd_sc_hd__o21ai_2
*I *2960:A1 I *D sky130_fd_sc_hd__o21ai_2
*I *2938:Y O *D sky130_fd_sc_hd__nor3b_2
*CAP
1 *2959:A1 5.75425e-05
2 *2960:A1 0.000156727
3 *2938:Y 9.91847e-05
4 *2959:A1 *2960:B1 4.92062e-05
5 *2959:A1 *3208:A 1.61831e-05
6 *2960:A1 *404:12 0
7 *2960:A1 *520:22 0
8 *2792:B *2960:A1 0.000118504
9 *2938:B *2960:A1 3.25831e-05
10 *245:8 *2960:A1 0
*RES
1 *2938:Y *2960:A1 9.6 
2 *2960:A1 *2959:A1 4.34 
*END

*D_NET *387 0.00464077
*CONN
*I *2940:B I *D sky130_fd_sc_hd__nand2_2
*I *2950:A2 I *D sky130_fd_sc_hd__a21o_2
*I *2967:B I *D sky130_fd_sc_hd__and4_2
*I *2970:A2 I *D sky130_fd_sc_hd__o21a_2
*I *2978:A2 I *D sky130_fd_sc_hd__o211a_2
*I *2939:X O *D sky130_fd_sc_hd__or3b_2
*CAP
1 *2940:B 0
2 *2950:A2 0
3 *2967:B 0
4 *2970:A2 8.74098e-05
5 *2978:A2 4.38931e-05
6 *2939:X 0.000231096
7 *387:28 0.00035293
8 *387:22 0.000459422
9 *387:18 0.000349511
10 *387:14 0.000342812
11 *2970:A2 *2970:B1 0.00015829
12 *2978:A2 *395:31 1.47256e-05
13 *2978:A2 *401:34 3.45252e-05
14 *2978:A2 *413:10 8.40213e-05
15 *387:14 *2939:C_N 9.02243e-05
16 *387:18 *404:12 0.000207648
17 *387:22 *2957:A 0.000203178
18 *387:28 *2957:A 4.82919e-05
19 *387:28 *2957:B 1.91597e-05
20 *387:28 *401:34 0.00042882
21 *387:28 *413:10 0.000650282
22 *2950:A1 *387:18 0.000526503
23 *2967:A *387:18 4.99619e-05
24 *2967:A *387:22 8.03455e-05
25 *253:12 *387:14 0.000177715
*RES
1 *2939:X *387:14 10.3325 
2 *387:14 *387:18 5.295 
3 *387:18 *387:22 3.57 
4 *387:22 *387:28 7.815 
5 *387:28 *2978:A2 2.755 
6 *387:28 *2970:A2 7.49 
7 *387:22 *2967:B 1.6 
8 *387:18 *2950:A2 1.6 
9 *387:14 *2940:B 1.6 
*END

*D_NET *388 0.00116438
*CONN
*I *2949:B1 I *D sky130_fd_sc_hd__a21oi_2
*I *2958:A1 I *D sky130_fd_sc_hd__o21bai_2
*I *2940:Y O *D sky130_fd_sc_hd__nand2_2
*CAP
1 *2949:B1 9.17141e-05
2 *2958:A1 0
3 *2940:Y 0.000107246
4 *388:8 0.00019896
5 *2949:B1 *397:12 5.83121e-06
6 *245:8 *2949:B1 8.47542e-05
7 *245:8 *388:8 0.000136031
8 *253:12 *2949:B1 0.000200648
9 *253:12 *388:8 0.000339191
*RES
1 *2940:Y *388:8 7.53 
2 *388:8 *2958:A1 3.6 
3 *388:8 *2949:B1 6.45 
*END

*D_NET *389 0.00210332
*CONN
*I *2946:A1 I *D sky130_fd_sc_hd__o21ai_2
*I *2945:A1 I *D sky130_fd_sc_hd__o21a_4
*I *2943:B I *D sky130_fd_sc_hd__nor2_4
*I *2941:Y O *D sky130_fd_sc_hd__nand3_4
*CAP
1 *2946:A1 8.00125e-06
2 *2945:A1 0
3 *2943:B 0.000246309
4 *2941:Y 0.000207177
5 *389:10 0.000461488
6 *2943:B *2945:A2 4.82863e-05
7 *2943:B *2945:B1 9.33047e-05
8 *2943:B *2948:B1 0.000239813
9 *2943:B *393:10 0.000124895
10 *2946:A1 *2945:B1 4.82919e-05
11 *2946:A1 *2948:B1 2.30292e-05
12 *389:10 *2946:A2 1.29698e-05
13 *389:10 *390:12 0
14 *389:10 *609:10 0.000164686
15 *389:10 *609:12 0.00034058
16 *2890:C1 *2943:B 3.64998e-06
17 *2929:B1 *389:10 8.08439e-05
*RES
1 *2941:Y *389:10 11.315 
2 *389:10 *2943:B 7.36 
3 *389:10 *2945:A1 1.6 
4 *389:10 *2946:A1 2.05 
*END

*D_NET *390 0.00173213
*CONN
*I *2946:B1 I *D sky130_fd_sc_hd__o21ai_2
*I *2945:B1 I *D sky130_fd_sc_hd__o21a_4
*I *2942:X O *D sky130_fd_sc_hd__o21a_2
*CAP
1 *2946:B1 0
2 *2945:B1 0.000276217
3 *2942:X 0.000465132
4 *390:12 0.000741349
5 *2945:B1 *2945:A2 4.82863e-05
6 *2945:B1 *2946:A2 4.82919e-05
7 *2945:B1 *2948:B1 1.12578e-05
8 *2943:B *2945:B1 9.33047e-05
9 *2946:A1 *2945:B1 4.82919e-05
10 *389:10 *390:12 0
*RES
1 *2942:X *390:12 10.97 
2 *390:12 *2945:B1 6.205 
3 *390:12 *2946:B1 1.6 
*END

*D_NET *391 0.00281831
*CONN
*I *2948:A3 I *D sky130_fd_sc_hd__a31oi_2
*I *2944:C1 I *D sky130_fd_sc_hd__o221ai_4
*I *2943:Y O *D sky130_fd_sc_hd__nor2_4
*CAP
1 *2948:A3 4.19867e-05
2 *2944:C1 0.000203072
3 *2943:Y 0.000138362
4 *391:8 0.000383421
5 *2944:C1 *2958:A2 5.12017e-06
6 *391:8 *393:10 0
7 *2794:B1 *2944:C1 1.26548e-05
8 *2794:B2 *2944:C1 0.000185411
9 *2890:C1 *2944:C1 0.000210615
10 *2890:C1 *391:8 0.000263586
11 *2948:A2 *2948:A3 4.82919e-05
12 *141:24 *2948:A3 2.05056e-05
13 *245:25 *2944:C1 0.000187759
14 *253:12 *2944:C1 7.24866e-05
15 *342:10 *2944:C1 0.000520509
16 *342:10 *391:8 0.000524531
*RES
1 *2943:Y *391:8 9.57 
2 *391:8 *2944:C1 12.12 
3 *391:8 *2948:A3 4.395 
*END

*D_NET *392 0.0020948
*CONN
*I *2968:A1 I *D sky130_fd_sc_hd__a21boi_2
*I *2949:A1 I *D sky130_fd_sc_hd__a21oi_2
*I *2947:B I *D sky130_fd_sc_hd__nand2_4
*I *2944:Y O *D sky130_fd_sc_hd__o221ai_4
*CAP
1 *2968:A1 0.000194764
2 *2949:A1 0
3 *2947:B 0.000405861
4 *2944:Y 0.000160056
5 *392:10 0.000371153
6 *2947:B *393:10 5.53249e-06
7 *2947:B *393:16 0.000385635
8 *2947:B *397:12 0.000164686
9 *2968:A1 *2947:A 4.00541e-06
10 *2968:A1 *2968:A2 9.91257e-05
11 *2968:A1 *393:16 6.90876e-05
12 *392:10 *393:10 0.000102184
13 *253:12 *2947:B 2.68721e-05
14 *253:12 *392:10 0.000105841
*RES
1 *2944:Y *392:10 7.23 
2 *392:10 *2947:B 9.21 
3 *392:10 *2949:A1 3.6 
4 *2947:B *2968:A1 6.785 
*END

*D_NET *393 0.00395178
*CONN
*I *2949:A2 I *D sky130_fd_sc_hd__a21oi_2
*I *2947:A I *D sky130_fd_sc_hd__nand2_4
*I *2968:A2 I *D sky130_fd_sc_hd__a21boi_2
*I *2945:X O *D sky130_fd_sc_hd__o21a_4
*CAP
1 *2949:A2 0
2 *2947:A 1.90984e-05
3 *2968:A2 6.47666e-05
4 *2945:X 0.00112984
5 *393:16 0.000387097
6 *393:10 0.00143307
7 *393:16 *395:10 4.82919e-05
8 *2889:A *393:10 0
9 *2890:C1 *393:10 6.2061e-05
10 *2943:A *393:10 1.70935e-05
11 *2943:B *393:10 0.000124895
12 *2947:B *393:10 5.53249e-06
13 *2947:B *393:16 0.000385635
14 *2948:A2 *393:10 0
15 *2968:A1 *2947:A 4.00541e-06
16 *2968:A1 *2968:A2 9.91257e-05
17 *2968:A1 *393:16 6.90876e-05
18 *253:12 *393:10 0
19 *342:10 *393:10 0
20 *391:8 *393:10 0
21 *392:10 *393:10 0.000102184
*RES
1 *2945:X *393:10 23.145 
2 *393:10 *393:16 8.735 
3 *393:16 *2968:A2 3.085 
4 *393:16 *2947:A 1.96 
5 *393:10 *2949:A2 3.6 
*END

*D_NET *394 0.00140087
*CONN
*I *2948:B1 I *D sky130_fd_sc_hd__a31oi_2
*I *2946:Y O *D sky130_fd_sc_hd__o21ai_2
*CAP
1 *2948:B1 0.000405762
2 *2946:Y 0.000405762
3 *2948:B1 *2946:A2 3.00381e-05
4 *2943:B *2948:B1 0.000239813
5 *2945:B1 *2948:B1 1.12578e-05
6 *2946:A1 *2948:B1 2.30292e-05
7 *254:12 *2948:B1 0.000285211
*RES
1 *2946:Y *2948:B1 16.125 
*END

*D_NET *395 0.00670714
*CONN
*I *2973:A1 I *D sky130_fd_sc_hd__a21o_2
*I *2969:A I *D sky130_fd_sc_hd__nand2_2
*I *2975:A I *D sky130_fd_sc_hd__nand4_4
*I *2980:A1 I *D sky130_fd_sc_hd__a21boi_2
*I *2950:B1 I *D sky130_fd_sc_hd__a21o_2
*I *2947:Y O *D sky130_fd_sc_hd__nand2_4
*CAP
1 *2973:A1 0
2 *2969:A 0
3 *2975:A 0.00012885
4 *2980:A1 2.17713e-05
5 *2950:B1 5.57217e-05
6 *2947:Y 0.000282085
7 *395:41 0.00019782
8 *395:39 0.000196983
9 *395:31 0.000985072
10 *395:10 0.0011731
11 *2975:A *2971:A 0
12 *2975:A *2973:B1 9.50342e-06
13 *2975:A *409:23 0
14 *2975:A *423:22 0
15 *2980:A1 *2979:A2 2.76781e-05
16 *2980:A1 *2980:A2 0.00012657
17 *2980:A1 *2981:A 0.000163199
18 *395:10 *2951:B 0
19 *395:31 *2957:B 6.07412e-05
20 *395:31 *2968:B1_N 4.99619e-05
21 *395:31 *2971:A 0
22 *395:31 *2975:D 8.87422e-05
23 *395:31 *2978:A1 6.03947e-06
24 *395:31 *2978:C1 0.000965916
25 *395:31 *401:34 0.000811805
26 *395:31 *404:12 0.000201503
27 *395:31 *413:10 4.19219e-05
28 *395:31 *413:20 9.50342e-06
29 *395:31 *423:22 0.000390159
30 *395:39 *2971:A 0
31 *395:39 *2980:A2 4.4465e-05
32 *395:39 *413:20 0.000168489
33 *395:41 *2980:A2 0.000188957
34 *395:41 *2981:A 0.0001249
35 *2967:A *395:31 0.00012267
36 *2978:A2 *395:31 1.47256e-05
37 *393:16 *395:10 4.82919e-05
*RES
1 *2947:Y *395:10 7.98 
2 *395:10 *2950:B1 4.47 
3 *395:10 *395:31 25.105 
4 *395:31 *395:39 4.88 
5 *395:39 *395:41 1.83 
6 *395:41 *2980:A1 3.085 
7 *395:41 *2975:A 7.49 
8 *395:39 *2969:A 1.6 
9 *395:31 *2973:A1 3.6 
*END

*D_NET *396 0.00222634
*CONN
*I *2958:A2 I *D sky130_fd_sc_hd__o21bai_2
*I *2948:Y O *D sky130_fd_sc_hd__a31oi_2
*CAP
1 *2958:A2 0.000469713
2 *2948:Y 0.000469713
3 *2958:A2 *2944:B2 0
4 *2958:A2 *2958:B1_N 8.53113e-06
5 *2958:A2 *2960:A2 4.99619e-05
6 *2792:B *2958:A2 0
7 *2794:A1 *2958:A2 0
8 *2794:B1 *2958:A2 0.000164686
9 *2944:B1 *2958:A2 0.000189426
10 *2944:C1 *2958:A2 5.12017e-06
11 *140:22 *2958:A2 0
12 *141:12 *2958:A2 4.66108e-05
13 *245:8 *2958:A2 0.00011741
14 *245:25 *2958:A2 0.000194596
15 *254:12 *2958:A2 0.000321522
16 *342:10 *2958:A2 0.000189056
*RES
1 *2948:Y *2958:A2 20.535 
*END

*D_NET *397 0.00115112
*CONN
*I *2959:A2 I *D sky130_fd_sc_hd__o21ai_2
*I *2951:A_N I *D sky130_fd_sc_hd__and2b_4
*I *2949:Y O *D sky130_fd_sc_hd__a21oi_2
*CAP
1 *2959:A2 8.91563e-05
2 *2951:A_N 0
3 *2949:Y 0.000174907
4 *397:12 0.000264063
5 *2959:A2 *3208:A 0.000158066
6 *2947:B *397:12 0.000164686
7 *2949:B1 *397:12 5.83121e-06
8 *253:12 *397:12 0.000294414
*RES
1 *2949:Y *397:12 9.815 
2 *397:12 *2951:A_N 1.6 
3 *397:12 *2959:A2 3.445 
*END

*D_NET *398 0.000668364
*CONN
*I *2951:B I *D sky130_fd_sc_hd__and2b_4
*I *2950:X O *D sky130_fd_sc_hd__a21o_2
*CAP
1 *2951:B 0.000232593
2 *2950:X 0.000232593
3 *2951:B *404:12 0.000203178
4 *253:12 *2951:B 0
5 *395:10 *2951:B 0
*RES
1 *2950:X *2951:B 10.665 
*END

*D_NET *399 0.0010058
*CONN
*I *2956:A1 I *D sky130_fd_sc_hd__o21bai_2
*I *2955:A1 I *D sky130_fd_sc_hd__o21ba_2
*I *2954:A I *D sky130_fd_sc_hd__or3b_2
*I *2952:Y O *D sky130_fd_sc_hd__nor2_2
*CAP
1 *2956:A1 0
2 *2955:A1 1.86412e-05
3 *2954:A 1.3091e-05
4 *2952:Y 5.98392e-05
5 *399:21 0.000129292
6 *399:8 0.000183581
7 *2954:A *2953:B 4.82863e-05
8 *2954:A *2954:B 1.83756e-05
9 *2955:A1 *2955:A2 0.000124895
10 *2955:A1 *2955:B1_N 0.000124895
11 *399:8 *2953:B 6.55328e-05
12 *399:8 *521:14 5.42473e-05
13 *399:21 *400:19 0.000137571
14 *399:21 *521:14 2.97004e-06
15 *399:21 *521:25 2.45838e-05
*RES
1 *2952:Y *399:8 5.235 
2 *399:8 *2954:A 4.05 
3 *399:8 *399:21 4.4 
4 *399:21 *2955:A1 2.74 
5 *399:21 *2956:A1 1.6 
*END

*D_NET *400 0.00146981
*CONN
*I *2955:A2 I *D sky130_fd_sc_hd__o21ba_2
*I *2956:A2 I *D sky130_fd_sc_hd__o21bai_2
*I *2954:B I *D sky130_fd_sc_hd__or3b_2
*I *2953:X O *D sky130_fd_sc_hd__and2_2
*CAP
1 *2955:A2 0.00013884
2 *2956:A2 0
3 *2954:B 6.64928e-05
4 *2953:X 0.000204603
5 *400:19 0.000187536
6 *400:6 0.000319792
7 *2954:B *2953:B 1.14511e-05
8 *2954:B *401:10 5.00635e-07
9 *2955:A2 *2955:B1_N 7.06336e-05
10 *2955:A2 *402:8 1.37328e-05
11 *400:6 *2953:B 1.33293e-05
12 *400:6 *401:10 8.57321e-05
13 *400:19 *521:25 7.63204e-05
14 *2954:A *2954:B 1.83756e-05
15 *2955:A1 *2955:A2 0.000124895
16 *399:21 *400:19 0.000137571
*RES
1 *2953:X *400:6 4.12 
2 *400:6 *2954:B 2.395 
3 *400:6 *400:19 5.635 
4 *400:19 *2956:A2 1.6 
5 *400:19 *2955:A2 4.495 
*END

*D_NET *401 0.00362679
*CONN
*I *2978:B1 I *D sky130_fd_sc_hd__o211a_2
*I *2970:B1 I *D sky130_fd_sc_hd__o21a_2
*I *2957:A I *D sky130_fd_sc_hd__nand2_2
*I *2967:C I *D sky130_fd_sc_hd__and4_2
*I *2954:X O *D sky130_fd_sc_hd__or3b_2
*CAP
1 *2978:B1 0
2 *2970:B1 0.000105145
3 *2957:A 5.30684e-05
4 *2967:C 0
5 *2954:X 0.000217472
6 *401:34 0.000292334
7 *401:12 5.30684e-05
8 *401:10 0.000404661
9 *2957:A *2957:B 0.000163204
10 *2970:B1 *2978:A1 0.000136168
11 *2970:B1 *2978:C1 5.53249e-06
12 *401:10 *2953:B 8.48869e-05
13 *401:10 *403:10 0.000117825
14 *401:10 *521:25 9.86611e-05
15 *401:34 *2957:B 4.66108e-05
16 *401:34 *403:10 2.14129e-05
17 *2954:B *401:10 5.00635e-07
18 *2967:A *2957:A 5.55927e-05
19 *2970:A2 *2970:B1 0.00015829
20 *2978:A2 *401:34 3.45252e-05
21 *387:22 *2957:A 0.000203178
22 *387:28 *2957:A 4.82919e-05
23 *387:28 *401:34 0.00042882
24 *395:31 *401:34 0.000811805
25 *400:6 *401:10 8.57321e-05
*RES
1 *2954:X *401:10 8.6625 
2 *401:10 *401:12 2 
3 *401:12 *2967:C 1.6 
4 *401:12 *2957:A 4.135 
5 *401:10 *401:34 10.325 
6 *401:34 *2970:B1 8.195 
7 *401:34 *2978:B1 1.6 
*END

*D_NET *402 0.000917841
*CONN
*I *2970:A1 I *D sky130_fd_sc_hd__o21a_2
*I *2978:A1 I *D sky130_fd_sc_hd__o211a_2
*I *2955:X O *D sky130_fd_sc_hd__o21ba_2
*CAP
1 *2970:A1 0
2 *2978:A1 0.00019374
3 *2955:X 0.00015921
4 *402:8 0.00035295
5 *2978:A1 *413:10 6.03947e-06
6 *402:8 *2955:B1_N 4.99619e-05
7 *2955:A2 *402:8 1.37328e-05
8 *2970:B1 *2978:A1 0.000136168
9 *395:31 *2978:A1 6.03947e-06
*RES
1 *2955:X *402:8 4.39 
2 *402:8 *2978:A1 9.08375 
3 *402:8 *2970:A1 1.6 
*END

*D_NET *403 0.000726751
*CONN
*I *2957:B I *D sky130_fd_sc_hd__nand2_2
*I *2967:D I *D sky130_fd_sc_hd__and4_2
*I *2956:Y O *D sky130_fd_sc_hd__o21bai_2
*CAP
1 *2957:B 3.86397e-05
2 *2967:D 0
3 *2956:Y 8.52779e-05
4 *403:10 0.000123918
5 *2957:A *2957:B 0.000163204
6 *2967:A *2957:B 4.99619e-05
7 *387:28 *2957:B 1.91597e-05
8 *395:31 *2957:B 6.07412e-05
9 *401:10 *403:10 0.000117825
10 *401:34 *2957:B 4.66108e-05
11 *401:34 *403:10 2.14129e-05
*RES
1 *2956:Y *403:10 7.235 
2 *403:10 *2967:D 1.6 
3 *403:10 *2957:B 3.43 
*END

*D_NET *404 0.00225591
*CONN
*I *2958:B1_N I *D sky130_fd_sc_hd__o21bai_2
*I *2959:B1 I *D sky130_fd_sc_hd__o21ai_2
*I *2957:Y O *D sky130_fd_sc_hd__nand2_2
*CAP
1 *2958:B1_N 9.46411e-05
2 *2959:B1 0
3 *2957:Y 0.000477332
4 *404:12 0.000571973
5 *2958:B1_N *2960:A2 9.95861e-05
6 *404:12 *2960:A2 4.18603e-06
7 *404:12 *520:22 8.65961e-05
8 *2792:B *404:12 0
9 *2950:A1 *404:12 1.9415e-05
10 *2951:B *404:12 0.000203178
11 *2958:A2 *2958:B1_N 8.53113e-06
12 *2960:A1 *404:12 0
13 *2967:A *404:12 8.56308e-05
14 *245:8 *2958:B1_N 5.72573e-05
15 *245:8 *404:12 6.73751e-05
16 *385:12 *404:12 7.10578e-05
17 *387:18 *404:12 0.000207648
18 *395:31 *404:12 0.000201503
*RES
1 *2957:Y *404:12 14.58 
2 *404:12 *2959:B1 3.6 
3 *404:12 *2958:B1_N 5.94 
*END

*D_NET *405 0.000607016
*CONN
*I *2960:A2 I *D sky130_fd_sc_hd__o21ai_2
*I *2958:Y O *D sky130_fd_sc_hd__o21bai_2
*CAP
1 *2960:A2 0.000200994
2 *2958:Y 0.000200994
3 *2792:B *2960:A2 5.12942e-05
4 *2958:A2 *2960:A2 4.99619e-05
5 *2958:B1_N *2960:A2 9.95861e-05
6 *404:12 *2960:A2 4.18603e-06
*RES
1 *2958:Y *2960:A2 10.665 
*END

*D_NET *406 0.000604687
*CONN
*I *2960:B1 I *D sky130_fd_sc_hd__o21ai_2
*I *2959:Y O *D sky130_fd_sc_hd__o21ai_2
*CAP
1 *2960:B1 0.000136557
2 *2959:Y 0.000136557
3 *2960:B1 *3208:A 0.000235755
4 *2960:B1 *3209:A 4.66108e-05
5 *2959:A1 *2960:B1 4.92062e-05
*RES
1 *2959:Y *2960:B1 6.53 
*END

*D_NET *407 0.0010977
*CONN
*I *2963:A I *D sky130_fd_sc_hd__or3b_2
*I *2965:A1 I *D sky130_fd_sc_hd__o21bai_2
*I *2964:A1 I *D sky130_fd_sc_hd__o21ba_2
*I *2961:Y O *D sky130_fd_sc_hd__nor2_2
*CAP
1 *2963:A 1.32456e-05
2 *2965:A1 0.000114769
3 *2964:A1 9.79255e-06
4 *2961:Y 8.53326e-05
5 *407:19 0.000183541
6 *407:10 0.000150652
7 *2963:A *2963:B 2.68526e-05
8 *2963:A *409:6 1.41165e-05
9 *2964:A1 *2963:C_N 4.99619e-05
10 *2964:A1 *408:23 2.75145e-05
11 *2965:A1 *2965:A2 0.000103185
12 *2965:A1 *2979:B1 4.89295e-05
13 *2965:A1 *411:12 2.68526e-05
14 *407:10 *2964:A2 2.03578e-05
15 *407:10 *2965:A2 2.86623e-05
16 *407:10 *408:10 4.70343e-05
17 *407:19 *2963:B 4.21973e-05
18 *407:19 *2963:C_N 3.83041e-05
19 *407:19 *408:23 4.80285e-05
20 *407:19 *409:6 1.83756e-05
*RES
1 *2961:Y *407:10 7.49 
2 *407:10 *2964:A1 2.05 
3 *407:10 *407:19 1.485 
4 *407:19 *2965:A1 8.195 
5 *407:19 *2963:A 2.05 
*END

*D_NET *408 0.00174672
*CONN
*I *2963:B I *D sky130_fd_sc_hd__or3b_2
*I *2965:A2 I *D sky130_fd_sc_hd__o21bai_2
*I *2964:A2 I *D sky130_fd_sc_hd__o21ba_2
*I *2962:X O *D sky130_fd_sc_hd__and2_2
*CAP
1 *2963:B 8.96204e-05
2 *2965:A2 0.000102632
3 *2964:A2 3.5253e-05
4 *2962:X 0.00012906
5 *408:23 0.000340567
6 *408:10 0.000312627
7 *2964:A2 *2962:A 4.31921e-05
8 *2964:A2 *2965:B1_N 9.50342e-06
9 *2965:A2 *457:27 7.89689e-05
10 *408:10 *2962:A 0.000137187
11 *408:10 *2962:B 3.86529e-05
12 *408:10 *3211:A 4.82919e-05
13 *408:23 *2963:C_N 9.80943e-06
14 *408:23 *527:21 2.75229e-05
15 *2963:A *2963:B 2.68526e-05
16 *2964:A1 *408:23 2.75145e-05
17 *2965:A1 *2965:A2 0.000103185
18 *407:10 *2964:A2 2.03578e-05
19 *407:10 *2965:A2 2.86623e-05
20 *407:10 *408:10 4.70343e-05
21 *407:19 *2963:B 4.21973e-05
22 *407:19 *408:23 4.80285e-05
*RES
1 *2962:X *408:10 6.96 
2 *408:10 *2964:A2 4.47 
3 *408:10 *408:23 3.83 
4 *408:23 *2965:A2 8.255 
5 *408:23 *2963:B 2.74 
*END

*D_NET *409 0.00644989
*CONN
*I *2966:A I *D sky130_fd_sc_hd__nand2_2
*I *2978:C1 I *D sky130_fd_sc_hd__o211a_2
*I *2975:B I *D sky130_fd_sc_hd__nand4_4
*I *2979:C1 I *D sky130_fd_sc_hd__o211a_2
*I *2963:X O *D sky130_fd_sc_hd__or3b_2
*CAP
1 *2966:A 0.000137923
2 *2978:C1 0.000883434
3 *2975:B 1.75331e-05
4 *2979:C1 7.65446e-05
5 *2963:X 0.000163018
6 *409:34 0.00106013
7 *409:23 0.000850433
8 *409:6 0.00103368
9 *2966:A *2966:B 5.57054e-05
10 *2966:A *2973:B1 0
11 *2966:A *2974:A2 0
12 *2966:A *423:22 0
13 *2975:B *2975:D 4.82919e-05
14 *2975:B *423:22 5.83121e-06
15 *2978:C1 *2974:A2 0.000198939
16 *2978:C1 *2975:D 0.000448635
17 *2979:C1 *2984:B2 5.89229e-05
18 *409:23 *2966:B 0
19 *409:23 *2975:D 9.14601e-05
20 *409:23 *2984:A2 3.45679e-05
21 *409:23 *2984:B1 0.00027236
22 *409:23 *411:12 0
23 *409:23 *423:22 8.53113e-06
24 *409:34 *2966:B 0
25 *2963:A *409:6 1.41165e-05
26 *2970:B1 *2978:C1 5.53249e-06
27 *2975:A *409:23 0
28 *395:31 *2978:C1 0.000965916
29 *407:19 *409:6 1.83756e-05
*RES
1 *2963:X *409:6 3.43 
2 *409:6 *2979:C1 6.98 
3 *409:6 *409:23 11.69 
4 *409:23 *2975:B 4.05 
5 *409:23 *409:34 0.615 
6 *409:34 *2978:C1 22.15 
7 *409:34 *2966:A 6.39 
*END

*D_NET *410 0.00226294
*CONN
*I *2979:A1 I *D sky130_fd_sc_hd__o211a_2
*I *2982:A I *D sky130_fd_sc_hd__nor2_2
*I *2983:A I *D sky130_fd_sc_hd__or2_2
*I *2964:X O *D sky130_fd_sc_hd__o21ba_2
*CAP
1 *2979:A1 0.000252439
2 *2982:A 1.9205e-05
3 *2983:A 5.81734e-05
4 *2964:X 0.000213294
5 *410:23 0.000415405
6 *410:10 0.000415229
7 *2979:A1 *2979:A2 1.12643e-05
8 *2979:A1 *2982:B 4.40028e-05
9 *2979:A1 *2984:B2 0.000124473
10 *2979:A1 *3212:A 0.00018305
11 *2979:A1 *411:12 6.03947e-06
12 *2982:A *2982:B 5.12969e-06
13 *2982:A *422:14 0
14 *2983:A *3021:A1_N 0
15 *2983:A *457:27 0
16 *410:10 *2965:B1_N 6.5525e-05
17 *410:10 *2976:A 4.99619e-05
18 *410:10 *3021:A1_N 0
19 *410:10 *3021:B1 0.000140912
20 *410:10 *3220:A 0
21 *410:10 *457:27 3.66286e-05
22 *410:23 *2982:B 2.68526e-05
23 *410:23 *422:10 8.65961e-05
24 *410:23 *422:14 0.000108761
*RES
1 *2964:X *410:10 7.815 
2 *410:10 *2983:A 4.215 
3 *410:10 *410:23 4.865 
4 *410:23 *2982:A 1.96 
5 *410:23 *2979:A1 10.7188 
*END

*D_NET *411 0.00269694
*CONN
*I *2966:B I *D sky130_fd_sc_hd__nand2_2
*I *2975:C I *D sky130_fd_sc_hd__nand4_4
*I *2965:Y O *D sky130_fd_sc_hd__o21bai_2
*CAP
1 *2966:B 0.000158838
2 *2975:C 0
3 *2965:Y 0.000877258
4 *411:12 0.0010361
5 *2966:B *572:60 0
6 *411:12 *2979:A2 0.000167662
7 *411:12 *2979:B1 8.71932e-05
8 *411:12 *2981:A 0.000164874
9 *411:12 *2984:A1 8.52845e-05
10 *411:12 *3021:B2 3.11359e-05
11 *411:12 *572:60 0
12 *2965:A1 *411:12 2.68526e-05
13 *2966:A *2966:B 5.57054e-05
14 *2979:A1 *411:12 6.03947e-06
15 *409:23 *2966:B 0
16 *409:23 *411:12 0
17 *409:34 *2966:B 0
*RES
1 *2965:Y *411:12 15.105 
2 *411:12 *2975:C 3.6 
3 *411:12 *2966:B 6.45 
*END

*D_NET *412 0.00113089
*CONN
*I *2972:B1 I *D sky130_fd_sc_hd__o21ai_2
*I *2973:B1 I *D sky130_fd_sc_hd__a21o_2
*I *2966:Y O *D sky130_fd_sc_hd__nand2_2
*CAP
1 *2972:B1 0
2 *2973:B1 0.000278619
3 *2966:Y 1.38876e-05
4 *412:6 0.000292507
5 *2973:B1 *2971:A 2.56697e-05
6 *2973:B1 *2972:A1 8.53113e-06
7 *2973:B1 *2972:A2 4.82863e-05
8 *2973:B1 *2974:A2 6.36578e-05
9 *2973:B1 *2974:B1 2.30292e-05
10 *2973:B1 *2975:D 0.000198945
11 *2973:B1 *423:22 0.000118294
12 *412:6 *2974:B1 4.99619e-05
13 *2966:A *2973:B1 0
14 *2975:A *2973:B1 9.50342e-06
*RES
1 *2966:Y *412:6 2.05 
2 *412:6 *2973:B1 11.765 
3 *412:6 *2972:B1 1.6 
*END

*D_NET *413 0.00664749
*CONN
*I *2968:B1_N I *D sky130_fd_sc_hd__a21boi_2
*I *2973:A2 I *D sky130_fd_sc_hd__a21o_2
*I *2975:D I *D sky130_fd_sc_hd__nand4_4
*I *2969:B I *D sky130_fd_sc_hd__nand2_2
*I *2980:A2 I *D sky130_fd_sc_hd__a21boi_2
*I *2967:X O *D sky130_fd_sc_hd__and4_2
*CAP
1 *2968:B1_N 0.000232313
2 *2973:A2 0
3 *2975:D 0.00026203
4 *2969:B 0
5 *2980:A2 7.39267e-05
6 *2967:X 0.00118678
7 *413:20 0.000175618
8 *413:14 0.000372904
9 *413:10 0.000963646
10 *2975:D *2984:A2 0
11 *2975:D *423:22 0.00016564
12 *2980:A2 *2979:A2 0.000278111
13 *2980:A2 *416:6 0.0001249
14 *413:10 *423:22 0.000504525
15 *413:14 *423:22 1.47601e-05
16 *413:20 *2971:A 0
17 *413:20 *416:6 4.60584e-05
18 *2973:B1 *2975:D 0.000198945
19 *2975:B *2975:D 4.82919e-05
20 *2978:A1 *413:10 6.03947e-06
21 *2978:A2 *413:10 8.40213e-05
22 *2978:C1 *2975:D 0.000448635
23 *2980:A1 *2980:A2 0.00012657
24 *387:28 *413:10 0.000650282
25 *395:31 *2968:B1_N 4.99619e-05
26 *395:31 *2975:D 8.87422e-05
27 *395:31 *413:10 4.19219e-05
28 *395:31 *413:20 9.50342e-06
29 *395:39 *2980:A2 4.4465e-05
30 *395:39 *413:20 0.000168489
31 *395:41 *2980:A2 0.000188957
32 *409:23 *2975:D 9.14601e-05
*RES
1 *2967:X *413:10 15.9325 
2 *413:10 *413:14 2.1425 
3 *413:14 *413:20 4.43 
4 *413:20 *2980:A2 5.515 
5 *413:20 *2969:B 1.6 
6 *413:14 *2975:D 11.58 
7 *413:10 *2973:A2 1.6 
8 *2967:X *2968:B1_N 10.815 
*END

*D_NET *414 0.00348854
*CONN
*I *2972:A1 I *D sky130_fd_sc_hd__o21ai_2
*I *2968:Y O *D sky130_fd_sc_hd__a21boi_2
*CAP
1 *2972:A1 0.00167367
2 *2968:Y 0.00167367
3 *2972:A1 *2971:A 1.22676e-05
4 *2972:A1 *2974:A1 6.61674e-05
5 *2972:A1 *2974:A2 5.4239e-05
6 *2973:B1 *2972:A1 8.53113e-06
*RES
1 *2968:Y *2972:A1 26.535 
*END

*D_NET *415 0.00135719
*CONN
*I *2981:A I *D sky130_fd_sc_hd__nand2_2
*I *2969:Y O *D sky130_fd_sc_hd__nand2_2
*CAP
1 *2981:A 0.000276186
2 *2969:Y 0.000276186
3 *2981:A *2979:A2 6.20787e-05
4 *2981:A *2981:B 8.8266e-05
5 *2981:A *423:22 0.000201503
6 *2980:A1 *2981:A 0.000163199
7 *395:41 *2981:A 0.0001249
8 *411:12 *2981:A 0.000164874
*RES
1 *2969:Y *2981:A 9.53 
*END

*D_NET *416 0.00450351
*CONN
*I *2971:A I *D sky130_fd_sc_hd__inv_2
*I *2979:A2 I *D sky130_fd_sc_hd__o211a_2
*I *2970:X O *D sky130_fd_sc_hd__o21a_2
*CAP
1 *2971:A 0.000363003
2 *2979:A2 0.000366924
3 *2970:X 0.000561036
4 *416:6 0.00129096
5 *2979:A2 *2979:B1 3.26889e-05
6 *2979:A2 *2981:B 8.8266e-05
7 *2979:A2 *2984:A1 5.06989e-05
8 *2979:A2 *3021:B2 0.000802722
9 *2979:A2 *423:22 0.000191521
10 *2972:A1 *2971:A 1.22676e-05
11 *2973:B1 *2971:A 2.56697e-05
12 *2975:A *2971:A 0
13 *2979:A1 *2979:A2 1.12643e-05
14 *2980:A1 *2979:A2 2.76781e-05
15 *2980:A2 *2979:A2 0.000278111
16 *2980:A2 *416:6 0.0001249
17 *2981:A *2979:A2 6.20787e-05
18 *395:31 *2971:A 0
19 *395:39 *2971:A 0
20 *411:12 *2979:A2 0.000167662
21 *413:20 *2971:A 0
22 *413:20 *416:6 4.60584e-05
*RES
1 *2970:X *416:6 9.985 
2 *416:6 *2979:A2 13.57 
3 *416:6 *2971:A 10.85 
*END

*D_NET *417 0.000499901
*CONN
*I *2974:A1 I *D sky130_fd_sc_hd__o21ai_4
*I *2972:A2 I *D sky130_fd_sc_hd__o21ai_2
*I *2971:Y O *D sky130_fd_sc_hd__inv_2
*CAP
1 *2974:A1 9.97128e-05
2 *2972:A2 9.30107e-05
3 *2971:Y 0.000192723
4 *2974:A1 *2974:A2 0
5 *2972:A1 *2974:A1 6.61674e-05
6 *2973:B1 *2972:A2 4.82863e-05
*RES
1 *2971:Y *2972:A2 4.685 
2 *2971:Y *2974:A1 9.03 
*END

*D_NET *418 0.000411533
*CONN
*I *2974:B1 I *D sky130_fd_sc_hd__o21ai_4
*I *2972:Y O *D sky130_fd_sc_hd__o21ai_2
*CAP
1 *2974:B1 0.000169271
2 *2972:Y 0.000169271
3 *2974:B1 *2974:A2 0
4 *2974:B1 *572:60 0
5 *2973:B1 *2974:B1 2.30292e-05
6 *412:6 *2974:B1 4.99619e-05
*RES
1 *2972:Y *2974:B1 9.975 
*END

*D_NET *419 0.000923694
*CONN
*I *2974:A2 I *D sky130_fd_sc_hd__o21ai_4
*I *2973:X O *D sky130_fd_sc_hd__a21o_2
*CAP
1 *2974:A2 0.000303429
2 *2973:X 0.000303429
3 *2966:A *2974:A2 0
4 *2972:A1 *2974:A2 5.4239e-05
5 *2973:B1 *2974:A2 6.36578e-05
6 *2974:A1 *2974:A2 0
7 *2974:B1 *2974:A2 0
8 *2978:C1 *2974:A2 0.000198939
*RES
1 *2973:X *2974:A2 12.45 
*END

*D_NET *420 0.000158866
*CONN
*I *2984:A2 I *D sky130_fd_sc_hd__a22oi_4
*I *2975:Y O *D sky130_fd_sc_hd__nand4_4
*CAP
1 *2984:A2 6.21492e-05
2 *2975:Y 6.21492e-05
3 *2975:D *2984:A2 0
4 *409:23 *2984:A2 3.45679e-05
*RES
1 *2975:Y *2984:A2 4.355 
*END

*D_NET *421 0.000598112
*CONN
*I *3021:A2_N I *D sky130_fd_sc_hd__o2bb2ai_4
*I *2977:B I *D sky130_fd_sc_hd__xnor2_2
*I *2976:X O *D sky130_fd_sc_hd__xor2_2
*CAP
1 *3021:A2_N 0
2 *2977:B 0.000161097
3 *2976:X 0.000137959
4 *421:10 0.000299056
5 *2977:B *2976:B 0
6 *421:10 *2976:B 0
7 S[31] *2977:B 0
8 S[31] *421:10 0
*RES
1 *2976:X *421:10 5.685 
2 *421:10 *2977:B 6.195 
3 *421:10 *3021:A2_N 3.6 
*END

*D_NET *422 0.00207223
*CONN
*I *2983:B I *D sky130_fd_sc_hd__or2_2
*I *2982:B I *D sky130_fd_sc_hd__nor2_2
*I *2979:B1 I *D sky130_fd_sc_hd__o211a_2
*I *2977:Y O *D sky130_fd_sc_hd__xnor2_2
*CAP
1 *2983:B 0
2 *2982:B 7.79886e-05
3 *2979:B1 0.000196513
4 *2977:Y 0.000207557
5 *422:14 0.000388431
6 *422:10 0.000321486
7 *2979:B1 *2984:B2 0
8 *2979:B1 *3021:B2 0.000271694
9 *2979:B1 *3212:A 0
10 *2979:B1 *457:27 8.18184e-05
11 *422:10 *2977:A 8.65905e-05
12 *2965:A1 *2979:B1 4.89295e-05
13 *2979:A1 *2982:B 4.40028e-05
14 *2979:A2 *2979:B1 3.26889e-05
15 *2982:A *2982:B 5.12969e-06
16 *2982:A *422:14 0
17 *410:23 *2982:B 2.68526e-05
18 *410:23 *422:10 8.65961e-05
19 *410:23 *422:14 0.000108761
20 *411:12 *2979:B1 8.71932e-05
*RES
1 *2977:Y *422:10 5.275 
2 *422:10 *422:14 2.19 
3 *422:14 *2979:B1 10.88 
4 *422:14 *2982:B 3.1 
5 *422:10 *2983:B 1.6 
*END

*D_NET *423 0.0030618
*CONN
*I *2980:B1_N I *D sky130_fd_sc_hd__a21boi_2
*I *2981:B I *D sky130_fd_sc_hd__nand2_2
*I *2978:X O *D sky130_fd_sc_hd__o211a_2
*CAP
1 *2980:B1_N 0
2 *2981:B 1.02651e-05
3 *2978:X 0.000631987
4 *423:22 0.000642252
5 *423:22 *572:60 0
6 *2966:A *423:22 0
7 *2973:B1 *423:22 0.000118294
8 *2975:A *423:22 0
9 *2975:B *423:22 5.83121e-06
10 *2975:D *423:22 0.00016564
11 *2979:A2 *2981:B 8.8266e-05
12 *2979:A2 *423:22 0.000191521
13 *2981:A *2981:B 8.8266e-05
14 *2981:A *423:22 0.000201503
15 *395:31 *423:22 0.000390159
16 *409:23 *423:22 8.53113e-06
17 *413:10 *423:22 0.000504525
18 *413:14 *423:22 1.47601e-05
*RES
1 *2978:X *423:22 20.54 
2 *423:22 *2981:B 2.395 
3 *423:22 *2980:B1_N 1.6 
*END

*D_NET *424 0.000396733
*CONN
*I *2984:A1 I *D sky130_fd_sc_hd__a22oi_4
*I *2979:X O *D sky130_fd_sc_hd__o211a_2
*CAP
1 *2984:A1 0.000130375
2 *2979:X 0.000130375
3 *2984:A1 *3212:A 0
4 *2979:A2 *2984:A1 5.06989e-05
5 *411:12 *2984:A1 8.52845e-05
*RES
1 *2979:X *2984:A1 9.63 
*END

*D_NET *425 0.00294436
*CONN
*I *3021:B2 I *D sky130_fd_sc_hd__o2bb2ai_4
*I *2980:Y O *D sky130_fd_sc_hd__a21boi_2
*CAP
1 *3021:B2 0.000910215
2 *2980:Y 0.000910215
3 *3021:B2 *3021:A1_N 1.83756e-05
4 *2979:A2 *3021:B2 0.000802722
5 *2979:B1 *3021:B2 0.000271694
6 *411:12 *3021:B2 3.11359e-05
*RES
1 *2980:Y *3021:B2 18.41 
*END

*D_NET *426 0.000837135
*CONN
*I *2984:B1 I *D sky130_fd_sc_hd__a22oi_4
*I *2981:Y O *D sky130_fd_sc_hd__nand2_2
*CAP
1 *2984:B1 0.000168597
2 *2981:Y 0.000168597
3 *2984:B1 *2961:A 0.00011379
4 *2984:B1 *572:60 0.00011379
5 *409:23 *2984:B1 0.00027236
*RES
1 *2981:Y *2984:B1 11.46 
*END

*D_NET *427 0.000930027
*CONN
*I *2984:B2 I *D sky130_fd_sc_hd__a22oi_4
*I *2982:Y O *D sky130_fd_sc_hd__nor2_2
*CAP
1 *2984:B2 0.00021727
2 *2982:Y 0.00021727
3 *2984:B2 *3212:A 0.00031209
4 *2984:B2 *457:27 0
5 *2979:A1 *2984:B2 0.000124473
6 *2979:B1 *2984:B2 0
7 *2979:C1 *2984:B2 5.89229e-05
*RES
1 *2982:Y *2984:B2 12.015 
*END

*D_NET *428 0.000279728
*CONN
*I *3021:B1 I *D sky130_fd_sc_hd__o2bb2ai_4
*I *2983:X O *D sky130_fd_sc_hd__or2_2
*CAP
1 *3021:B1 6.94079e-05
2 *2983:X 6.94079e-05
3 *3021:B1 *3021:A1_N 0
4 *410:10 *3021:B1 0.000140912
*RES
1 *2983:X *3021:B1 8.835 
*END

*D_NET *429 0.0013
*CONN
*I *2987:B I *D sky130_fd_sc_hd__xnor2_2
*I *2986:X O *D sky130_fd_sc_hd__mux2_1
*CAP
1 *2987:B 0.000348717
2 *2986:X 0.000348717
3 *2987:B *2987:A 0.000118513
4 *2987:B *3113:A 1.6418e-05
5 S[1] *2987:B 0.00039406
6 *3114:A *2987:B 7.35729e-05
*RES
1 *2986:X *2987:B 12.825 
*END

*D_NET *430 0.000988889
*CONN
*I *2990:B I *D sky130_fd_sc_hd__xor2_2
*I *2988:X O *D sky130_fd_sc_hd__a211o_4
*CAP
1 *2990:B 0.000323684
2 *2988:X 0.000323684
3 *2990:B *3210:A 0
4 *2990:B *431:10 0.000140905
5 *2990:B *453:10 0
6 *2990:B *453:36 0
7 *2786:B2 *2990:B 0
8 *220:6 *2990:B 0.000200615
*RES
1 *2988:X *2990:B 10.85 
*END

*D_NET *431 0.00166516
*CONN
*I *2992:C I *D sky130_fd_sc_hd__nand3_2
*I *2991:A1 I *D sky130_fd_sc_hd__a21oi_2
*I *2989:X O *D sky130_fd_sc_hd__a211o_4
*CAP
1 *2992:C 0.000175556
2 *2991:A1 7.72882e-05
3 *2989:X 0.000358143
4 *431:10 0.000610987
5 *2991:A1 *2993:A_N 5.83121e-06
6 *2992:C *2768:B1 0
7 *2992:C *2993:A_N 0
8 *2992:C *516:10 0
9 *2992:C *516:12 0
10 *431:10 *2768:B1 0
11 *431:10 *2993:A_N 0
12 *431:10 *3210:A 4.40899e-05
13 *431:10 *457:61 4.10476e-05
14 *2786:B1 *431:10 0.000163019
15 *2786:B2 *431:10 0
16 *2787:B1 *431:10 0
17 *2989:B1 *431:10 0
18 *2990:B *431:10 0.000140905
19 *2992:B *2992:C 4.82919e-05
*RES
1 *2989:X *431:10 10.455 
2 *431:10 *2991:A1 4.74 
3 *431:10 *2992:C 6.45 
*END

*D_NET *432 0.00144462
*CONN
*I *2993:A_N I *D sky130_fd_sc_hd__nand2b_4
*I *2991:Y O *D sky130_fd_sc_hd__a21oi_2
*CAP
1 *2993:A_N 0.000429575
2 *2991:Y 0.000429575
3 *2993:A_N *2993:B 0
4 *2993:A_N *516:10 0
5 *2766:A1 *2993:A_N 3.68682e-05
6 *2788:A *2993:A_N 0
7 *2991:A1 *2993:A_N 5.83121e-06
8 *2991:B1 *2993:A_N 0.000259921
9 *2992:C *2993:A_N 0
10 *233:21 *2993:A_N 0
11 *234:10 *2993:A_N 0.000282848
12 *431:10 *2993:A_N 0
*RES
1 *2991:Y *2993:A_N 15.675 
*END

*D_NET *433 0.000592656
*CONN
*I *2993:B I *D sky130_fd_sc_hd__nand2b_4
*I *2992:Y O *D sky130_fd_sc_hd__nand3_2
*CAP
1 *2993:B 0.000248612
2 *2992:Y 0.000248612
3 *2993:B *516:10 9.5433e-05
4 *2993:B *561:10 0
5 *2993:B *561:12 0
6 *2766:A1 *2993:B 0
7 *2775:A1 *2993:B 0
8 *2993:A_N *2993:B 0
*RES
1 *2992:Y *2993:B 11.13 
*END

*D_NET *434 0.00272423
*CONN
*I *3253:A I *D sky130_fd_sc_hd__buf_4
*I *3002:B2 I *D sky130_fd_sc_hd__o2bb2ai_4
*I *2996:B2 I *D sky130_fd_sc_hd__o22a_4
*I *2994:Y O *D sky130_fd_sc_hd__a21oi_4
*CAP
1 *3253:A 0.000289508
2 *3002:B2 0.000368476
3 *2996:B2 0.000293571
4 *2994:Y 0
5 *434:10 0.000841162
6 *434:6 0.000468624
7 *2996:B2 *565:40 5.83121e-06
8 *3253:A *2994:A1 0
9 *3253:A *2995:B 0
10 *434:10 *2994:A1 0
11 *434:10 *3214:A 0.000162318
12 *2747:B *3253:A 0
13 *2747:B *434:10 0
14 *2780:A *3253:A 0.000161529
15 *2780:C *3253:A 0
16 *2791:A3 *3253:A 0
17 *3002:A2_N *3002:B2 4.82919e-05
18 *3002:B1 *3002:B2 8.49205e-05
19 *190:21 *434:10 0
20 *249:21 *3253:A 0
*RES
1 *2994:Y *434:6 3.6 
2 *434:6 *434:10 5.42 
3 *434:10 *2996:B2 5.86 
4 *434:10 *3002:B2 7.345 
5 *434:6 *3253:A 8.445 
*END

*D_NET *435 0.00254298
*CONN
*I *3000:B2 I *D sky130_fd_sc_hd__o2bb2a_4
*I *2997:B I *D sky130_fd_sc_hd__xnor2_2
*I *2998:B1 I *D sky130_fd_sc_hd__a22oi_2
*I *2996:X O *D sky130_fd_sc_hd__o22a_4
*CAP
1 *3000:B2 0.000205907
2 *2997:B 0
3 *2998:B1 0.000244845
4 *2996:X 0.000221786
5 *435:10 0.000338929
6 *435:8 0.000521777
7 *2998:B1 *2722:A_N 0.000152617
8 *2998:B1 *2722:B 9.95239e-05
9 *2998:B1 *3214:A 0
10 *435:8 *2994:A1 0.000237731
11 *435:8 *3214:A 0
12 *2720:B1 *2998:B1 8.53113e-06
13 *2728:C *2998:B1 2.0514e-05
14 *2730:B1 *2998:B1 0.000278117
15 *2776:A *2998:B1 1.71013e-05
16 *2776:A *435:8 9.24127e-05
17 *2776:A *435:10 0.000103192
18 *186:12 *2998:B1 0
19 *186:12 *435:8 0
20 *186:12 *435:10 0
*RES
1 *2996:X *435:8 9.06 
2 *435:8 *435:10 2.145 
3 *435:10 *2998:B1 9.225 
4 *435:10 *2997:B 3.6 
5 *435:8 *3000:B2 6.465 
*END

*D_NET *436 0.000903958
*CONN
*I *2999:B I *D sky130_fd_sc_hd__xnor2_2
*I *2998:Y O *D sky130_fd_sc_hd__a22oi_2
*CAP
1 *2999:B 0.000104108
2 *2998:Y 0.000104108
3 *2999:B *2722:A_N 2.49909e-05
4 *2999:B *3215:A 0.00031207
5 *2999:B *565:16 0.00031207
6 *2728:C *2999:B 4.66108e-05
*RES
1 *2998:Y *2999:B 11.325 
*END

*D_NET *437 0.00125631
*CONN
*I *3001:B I *D sky130_fd_sc_hd__xor2_2
*I *3000:X O *D sky130_fd_sc_hd__o2bb2a_4
*CAP
1 *3001:B 0.000518785
2 *3000:X 0.000518785
3 *3001:B *465:27 0
4 *2778:A2_N *3001:B 1.4389e-05
5 *2778:B2 *3001:B 8.5841e-05
6 *3001:A *3001:B 0.000118513
*RES
1 *3000:X *3001:B 12.515 
*END

*D_NET *438 0.00596297
*CONN
*I *3004:B1 I *D sky130_fd_sc_hd__a22o_4
*I *3006:A1 I *D sky130_fd_sc_hd__a21oi_4
*I *3003:B I *D sky130_fd_sc_hd__xnor2_2
*I *3002:Y O *D sky130_fd_sc_hd__o2bb2ai_4
*CAP
1 *3004:B1 0.000278401
2 *3006:A1 0.000608114
3 *3003:B 0.000505796
4 *3002:Y 0.00083642
5 *438:10 0.00167193
6 *3003:B *449:12 0
7 *3003:B *569:10 0.000209179
8 *3003:B *569:21 0.000177568
9 *3003:B *569:47 2.07184e-05
10 *3004:B1 *3218:A 0
11 *3004:B1 *467:10 0
12 *3006:A1 *569:25 4.66108e-05
13 *438:10 *2744:A2 4.21889e-05
14 *438:10 *449:12 0
15 *438:10 *465:73 0.000161529
16 *438:10 *485:27 6.47326e-05
17 *438:10 *569:47 0.000552124
18 *2741:A1 *438:10 0
19 *3002:A2_N *438:10 0.000507048
20 *3003:A *3004:B1 9.50342e-06
21 *3003:A *3006:A1 1.83847e-05
22 *3075:A *3004:B1 0
23 *3075:B *3004:B1 0.000141606
24 *3077:B *3006:A1 9.2741e-05
25 *154:6 *3004:B1 1.83756e-05
26 *154:19 *3004:B1 0
*RES
1 *3002:Y *438:10 19.965 
2 *438:10 *3003:B 8.745 
3 *438:10 *3006:A1 12.255 
4 *3003:B *3004:B1 11.835 
*END

*D_NET *439 0.00045271
*CONN
*I *3005:B I *D sky130_fd_sc_hd__xnor2_2
*I *3004:X O *D sky130_fd_sc_hd__a22o_4
*CAP
1 *3005:B 0.000159357
2 *3004:X 0.000159357
3 S[8] *3005:B 0.000118513
4 *154:19 *3005:B 1.54837e-05
*RES
1 *3004:X *3005:B 9.72 
*END

*D_NET *440 0.00135189
*CONN
*I *3007:B I *D sky130_fd_sc_hd__xor2_2
*I *3008:A2 I *D sky130_fd_sc_hd__o21ai_2
*I *3006:Y O *D sky130_fd_sc_hd__a21oi_4
*CAP
1 *3007:B 0.000101247
2 *3008:A2 2.08101e-05
3 *3006:Y 0.000490526
4 *440:8 0.000612583
5 *3007:B *3009:B 4.85494e-05
6 *440:8 *3009:B 1.33293e-05
7 *3006:B1 *440:8 7.00889e-06
8 *3007:A *3007:B 5.78345e-05
9 *3007:A *3008:A2 0
*RES
1 *3006:Y *440:8 7.24 
2 *440:8 *3008:A2 1.96 
3 *440:8 *3007:B 2.1375 
*END

*D_NET *441 0.000690076
*CONN
*I *3009:B I *D sky130_fd_sc_hd__xor2_2
*I *3008:Y O *D sky130_fd_sc_hd__o21ai_2
*CAP
1 *3009:B 0.0002708
2 *3008:Y 0.0002708
3 *3009:B *3189:A 0
4 *3009:B *3190:A 0
5 *3007:A *3009:B 8.65961e-05
6 *3007:B *3009:B 4.85494e-05
7 *164:10 *3009:B 0
8 *440:8 *3009:B 1.33293e-05
*RES
1 *3008:Y *3009:B 10.01 
*END

*D_NET *442 0.00546175
*CONN
*I *3016:A1 I *D sky130_fd_sc_hd__a21o_2
*I *3011:A I *D sky130_fd_sc_hd__nand2_2
*I *3251:A I *D sky130_fd_sc_hd__buf_6
*I *3010:Y O *D sky130_fd_sc_hd__nand4_4
*CAP
1 *3016:A1 0.000345266
2 *3011:A 0
3 *3251:A 9.66753e-05
4 *3010:Y 0.00127727
5 *442:16 0.000164331
6 *442:10 0.0016902
7 *3251:A *3112:A 0.000136182
8 *3251:A *499:10 8.65961e-05
9 *442:10 *3112:A 5.12017e-06
10 *442:10 *475:50 0.000158109
11 *442:16 *3209:A 4.08514e-05
12 *3011:B *442:16 8.23457e-05
13 *3015:C1 *442:10 0.000318473
14 *3017:A *3016:A1 3.31204e-05
15 *3046:B1 *3251:A 1.60388e-05
16 *3049:C1 *3016:A1 0.000332795
17 *3049:C1 *442:10 2.14129e-05
18 *3061:C *3251:A 4.82919e-05
19 *3062:D *3016:A1 0
20 *118:47 *3251:A 4.83324e-05
21 *118:47 *442:16 0
22 *119:37 *3251:A 1.33293e-05
23 *125:8 *442:16 0.000119762
24 *127:6 *3016:A1 0.000199833
25 *135:36 *3016:A1 2.14129e-05
26 *135:36 *442:10 5.4003e-05
27 *135:36 *442:16 1.91597e-05
28 *135:49 *3016:A1 0.000132842
*RES
1 *3010:Y *442:10 24.645 
2 *442:10 *442:16 3.845 
3 *442:16 *3251:A 8.39 
4 *442:16 *3011:A 1.6 
5 *442:10 *3016:A1 10.815 
*END

*D_NET *443 0.000620581
*CONN
*I *3015:A2 I *D sky130_fd_sc_hd__o211ai_2
*I *3011:Y O *D sky130_fd_sc_hd__nand2_2
*CAP
1 *3015:A2 0.000146367
2 *3011:Y 0.000146367
3 *3015:A2 *3015:B1 0.000167667
4 *3015:A2 *3017:B 7.89767e-05
5 *3015:A2 *3112:A 7.17001e-05
6 *118:47 *3015:A2 9.50342e-06
7 *137:10 *3015:A2 0
*RES
1 *3011:Y *3015:A2 11.13 
*END

*D_NET *444 0.000313727
*CONN
*I *3014:B I *D sky130_fd_sc_hd__xnor2_2
*I *3013:X O *D sky130_fd_sc_hd__a22o_4
*CAP
1 *3014:B 4.64188e-05
2 *3013:X 4.64188e-05
3 *3014:B *3012:B 0.000140912
4 *3044:A *3014:B 5.21046e-05
5 *120:8 *3014:B 2.78732e-05
*RES
1 *3013:X *3014:B 8.835 
*END

*D_NET *445 0.000458739
*CONN
*I *3017:B I *D sky130_fd_sc_hd__xor2_2
*I *3015:Y O *D sky130_fd_sc_hd__o211ai_2
*CAP
1 *3017:B 9.14274e-05
2 *3015:Y 9.14274e-05
3 *3017:B *2936:A 7.00889e-06
4 *3017:B *3015:B1 4.82919e-05
5 *3017:B *3112:A 0.000141606
6 *3015:A2 *3017:B 7.89767e-05
*RES
1 *3015:Y *3017:B 8.03 
*END

*D_NET *446 0.00199744
*CONN
*I *3019:B1 I *D sky130_fd_sc_hd__a22oi_2
*I *3018:D I *D sky130_fd_sc_hd__and4_2
*I *3016:X O *D sky130_fd_sc_hd__a21o_2
*CAP
1 *3019:B1 4.5728e-05
2 *3018:D 0.000575182
3 *3016:X 0.000529454
4 *3018:D *3018:A 0.000131761
5 *3018:D *3018:B 0.000104286
6 *3018:D *3049:A1 8.8266e-05
7 *3019:B1 *3019:A1 4.61744e-05
8 *3018:C *3019:B1 9.30717e-05
9 *3048:B1 *3019:B1 8.08153e-06
10 *3049:A2 *3018:D 3.96737e-05
11 *3049:B1 *3018:D 4.29107e-05
12 *122:12 *3018:D 9.39078e-05
13 *127:6 *3018:D 0.000198939
*RES
1 *3016:X *3018:D 14.285 
2 *3018:D *3019:B1 8.58 
*END

*D_NET *447 0.000717899
*CONN
*I *3020:A I *D sky130_fd_sc_hd__nor2_4
*I *3018:X O *D sky130_fd_sc_hd__and4_2
*CAP
1 *3020:A 0.000264966
2 *3018:X 0.000264966
3 *3020:A *3018:A 4.82863e-05
4 *3020:A *3039:A 0.00011852
5 *3020:A *3039:B 1.16578e-05
6 *3245:A *3020:A 0
7 *129:12 *3020:A 9.50342e-06
*RES
1 *3018:X *3020:A 10.755 
*END

*D_NET *448 0.000869872
*CONN
*I *3020:B I *D sky130_fd_sc_hd__nor2_4
*I *3019:Y O *D sky130_fd_sc_hd__a22oi_2
*CAP
1 *3020:B 0.000168474
2 *3019:Y 0.000168474
3 *3020:B *542:6 0.000418498
4 *129:16 *3020:B 0.000114424
*RES
1 *3019:Y *3020:B 7.46 
*END

*D_NET *449 0.0169252
*CONN
*I *3090:A1 I *D sky130_fd_sc_hd__a21oi_4
*I *3081:A I *D sky130_fd_sc_hd__nand2_4
*I *3091:A1 I *D sky130_fd_sc_hd__o21ai_4
*I *2732:A I *D sky130_fd_sc_hd__nand2_2
*I *2727:A1 I *D sky130_fd_sc_hd__a21oi_2
*I *2750:A I *D sky130_fd_sc_hd__nand2_4
*I *3072:A I *D sky130_fd_sc_hd__nand2_2
*I *3097:A I *D sky130_fd_sc_hd__nand2_2
*I *3022:Y O *D sky130_fd_sc_hd__inv_16
*CAP
1 *3090:A1 0
2 *3081:A 0.000183217
3 *3091:A1 0
4 *2732:A 0
5 *2727:A1 5.62465e-05
6 *2750:A 0.000215958
7 *3072:A 0.000107209
8 *3097:A 0.000110331
9 *3022:Y 0.001067
10 *449:105 0.00071577
11 *449:88 0.00124466
12 *449:52 0.000945547
13 *449:40 0.00222425
14 *449:12 0.000766965
15 *449:10 0.00245523
16 *2727:A1 *457:61 6.28498e-05
17 *2727:A1 *530:14 2.66939e-05
18 *2727:A1 *531:40 1.01661e-05
19 *2727:A1 *567:72 0
20 *2750:A *2725:B1_N 3.18137e-05
21 *2750:A *3102:A 1.70935e-05
22 *2750:A *457:61 5.16418e-05
23 *2750:A *457:67 0.000506349
24 *2750:A *530:14 1.01661e-05
25 *2750:A *531:21 0.000100479
26 *2750:A *531:40 4.79685e-05
27 *3072:A *3072:B 8.69014e-05
28 *3072:A *465:27 4.19006e-05
29 *3081:A *3081:B 0
30 *3081:A *3083:A_N 0
31 *3081:A *518:10 0
32 *3081:A *538:10 3.35901e-05
33 *3097:A *3074:A1 0.000317494
34 *3097:A *475:21 3.00381e-05
35 *449:10 *2935:A 2.87867e-05
36 *449:10 *3239:A 4.54719e-05
37 *449:12 *2741:B1_N 7.1932e-06
38 *449:12 *3074:A1 8.53113e-06
39 *449:12 *3217:A 0.000140912
40 *449:12 *3239:A 0.000137578
41 *449:12 *3246:A 0.000195231
42 *449:12 *465:66 0
43 *449:12 *534:8 0.000147974
44 *449:40 *2732:B 4.41506e-05
45 *449:40 *3214:A 8.65905e-05
46 *449:52 *521:14 0.000836043
47 *449:52 *560:14 0.000636626
48 *449:88 *3087:A 2.49909e-05
49 *449:88 *3087:B 2.11084e-05
50 *449:88 *467:19 0.000384399
51 *449:105 *3042:A 1.34361e-05
52 *449:105 *3083:A_N 0
53 *449:105 *3090:A2 9.11073e-05
54 *449:105 *538:10 3.57846e-05
55 *449:105 *539:32 7.68414e-06
56 S[7] *3072:A 8.49205e-05
57 S[7] *3097:A 0.000178488
58 S[7] *449:12 1.07797e-05
59 *2729:A2 *2727:A1 7.23602e-05
60 *2729:A2 *2750:A 7.23533e-05
61 *2741:A1 *449:12 0
62 *2744:B1 *449:12 0.000162419
63 *2748:A *449:40 5.05521e-05
64 *2780:C *449:52 0.000569157
65 *2783:B1 *449:88 9.30717e-05
66 *3003:B *449:12 0
67 *3076:B *3072:A 0.000272978
68 *3089:B1 *449:88 0.000155324
69 *3089:B1 *449:105 8.08153e-06
70 *3091:B1 *449:105 9.52646e-05
71 *3125:A *3081:A 0.000300383
72 *165:8 *449:88 8.53113e-06
73 *169:10 *449:88 1.79098e-05
74 *169:10 *449:105 0.000328076
75 *169:12 *449:88 8.34348e-05
76 *438:10 *449:12 0
*RES
1 *3022:Y *449:10 8.355 
2 *449:10 *449:12 12.345 
3 *449:12 *3097:A 7.725 
4 *449:12 *3072:A 7.08 
5 *449:10 *449:40 23.075 
6 *449:40 *449:52 21.525 
7 *449:52 *2750:A 10.335 
8 *449:52 *2727:A1 5.235 
9 *449:40 *2732:A 1.6 
10 *3022:Y *449:88 14.82 
11 *449:88 *3091:A1 3.6 
12 *449:88 *449:105 11.71 
13 *449:105 *3081:A 7.785 
14 *449:105 *3090:A1 3.6 
*END

*D_NET *450 0.00361218
*CONN
*I *2759:B1 I *D sky130_fd_sc_hd__o21ai_2
*I *2761:B1_N I *D sky130_fd_sc_hd__o21bai_2
*I *2985:A I *D sky130_fd_sc_hd__xor2_2
*I *2986:A1 I *D sky130_fd_sc_hd__mux2_1
*I *3114:X O *D sky130_fd_sc_hd__clkdlybuf4s25_1
*CAP
1 *2759:B1 0.000228212
2 *2761:B1_N 3.91687e-05
3 *2985:A 0.000275446
4 *2986:A1 0
5 *3114:X 8.36284e-05
6 *450:30 0.000355794
7 *450:15 0.000394804
8 *450:6 0.000114574
9 *2759:B1 *2759:A1 4.88478e-05
10 *2759:B1 *2759:A2 0.000182349
11 *2759:B1 *3104:A 2.0231e-05
12 *2759:B1 *452:12 2.01779e-05
13 *2759:B1 *452:34 0.000153139
14 *2759:B1 *572:60 0
15 *2761:B1_N *452:8 4.77719e-05
16 *2985:A *2985:B 0.000141599
17 *2985:A *3188:A 1.23437e-05
18 *2985:A *452:12 2.84864e-05
19 *450:6 *2758:A 0.000457823
20 *450:6 *2758:B 0.000154051
21 *450:15 *2758:A 3.63337e-05
22 *450:30 *2762:A1 0.000130714
23 *450:30 *2985:B 4.9968e-05
24 *450:30 *452:12 0.000207281
25 *2762:A2 *2759:B1 9.76678e-05
26 *2762:A2 *450:30 4.43871e-06
27 *2762:C1 *2761:B1_N 4.77719e-05
28 *3114:A *2985:A 0
29 *3114:A *450:6 0.000196048
30 *3114:A *450:15 8.35068e-05
*RES
1 *3114:X *450:6 5.845 
2 *450:6 *2986:A1 1.6 
3 *450:6 *450:15 2.795 
4 *450:15 *2985:A 8.28 
5 *450:15 *450:30 2.655 
6 *450:30 *2761:B1_N 4.395 
7 *450:30 *2759:B1 8.835 
*END

*D_NET *451 0.00446984
*CONN
*I *2808:C I *D sky130_fd_sc_hd__nand3b_2
*I *2838:A1 I *D sky130_fd_sc_hd__a22oi_2
*I *2809:B1_N I *D sky130_fd_sc_hd__o21bai_4
*I *3115:X O *D sky130_fd_sc_hd__clkdlybuf4s25_1
*CAP
1 *2808:C 0.000129262
2 *2838:A1 7.776e-05
3 *2809:B1_N 0.000476847
4 *3115:X 0.00105714
5 *451:10 0.000678014
6 *451:6 0.00130981
7 *2808:C *3248:A 6.92319e-05
8 *2808:C *572:60 4.82919e-05
9 *2809:B1_N *461:23 0.000123225
10 *2838:A1 *461:23 5.72091e-05
11 *451:6 *2800:B1_N 8.65905e-05
12 *451:10 *458:51 0
13 *451:10 *461:10 0.000187759
14 *451:10 *461:23 1.0183e-05
15 *451:10 *572:60 3.09233e-05
16 *2807:A *451:10 0
17 *2838:B1 *2838:A1 0
18 *259:10 *451:6 0.000127592
19 *262:19 *451:10 0
*RES
1 *3115:X *451:6 16.54 
2 *451:6 *451:10 4.91 
3 *451:10 *2809:B1_N 10.275 
4 *451:10 *2838:A1 5.235 
5 *451:6 *2808:C 3.79 
*END

*D_NET *452 0.00460435
*CONN
*I *3179:A I *D sky130_fd_sc_hd__buf_6
*I *2757:A I *D sky130_fd_sc_hd__and2_4
*I *2759:A1 I *D sky130_fd_sc_hd__o21ai_2
*I *2986:A0 I *D sky130_fd_sc_hd__mux2_1
*I *2758:A I *D sky130_fd_sc_hd__nor2_2
*I *3101:X O *D sky130_fd_sc_hd__buf_4
*CAP
1 *3179:A 0.000138133
2 *2757:A 0
3 *2759:A1 0.0003658
4 *2986:A0 0
5 *2758:A 0.000449933
6 *3101:X 0.00032013
7 *452:34 0.000350646
8 *452:12 0.000608306
9 *452:8 0.000601482
10 *2758:A *2758:B 0.000175802
11 *2759:A1 *3104:A 1.50383e-05
12 *2759:A1 *572:35 2.78732e-05
13 *3179:A *453:8 0.000163204
14 *3179:A *457:61 5.90938e-05
15 *452:34 *3104:A 2.97746e-05
16 *452:34 *457:10 0.000157378
17 *452:34 *537:66 9.78953e-05
18 *2759:B1 *2759:A1 4.88478e-05
19 *2759:B1 *452:12 2.01779e-05
20 *2759:B1 *452:34 0.000153139
21 *2761:B1_N *452:8 4.77719e-05
22 *2762:C1 *452:8 4.40028e-05
23 *2985:A *452:12 2.84864e-05
24 *450:6 *2758:A 0.000457823
25 *450:15 *2758:A 3.63337e-05
26 *450:30 *452:12 0.000207281
*RES
1 *3101:X *452:8 7.845 
2 *452:8 *452:12 5.165 
3 *452:12 *2758:A 8.635 
4 *452:12 *2986:A0 1.6 
5 *452:8 *452:34 5.375 
6 *452:34 *2759:A1 9.32 
7 *452:34 *2757:A 1.6 
8 *2759:A1 *3179:A 6.065 
*END

*D_NET *453 0.00741802
*CONN
*I *2765:A I *D sky130_fd_sc_hd__and2_4
*I *2764:A I *D sky130_fd_sc_hd__nor2_2
*I *2961:A I *D sky130_fd_sc_hd__nor2_2
*I *2767:A1 I *D sky130_fd_sc_hd__o21ai_4
*I *2760:A1 I *D sky130_fd_sc_hd__a21oi_2
*I *2762:B1 I *D sky130_fd_sc_hd__o211ai_2
*I *3179:X O *D sky130_fd_sc_hd__buf_6
*CAP
1 *2765:A 0
2 *2764:A 1.96339e-05
3 *2961:A 0.00116408
4 *2767:A1 7.97134e-05
5 *2760:A1 0
6 *2762:B1 0.000261065
7 *3179:X 7.02176e-05
8 *453:57 0.00141929
9 *453:42 0.000479091
10 *453:36 0.000460172
11 *453:10 0.000389127
12 *453:8 0.000494646
13 *2762:B1 *2762:A1 9.21168e-05
14 *2764:A *3213:A 3.83041e-05
15 *2961:A *572:60 0.000743116
16 *453:8 *457:61 0.000165698
17 *453:10 *572:60 6.28765e-05
18 *453:36 *2765:B 0.000151575
19 *453:36 *572:60 0.000292284
20 *453:42 *2767:B1 4.43871e-06
21 *453:42 *572:60 0
22 *453:57 *2767:B1 9.24127e-05
23 *453:57 *3213:A 8.65961e-05
24 *453:57 *526:10 8.68724e-05
25 *2762:A2 *2762:B1 8.65961e-05
26 *2763:B *2762:B1 1.61831e-05
27 *2763:B *453:10 0
28 *2786:B2 *453:36 3.76518e-05
29 *2984:B1 *2961:A 0.00011379
30 *2990:A *453:36 0.000141592
31 *2990:B *453:10 0
32 *2990:B *453:36 0
33 *3179:A *453:8 0.000163204
34 *225:10 *453:36 0.000187759
35 *227:10 *453:36 1.79098e-05
*RES
1 *3179:X *453:8 6.12 
2 *453:8 *453:10 2.145 
3 *453:10 *2762:B1 8.115 
4 *453:10 *2760:A1 3.6 
5 *453:8 *453:36 10.31 
6 *453:36 *453:42 4.595 
7 *453:42 *2767:A1 4.74 
8 *453:42 *453:57 6.98 
9 *453:57 *2961:A 28.34 
10 *453:57 *2764:A 2.05 
11 *453:36 *2765:A 1.6 
*END

*D_NET *454 0.00279756
*CONN
*I *2751:A I *D sky130_fd_sc_hd__nand2_2
*I *2752:A I *D sky130_fd_sc_hd__nor2_2
*I *3180:A I *D sky130_fd_sc_hd__buf_6
*I *2749:B I *D sky130_fd_sc_hd__nand2b_4
*I *3102:X O *D sky130_fd_sc_hd__buf_6
*CAP
1 *2751:A 0.00012003
2 *2752:A 1.93617e-05
3 *3180:A 0
4 *2749:B 0
5 *3102:X 7.81138e-05
6 *454:23 0.000137442
7 *454:17 0.000295939
8 *454:8 0.000135944
9 *2751:A *2753:B 7.97083e-05
10 *2751:A *529:10 0.000162325
11 *454:23 *531:8 9.80943e-06
12 *2755:C *454:23 0.000120655
13 *3132:A *2751:A 9.42145e-05
14 *3132:A *454:8 0.000121314
15 *3132:A *454:17 0.000100528
16 *3134:A *2752:A 8.57024e-05
17 *3134:A *454:23 0.000292506
18 *3152:A *2751:A 6.81237e-05
19 *3152:A *454:8 0.000223786
20 *3152:A *454:17 0.000155625
21 *212:10 *2752:A 4.21973e-05
22 *212:10 *454:23 0.000454239
*RES
1 *3102:X *454:8 6.255 
2 *454:8 *2749:B 3.6 
3 *454:8 *454:17 2.145 
4 *454:17 *454:23 6.605 
5 *454:23 *3180:A 1.6 
6 *454:23 *2752:A 2.395 
7 *454:17 *2751:A 7.53 
*END

*D_NET *455 0.00701868
*CONN
*I *2771:A1 I *D sky130_fd_sc_hd__o21ai_4
*I *2772:A1 I *D sky130_fd_sc_hd__a21o_2
*I *2769:A I *D sky130_fd_sc_hd__and2_4
*I *2770:A I *D sky130_fd_sc_hd__nor2_2
*I *2723:A I *D sky130_fd_sc_hd__nand2_2
*I *2721:B I *D sky130_fd_sc_hd__nand2b_4
*I *2722:A_N I *D sky130_fd_sc_hd__nand2b_2
*I *3180:X O *D sky130_fd_sc_hd__buf_6
*CAP
1 *2771:A1 0.000112222
2 *2772:A1 0.000483443
3 *2769:A 0
4 *2770:A 3.37585e-05
5 *2723:A 0
6 *2721:B 0
7 *2722:A_N 0.000370907
8 *3180:X 0.000102924
9 *455:81 0.0006842
10 *455:70 0.000153604
11 *455:59 0.000272383
12 *455:46 0.00020328
13 *455:18 0.000603654
14 *455:8 0.000365395
15 *2722:A_N *2721:A_N 0
16 *2722:A_N *2722:B 0.000232698
17 *2722:A_N *3023:A 1.12578e-05
18 *2771:A1 *2771:A2 3.74161e-05
19 *2772:A1 *2771:A2 4.66108e-05
20 *2772:A1 *2771:B1 4.82919e-05
21 *2772:A1 *2772:A2 0.000283304
22 *2772:A1 *2773:B1_N 4.43682e-05
23 *455:8 *530:14 0.000265223
24 *455:8 *567:31 0.000201393
25 *455:8 *567:44 7.47215e-05
26 *455:18 *2721:A_N 2.8694e-05
27 *455:18 *3023:A 4.82919e-05
28 *455:46 *530:14 0.000120186
29 *455:46 *567:44 0.000109016
30 *455:46 *567:59 8.53113e-06
31 *455:59 *529:10 0
32 *455:59 *530:14 0.000294473
33 *455:59 *564:29 2.97004e-06
34 *455:59 *567:59 0.000172852
35 *455:70 *2771:A2 8.53113e-06
36 *455:70 *530:14 0.000119285
37 *455:70 *564:29 4.91758e-05
38 *455:81 *2771:A2 0.000154488
39 *455:81 *530:14 5.53249e-06
40 *2728:C *2722:A_N 0.000212252
41 *2789:B2 *2772:A1 0.000227543
42 *2998:A1 *2722:A_N 0.000289659
43 *2998:B1 *2722:A_N 0.000152617
44 *2999:B *2722:A_N 2.49909e-05
45 *3132:A *455:18 1.08758e-05
46 *181:6 *2722:A_N 0.000239807
47 *229:10 *455:70 3.76596e-05
48 *229:10 *455:81 1.1561e-05
49 *231:10 *2772:A1 4.82919e-05
50 *233:10 *2772:A1 1.03423e-05
*RES
1 *3180:X *455:8 6.765 
2 *455:8 *455:18 5.69 
3 *455:18 *2722:A_N 11.56 
4 *455:18 *2721:B 1.6 
5 *455:8 *455:46 1.38 
6 *455:46 *2723:A 3.6 
7 *455:46 *455:59 4.74 
8 *455:59 *2770:A 4.05 
9 *455:59 *455:70 2.4 
10 *455:70 *2769:A 3.6 
11 *455:70 *455:81 4.145 
12 *455:81 *2772:A1 13.985 
13 *455:81 *2771:A1 3.43 
*END

*D_NET *456 0.00595985
*CONN
*I *2735:A1 I *D sky130_fd_sc_hd__a21oi_2
*I *2734:A1 I *D sky130_fd_sc_hd__o21ai_2
*I *2724:A1 I *D sky130_fd_sc_hd__o21a_2
*I *2731:A I *D sky130_fd_sc_hd__and2_2
*I *2733:B I *D sky130_fd_sc_hd__nand2b_2
*I *2726:A1 I *D sky130_fd_sc_hd__o21ai_4
*I *2725:A1 I *D sky130_fd_sc_hd__a21boi_2
*I *3103:X O *D sky130_fd_sc_hd__clkbuf_2
*CAP
1 *2735:A1 0.00014901
2 *2734:A1 0
3 *2724:A1 0
4 *2731:A 0.000174351
5 *2733:B 3.17309e-05
6 *2726:A1 9.76097e-05
7 *2725:A1 0
8 *3103:X 0.000105502
9 *456:67 0.000278428
10 *456:38 0.00040248
11 *456:25 0.000352679
12 *456:21 0.0001848
13 *456:19 0.000672301
14 *456:6 0.000522257
15 *2726:A1 *2734:B1 4.66742e-05
16 *2731:A *2731:B 0.000180379
17 *2731:A *560:14 8.09021e-06
18 *2735:A1 *457:101 0.000208477
19 *2735:A1 *521:14 0
20 *456:6 *2725:A2 0.000134314
21 *456:6 *2725:B1_N 4.82863e-05
22 *456:6 *2752:B 4.82863e-05
23 *456:19 *2725:A2 2.30292e-05
24 *456:19 *521:14 0.000483255
25 *456:19 *565:16 0.000269274
26 *456:21 *2994:A1 0.000124667
27 *456:25 *2726:A2 8.34139e-05
28 *456:38 *2726:A2 2.23922e-05
29 *456:38 *2734:B1 9.05377e-05
30 *456:38 *560:14 0.00012381
31 *456:67 *2994:A1 9.02174e-05
32 *456:67 *457:101 0.000157602
33 *456:67 *521:14 0
34 *456:67 *565:16 0.00013521
35 *2726:B1 *456:6 7.00889e-06
36 *2726:B1 *456:19 3.00381e-05
37 *2726:B1 *456:25 0.000137578
38 *2726:B1 *456:38 3.09233e-05
39 *2728:C *456:19 2.04147e-05
40 *2735:B1 *2735:A1 8.71465e-05
41 *2738:B1 *2735:A1 5.56629e-05
42 *2746:C *2735:A1 0.000124007
43 *2996:B1 *456:38 6.47594e-05
44 *3128:A *456:19 9.05377e-05
45 *187:10 *456:25 8.53113e-06
46 *193:12 *2733:B 5.83121e-06
47 *194:10 *2735:A1 3.67779e-05
48 *194:29 *2735:A1 1.15688e-05
*RES
1 *3103:X *456:6 4.12 
2 *456:6 *2725:A1 1.6 
3 *456:6 *456:19 14.44 
4 *456:19 *456:21 2.175 
5 *456:21 *456:25 3.635 
6 *456:25 *2726:A1 5.1 
7 *456:25 *456:38 4.695 
8 *456:38 *2733:B 4.05 
9 *456:38 *2731:A 7.53 
10 *456:21 *2724:A1 1.6 
11 *456:19 *456:67 5.375 
12 *456:67 *2734:A1 3.6 
13 *456:67 *2735:A1 7.83 
*END

*D_NET *457 0.0188962
*CONN
*I *2952:A I *D sky130_fd_sc_hd__nor2_2
*I *2953:A I *D sky130_fd_sc_hd__and2_2
*I *3103:A I *D sky130_fd_sc_hd__clkbuf_2
*I *3102:A I *D sky130_fd_sc_hd__buf_6
*I *2962:A I *D sky130_fd_sc_hd__and2_2
*I *2976:A I *D sky130_fd_sc_hd__xor2_2
*I *3101:A I *D sky130_fd_sc_hd__buf_4
*I *3104:X O *D sky130_fd_sc_hd__buf_4
*CAP
1 *2952:A 0
2 *2953:A 7.76889e-05
3 *3103:A 0
4 *3102:A 0.000219064
5 *2962:A 0.000205172
6 *2976:A 0.00016232
7 *3101:A 0.000202389
8 *3104:X 1.85694e-05
9 *457:101 0.00141263
10 *457:67 0.000462443
11 *457:61 0.00308979
12 *457:27 0.00207785
13 *457:10 0.00226272
14 *457:6 0.00188001
15 *2953:A *521:14 0.000163992
16 *2953:A *521:25 9.50342e-06
17 *2962:A *2962:B 0
18 *2962:A *2965:B1_N 8.09021e-06
19 *2962:A *3220:A 0
20 *2962:A *527:12 0
21 *2976:A *527:12 5.30673e-05
22 *2976:A *527:21 4.35348e-05
23 *3102:A *2725:B1_N 8.53113e-06
24 *3102:A *2752:B 1.73877e-05
25 *3102:A *530:14 2.16917e-05
26 *3102:A *565:16 9.66021e-05
27 *457:6 *2759:A2 9.53428e-06
28 *457:10 *537:66 3.22894e-05
29 *457:10 *572:35 0.000194898
30 *457:10 *572:60 7.32549e-05
31 *457:27 *2963:C_N 8.49205e-05
32 *457:27 *2965:B1_N 7.89689e-05
33 *457:27 *527:21 6.52265e-05
34 *457:27 *528:8 0
35 *457:61 *2760:A2 2.16833e-05
36 *457:61 *2994:A1 1.73858e-05
37 *457:61 *522:14 3.1562e-06
38 *457:61 *530:14 5.7344e-05
39 *457:61 *537:66 2.16917e-05
40 *457:61 *567:59 6.58423e-05
41 *457:61 *567:70 1.03323e-05
42 *457:61 *572:60 0.00014269
43 *457:67 *2752:B 7.35729e-05
44 *457:67 *530:14 0.00027742
45 *457:101 *2732:B 0.000160665
46 *457:101 *2994:A1 0
47 *457:101 *2995:B 0
48 *457:101 *3215:A 4.80285e-05
49 *457:101 *521:14 0.000166111
50 *457:101 *565:16 0.000107658
51 *457:101 *565:27 0.00010506
52 *457:101 *565:40 0.000121876
53 *2727:A1 *457:61 6.28498e-05
54 *2729:A1 *457:101 9.02174e-05
55 *2729:B1 *457:101 8.65905e-05
56 *2735:A1 *457:101 0.000208477
57 *2738:B1 *457:101 0.000189326
58 *2750:A *3102:A 1.70935e-05
59 *2750:A *457:61 5.16418e-05
60 *2750:A *457:67 0.000506349
61 *2753:A *457:61 1.83847e-05
62 *2754:A *457:61 4.21973e-05
63 *2760:B1 *457:61 4.82919e-05
64 *2761:A1 *3101:A 0
65 *2761:A1 *457:10 1.77595e-05
66 *2780:A *457:101 0
67 *2780:C *457:101 0.000506765
68 *2964:A2 *2962:A 4.31921e-05
69 *2965:A2 *457:27 7.89689e-05
70 *2979:B1 *457:27 8.18184e-05
71 *2983:A *457:27 0
72 *2984:B2 *457:27 0
73 *2988:B1 *457:61 0.000230429
74 *2989:A2 *457:61 1.91597e-05
75 *2995:A *457:101 0.000118513
76 *3133:A *3102:A 0.000315527
77 *3134:A *3102:A 0
78 *3165:A *2962:A 3.58184e-05
79 *3170:A *3102:A 8.65905e-05
80 *3179:A *457:61 5.90938e-05
81 *186:12 *457:101 0.000312771
82 *189:8 *457:101 0.000345353
83 *213:6 *457:61 5.18105e-05
84 *219:8 *457:61 9.30787e-05
85 *408:10 *2962:A 0.000137187
86 *410:10 *2976:A 4.99619e-05
87 *410:10 *457:27 3.66286e-05
88 *431:10 *457:61 4.10476e-05
89 *452:34 *457:10 0.000157378
90 *453:8 *457:61 0.000165698
91 *456:67 *457:101 0.000157602
*RES
1 *3104:X *457:6 1.96 
2 *457:6 *457:10 8.315 
3 *457:10 *3101:A 6.795 
4 *457:10 *457:27 31.73 
5 *457:27 *2976:A 4.48 
6 *457:27 *2962:A 10.04 
7 *457:6 *457:61 26.31 
8 *457:61 *457:67 9.11 
9 *457:67 *3102:A 11.12 
10 *457:67 *3103:A 1.6 
11 *457:61 *457:101 38.1 
12 *457:101 *2953:A 7.49 
13 *457:101 *2952:A 1.6 
*END

*D_NET *458 0.00421131
*CONN
*I *2804:A I *D sky130_fd_sc_hd__nor2_4
*I *2805:A I *D sky130_fd_sc_hd__and2_4
*I *2806:A I *D sky130_fd_sc_hd__nand2_2
*I *2798:A I *D sky130_fd_sc_hd__nand2_2
*I *2797:A I *D sky130_fd_sc_hd__and2_4
*I *3181:A I *D sky130_fd_sc_hd__buf_4
*I *3105:X O *D sky130_fd_sc_hd__buf_4
*CAP
1 *2804:A 0
2 *2805:A 0
3 *2806:A 6.40642e-05
4 *2798:A 0.000138387
5 *2797:A 0
6 *3181:A 7.60441e-05
7 *3105:X 1.77632e-05
8 *458:55 0.000244143
9 *458:51 0.000396244
10 *458:23 0.000542875
11 *458:10 0.00106699
12 *458:6 0.000820384
13 *2798:A *2798:B 0.000123225
14 *2798:A *547:6 0.00012657
15 *2806:A *572:60 7.75325e-05
16 *458:6 *3105:A 4.82919e-05
17 *458:10 *3105:A 4.82863e-05
18 *458:23 *2796:B 0
19 *458:23 *2800:B1_N 0
20 *458:23 *599:10 0
21 *458:51 *461:10 6.73665e-05
22 *458:51 *547:12 4.18603e-06
23 *458:51 *572:60 0
24 *458:55 *2805:B 0.000197269
25 *2799:B *458:23 5.92849e-05
26 *2800:A2 *458:23 0
27 *2808:B *2806:A 9.24049e-05
28 *258:8 *458:23 0
29 *451:10 *458:51 0
*RES
1 *3105:X *458:6 2.05 
2 *458:6 *458:10 8.745 
3 *458:10 *3181:A 2.74 
4 *458:10 *458:23 10.48 
5 *458:23 *2797:A 1.6 
6 *458:23 *2798:A 8.345 
7 *458:6 *458:51 7.93 
8 *458:51 *458:55 3.225 
9 *458:55 *2806:A 7.745 
10 *458:55 *2805:A 1.6 
11 *458:51 *2804:A 1.6 
*END

*D_NET *459 0.00475703
*CONN
*I *2828:A I *D sky130_fd_sc_hd__and2_4
*I *3026:B I *D sky130_fd_sc_hd__nand2_2
*I *3024:B I *D sky130_fd_sc_hd__nor2_8
*I *3025:B I *D sky130_fd_sc_hd__and2_4
*I *2796:A I *D sky130_fd_sc_hd__nor2_4
*I *3181:X O *D sky130_fd_sc_hd__buf_4
*CAP
1 *2828:A 0.000557702
2 *3026:B 0.000250695
3 *3024:B 0
4 *3025:B 0
5 *2796:A 0.000211393
6 *3181:X 0.00010706
7 *459:41 0.000847161
8 *459:32 0.000219783
9 *459:19 0.000314051
10 *459:8 0.000451485
11 *2796:A *2796:B 4.18603e-06
12 *2828:A *2828:B 1.73877e-05
13 *2828:A *2830:A1 0
14 *2828:A *2832:B1_N 8.89829e-05
15 *2828:A *3027:C 3.68784e-05
16 *2828:A *484:10 0.000218336
17 *2828:A *545:8 2.87867e-05
18 *2828:A *545:10 1.65192e-05
19 *2828:A *550:12 5.72091e-05
20 *3026:B *3026:A 3.70488e-05
21 *459:8 *3196:A 0.000278117
22 *459:19 *3196:A 0
23 *459:32 *3025:A 1.73877e-05
24 *459:32 *3027:C 6.11008e-05
25 *459:32 *3196:A 0
26 *459:32 *588:10 0.000101317
27 *459:41 *3027:C 7.34286e-05
28 S[16] *2828:A 5.16418e-05
29 S[16] *459:32 6.44676e-05
30 S[16] *459:41 0.000141592
31 *2800:A1 *2796:A 0.000117832
32 *2800:A2 *2796:A 0
33 *3027:B *3026:B 0.00024388
34 *3028:A2 *459:32 0.000141599
35 *3115:A *2796:A 0
36 *3118:A *2828:A 0
37 *3148:A *2828:A 0
38 *3153:A *2828:A 0
*RES
1 *3181:X *459:8 6.12 
2 *459:8 *2796:A 7.53 
3 *459:8 *459:19 2.145 
4 *459:19 *3025:B 3.6 
5 *459:19 *459:32 4.74 
6 *459:32 *3024:B 3.6 
7 *459:32 *459:41 1.635 
8 *459:41 *3026:B 7.545 
9 *459:41 *2828:A 15.21 
*END

*D_NET *460 0.00422494
*CONN
*I *2847:A1 I *D sky130_fd_sc_hd__a21oi_2
*I *2843:A I *D sky130_fd_sc_hd__and2_4
*I *2842:A I *D sky130_fd_sc_hd__nor2_2
*I *2846:A1 I *D sky130_fd_sc_hd__o21ai_2
*I *2829:A I *D sky130_fd_sc_hd__nor2_2
*I *2831:A1 I *D sky130_fd_sc_hd__a21oi_2
*I *2830:A1 I *D sky130_fd_sc_hd__o21ai_4
*I *3106:X O *D sky130_fd_sc_hd__clkbuf_2
*CAP
1 *2847:A1 8.83741e-05
2 *2843:A 0.000133867
3 *2842:A 3.37585e-05
4 *2846:A1 0
5 *2829:A 0.000126651
6 *2831:A1 0
7 *2830:A1 0.000222849
8 *3106:X 0
9 *460:54 0.000257655
10 *460:45 0.000184326
11 *460:41 0.000716946
12 *460:26 0.000660926
13 *460:6 0.000385497
14 *460:4 0.000162648
15 *2830:A1 *2828:B 8.57024e-05
16 *2830:A1 *550:12 6.74079e-05
17 *2830:A1 *550:35 8.8266e-05
18 *2843:A *2843:B 0.000225854
19 *2843:A *551:23 8.53113e-06
20 *2847:A1 *2847:A2 2.86975e-05
21 *460:6 *2828:B 7.23635e-05
22 *460:41 *2828:B 0
23 *460:45 *2847:A2 0.000143266
24 *460:54 *2847:A2 3.09164e-05
25 *460:54 *551:23 0.000154488
26 *2828:A *2830:A1 0
27 *2832:A1 *2829:A 6.44047e-05
28 *2833:A *2829:A 0
29 *3118:A *2830:A1 0
30 *284:10 *2829:A 1.7396e-05
31 *284:10 *460:41 5.21545e-05
32 *286:23 *460:6 0.000197269
33 *287:8 *460:6 1.47256e-05
34 *301:10 *460:45 0
*RES
1 *3106:X *460:4 1.6 
2 *460:4 *460:6 3.21 
3 *460:6 *2830:A1 9.92 
4 *460:6 *2831:A1 1.6 
5 *460:4 *460:26 2 
6 *460:26 *2829:A 6 
7 *460:26 *460:41 10.835 
8 *460:41 *460:45 4.145 
9 *460:45 *2846:A1 3.6 
10 *460:45 *460:54 2.145 
11 *460:54 *2842:A 4.05 
12 *460:54 *2843:A 6.54 
13 *460:41 *2847:A1 3.085 
*END

*D_NET *461 0.00653038
*CONN
*I *3260:A I *D sky130_fd_sc_hd__buf_6
*I *3106:A I *D sky130_fd_sc_hd__clkbuf_2
*I *3105:A I *D sky130_fd_sc_hd__buf_4
*I *3107:X O *D sky130_fd_sc_hd__dlymetal6s2s_1
*CAP
1 *3260:A 0.000364434
2 *3106:A 0.00181937
3 *3105:A 8.68386e-05
4 *3107:X 5.81709e-05
5 *461:23 0.00234561
6 *461:10 0.00030682
7 *3106:A *3201:A 4.10476e-05
8 *3260:A *463:12 0
9 *2807:A *3260:A 9.50342e-06
10 *2807:A *461:23 0.00015997
11 *2807:B *3260:A 8.65905e-05
12 *2809:B1_N *461:23 0.000123225
13 *2837:B1 *3106:A 0
14 *2838:A1 *461:23 5.72091e-05
15 *2838:A2 *3260:A 3.4344e-05
16 *2838:B1 *3106:A 0
17 *2838:B1 *461:23 0
18 *2839:A2 *3260:A 0.000175166
19 *2850:B1 *3106:A 0
20 *2850:C1 *3106:A 0
21 *2851:B1 *3106:A 0.000123589
22 *2853:C1 *3106:A 7.96482e-05
23 *2854:B1 *3106:A 2.68464e-05
24 *2855:A1 *3106:A 0
25 *267:21 *3106:A 0
26 *267:21 *3260:A 0
27 *269:18 *3260:A 4.85494e-05
28 *286:23 *3106:A 0.000182698
29 *287:23 *3106:A 3.88594e-05
30 *287:25 *3106:A 0
31 *303:12 *3106:A 0
32 *451:10 *461:10 0.000187759
33 *451:10 *461:23 1.0183e-05
34 *458:6 *3105:A 4.82919e-05
35 *458:10 *3105:A 4.82863e-05
36 *458:51 *461:10 6.73665e-05
*RES
1 *3107:X *461:10 7.745 
2 *461:10 *3105:A 3.085 
3 *461:10 *461:23 5.7575 
4 *461:23 *3106:A 29.5275 
5 *461:23 *3260:A 10.1925 
*END

*D_NET *462 0.00628381
*CONN
*I *2822:A I *D sky130_fd_sc_hd__nor2_2
*I *2837:A1 I *D sky130_fd_sc_hd__o21ai_2
*I *2823:B1_N I *D sky130_fd_sc_hd__o21bai_2
*I *2821:B I *D sky130_fd_sc_hd__nand2_2
*I *3116:X O *D sky130_fd_sc_hd__clkdlybuf4s25_1
*CAP
1 *2822:A 2.08101e-05
2 *2837:A1 0.000393759
3 *2823:B1_N 3.05949e-05
4 *2821:B 0
5 *3116:X 0.000944553
6 *462:32 0.000891552
7 *462:14 0.000150814
8 *462:10 0.00154175
9 *462:10 *2862:B1_N 0.000206824
10 *462:10 *2863:B1_N 0.000141599
11 *462:10 *2870:B1_N 0
12 *462:10 *2872:A1 0.00018471
13 *462:10 *2873:A1 0
14 *462:10 *2873:A2 5.16418e-05
15 *462:10 *507:12 0
16 *462:10 *553:8 0
17 *462:10 *553:12 0
18 *462:14 *2873:A1 0
19 *462:32 *2835:A 2.05056e-05
20 *2822:B *2837:A1 0
21 *2837:A2 *2837:A1 0.000230876
22 *2837:B1 *2837:A1 1.43521e-05
23 *2839:A2 *2837:A1 1.34361e-05
24 *2840:A1 *2837:A1 0
25 *2840:B2 *462:32 4.82863e-05
26 *2862:A2 *462:10 0.000364639
27 *2870:A1 *462:10 0
28 *2882:B1 *462:10 0.00016323
29 *2883:B *462:10 0
30 *2886:B1 *462:10 0
31 *2887:A2 *462:32 0.000278117
32 *3121:A *462:10 5.07419e-05
33 *277:10 *2823:B1_N 0.000124684
34 *278:8 *462:14 5.33085e-05
35 *280:10 *2823:B1_N 0.000203178
36 *296:21 *2837:A1 0
37 *339:6 *462:32 0.000159843
*RES
1 *3116:X *462:10 22.95 
2 *462:10 *462:14 3.89 
3 *462:14 *2821:B 1.6 
4 *462:14 *2823:B1_N 3.43 
5 *462:10 *462:32 10.4 
6 *462:32 *2837:A1 12.65 
7 *462:32 *2822:A 1.96 
*END

*D_NET *463 0.0106387
*CONN
*I *2858:A I *D sky130_fd_sc_hd__nor2_4
*I *2860:A I *D sky130_fd_sc_hd__nand2_2
*I *2859:A I *D sky130_fd_sc_hd__and2_4
*I *2869:A I *D sky130_fd_sc_hd__and2_4
*I *2872:A1 I *D sky130_fd_sc_hd__o21ai_2
*I *2868:A I *D sky130_fd_sc_hd__nor2_2
*I *2819:A I *D sky130_fd_sc_hd__and2_2
*I *2818:A I *D sky130_fd_sc_hd__nor2_2
*I *3260:X O *D sky130_fd_sc_hd__buf_6
*CAP
1 *2858:A 0.000474353
2 *2860:A 0
3 *2859:A 0
4 *2869:A 0
5 *2872:A1 0.000182574
6 *2868:A 0
7 *2819:A 0
8 *2818:A 0.000198642
9 *3260:X 0.00162782
10 *463:84 0.000750926
11 *463:71 0.00049476
12 *463:45 0.000442155
13 *463:41 0.000572742
14 *463:32 0.00036909
15 *463:14 0.000198642
16 *463:12 0.00190193
17 *2818:A *2818:B 0.000241483
18 *2818:A *548:12 7.49327e-05
19 *2858:A *2858:B 4.63914e-05
20 *2858:A *3198:A 0.000160641
21 *2858:A *552:14 5.60949e-05
22 *2872:A1 *2869:B 4.82919e-05
23 *2872:A1 *3198:A 0
24 *2872:A1 *553:12 0
25 *463:12 *3197:A 0.000378347
26 *463:12 *3198:A 0
27 *463:32 *3197:A 0.000302247
28 *463:32 *3198:A 0
29 *463:41 *3197:A 0.000105841
30 *463:41 *3198:A 0
31 *463:45 *2869:B 4.99619e-05
32 *463:71 *2859:B 5.83121e-06
33 *463:71 *3197:A 0.000192721
34 *463:71 *3198:A 0
35 *463:84 *2859:B 0
36 *463:84 *2892:A 0
37 *463:84 *3197:A 3.09233e-05
38 *463:84 *474:46 0
39 *463:84 *548:12 0
40 *463:84 *552:10 9.50342e-06
41 S[18] *463:71 7.68414e-06
42 S[18] *463:84 0.000147019
43 S[19] *2858:A 8.65961e-05
44 *2817:A_N *463:12 5.30673e-05
45 *2862:A1 *2858:A 4.82863e-05
46 *2870:A1 *2872:A1 0
47 *2871:A1 *463:41 0
48 *2871:A1 *463:45 8.95933e-05
49 *2871:A1 *463:71 0
50 *2875:A1 *2872:A1 8.82557e-05
51 *2875:A1 *463:45 0.000111285
52 *3260:A *463:12 0
53 *141:24 *463:12 0.00050514
54 *269:18 *463:12 0.000294396
55 *275:10 *463:12 0
56 *276:10 *463:12 0
57 *312:6 *2858:A 2.06853e-05
58 *339:6 *2818:A 8.51503e-05
59 *462:10 *2872:A1 0.00018471
*RES
1 *3260:X *463:12 29.025 
2 *463:12 *463:14 2 
3 *463:14 *2818:A 5.965 
4 *463:14 *2819:A 1.6 
5 *463:12 *463:32 6.225 
6 *463:32 *2868:A 3.6 
7 *463:32 *463:41 2.145 
8 *463:41 *463:45 6.935 
9 *463:45 *2872:A1 9.575 
10 *463:45 *2869:A 1.6 
11 *463:41 *463:71 6.74 
12 *463:71 *2859:A 1.6 
13 *463:71 *463:84 9.235 
14 *463:84 *2860:A 1.6 
15 *463:84 *2858:A 8.215 
*END

*D_NET *464 0.00365877
*CONN
*I *3098:A I *D sky130_fd_sc_hd__and2_2
*I *3100:A1 I *D sky130_fd_sc_hd__o21ai_2
*I *3182:A I *D sky130_fd_sc_hd__buf_6
*I *2719:A1 I *D sky130_fd_sc_hd__a21o_2
*I *3108:X O *D sky130_fd_sc_hd__dlymetal6s2s_1
*CAP
1 *3098:A 0.000156832
2 *3100:A1 0
3 *3182:A 0.000159869
4 *2719:A1 0.000276489
5 *3108:X 0
6 *464:23 0.000368783
7 *464:10 0.000579359
8 *464:4 0.000250787
9 *3098:A *3096:A_N 9.53428e-06
10 *3098:A *3108:A 6.10039e-05
11 *3098:A *475:21 0.000465398
12 *3098:A *568:10 0.000221525
13 *3098:A *568:19 9.21168e-05
14 *3098:A *568:34 0.00015482
15 *3182:A *3096:B 0
16 *3182:A *3100:A2 4.43871e-06
17 *464:10 *475:10 0
18 *2720:A2 *2719:A1 4.60584e-05
19 *2777:A1 *3182:A 9.50342e-06
20 *3171:A *464:10 8.53113e-06
21 *176:10 *3182:A 0.000137578
22 *176:27 *3182:A 7.70828e-05
23 *177:10 *464:10 0
24 *178:8 *464:23 0.000102005
25 *178:16 *2719:A1 0.000352156
26 *178:16 *464:23 0.0001249
*RES
1 *3108:X *464:4 1.6 
2 *464:4 *464:10 5.38 
3 *464:10 *2719:A1 5.5 
4 *464:10 *464:23 3.585 
5 *464:23 *3182:A 8.795 
6 *464:23 *3100:A1 1.6 
7 *464:4 *3098:A 8.035 
*END

*D_NET *465 0.00431372
*CONN
*I *2740:A I *D sky130_fd_sc_hd__and2_4
*I *3239:A I *D sky130_fd_sc_hd__buf_2
*I *2744:A1 I *D sky130_fd_sc_hd__o21ai_2
*I *2743:A1 I *D sky130_fd_sc_hd__a21bo_2
*I *2742:A1 I *D sky130_fd_sc_hd__a21boi_2
*I *2739:A I *D sky130_fd_sc_hd__nor2_2
*I *3096:B I *D sky130_fd_sc_hd__nand2b_4
*I *3182:X O *D sky130_fd_sc_hd__buf_6
*CAP
1 *2740:A 0
2 *3239:A 9.26122e-05
3 *2744:A1 0
4 *2743:A1 8.37209e-05
5 *2742:A1 0.00013733
6 *2739:A 2.32169e-05
7 *3096:B 0.000210909
8 *3182:X 0
9 *465:73 0.000117656
10 *465:66 0.000168062
11 *465:53 0.0002533
12 *465:38 0.000216015
13 *465:27 0.000436685
14 *465:4 0.000572253
15 *2742:A1 *2743:A2 6.42896e-05
16 *2742:A1 *534:12 8.49205e-05
17 *2743:A1 *2743:A2 0.000118081
18 *2743:A1 *2743:B1_N 2.16833e-05
19 *3096:B *3100:B1 0
20 *3096:B *534:8 0
21 *465:27 *3072:B 4.99619e-05
22 *465:27 *534:8 0.000192721
23 *465:38 *534:8 6.10014e-05
24 *465:53 *2741:B1_N 4.056e-05
25 *465:53 *534:8 1.52184e-05
26 *465:66 *2741:B1_N 0.00018305
27 *465:66 *485:8 7.21296e-06
28 *465:66 *485:27 4.40899e-05
29 *465:73 *2744:A2 0.000163204
30 S[7] *3096:B 0
31 *2744:B1 *465:66 5.11148e-06
32 *2746:D *465:66 6.55406e-05
33 *3001:A *465:27 0
34 *3001:B *465:27 0
35 *3072:A *465:27 4.19006e-05
36 *3137:A *3096:B 0.000161623
37 *3182:A *3096:B 0
38 *3229:A *465:27 4.43871e-06
39 *3229:A *465:38 1.79098e-05
40 *199:6 *2739:A 2.75229e-05
41 *199:23 *465:38 7.23602e-05
42 *199:23 *465:53 6.28498e-05
43 *199:23 *465:66 0.000152127
44 *438:10 *465:73 0.000161529
45 *449:10 *3239:A 4.54719e-05
46 *449:12 *3239:A 0.000137578
47 *449:12 *465:66 0
*RES
1 *3182:X *465:4 1.6 
2 *465:4 *3096:B 9.53 
3 *465:4 *465:27 9.275 
4 *465:27 *2739:A 4.05 
5 *465:27 *465:38 1.38 
6 *465:38 *2742:A1 5.805 
7 *465:38 *465:53 0.87 
8 *465:53 *2743:A1 5.085 
9 *465:53 *465:66 6.185 
10 *465:66 *2744:A1 1.6 
11 *465:66 *465:73 1.485 
12 *465:73 *3239:A 7.745 
13 *465:73 *2740:A 1.6 
*END

*D_NET *466 0.00190177
*CONN
*I *3184:A I *D sky130_fd_sc_hd__buf_8
*I *3247:A I *D sky130_fd_sc_hd__buf_2
*I *3109:X O *D sky130_fd_sc_hd__buf_8
*CAP
1 *3184:A 0.000195426
2 *3247:A 0
3 *3109:X 0.000327179
4 *466:10 0.000522605
5 *3184:A *3066:B1_N 0
6 *3184:A *475:40 0
7 *3184:A *536:19 0
8 *466:10 *3219:A 0
9 *466:10 *475:40 0
10 *466:10 *535:14 0.000234777
11 *466:10 *536:19 0
12 *466:10 *570:6 0.000109101
13 S[9] *466:10 7.35813e-05
14 *3005:A *3184:A 5.4239e-05
15 *3005:A *466:10 2.97004e-06
16 *3069:B1 *3184:A 0
17 *3070:B *3184:A 0.000208484
18 *3139:A *466:10 8.53113e-06
19 *3173:A *466:10 0.000164874
*RES
1 *3109:X *466:10 11.37 
2 *466:10 *3247:A 3.6 
3 *466:10 *3184:A 7.785 
*END

*D_NET *467 0.0044844
*CONN
*I *3087:A I *D sky130_fd_sc_hd__and2_4
*I *3042:A I *D sky130_fd_sc_hd__nor2_2
*I *3022:A I *D sky130_fd_sc_hd__inv_16
*I *3183:X O *D sky130_fd_sc_hd__buf_8
*CAP
1 *3087:A 2.26798e-05
2 *3042:A 0.000559982
3 *3022:A 0
4 *3183:X 0.000705198
5 *467:19 0.000846141
6 *467:10 0.000968678
7 *3042:A *3089:A1 0
8 *3042:A *475:40 0
9 *3042:A *539:10 0
10 *467:10 *475:40 0
11 *2784:A1 *467:19 8.65905e-05
12 *2784:A2 *467:19 4.82863e-05
13 *2790:C *467:10 0.000144882
14 *3004:B1 *467:10 0
15 *3075:B *467:10 0
16 *3077:A *467:10 0
17 *3077:B *467:10 8.68724e-05
18 *3095:B *467:10 0
19 *123:10 *3042:A 0
20 *154:19 *467:10 9.16237e-05
21 *154:30 *467:10 0.000126399
22 *169:10 *3042:A 0.00016979
23 *169:12 *3042:A 0.000204456
24 *449:88 *3087:A 2.49909e-05
25 *449:88 *467:19 0.000384399
26 *449:105 *3042:A 1.34361e-05
*RES
1 *3183:X *467:10 19.985 
2 *467:10 *3022:A 1.6 
3 *467:10 *467:19 6.33 
4 *467:19 *3042:A 15.905 
5 *467:19 *3087:A 2.05 
*END

*D_NET *468 0.00327931
*CONN
*I *3183:A I *D sky130_fd_sc_hd__buf_8
*I *3246:A I *D sky130_fd_sc_hd__buf_2
*I *3074:A1 I *D sky130_fd_sc_hd__o21a_4
*I *3184:X O *D sky130_fd_sc_hd__buf_8
*CAP
1 *3183:A 2.08101e-05
2 *3246:A 0.000272376
3 *3074:A1 8.45128e-05
4 *3184:X 0.000102607
5 *468:12 0.00089245
6 *468:6 0.000658978
7 *3074:A1 *570:23 5.53249e-06
8 *3074:A1 *570:34 9.39947e-05
9 *3246:A *503:10 5.05437e-05
10 *3246:A *569:10 0
11 *3246:A *570:34 2.59981e-05
12 *468:12 *3071:A 2.75229e-05
13 *468:12 *3071:B 9.07793e-05
14 *468:12 *3072:B 2.05056e-05
15 S[7] *468:12 4.82919e-05
16 *3004:A2 *468:12 8.40213e-05
17 *3075:B *468:12 9.09288e-05
18 *3076:B *3074:A1 0.000141592
19 *3076:B *468:12 4.66108e-05
20 *3097:A *3074:A1 0.000317494
21 *449:12 *3074:A1 8.53113e-06
22 *449:12 *3246:A 0.000195231
*RES
1 *3184:X *468:6 3.085 
2 *468:6 *468:12 10.745 
3 *468:12 *3074:A1 7.275 
4 *468:12 *3246:A 8.865 
5 *468:6 *3183:A 1.96 
*END

*D_NET *469 0.00873658
*CONN
*I *3043:A I *D sky130_fd_sc_hd__and2_2
*I *3045:A1 I *D sky130_fd_sc_hd__o21ai_2
*I *3080:B I *D sky130_fd_sc_hd__nand2b_2
*I *3084:A1 I *D sky130_fd_sc_hd__o21a_4
*I *3082:A I *D sky130_fd_sc_hd__nand2_2
*I *3088:A1 I *D sky130_fd_sc_hd__o21ai_2
*I *3089:A1 I *D sky130_fd_sc_hd__a21oi_2
*I *3110:X O *D sky130_fd_sc_hd__clkbuf_2
*CAP
1 *3043:A 0.000512636
2 *3045:A1 0.000140088
3 *3080:B 0.000120494
4 *3084:A1 2.08101e-05
5 *3082:A 2.24179e-05
6 *3088:A1 0.000150841
7 *3089:A1 0.000307962
8 *3110:X 0.000711718
9 *469:76 0.000903844
10 *469:50 0.000437604
11 *469:39 0.000318717
12 *469:28 0.000304202
13 *469:24 0.000808236
14 *3043:A *3043:B 0
15 *3043:A *3045:B1 0
16 *3043:A *3250:A 5.93505e-05
17 *3043:A *520:16 0.000139936
18 *3043:A *555:10 5.6361e-05
19 *3043:A *559:12 8.71001e-05
20 *3045:A1 *3045:B1 4.99619e-05
21 *3045:A1 *540:20 0.000225394
22 *3080:B *3080:A_N 5.21615e-05
23 *3088:A1 *538:10 8.53113e-06
24 *3089:A1 *3110:A 7.646e-05
25 *3089:A1 *475:40 0
26 *469:24 *533:10 3.35323e-05
27 *469:28 *538:10 0.000395666
28 *469:28 *539:10 0
29 *469:50 *538:17 0.000381082
30 *469:76 *3083:A_N 7.00889e-06
31 *469:76 *520:16 4.70343e-05
32 *469:76 *538:10 7.23602e-05
33 *3041:B *3043:A 5.05521e-05
34 *3042:A *3089:A1 0
35 *3056:A2 *3043:A 0.000506349
36 *3057:B1 *3043:A 0.000551821
37 *3125:A *3088:A1 0.000109526
38 *3136:A *469:24 0.000116048
39 *3136:A *469:76 2.18022e-05
40 *3240:A *3088:A1 7.47215e-05
41 *3245:A *3043:A 0
42 *121:10 *3043:A 0.000144325
43 *121:12 *3043:A 4.9968e-05
44 *161:10 *3088:A1 0.000315132
45 *161:10 *469:28 0.000283528
46 *162:8 *3082:A 4.66108e-05
47 *162:8 *469:50 1.46828e-05
*RES
1 *3110:X *3089:A1 11.355 
2 *3110:X *469:24 6.535 
3 *469:24 *469:28 6.695 
4 *469:28 *3088:A1 8.04 
5 *469:28 *469:39 2 
6 *469:39 *3082:A 2.05 
7 *469:39 *469:50 4.95 
8 *469:50 *3084:A1 1.96 
9 *469:50 *3080:B 7.685 
10 *469:24 *469:76 6.215 
11 *469:76 *3045:A1 6.81 
12 *469:76 *3043:A 18.12 
*END

*D_NET *470 0.00558676
*CONN
*I *3030:A I *D sky130_fd_sc_hd__nor2_2
*I *3031:A I *D sky130_fd_sc_hd__and2_4
*I *3185:A I *D sky130_fd_sc_hd__buf_6
*I *3038:A I *D sky130_fd_sc_hd__and2_4
*I *3037:A I *D sky130_fd_sc_hd__nor2_2
*I *3039:A I *D sky130_fd_sc_hd__nand2_2
*I *3111:X O *D sky130_fd_sc_hd__buf_6
*CAP
1 *3030:A 0
2 *3031:A 0.000323675
3 *3185:A 0.0001292
4 *3038:A 0
5 *3037:A 0.000223905
6 *3039:A 0.000129962
7 *3111:X 0.000160944
8 *470:62 0.000517154
9 *470:20 0.00042217
10 *470:16 0.000258786
11 *470:10 0.000461891
12 *470:8 0.000496631
13 *3031:A *3030:B 0.000110911
14 *3031:A *3051:B1_N 5.16418e-05
15 *3031:A *474:14 0
16 *3031:A *577:10 0.000210617
17 *3037:A *3038:B 4.66108e-05
18 *3037:A *541:25 0.00043005
19 *3039:A *3039:B 0.000289317
20 *3039:A *3043:B 0
21 *3039:A *3194:A 0
22 *470:8 *3186:A 8.8266e-05
23 *470:8 *472:12 8.65961e-05
24 *470:8 *566:12 1.03323e-05
25 *470:10 *474:14 8.53113e-06
26 *470:10 *492:8 0
27 *470:10 *566:12 4.91927e-05
28 *470:16 *3038:B 4.82863e-05
29 *470:16 *492:8 0
30 *470:16 *566:12 2.97004e-06
31 *470:20 *3038:B 0.000184852
32 *470:62 *472:12 0
33 *470:62 *474:14 0.00013994
34 *3020:A *3039:A 0.00011852
35 *3040:A1 *3037:A 4.99619e-05
36 *3040:A2 *470:16 8.96017e-05
37 *3048:B1 *470:16 4.43871e-06
38 *3051:A2 *3031:A 0
39 *3245:A *3039:A 0
40 *108:8 *3031:A 8.40213e-05
41 *110:16 *3031:A 8.53113e-06
42 *110:16 *470:10 0
43 *110:16 *470:16 0
44 *118:14 *470:16 0.0001138
45 *118:14 *470:20 0.000160641
46 *129:12 *3039:A 7.4813e-05
*RES
1 *3111:X *470:8 6.12 
2 *470:8 *470:10 2.655 
3 *470:10 *470:16 5.975 
4 *470:16 *470:20 2.19 
5 *470:20 *3039:A 9.275 
6 *470:20 *3037:A 6.565 
7 *470:16 *3038:A 1.6 
8 *470:10 *3185:A 5.43 
9 *470:8 *470:62 5.465 
10 *470:62 *3031:A 11.495 
11 *470:62 *3030:A 1.6 
*END

*D_NET *471 0.00390979
*CONN
*I *2923:A I *D sky130_fd_sc_hd__nor2_2
*I *2924:A I *D sky130_fd_sc_hd__and2_4
*I *3034:A I *D sky130_fd_sc_hd__nor2_4
*I *3033:A I *D sky130_fd_sc_hd__and2_4
*I *3036:A1 I *D sky130_fd_sc_hd__o21ai_2
*I *3185:X O *D sky130_fd_sc_hd__buf_6
*CAP
1 *2923:A 0.000137843
2 *2924:A 0.000119521
3 *3034:A 0
4 *3033:A 7.11452e-05
5 *3036:A1 0.000132716
6 *3185:X 0.000141207
7 *471:47 0.000565669
8 *471:34 0.000414319
9 *471:19 0.000231111
10 *471:8 0.000327874
11 *2923:A *2923:B 0.000162325
12 *2923:A *474:14 0
13 *2924:A *2923:B 9.66106e-05
14 *2924:A *558:6 2.30292e-05
15 *3033:A *542:18 4.82863e-05
16 *3036:A1 *3036:B1 0.00021934
17 *3036:A1 *492:8 6.55679e-05
18 *3036:A1 *492:10 9.14792e-05
19 *3036:A1 *542:18 1.34361e-05
20 *3036:A1 *566:18 0.000116853
21 *471:8 *566:18 0.000194694
22 *471:19 *3112:A 0
23 *471:19 *542:18 8.68724e-05
24 *471:34 *3034:B 0
25 *471:47 *3034:B 0
26 *471:47 *3112:A 0
27 *2926:A *2923:A 5.12017e-06
28 *2926:B *2923:A 1.64436e-05
29 *2926:B *471:47 0.000164686
30 *3236:A *3036:A1 4.9968e-05
31 *3236:A *471:19 0.000186099
32 *3236:A *471:34 0.0001051
33 *3236:A *471:47 0.000122474
*RES
1 *3185:X *471:8 6.12 
2 *471:8 *3036:A1 7.785 
3 *471:8 *471:19 2.145 
4 *471:19 *3033:A 4.74 
5 *471:19 *471:34 2.445 
6 *471:34 *3034:A 3.6 
7 *471:34 *471:47 6.525 
8 *471:47 *2924:A 5.79 
9 *471:47 *2923:A 6.555 
*END

*D_NET *472 0.000627479
*CONN
*I *3186:A I *D sky130_fd_sc_hd__buf_4
*I *3111:A I *D sky130_fd_sc_hd__buf_6
*I *3112:X O *D sky130_fd_sc_hd__dlymetal6s2s_1
*CAP
1 *3186:A 1.44824e-05
2 *3111:A 0
3 *3112:X 0.000112546
4 *472:12 0.000127029
5 *3186:A *566:12 3.09179e-05
6 *472:12 *492:8 0.000163992
7 *472:12 *566:12 3.64998e-06
8 *470:8 *3186:A 8.8266e-05
9 *470:8 *472:12 8.65961e-05
10 *470:62 *472:12 0
*RES
1 *3112:X *472:12 8.285 
2 *472:12 *3111:A 1.6 
3 *472:12 *3186:A 2.395 
*END

*D_NET *473 0.00313449
*CONN
*I *2753:B I *D sky130_fd_sc_hd__nand2_2
*I *2755:A_N I *D sky130_fd_sc_hd__nand3b_4
*I *3117:X O *D sky130_fd_sc_hd__clkdlybuf4s25_1
*CAP
1 *2753:B 0.000286057
2 *2755:A_N 0.000150798
3 *3117:X 0.000265979
4 *473:12 0.000702834
5 *2753:B *3113:A 6.12936e-05
6 *2753:B *529:10 0
7 *2753:B *564:10 0.000288989
8 *2755:A_N *3113:A 0.000354719
9 *473:12 *549:12 0.000139933
10 *2751:A *2753:B 7.97083e-05
11 *2753:A *2753:B 0.000140905
12 *2755:B *473:12 0.000166812
13 *2755:C *2753:B 0.000162311
14 *3152:A *2753:B 0.00013521
15 *212:10 *2753:B 0.000198939
*RES
1 *3117:X *473:12 9.755 
2 *473:12 *2755:A_N 5.17 
3 *473:12 *2753:B 14.345 
*END

*D_NET *474 0.0127442
*CONN
*I *2916:A I *D sky130_fd_sc_hd__and2_2
*I *2915:A I *D sky130_fd_sc_hd__nor2_2
*I *2902:A I *D sky130_fd_sc_hd__nor2_2
*I *2905:A1 I *D sky130_fd_sc_hd__o21ai_2
*I *2903:A I *D sky130_fd_sc_hd__and2_4
*I *2906:A1 I *D sky130_fd_sc_hd__a21o_2
*I *2891:A I *D sky130_fd_sc_hd__nor2_2
*I *2892:A I *D sky130_fd_sc_hd__and2_2
*I *2893:A I *D sky130_fd_sc_hd__nand2_2
*I *3186:X O *D sky130_fd_sc_hd__buf_4
*CAP
1 *2916:A 0
2 *2915:A 0
3 *2902:A 0
4 *2905:A1 0.000646907
5 *2903:A 0
6 *2906:A1 0
7 *2891:A 5.63644e-05
8 *2892:A 7.94509e-05
9 *2893:A 0
10 *3186:X 0.00220003
11 *474:46 0.000173658
12 *474:40 0.0011764
13 *474:38 0.00137753
14 *474:30 0.000583514
15 *474:24 0.000878718
16 *474:22 8.21529e-05
17 *474:20 0.000324736
18 *474:14 0.00244261
19 *2892:A *548:12 0.000189426
20 *2905:A1 *2905:A2 0.000188007
21 *2905:A1 *3206:A 2.50702e-05
22 *2905:A1 *513:6 4.60736e-05
23 *2905:A1 *517:10 6.55406e-05
24 *474:14 *3051:B1_N 0
25 *474:14 *492:8 0
26 *474:14 *557:12 0.000433003
27 *474:14 *566:12 1.7386e-05
28 *474:14 *577:10 0
29 *474:20 *2915:B 0.000118294
30 *474:20 *557:12 3.90495e-05
31 *474:30 *2918:B1_N 4.43871e-06
32 *474:30 *3206:A 0
33 *474:30 *517:10 9.9535e-05
34 *474:38 *2906:A2 0.000323061
35 *474:38 *3206:A 0.000139933
36 *474:38 *556:22 1.22762e-05
37 *474:40 *2896:B1_N 0.000113247
38 *474:46 *548:12 0.00011852
39 S[26] *2905:A1 4.82919e-05
40 *2906:B1 *474:40 3.00381e-05
41 *2908:A_N *474:40 0.000138175
42 *2908:C *474:40 0.000100738
43 *2913:A2 *474:40 0.00027299
44 *2923:A *474:14 0
45 *3031:A *474:14 0
46 *3124:A *2905:A1 0
47 *3236:A *474:14 0
48 *110:16 *474:14 0
49 *343:6 *474:40 5.05437e-05
50 *463:84 *2892:A 0
51 *463:84 *474:46 0
52 *470:10 *474:14 8.53113e-06
53 *470:62 *474:14 0.00013994
*RES
1 *3186:X *474:14 43.28 
2 *474:14 *474:20 4.185 
3 *474:20 *474:22 1.14 
4 *474:22 *474:24 2 
5 *474:24 *474:30 5.975 
6 *474:30 *474:38 9.535 
7 *474:38 *474:40 12.87 
8 *474:40 *474:46 3.83 
9 *474:46 *2893:A 3.6 
10 *474:46 *2892:A 5.745 
11 *474:40 *2891:A 2.665 
12 *474:38 *2906:A1 1.6 
13 *474:30 *2903:A 1.6 
14 *474:24 *2905:A1 12.84 
15 *474:22 *2902:A 1.6 
16 *474:20 *2915:A 1.6 
17 *474:14 *2916:A 1.6 
*END

*D_NET *475 0.0155049
*CONN
*I *3110:A I *D sky130_fd_sc_hd__clkbuf_2
*I *3112:A I *D sky130_fd_sc_hd__dlymetal6s2s_1
*I *2936:A I *D sky130_fd_sc_hd__and2_2
*I *3109:A I *D sky130_fd_sc_hd__buf_8
*I *3108:A I *D sky130_fd_sc_hd__dlymetal6s2s_1
*I *3113:X O *D sky130_fd_sc_hd__buf_8
*CAP
1 *3110:A 0.00025592
2 *3112:A 0.00095199
3 *2936:A 0.00093877
4 *3109:A 5.01767e-05
5 *3108:A 6.20186e-05
6 *3113:X 0.000167652
7 *475:50 0.00234843
8 *475:40 0.00230264
9 *475:21 0.00233372
10 *475:10 0.000924171
11 *3109:A *3073:B 9.24049e-05
12 *3112:A *3034:B 6.35622e-05
13 *3112:A *542:18 0
14 *475:10 *3100:A2 0
15 *475:21 *3074:B1 4.99619e-05
16 *475:21 *3097:B 0.000122155
17 *475:21 *535:14 0.000148977
18 *475:21 *568:34 2.59926e-05
19 *475:40 *3218:A 0
20 *475:40 *535:14 0.000587924
21 S[8] *475:40 0
22 *2784:A1 *475:40 0
23 *2784:B1 *475:40 8.71001e-05
24 *2790:C *475:40 0
25 *3005:A *475:40 2.75145e-05
26 *3006:A2 *475:40 0.000296081
27 *3015:A2 *3112:A 7.17001e-05
28 *3015:C1 *3112:A 8.87475e-05
29 *3017:A *3112:A 0.000518873
30 *3017:B *2936:A 7.00889e-06
31 *3017:B *3112:A 0.000141606
32 *3042:A *475:40 0
33 *3048:A1 *3112:A 0.0002014
34 *3050:A1 *3112:A 1.26626e-05
35 *3054:A2 *3112:A 0
36 *3055:A2 *3112:A 0.000289004
37 *3061:C *3112:A 1.74341e-05
38 *3070:B *475:40 0
39 *3089:A1 *3110:A 7.646e-05
40 *3089:A1 *475:40 0
41 *3095:B *475:40 0.000309435
42 *3097:A *475:21 3.00381e-05
43 *3098:A *3108:A 6.10039e-05
44 *3098:A *475:21 0.000465398
45 *3171:A *475:10 0
46 *3172:A *3109:A 9.24049e-05
47 *3184:A *475:40 0
48 *3251:A *3112:A 0.000136182
49 *112:10 *3112:A 8.21516e-05
50 *113:17 *3112:A 0.00013521
51 *118:20 *3112:A 0.000139004
52 *118:22 *3112:A 0.000153029
53 *118:47 *3112:A 0
54 *136:10 *3112:A 3.47837e-05
55 *145:14 *475:40 0
56 *153:25 *475:40 6.37505e-05
57 *154:30 *475:40 0
58 *176:10 *475:10 5.39718e-05
59 *178:16 *475:10 4.43871e-06
60 *244:12 *475:40 0.000177174
61 *244:12 *475:50 0.000141599
62 *442:10 *3112:A 5.12017e-06
63 *442:10 *475:50 0.000158109
64 *464:10 *475:10 0
65 *466:10 *475:40 0
66 *467:10 *475:40 0
67 *471:19 *3112:A 0
68 *471:47 *3112:A 0
*RES
1 *3113:X *475:10 7.745 
2 *475:10 *3108:A 2.755 
3 *475:10 *475:21 11.835 
4 *475:21 *3109:A 7.49 
5 *475:21 *475:40 35.665 
6 *475:40 *475:50 11.105 
7 *475:50 *2936:A 17.61 
8 *475:50 *3112:A 26.43 
9 *475:40 *3110:A 5.5 
*END

*D_NET *476 0.000319316
*CONN
*I *2841:B I *D sky130_fd_sc_hd__xor2_4
*I *3221:X O *D sky130_fd_sc_hd__buf_4
*CAP
1 *2841:B 0.000110015
2 *3221:X 0.000110015
3 *2841:A *2841:B 5.10008e-05
4 *2850:A2 *2841:B 0
5 *2885:D *2841:B 4.82863e-05
*RES
1 *3221:X *2841:B 9.285 
*END

*D_NET *477 0.000347548
*CONN
*I *2857:A2_N I *D sky130_fd_sc_hd__o2bb2ai_2
*I *3222:X O *D sky130_fd_sc_hd__buf_6
*CAP
1 *2857:A2_N 9.34592e-05
2 *3222:X 9.34592e-05
3 *2857:A1_N *2857:A2_N 0.00016063
*RES
1 *3222:X *2857:A2_N 5.03 
*END

*D_NET *478 0.000575726
*CONN
*I *2849:A2_N I *D sky130_fd_sc_hd__o2bb2ai_2
*I *3223:X O *D sky130_fd_sc_hd__buf_6
*CAP
1 *2849:A2_N 0.000150119
2 *3223:X 0.000150119
3 *2849:A1_N *2849:A2_N 0.000162325
4 *2885:D *2849:A2_N 2.67222e-05
5 *3221:A *2849:A2_N 8.64421e-05
*RES
1 *3223:X *2849:A2_N 10.485 
*END

*D_NET *479 0.00031868
*CONN
*I *2791:A2 I *D sky130_fd_sc_hd__a31oi_2
*I *3224:X O *D sky130_fd_sc_hd__buf_2
*CAP
1 *2791:A2 0.000115207
2 *3224:X 0.000115207
3 *2791:A3 *2791:A2 8.8266e-05
*RES
1 *3224:X *2791:A2 5.045 
*END

*D_NET *480 0.000390067
*CONN
*I *2791:A1 I *D sky130_fd_sc_hd__a31oi_2
*I *3225:X O *D sky130_fd_sc_hd__buf_2
*CAP
1 *2791:A1 0.0001509
2 *3225:X 0.0001509
3 *2791:B1 *2791:A1 8.8266e-05
*RES
1 *3225:X *2791:A1 5.735 
*END

*D_NET *481 0.000376061
*CONN
*I *2865:A1 I *D sky130_fd_sc_hd__a211o_2
*I *3226:X O *D sky130_fd_sc_hd__buf_2
*CAP
1 *2865:A1 0.000156082
2 *3226:X 0.000156082
3 *2865:B1 *2865:A1 6.38983e-05
*RES
1 *3226:X *2865:A1 5.75 
*END

*D_NET *482 0.000589955
*CONN
*I *2795:B I *D sky130_fd_sc_hd__xor2_2
*I *3227:X O *D sky130_fd_sc_hd__buf_2
*CAP
1 *2795:B 0.00028167
2 *3227:X 0.00028167
3 *2795:B *3195:A 0
4 *3249:A *2795:B 2.66148e-05
*RES
1 *3227:X *2795:B 9.725 
*END

*D_NET *483 0.000710521
*CONN
*I *2900:A1 I *D sky130_fd_sc_hd__o211ai_2
*I *3228:X O *D sky130_fd_sc_hd__buf_2
*CAP
1 *2900:A1 0.000196378
2 *3228:X 0.000196378
3 *2900:A1 *609:10 0
4 *2900:A1 *609:12 0
5 *254:12 *2900:A1 3.45588e-05
6 *342:10 *2900:A1 0.000141599
7 *342:21 *2900:A1 0.000141606
*RES
1 *3228:X *2900:A1 11.16 
*END

*D_NET *484 0.00131629
*CONN
*I *2830:B1 I *D sky130_fd_sc_hd__o21ai_4
*I *2832:B1_N I *D sky130_fd_sc_hd__o21ba_2
*I *3118:X O *D sky130_fd_sc_hd__clkdlybuf4s25_1
*CAP
1 *2830:B1 0
2 *2832:B1_N 0.000113253
3 *3118:X 0.000271187
4 *484:10 0.00038444
5 *2832:B1_N *3200:A 4.82863e-05
6 *484:10 *2828:B 0.000137571
7 *2828:A *2832:B1_N 8.89829e-05
8 *2828:A *484:10 0.000218336
9 *2832:A1 *2832:B1_N 0
10 *2832:A1 *484:10 0
11 *2832:A2 *2832:B1_N 0
12 *286:12 *484:10 5.42303e-05
*RES
1 *3118:X *484:10 9.105 
2 *484:10 *2832:B1_N 5.94 
3 *484:10 *2830:B1 3.6 
*END

*D_NET *485 0.00179153
*CONN
*I *3002:A1_N I *D sky130_fd_sc_hd__o2bb2ai_4
*I *2781:C I *D sky130_fd_sc_hd__nand3_4
*I *2745:B1 I *D sky130_fd_sc_hd__o21ai_2
*I *3229:X O *D sky130_fd_sc_hd__buf_2
*CAP
1 *3002:A1_N 0
2 *2781:C 0.000178708
3 *2745:B1 9.71884e-06
4 *3229:X 0.000105037
5 *485:27 0.000405843
6 *485:8 0.000341891
7 *2745:A1 *2745:B1 4.82919e-05
8 *2745:A2 *485:8 2.03321e-05
9 *2746:D *2745:B1 4.82919e-05
10 *2781:B *2781:C 0
11 *3001:A *485:8 0.000148194
12 *3002:A2_N *2781:C 4.82919e-05
13 *3002:A2_N *485:27 5.14739e-05
14 *3229:A *485:8 0.000245199
15 *199:23 *485:8 2.42236e-05
16 *241:8 *2781:C 0
17 *438:10 *485:27 6.47326e-05
18 *465:66 *485:8 7.21296e-06
19 *465:66 *485:27 4.40899e-05
*RES
1 *3229:X *485:8 7.275 
2 *485:8 *2745:B1 4.05 
3 *485:8 *485:27 6.275 
4 *485:27 *2781:C 8.45 
5 *485:27 *3002:A1_N 1.6 
*END

*D_NET *486 0.00030358
*CONN
*I *2944:B2 I *D sky130_fd_sc_hd__o221ai_4
*I *3230:X O *D sky130_fd_sc_hd__buf_4
*CAP
1 *2944:B2 0.000105494
2 *3230:X 0.000105494
3 *2792:B *2944:B2 6.00081e-05
4 *2944:B1 *2944:B2 0
5 *2958:A2 *2944:B2 0
6 *140:22 *2944:B2 3.25831e-05
*RES
1 *3230:X *2944:B2 9.285 
*END

*D_NET *487 0.00074696
*CONN
*I *2793:D I *D sky130_fd_sc_hd__nand4_2
*I *3231:X O *D sky130_fd_sc_hd__buf_2
*CAP
1 *2793:D 0.000248855
2 *3231:X 0.000248855
3 *2793:D *2793:C 9.54469e-05
4 *2785:A *2793:D 2.75229e-05
5 *2791:B1 *2793:D 4.70256e-05
6 *3010:C *2793:D 1.01661e-05
7 *244:14 *2793:D 6.90876e-05
*RES
1 *3231:X *2793:D 11.1 
*END

*D_NET *488 0.0010329
*CONN
*I *2835:A I *D sky130_fd_sc_hd__inv_2
*I *3232:X O *D sky130_fd_sc_hd__buf_2
*CAP
1 *2835:A 0.000375359
2 *3232:X 0.000375359
3 *2835:A *2873:A1 0
4 *2822:B *2835:A 0
5 *2840:B2 *2835:A 0
6 *2887:A1 *2835:A 8.53113e-06
7 *2887:A2 *2835:A 0.000164874
8 *278:47 *2835:A 8.8266e-05
9 *462:32 *2835:A 2.05056e-05
*RES
1 *3232:X *2835:A 13.5 
*END

*D_NET *489 0.00028258
*CONN
*I *2944:A1 I *D sky130_fd_sc_hd__o221ai_4
*I *3233:X O *D sky130_fd_sc_hd__buf_4
*CAP
1 *2944:A1 1.47197e-05
2 *3233:X 1.47197e-05
3 *3063:B1 *2944:A1 0.00012657
4 *140:22 *2944:A1 0.00012657
*RES
1 *3233:X *2944:A1 4.34 
*END

*D_NET *490 0.00033291
*CONN
*I *2900:C1 I *D sky130_fd_sc_hd__o211ai_2
*I *3234:X O *D sky130_fd_sc_hd__buf_2
*CAP
1 *2900:C1 0.000123157
2 *3234:X 0.000123157
3 *2900:C1 *2900:A2 0
4 *2900:C1 *609:8 8.65961e-05
5 *3187:A *2900:C1 0
*RES
1 *3234:X *2900:C1 9.375 
*END

*D_NET *491 0.00428704
*CONN
*I *2876:B I *D sky130_fd_sc_hd__and3_2
*I *2879:B1 I *D sky130_fd_sc_hd__o21ai_2
*I *2880:B1 I *D sky130_fd_sc_hd__o31a_2
*I *2864:A I *D sky130_fd_sc_hd__nand2_2
*I *2886:A1 I *D sky130_fd_sc_hd__a31oi_2
*I *3235:X O *D sky130_fd_sc_hd__buf_2
*CAP
1 *2876:B 0.00011504
2 *2879:B1 0
3 *2880:B1 9.26345e-05
4 *2864:A 0.000148159
5 *2886:A1 0.00046914
6 *3235:X 0
7 *491:38 0.000143296
8 *491:32 0.000282883
9 *491:8 0.000678156
10 *491:6 0.000178039
11 *2866:A *2880:B1 2.11921e-05
12 *2876:C *2876:B 0.000281013
13 *2876:C *491:32 6.08203e-05
14 *2877:B *2880:B1 0.000124007
15 *2879:A2 *2880:B1 0.000105898
16 *2880:A3 *2880:B1 0.00012063
17 *2881:B1 *2876:B 6.73424e-05
18 *2881:B1 *491:32 3.96041e-05
19 *2881:B1 *491:38 1.88904e-05
20 *2881:C1 *491:32 6.02104e-05
21 *2882:A1 *2880:B1 0.000207628
22 *2884:B1 *2886:A1 0.000202727
23 *2884:B1 *491:8 6.55406e-05
24 *2884:B1 *491:32 3.24046e-05
25 *2884:C1 *2886:A1 0.000208484
26 *2884:D1 *2886:A1 0
27 *2886:A3 *2886:A1 0
28 *2887:B1 *2886:A1 3.64998e-06
29 *296:49 *2864:A 0.000115146
30 *317:12 *491:8 0
31 *317:12 *491:32 0
32 *317:27 *2864:A 0.000278111
33 *318:10 *2864:A 4.99619e-05
34 *337:6 *2886:A1 6.77062e-05
35 *337:23 *2886:A1 4.87317e-05
*RES
1 *3235:X *491:6 3.6 
2 *491:6 *491:8 1.38 
3 *491:8 *2886:A1 13.14 
4 *491:8 *2864:A 7.5 
5 *491:6 *491:32 3.0375 
6 *491:32 *491:38 2.6825 
7 *491:38 *2880:B1 5.65 
8 *491:38 *2879:B1 1.6 
9 *491:32 *2876:B 6.8925 
*END

*D_NET *492 0.00287293
*CONN
*I *3058:B1 I *D sky130_fd_sc_hd__o21a_2
*I *3019:B2 I *D sky130_fd_sc_hd__a22oi_2
*I *3018:B I *D sky130_fd_sc_hd__and4_2
*I *3236:X O *D sky130_fd_sc_hd__buf_2
*CAP
1 *3058:B1 1.8095e-05
2 *3019:B2 4.6761e-05
3 *3018:B 0.000223471
4 *3236:X 0.000269831
5 *492:10 0.000425653
6 *492:8 0.000443347
7 *3018:B *3018:A 8.57024e-05
8 *3018:B *3036:B1 1.22762e-05
9 *3018:B *3049:A1 0
10 *3019:B2 *3036:A2 1.08758e-05
11 *3019:B2 *542:6 0.000109947
12 *492:8 *566:12 5.4256e-05
13 *492:10 *3036:B1 5.12944e-06
14 *3018:D *3018:B 0.000104286
15 *3036:A1 *492:8 6.55679e-05
16 *3036:A1 *492:10 9.14792e-05
17 *3048:B1 *3018:B 0
18 *3048:B1 *3058:B1 8.49205e-05
19 *3048:B1 *492:10 0
20 *3236:A *492:8 0.000456637
21 *118:14 *3058:B1 8.49205e-05
22 *129:28 *3019:B2 0.000115779
23 *470:10 *492:8 0
24 *470:16 *492:8 0
25 *472:12 *492:8 0.000163992
26 *474:14 *492:8 0
*RES
1 *3236:X *492:8 11.1 
2 *492:8 *492:10 2.4 
3 *492:10 *3018:B 6.81 
4 *492:10 *3019:B2 5.43 
5 *492:8 *3058:B1 4.395 
*END

*D_NET *493 0.000578854
*CONN
*I *2875:B1 I *D sky130_fd_sc_hd__o21ai_2
*I *2874:B1 I *D sky130_fd_sc_hd__o21a_2
*I *3237:X O *D sky130_fd_sc_hd__buf_2
*CAP
1 *2875:B1 0
2 *2874:B1 0.000112012
3 *3237:X 0.000152302
4 *493:12 0.000264314
5 *2874:A1 *2874:B1 3.40435e-05
6 *2874:A2 *2874:B1 1.61831e-05
7 *2881:C1 *493:12 0
8 *2884:B1 *493:12 0
9 *3237:A *493:12 0
*RES
1 *3237:X *493:12 7.52 
2 *493:12 *2874:B1 3.445 
3 *493:12 *2875:B1 1.6 
*END

*D_NET *494 0.000280109
*CONN
*I *2900:A2 I *D sky130_fd_sc_hd__o211ai_2
*I *3238:X O *D sky130_fd_sc_hd__buf_2
*CAP
1 *2900:A2 0.000105069
2 *3238:X 0.000105069
3 *2900:B1 *2900:A2 4.43871e-06
4 *2900:C1 *2900:A2 0
5 *342:21 *2900:A2 6.55328e-05
*RES
1 *3238:X *2900:A2 9.03 
*END

*D_NET *495 0.00235799
*CONN
*I *2844:B1_N I *D sky130_fd_sc_hd__o21ba_2
*I *2845:B1_N I *D sky130_fd_sc_hd__o21bai_4
*I *2846:B1 I *D sky130_fd_sc_hd__o21ai_2
*I *3119:X O *D sky130_fd_sc_hd__clkdlybuf4s25_1
*CAP
1 *2844:B1_N 0.000139061
2 *2845:B1_N 5.29723e-05
3 *2846:B1 0.000352014
4 *3119:X 7.5424e-05
5 *495:10 0.000506919
6 *495:8 0.000316417
7 S[21] *495:8 0
8 *2851:A1 *2846:B1 2.92496e-05
9 *2853:A1 *2846:B1 4.73641e-05
10 *2853:A2 *2846:B1 5.899e-05
11 *2853:B1 *2846:B1 4.77757e-05
12 *2853:C1 *2846:B1 4.77757e-05
13 *2857:B1 *2845:B1_N 4.66108e-05
14 *2857:B2 *2846:B1 0
15 *2867:A *495:10 0
16 *2880:A1 *2846:B1 4.66108e-05
17 *299:10 *2844:B1_N 0.000161938
18 *299:10 *495:8 4.38051e-05
19 *299:10 *495:10 0.000186099
20 *299:12 *2846:B1 0.000116853
21 *299:12 *495:10 2.07184e-05
22 *300:36 *2845:B1_N 5.83121e-06
23 *301:6 *2846:B1 1.046e-05
24 *307:8 *2846:B1 4.51031e-05
*RES
1 *3119:X *495:8 4.98 
2 *495:8 *495:10 2.4 
3 *495:10 *2846:B1 9.825 
4 *495:10 *2845:B1_N 4.395 
5 *495:8 *2844:B1_N 6.465 
*END

*D_NET *496 0.00207303
*CONN
*I *2935:A I *D sky130_fd_sc_hd__nor2_2
*I *3239:X O *D sky130_fd_sc_hd__buf_2
*CAP
1 *2935:A 0.000939275
2 *3239:X 0.000939275
3 *2935:A *559:12 0.00016569
4 *3010:D *2935:A 0
5 *3225:A *2935:A 0
6 *173:28 *2935:A 0
7 *449:10 *2935:A 2.87867e-05
*RES
1 *3239:X *2935:A 23.34 
*END

*D_NET *497 0.000475736
*CONN
*I *3086:A I *D sky130_fd_sc_hd__nand2_2
*I *3240:X O *D sky130_fd_sc_hd__buf_2
*CAP
1 *3086:A 0.000199649
2 *3240:X 0.000199649
3 *3086:A *3092:B1 0
4 *3008:B1 *3086:A 0
5 *3240:A *3086:A 6.69341e-05
6 *164:10 *3086:A 9.50342e-06
*RES
1 *3240:X *3086:A 10.065 
*END

*D_NET *498 0.000277497
*CONN
*I *3055:B1 I *D sky130_fd_sc_hd__o21ai_4
*I *3241:X O *D sky130_fd_sc_hd__buf_2
*CAP
1 *3055:B1 0.000109106
2 *3241:X 0.000109106
3 *3053:B1 *3055:B1 0
4 *141:12 *3055:B1 5.92849e-05
*RES
1 *3241:X *3055:B1 9.285 
*END

*D_NET *499 0.00158686
*CONN
*I *3059:B I *D sky130_fd_sc_hd__nand2_2
*I *3015:B1 I *D sky130_fd_sc_hd__o211ai_2
*I *3242:X O *D sky130_fd_sc_hd__buf_2
*CAP
1 *3059:B 0
2 *3015:B1 0.000334675
3 *3242:X 0.000221849
4 *499:10 0.000556524
5 *3015:A2 *3015:B1 0.000167667
6 *3017:B *3015:B1 4.82919e-05
7 *3044:A *3015:B1 0
8 *3044:A *499:10 0
9 *3046:B1 *499:10 1.08758e-05
10 *3061:C *499:10 1.91597e-05
11 *3251:A *499:10 8.65961e-05
12 *118:47 *3015:B1 3.09233e-05
13 *118:47 *499:10 0.000104287
14 *119:37 *499:10 6.0147e-06
15 *137:10 *3015:B1 0
*RES
1 *3242:X *499:10 6.81 
2 *499:10 *3015:B1 9.825 
3 *499:10 *3059:B 3.6 
*END

*D_NET *500 0.000585416
*CONN
*I *3092:B1 I *D sky130_fd_sc_hd__o21a_2
*I *3243:X O *D sky130_fd_sc_hd__buf_2
*CAP
1 *3092:B1 0.000147404
2 *3243:X 0.000147404
3 *3008:B1 *3092:B1 0
4 *3086:A *3092:B1 0
5 *3092:A2 *3092:B1 8.09021e-06
6 *3094:A1 *3092:B1 0
7 *163:10 *3092:B1 0.000140912
8 *163:16 *3092:B1 0.000141606
*RES
1 *3243:X *3092:B1 10.62 
*END

*D_NET *501 0.00192286
*CONN
*I *3058:A1 I *D sky130_fd_sc_hd__o21a_2
*I *3049:A1 I *D sky130_fd_sc_hd__o211ai_2
*I *3244:X O *D sky130_fd_sc_hd__buf_2
*CAP
1 *3058:A1 0
2 *3049:A1 0.000181581
3 *3244:X 0.000288411
4 *501:10 0.000469991
5 *3049:A1 *3036:B1 3.27239e-05
6 *3049:A1 *542:18 0.000155555
7 *501:10 *542:18 0.00011379
8 *3018:B *3049:A1 0
9 *3018:D *3049:A1 8.8266e-05
10 *3048:B1 *3049:A1 0
11 *3049:A2 *3049:A1 0.00018754
12 *3050:A2 *501:10 4.08514e-05
13 *3058:A2 *3049:A1 0.000154467
14 *3060:D1 *3049:A1 2.42236e-05
15 *3060:D1 *501:10 6.81302e-05
16 *3244:A *501:10 0.000108031
17 *119:20 *3049:A1 9.29751e-06
*RES
1 *3244:X *501:10 7.845 
2 *501:10 *3049:A1 8.58 
3 *501:10 *3058:A1 3.6 
*END

*D_NET *502 0.00159159
*CONN
*I *3019:A1 I *D sky130_fd_sc_hd__a22oi_2
*I *3018:A I *D sky130_fd_sc_hd__and4_2
*I *3245:X O *D sky130_fd_sc_hd__buf_2
*CAP
1 *3019:A1 5.1685e-05
2 *3018:A 0.000114418
3 *3245:X 0.000193001
4 *502:10 0.000359104
5 *502:10 *3012:B 0
6 *502:10 *3209:A 4.99619e-05
7 *3018:B *3018:A 8.57024e-05
8 *3018:D *3018:A 0.000131761
9 *3019:B1 *3019:A1 4.61744e-05
10 *3020:A *3018:A 4.82863e-05
11 *3048:B1 *502:10 0
12 *3245:A *3019:A1 0.000136884
13 *3245:A *502:10 0.000333496
14 *122:12 *502:10 0
15 *123:10 *502:10 4.11194e-05
*RES
1 *3245:X *502:10 7.98 
2 *502:10 *3018:A 6.12 
3 *502:10 *3019:A1 5.235 
*END

*D_NET *503 0.00140249
*CONN
*I *3071:A I *D sky130_fd_sc_hd__nand2_2
*I *3073:B I *D sky130_fd_sc_hd__nand2b_4
*I *3246:X O *D sky130_fd_sc_hd__buf_2
*CAP
1 *3071:A 2.42846e-05
2 *3073:B 0.000260416
3 *3246:X 0.000123415
4 *503:10 0.000408116
5 *3073:B *3076:A_N 0.000105849
6 *3073:B *569:10 9.68787e-05
7 *3073:B *570:23 0
8 *3073:B *570:34 0
9 *503:10 *569:10 6.36578e-05
10 *3004:A2 *3073:B 0.000139231
11 *3076:C *3073:B 0
12 *3109:A *3073:B 9.24049e-05
13 *3172:A *3073:B 0
14 *3246:A *503:10 5.05437e-05
15 *152:8 *3073:B 1.01661e-05
16 *468:12 *3071:A 2.75229e-05
*RES
1 *3246:X *503:10 5.775 
2 *503:10 *3073:B 10.08 
3 *503:10 *3071:A 4.05 
*END

*D_NET *504 0.00240654
*CONN
*I *3064:A I *D sky130_fd_sc_hd__nor2_2
*I *3069:A1 I *D sky130_fd_sc_hd__o21ai_2
*I *3065:A I *D sky130_fd_sc_hd__and2_4
*I *3068:A1 I *D sky130_fd_sc_hd__a21boi_2
*I *3247:X O *D sky130_fd_sc_hd__buf_2
*CAP
1 *3064:A 3.62787e-05
2 *3069:A1 5.0825e-05
3 *3065:A 5.05305e-05
4 *3068:A1 0
5 *3247:X 0.000192072
6 *504:32 0.000327287
7 *504:19 0.000432827
8 *504:8 0.000334186
9 *3064:A *571:36 5.78262e-05
10 *3069:A1 *3069:A2 8.8266e-05
11 *3069:A1 *571:36 1.46744e-05
12 *504:8 *3219:A 8.65905e-05
13 *504:19 *3068:A2 8.8266e-05
14 *504:19 *536:19 0
15 *504:19 *571:21 0
16 *504:32 *571:36 0
17 *3067:A1 *504:19 5.53249e-06
18 *3067:A1 *504:32 0.000111096
19 *3069:B1 *504:19 0
20 *3174:A *504:8 0.000201508
21 *3174:A *504:19 0.000124895
22 *142:8 *504:32 7.89767e-05
23 *143:6 *3065:A 0.0001249
*RES
1 *3247:X *504:8 5.425 
2 *504:8 *3068:A1 1.6 
3 *504:8 *504:19 5.03 
4 *504:19 *3065:A 4.74 
5 *504:19 *504:32 6.44 
6 *504:32 *3069:A1 2.74 
7 *504:32 *3064:A 2.41 
*END

*D_NET *505 0.00439726
*CONN
*I *2873:A1 I *D sky130_fd_sc_hd__a21o_2
*I *3248:X O *D sky130_fd_sc_hd__buf_2
*CAP
1 *2873:A1 0.00194984
2 *3248:X 0.00194984
3 *2817:A_N *2873:A1 0
4 *2835:A *2873:A1 0
5 *2884:A1 *2873:A1 0.000120186
6 *2886:A2 *2873:A1 7.16181e-05
7 *2887:B1 *2873:A1 0.000136877
8 *3232:A *2873:A1 2.7881e-05
9 *266:10 *2873:A1 4.05674e-06
10 *273:10 *2873:A1 0
11 *274:10 *2873:A1 0
12 *278:8 *2873:A1 0
13 *280:10 *2873:A1 0
14 *280:14 *2873:A1 0
15 *290:10 *2873:A1 0.000109441
16 *325:6 *2873:A1 2.75229e-05
17 *462:10 *2873:A1 0
18 *462:14 *2873:A1 0
*RES
1 *3248:X *2873:A1 36.195 
*END

*D_NET *506 0.00263474
*CONN
*I *2861:C I *D sky130_fd_sc_hd__nand3b_4
*I *2862:B1_N I *D sky130_fd_sc_hd__o21ba_2
*I *2863:B1_N I *D sky130_fd_sc_hd__o21bai_4
*I *3120:X O *D sky130_fd_sc_hd__clkdlybuf4s25_1
*CAP
1 *2861:C 2.29885e-05
2 *2862:B1_N 0.000112905
3 *2863:B1_N 3.75579e-05
4 *3120:X 0.000300532
5 *506:10 0.000488781
6 *506:6 0.000661839
7 *2862:B1_N *507:12 0
8 *2861:A_N *506:10 0.000161529
9 *2879:A1 *2862:B1_N 2.11084e-05
10 *2882:B1 *2862:B1_N 1.34361e-05
11 *2882:B1 *2863:B1_N 8.08439e-05
12 *2883:B *2862:B1_N 5.92849e-05
13 *3120:A *506:6 0.000198934
14 *315:14 *506:10 0.000126575
15 *462:10 *2862:B1_N 0.000206824
16 *462:10 *2863:B1_N 0.000141599
*RES
1 *3120:X *506:6 6.19 
2 *506:6 *506:10 7.28 
3 *506:10 *2863:B1_N 5.235 
4 *506:10 *2862:B1_N 6.795 
5 *506:6 *2861:C 1.96 
*END

*D_NET *507 0.00324737
*CONN
*I *2870:B1_N I *D sky130_fd_sc_hd__o21ba_2
*I *2871:B1_N I *D sky130_fd_sc_hd__o21bai_4
*I *2872:B1 I *D sky130_fd_sc_hd__o21ai_2
*I *3121:X O *D sky130_fd_sc_hd__clkdlybuf4s25_1
*CAP
1 *2870:B1_N 0.000143655
2 *2871:B1_N 1.90984e-05
3 *2872:B1 0
4 *3121:X 0.000699842
5 *507:19 0.000254919
6 *507:12 0.000792007
7 *2870:B1_N *553:16 5.05437e-05
8 *2871:B1_N *553:16 4.00541e-06
9 *507:12 *3203:A 0
10 *507:19 *2873:A2 0.000163199
11 *507:19 *553:16 6.97118e-05
12 S[23] *507:12 8.10355e-05
13 *2862:B1_N *507:12 0
14 *2870:A1 *2870:B1_N 0
15 *2879:A1 *507:12 0
16 *2882:A1 *507:12 0
17 *2882:B1 *507:12 0.000321003
18 *2883:B *507:12 0.000164679
19 *2884:A1 *507:12 0
20 *2886:B1 *2870:B1_N 7.63883e-05
21 *3237:A *507:12 0.00031682
22 *315:14 *507:12 0
23 *324:6 *507:19 4.21666e-05
24 *325:6 *507:19 4.82919e-05
25 *462:10 *2870:B1_N 0
26 *462:10 *507:12 0
*RES
1 *3121:X *507:12 19.865 
2 *507:12 *2872:B1 1.6 
3 *507:12 *507:19 2.52 
4 *507:19 *2871:B1_N 1.96 
5 *507:19 *2870:B1_N 8.285 
*END

*D_NET *508 0.000533398
*CONN
*I *2802:A1 I *D sky130_fd_sc_hd__a21bo_2
*I *3249:X O *D sky130_fd_sc_hd__buf_2
*CAP
1 *2802:A1 0.000266699
2 *3249:X 0.000266699
*RES
1 *3249:X *2802:A1 10.41 
*END

*D_NET *509 0.00164075
*CONN
*I *2894:C I *D sky130_fd_sc_hd__and3b_2
*I *2895:C I *D sky130_fd_sc_hd__nand3b_2
*I *2896:B1_N I *D sky130_fd_sc_hd__o21bai_2
*I *3122:X O *D sky130_fd_sc_hd__clkdlybuf4s25_1
*CAP
1 *2894:C 1.06163e-05
2 *2895:C 0
3 *2896:B1_N 0.000161183
4 *3122:X 0.000105299
5 *509:18 0.000379719
6 *509:12 0.000334451
7 *509:12 *554:14 8.65961e-05
8 *509:18 *3204:A 0
9 *509:18 *554:14 0
10 S[24] *509:12 2.46089e-05
11 S[24] *509:18 0
12 *2894:A_N *509:18 3.76596e-05
13 *2894:B *509:18 4.7043e-05
14 *2896:A2 *2896:B1_N 0.000163985
15 *2896:A2 *509:18 0.000129735
16 *2908:C *2896:B1_N 4.66108e-05
17 *2909:A1 *2896:B1_N 0
18 *2909:A1 *509:18 0
19 *347:10 *2896:B1_N 0
20 *474:40 *2896:B1_N 0.000113247
*RES
1 *3122:X *509:12 7.265 
2 *509:12 *509:18 6.05 
3 *509:18 *2896:B1_N 7.32 
4 *509:18 *2895:C 3.6 
5 *509:12 *2894:C 1.73875 
*END

*D_NET *510 0.000908008
*CONN
*I *3013:B1 I *D sky130_fd_sc_hd__a22o_4
*I *3250:X O *D sky130_fd_sc_hd__buf_6
*CAP
1 *3013:B1 0.000110789
2 *3250:X 0.000110789
3 *3013:B1 *3013:A1 4.82919e-05
4 *3013:B1 *3193:A 0.000216177
5 *3013:B1 *520:16 0.000421961
*RES
1 *3250:X *3013:B1 7.46 
*END

*D_NET *511 0.00314593
*CONN
*I *3250:A I *D sky130_fd_sc_hd__buf_6
*I *3012:B I *D sky130_fd_sc_hd__xor2_2
*I *3251:X O *D sky130_fd_sc_hd__buf_6
*CAP
1 *3250:A 0.000255158
2 *3012:B 0.000634263
3 *3251:X 0.000379105
4 *3012:B *3208:A 8.08153e-06
5 *3250:A *3045:B1 0
6 *3250:A *3192:A 0.000163204
7 *3250:A *544:23 0
8 *3250:A *559:12 0.000226513
9 *3012:A *3012:B 0.000339205
10 *3013:A2 *3250:A 4.18603e-06
11 *3014:B *3012:B 0.000140912
12 *3043:A *3250:A 5.93505e-05
13 *3044:A *3012:B 0.00011293
14 *3044:B *3012:B 0.000119756
15 *3046:B1 *3012:B 0.000157951
16 *3056:A2 *3250:A 8.71079e-05
17 *120:8 *3012:B 7.24866e-05
18 *122:12 *3012:B 0.000180682
19 *123:10 *3012:B 1.01661e-05
20 *135:10 *3012:B 9.34489e-05
21 *135:12 *3012:B 0.000101423
22 *502:10 *3012:B 0
*RES
1 *3251:X *3012:B 17.195 
2 *3012:B *3250:A 11.6675 
*END

*D_NET *512 0.00144486
*CONN
*I *3010:A I *D sky130_fd_sc_hd__nand4_4
*I *2793:C I *D sky130_fd_sc_hd__nand4_2
*I *3252:X O *D sky130_fd_sc_hd__buf_6
*CAP
1 *3010:A 0.000238781
2 *2793:C 0.000206862
3 *3252:X 6.42112e-05
4 *512:8 0.000509854
5 *2791:B1 *2793:C 0
6 *2792:B *2793:C 1.22676e-05
7 *2792:B *512:8 4.7043e-05
8 *2793:A *2793:C 2.75145e-05
9 *2793:D *2793:C 9.54469e-05
10 *3010:C *2793:C 0.000194588
11 *3010:C *3010:A 4.82919e-05
12 *245:8 *2793:C 0
13 *245:8 *512:8 0
14 *253:12 *2793:C 0
*RES
1 *3252:X *512:8 4.98 
2 *512:8 *2793:C 8.595 
3 *512:8 *3010:A 6.825 
*END

*D_NET *513 0.00115625
*CONN
*I *2905:B1 I *D sky130_fd_sc_hd__o21ai_2
*I *2904:B1_N I *D sky130_fd_sc_hd__o21ba_2
*I *3123:X O *D sky130_fd_sc_hd__clkdlybuf4s25_1
*CAP
1 *2905:B1 0
2 *2904:B1_N 8.95679e-05
3 *3123:X 0.00031817
4 *513:6 0.000407738
5 *513:6 *2905:A2 0.000110107
6 S[26] *513:6 4.9253e-06
7 *2905:A1 *513:6 4.60736e-05
8 *3123:A *513:6 0.000124007
9 *355:12 *2904:B1_N 5.56629e-05
10 *356:8 *2904:B1_N 0
*RES
1 *3123:X *513:6 6.88 
2 *513:6 *2904:B1_N 7.235 
3 *513:6 *2905:B1 1.6 
*END

*D_NET *514 0.000576958
*CONN
*I *2995:B I *D sky130_fd_sc_hd__xnor2_2
*I *3253:X O *D sky130_fd_sc_hd__buf_4
*CAP
1 *2995:B 0.000206483
2 *3253:X 0.000206483
3 *2995:B *2994:A1 0.000163992
4 *2780:A *2995:B 0
5 *2995:A *2995:B 0
6 *3253:A *2995:B 0
7 *457:101 *2995:B 0
*RES
1 *3253:X *2995:B 11.13 
*END

*D_NET *515 0.00029684
*CONN
*I *2774:B1 I *D sky130_fd_sc_hd__o21ai_2
*I *3254:X O *D sky130_fd_sc_hd__buf_2
*CAP
1 *2774:B1 0.00014842
2 *3254:X 0.00014842
3 *3254:A *2774:B1 0
*RES
1 *3254:X *2774:B1 9.12 
*END

*D_NET *516 0.00202642
*CONN
*I *2992:A I *D sky130_fd_sc_hd__nand3_2
*I *2991:A2 I *D sky130_fd_sc_hd__a21oi_2
*I *2768:B1 I *D sky130_fd_sc_hd__o21a_2
*I *3255:X O *D sky130_fd_sc_hd__buf_2
*CAP
1 *2992:A 0
2 *2991:A2 3.37585e-05
3 *2768:B1 0.00021868
4 *3255:X 0.000230079
5 *516:12 0.000346101
6 *516:10 0.000323742
7 *2768:A2 *2768:B1 8.49205e-05
8 *2775:A1 *516:10 3.68769e-05
9 *2775:A2 *516:10 0.000264672
10 *2786:B1 *2768:B1 0.000170818
11 *2990:A *2768:B1 4.21973e-05
12 *2992:C *2768:B1 0
13 *2992:C *516:10 0
14 *2992:C *516:12 0
15 *2993:A_N *516:10 0
16 *2993:B *516:10 9.5433e-05
17 *225:40 *516:10 1.08758e-05
18 *227:10 *2768:B1 8.47542e-05
19 *227:10 *516:10 8.08153e-06
20 *227:10 *516:12 7.5431e-05
21 *431:10 *2768:B1 0
*RES
1 *3255:X *516:10 7.5 
2 *516:10 *516:12 2.145 
3 *516:12 *2768:B1 8.52 
4 *516:12 *2991:A2 4.05 
5 *516:10 *2992:A 3.6 
*END

*D_NET *517 0.0014839
*CONN
*I *2917:C_N I *D sky130_fd_sc_hd__or3b_4
*I *2918:B1_N I *D sky130_fd_sc_hd__o21bai_2
*I *3124:X O *D sky130_fd_sc_hd__clkdlybuf4s25_1
*CAP
1 *2917:C_N 0
2 *2918:B1_N 0.000103063
3 *3124:X 0.000501904
4 *517:10 0.000604968
5 *2918:B1_N *3206:A 0
6 *2905:A1 *517:10 6.55406e-05
7 *2918:A1 *2918:B1_N 0
8 *2918:A1 *517:10 0
9 *3124:A *517:10 3.00381e-05
10 *3160:A *517:10 7.00889e-06
11 *365:8 *517:10 0
12 *367:8 *2918:B1_N 6.74079e-05
13 *474:30 *2918:B1_N 4.43871e-06
14 *474:30 *517:10 9.9535e-05
*RES
1 *3124:X *517:10 10.92 
2 *517:10 *2918:B1_N 5.745 
3 *517:10 *2917:C_N 3.6 
*END

*D_NET *518 0.00215891
*CONN
*I *3083:A_N I *D sky130_fd_sc_hd__nand3b_4
*I *3084:B1 I *D sky130_fd_sc_hd__o21a_4
*I *3125:X O *D sky130_fd_sc_hd__clkdlybuf4s25_1
*CAP
1 *3083:A_N 0.000305932
2 *3084:B1 0
3 *3125:X 0.000489539
4 *518:10 0.00079547
5 *3083:A_N *538:10 0
6 *518:10 *3087:B 4.65515e-05
7 *3081:A *3083:A_N 0
8 *3081:A *518:10 0
9 *3083:B *3083:A_N 0.000209067
10 *3083:B *518:10 6.55328e-05
11 *3136:A *3083:A_N 0.000239807
12 *449:105 *3083:A_N 0
13 *469:76 *3083:A_N 7.00889e-06
*RES
1 *3125:X *518:10 9.57 
2 *518:10 *3084:B1 3.6 
3 *518:10 *3083:A_N 10.215 
*END

*D_NET *519 0.00285694
*CONN
*I *2925:B1_N I *D sky130_fd_sc_hd__o21ba_2
*I *2926:C_N I *D sky130_fd_sc_hd__or3b_4
*I *3126:X O *D sky130_fd_sc_hd__clkdlybuf4s25_1
*CAP
1 *2925:B1_N 0
2 *2926:C_N 0.000145887
3 *3126:X 0.00128259
4 *519:10 0.00142847
5 *2926:A *2926:C_N 0
6 *2926:A *519:10 0
7 *2926:B *2926:C_N 0
8 *372:8 *519:10 0
9 *375:12 *2926:C_N 0
10 *375:12 *519:10 0
*RES
1 *3126:X *519:10 17.85 
2 *519:10 *2926:C_N 6 
3 *519:10 *2925:B1_N 3.6 
*END

*D_NET *520 0.0080198
*CONN
*I *2938:C_N I *D sky130_fd_sc_hd__nor3b_2
*I *2937:B1_N I *D sky130_fd_sc_hd__o21bai_2
*I *2939:C_N I *D sky130_fd_sc_hd__or3b_2
*I *3127:X O *D sky130_fd_sc_hd__clkdlybuf4s25_1
*CAP
1 *2938:C_N 2.08101e-05
2 *2937:B1_N 0.000135188
3 *2939:C_N 0.000212842
4 *3127:X 0.00215418
5 *520:22 0.000598794
6 *520:16 0.00242575
7 *520:16 *3193:A 0.000187999
8 *520:16 *540:20 0.00056196
9 *2938:A *520:22 0.00013626
10 *2939:A *2939:C_N 0.000124007
11 *2939:B *2939:C_N 4.66108e-05
12 *2960:A1 *520:22 0
13 *3013:B1 *520:16 0.000421961
14 *3043:A *520:16 0.000139936
15 *3057:B1 *520:16 0.000127416
16 *3141:A *520:16 3.00381e-05
17 *3142:A *520:16 3.99879e-05
18 *245:8 *2939:C_N 0.000160651
19 *245:8 *520:22 0.000179235
20 *383:17 *2939:C_N 8.78735e-05
21 *383:17 *520:22 4.43871e-06
22 *387:14 *2939:C_N 9.02243e-05
23 *404:12 *520:22 8.65961e-05
24 *469:76 *520:16 4.70343e-05
*RES
1 *3127:X *520:16 41.09 
2 *520:16 *520:22 7.355 
3 *520:22 *2939:C_N 8.73 
4 *520:22 *2937:B1_N 5.43 
5 *520:16 *2938:C_N 1.96 
*END

*D_NET *521 0.00701521
*CONN
*I *2956:B1_N I *D sky130_fd_sc_hd__o21bai_2
*I *2955:B1_N I *D sky130_fd_sc_hd__o21ba_2
*I *2954:C_N I *D sky130_fd_sc_hd__or3b_2
*I *3128:X O *D sky130_fd_sc_hd__clkdlybuf4s25_1
*CAP
1 *2956:B1_N 0.000104894
2 *2955:B1_N 0.000250122
3 *2954:C_N 0
4 *3128:X 0.00129723
5 *521:25 0.000443726
6 *521:14 0.00138594
7 *521:14 *2953:B 0
8 *521:14 *3113:A 0.000307825
9 *521:14 *560:14 0.000483819
10 *521:14 *565:16 0
11 *2728:C *521:14 3.86529e-05
12 *2735:A1 *521:14 0
13 *2953:A *521:14 0.000163992
14 *2953:A *521:25 9.50342e-06
15 *2955:A1 *2955:B1_N 0.000124895
16 *2955:A2 *2955:B1_N 7.06336e-05
17 *2996:A1 *521:14 0.000335177
18 *192:10 *521:14 2.05661e-05
19 *193:12 *521:14 0.000136877
20 *194:10 *521:14 2.87867e-05
21 *194:29 *521:14 2.04147e-05
22 *399:8 *521:14 5.42473e-05
23 *399:21 *521:14 2.97004e-06
24 *399:21 *521:25 2.45838e-05
25 *400:19 *521:25 7.63204e-05
26 *401:10 *521:25 9.86611e-05
27 *402:8 *2955:B1_N 4.99619e-05
28 *449:52 *521:14 0.000836043
29 *456:19 *521:14 0.000483255
30 *456:67 *521:14 0
31 *457:101 *521:14 0.000166111
*RES
1 *3128:X *521:14 35.61 
2 *521:14 *2954:C_N 3.6 
3 *521:14 *521:25 4.4 
4 *521:25 *2955:B1_N 6.205 
5 *521:25 *2956:B1_N 3.085 
*END

*D_NET *522 0.00704396
*CONN
*I *2994:A1 I *D sky130_fd_sc_hd__a21oi_4
*I *2989:C1 I *D sky130_fd_sc_hd__a211o_4
*I *2988:C1 I *D sky130_fd_sc_hd__a211o_4
*I *3256:X O *D sky130_fd_sc_hd__buf_6
*CAP
1 *2994:A1 0.00175844
2 *2989:C1 0
3 *2988:C1 0.000102209
4 *3256:X 0.000156703
5 *522:14 0.000376045
6 *522:10 0.00218898
7 *2988:C1 *3210:A 0
8 *2994:A1 *3214:A 0
9 *2994:A1 *565:27 0
10 *2994:A1 *565:40 0
11 *2994:A1 *567:59 3.7445e-05
12 *2994:A1 *567:70 0.000354719
13 *522:10 *564:10 0.000216318
14 *2756:A2 *2988:C1 1.01661e-05
15 *2786:A1 *522:10 7.30547e-05
16 *2787:A2 *2988:C1 2.30797e-05
17 *2988:B1 *2988:C1 2.42236e-05
18 *2989:A2 *522:14 2.8185e-05
19 *2989:B1 *2988:C1 3.25831e-05
20 *2995:B *2994:A1 0.000163992
21 *3253:A *2994:A1 0
22 *187:10 *2994:A1 6.52265e-05
23 *212:10 *522:10 8.53113e-06
24 *212:21 *522:10 0.000328774
25 *213:6 *2994:A1 0.000301306
26 *213:6 *522:14 1.08758e-05
27 *213:10 *522:14 0.000192125
28 *220:12 *2988:C1 0.000117825
29 *434:10 *2994:A1 0
30 *435:8 *2994:A1 0.000237731
31 *456:21 *2994:A1 0.000124667
32 *456:67 *2994:A1 9.02174e-05
33 *457:61 *2994:A1 1.73858e-05
34 *457:61 *522:14 3.1562e-06
35 *457:101 *2994:A1 0
*RES
1 *3256:X *522:10 10.295 
2 *522:10 *522:14 3.48 
3 *522:14 *2988:C1 8 
4 *522:14 *2989:C1 1.6 
5 *522:10 *2994:A1 30.77 
*END

*D_NET *523 0.000381934
*CONN
*I *2987:A I *D sky130_fd_sc_hd__xnor2_2
*I *3257:X O *D sky130_fd_sc_hd__buf_6
*CAP
1 *2987:A 0.000126321
2 *3257:X 0.000126321
3 *2987:A *3210:A 0
4 S[1] *2987:A 1.07797e-05
5 *2987:B *2987:A 0.000118513
*RES
1 *3257:X *2987:A 9.63 
*END

*D_NET *524 0.000281652
*CONN
*I *2988:A2 I *D sky130_fd_sc_hd__a211o_4
*I *3258:X O *D sky130_fd_sc_hd__buf_2
*CAP
1 *2988:A2 0.00010219
2 *3258:X 0.00010219
3 *2988:A2 *2751:B 2.67275e-05
4 *2988:A1 *2988:A2 0
5 *3258:A *2988:A2 5.05437e-05
*RES
1 *3258:X *2988:A2 5.045 
*END

*D_NET *525 0.00070784
*CONN
*I *2989:A1 I *D sky130_fd_sc_hd__a211o_4
*I *3259:X O *D sky130_fd_sc_hd__buf_2
*CAP
1 *2989:A1 0.000166322
2 *3259:X 0.000166322
3 *2786:A1 *2989:A1 0.000112123
4 *2988:B1 *2989:A1 2.30292e-05
5 *2989:A2 *2989:A1 4.82919e-05
6 *3259:A *2989:A1 4.66108e-05
7 *213:10 *2989:A1 8.49205e-05
8 *215:29 *2989:A1 6.02202e-05
*RES
1 *3259:X *2989:A1 10.515 
*END

*D_NET *526 0.00359933
*CONN
*I *2766:B1_N I *D sky130_fd_sc_hd__o21bai_4
*I *2767:B1 I *D sky130_fd_sc_hd__o21ai_4
*I *3129:X O *D sky130_fd_sc_hd__clkdlybuf4s25_1
*CAP
1 *2766:B1_N 0
2 *2767:B1 0.000104408
3 *3129:X 0.0007827
4 *526:10 0.000887108
5 *2767:B1 *2767:A2 8.49205e-05
6 *2767:B1 *572:60 8.97564e-05
7 *526:10 *3213:A 0.00137431
8 *526:10 *572:60 9.24049e-05
9 *453:42 *2767:B1 4.43871e-06
10 *453:57 *2767:B1 9.24127e-05
11 *453:57 *526:10 8.68724e-05
*RES
1 *3129:X *526:10 19.395 
2 *526:10 *2767:B1 6.285 
3 *526:10 *2766:B1_N 3.6 
*END

*D_NET *527 0.00121203
*CONN
*I *2963:C_N I *D sky130_fd_sc_hd__or3b_2
*I *2965:B1_N I *D sky130_fd_sc_hd__o21bai_2
*I *2964:B1_N I *D sky130_fd_sc_hd__o21ba_2
*I *3130:X O *D sky130_fd_sc_hd__clkdlybuf4s25_1
*CAP
1 *2963:C_N 3.22562e-05
2 *2965:B1_N 6.76539e-05
3 *2964:B1_N 0
4 *3130:X 0.000104239
5 *527:21 0.000202669
6 *527:12 0.000206998
7 *2965:B1_N *3220:A 0
8 *527:12 *3220:A 4.49134e-05
9 *2962:A *2965:B1_N 8.09021e-06
10 *2962:A *527:12 0
11 *2964:A1 *2963:C_N 4.99619e-05
12 *2964:A2 *2965:B1_N 9.50342e-06
13 *2976:A *527:12 5.30673e-05
14 *2976:A *527:21 4.35348e-05
15 *3165:A *527:12 1.88656e-05
16 *407:19 *2963:C_N 3.83041e-05
17 *408:23 *2963:C_N 9.80943e-06
18 *408:23 *527:21 2.75229e-05
19 *410:10 *2965:B1_N 6.5525e-05
20 *457:27 *2963:C_N 8.49205e-05
21 *457:27 *2965:B1_N 7.89689e-05
22 *457:27 *527:21 6.52265e-05
*RES
1 *3130:X *527:12 7.775 
2 *527:12 *2964:B1_N 1.6 
3 *527:12 *527:21 2.19 
4 *527:21 *2965:B1_N 7.49 
5 *527:21 *2963:C_N 2.74 
*END

*D_NET *528 0.00156678
*CONN
*I *3021:A1_N I *D sky130_fd_sc_hd__o2bb2ai_4
*I *2977:A I *D sky130_fd_sc_hd__xnor2_2
*I *3131:X O *D sky130_fd_sc_hd__clkdlybuf4s25_1
*CAP
1 *3021:A1_N 0.000430504
2 *2977:A 0.000198525
3 *3131:X 9.06592e-05
4 *528:8 0.000719688
5 *3021:A1_N *2976:B 0
6 *3021:A1_N *3220:A 2.24336e-05
7 *528:8 *2976:B 0
8 *2983:A *3021:A1_N 0
9 *3021:B1 *3021:A1_N 0
10 *3021:B2 *3021:A1_N 1.83756e-05
11 *410:10 *3021:A1_N 0
12 *422:10 *2977:A 8.65905e-05
13 *457:27 *528:8 0
*RES
1 *3131:X *528:8 4.98 
2 *528:8 *2977:A 6.81 
3 *528:8 *3021:A1_N 9.825 
*END

*D_NET *529 0.00304116
*CONN
*I *2773:B1_N I *D sky130_fd_sc_hd__o21bai_4
*I *2771:B1 I *D sky130_fd_sc_hd__o21ai_4
*I *3132:X O *D sky130_fd_sc_hd__clkdlybuf4s25_1
*CAP
1 *2773:B1_N 0.000199622
2 *2771:B1 2.2266e-05
3 *3132:X 0.000404362
4 *529:10 0.000626249
5 *2773:B1_N *2772:A2 9.66021e-05
6 *529:10 *2772:A2 0
7 *529:10 *564:10 0
8 *529:10 *564:29 0.000210846
9 *529:10 *567:59 0
10 *2751:A *529:10 0.000162325
11 *2753:A *529:10 5.42473e-05
12 *2753:B *529:10 0
13 *2772:A1 *2771:B1 4.82919e-05
14 *2772:A1 *2773:B1_N 4.43682e-05
15 *2772:B1 *2773:B1_N 0.000179973
16 *2773:A2 *2773:B1_N 0.00017354
17 *2773:A2 *529:10 0.000346268
18 *2780:C *529:10 0.00018987
19 *3132:A *529:10 8.53113e-06
20 *229:10 *2773:B1_N 9.86611e-05
21 *229:10 *529:10 8.68724e-05
22 *233:10 *2773:B1_N 8.8266e-05
23 *455:59 *529:10 0
*RES
1 *3132:X *529:10 14.445 
2 *529:10 *2771:B1 4.05 
3 *529:10 *2773:B1_N 9.66 
*END

*D_NET *530 0.00618831
*CONN
*I *2736:A_N I *D sky130_fd_sc_hd__and3b_2
*I *2737:A_N I *D sky130_fd_sc_hd__nand3b_2
*I *2734:B1 I *D sky130_fd_sc_hd__o21ai_2
*I *3133:X O *D sky130_fd_sc_hd__clkdlybuf4s25_1
*CAP
1 *2736:A_N 0
2 *2737:A_N 0.000104785
3 *2734:B1 0.000318415
4 *3133:X 0.000917988
5 *530:18 0.000520879
6 *530:14 0.00101567
7 *2734:B1 *565:16 0
8 *530:14 *2726:A2 0
9 *530:14 *564:10 0.000279787
10 *530:14 *567:18 0.000394681
11 *530:14 *567:31 9.50036e-05
12 *530:14 *567:72 0
13 *2726:A1 *2734:B1 4.66742e-05
14 *2726:B1 *2734:B1 0.000120655
15 *2727:A1 *530:14 2.66939e-05
16 *2736:B *2737:A_N 0.000245263
17 *2736:C *2737:A_N 0.000125211
18 *2750:A *530:14 1.01661e-05
19 *3102:A *530:14 2.16917e-05
20 *3170:A *530:14 0.000686627
21 *186:12 *2734:B1 2.11084e-05
22 *194:10 *2734:B1 7.00889e-06
23 *455:8 *530:14 0.000265223
24 *455:46 *530:14 0.000120186
25 *455:59 *530:14 0.000294473
26 *455:70 *530:14 0.000119285
27 *455:81 *530:14 5.53249e-06
28 *456:38 *2734:B1 9.05377e-05
29 *457:61 *530:14 5.7344e-05
30 *457:67 *530:14 0.00027742
*RES
1 *3133:X *530:14 29.6 
2 *530:14 *530:18 1.5 
3 *530:18 *2734:B1 11.405 
4 *530:18 *2737:A_N 4.48 
5 *530:14 *2736:A_N 1.6 
*END

*D_NET *531 0.00346779
*CONN
*I *2724:B1 I *D sky130_fd_sc_hd__o21a_2
*I *2727:B1 I *D sky130_fd_sc_hd__a21oi_2
*I *3023:A I *D sky130_fd_sc_hd__inv_2
*I *2725:B1_N I *D sky130_fd_sc_hd__a21boi_2
*I *3134:X O *D sky130_fd_sc_hd__clkdlybuf4s25_1
*CAP
1 *2724:B1 3.30171e-05
2 *2727:B1 0
3 *3023:A 0.000101757
4 *2725:B1_N 8.78992e-05
5 *3134:X 0.000449416
6 *531:40 0.000259355
7 *531:21 0.000508338
8 *531:8 0.000717559
9 *2724:B1 *2724:A2 4.82919e-05
10 *2725:B1_N *2752:B 7.32509e-05
11 *3023:A *2722:B 4.99619e-05
12 *531:21 *2752:B 2.59981e-05
13 *531:40 *2722:B 0
14 *531:40 *567:70 0
15 *2722:A_N *3023:A 1.12578e-05
16 *2727:A1 *531:40 1.01661e-05
17 *2728:A *531:21 0
18 *2728:B *531:21 0
19 *2729:A2 *2724:B1 4.60584e-05
20 *2729:A2 *531:40 9.8515e-05
21 *2729:B2 *531:21 0
22 *2750:A *2725:B1_N 3.18137e-05
23 *2750:A *531:21 0.000100479
24 *2750:A *531:40 4.79685e-05
25 *2755:C *531:8 0.00013106
26 *2998:A2 *531:40 0
27 *3102:A *2725:B1_N 8.53113e-06
28 *3134:A *531:8 0.000232342
29 *181:6 *3023:A 7.60965e-05
30 *187:10 *2724:B1 0.000162311
31 *187:10 *531:40 4.99619e-05
32 *454:23 *531:8 9.80943e-06
33 *455:18 *3023:A 4.82919e-05
34 *456:6 *2725:B1_N 4.82863e-05
*RES
1 *3134:X *531:8 9.225 
2 *531:8 *2725:B1_N 5.52 
3 *531:8 *531:21 3.165 
4 *531:21 *3023:A 5.79 
5 *531:21 *531:40 6.23 
6 *531:40 *2727:B1 1.6 
7 *531:40 *2724:B1 3.085 
*END

*D_NET *532 0.00139223
*CONN
*I *3099:A_N I *D sky130_fd_sc_hd__nand3b_4
*I *3100:B1 I *D sky130_fd_sc_hd__o21ai_2
*I *3135:X O *D sky130_fd_sc_hd__clkdlybuf4s25_1
*CAP
1 *3099:A_N 0
2 *3100:B1 0.000298823
3 *3135:X 0.000131767
4 *532:8 0.00043059
5 *3100:B1 *3100:A2 7.63125e-05
6 *3096:B *3100:B1 0
7 *3099:B *3100:B1 4.40899e-05
8 *3099:B *532:8 0
9 *3099:C *532:8 0.000352161
10 *3135:A *532:8 5.84828e-05
11 *3137:A *3100:B1 0
*RES
1 *3135:X *532:8 5.17 
2 *532:8 *3100:B1 10.58 
3 *532:8 *3099:A_N 1.6 
*END

*D_NET *533 0.00184303
*CONN
*I *3090:B1 I *D sky130_fd_sc_hd__a21oi_4
*I *3088:B1 I *D sky130_fd_sc_hd__o21ai_2
*I *3136:X O *D sky130_fd_sc_hd__clkdlybuf4s25_1
*CAP
1 *3090:B1 0
2 *3088:B1 0.000250833
3 *3136:X 0.000353342
4 *533:10 0.000604174
5 *3088:B1 *3088:A2 0.000139238
6 *3088:B1 *539:10 0
7 *3088:B1 *539:36 0.000349726
8 *533:10 *539:10 0
9 *533:10 *539:36 9.50342e-06
10 *3089:B1 *3088:B1 0
11 *3136:A *533:10 3.45588e-05
12 *161:10 *533:10 6.81237e-05
13 *163:8 *3088:B1 0
14 *469:24 *533:10 3.35323e-05
*RES
1 *3136:X *533:10 8.445 
2 *533:10 *3088:B1 9.315 
3 *533:10 *3090:B1 3.6 
*END

*D_NET *534 0.00247863
*CONN
*I *2741:B1_N I *D sky130_fd_sc_hd__o21bai_4
*I *2742:B1_N I *D sky130_fd_sc_hd__a21boi_2
*I *2743:B1_N I *D sky130_fd_sc_hd__a21bo_2
*I *3137:X O *D sky130_fd_sc_hd__clkdlybuf4s25_1
*CAP
1 *2741:B1_N 0.000147733
2 *2742:B1_N 0
3 *2743:B1_N 0.00014457
4 *3137:X 0.000262961
5 *534:12 0.000203699
6 *534:8 0.000469824
7 *2743:B1_N *2743:A2 4.66108e-05
8 *534:8 *3217:A 7.89767e-05
9 *534:12 *2743:A2 0.000140267
10 S[7] *534:8 0.000115464
11 *2742:A1 *534:12 8.49205e-05
12 *2743:A1 *2743:B1_N 2.16833e-05
13 *2744:B1 *2741:B1_N 8.71079e-05
14 *2745:A2 *2743:B1_N 2.70892e-05
15 *3096:B *534:8 0
16 *449:12 *2741:B1_N 7.1932e-06
17 *449:12 *534:8 0.000147974
18 *465:27 *534:8 0.000192721
19 *465:38 *534:8 6.10014e-05
20 *465:53 *2741:B1_N 4.056e-05
21 *465:53 *534:8 1.52184e-05
22 *465:66 *2741:B1_N 0.00018305
*RES
1 *3137:X *534:8 10.845 
2 *534:8 *534:12 3.485 
3 *534:12 *2743:B1_N 4.0225 
4 *534:12 *2742:B1_N 1.6 
5 *534:8 *2741:B1_N 6.81 
*END

*D_NET *535 0.00293318
*CONN
*I *3076:A_N I *D sky130_fd_sc_hd__nand3b_2
*I *3074:B1 I *D sky130_fd_sc_hd__o21a_4
*I *3138:X O *D sky130_fd_sc_hd__clkdlybuf4s25_1
*CAP
1 *3076:A_N 5.26049e-05
2 *3074:B1 1.92508e-05
3 *3138:X 0.000616745
4 *535:14 0.000688601
5 *535:14 *569:10 0.000146392
6 S[8] *535:14 0.000116158
7 S[9] *535:14 7.67415e-06
8 *3073:B *3076:A_N 0.000105849
9 *3076:C *3076:A_N 0.000107716
10 *3139:A *535:14 5.05521e-05
11 *466:10 *535:14 0.000234777
12 *475:21 *3074:B1 4.99619e-05
13 *475:21 *535:14 0.000148977
14 *475:40 *535:14 0.000587924
*RES
1 *3138:X *535:14 18.23 
2 *535:14 *3074:B1 2.05 
3 *535:14 *3076:A_N 7.745 
*END

*D_NET *536 0.00236006
*CONN
*I *3066:B1_N I *D sky130_fd_sc_hd__o21ba_2
*I *3067:B1_N I *D sky130_fd_sc_hd__o21bai_4
*I *3068:B1_N I *D sky130_fd_sc_hd__a21boi_2
*I *3139:X O *D sky130_fd_sc_hd__clkdlybuf4s25_1
*CAP
1 *3066:B1_N 0.000106467
2 *3067:B1_N 5.93584e-05
3 *3068:B1_N 0
4 *3139:X 0.000534141
5 *536:19 0.00026606
6 *536:10 0.000634375
7 *536:10 *3219:A 0.00011852
8 *3069:B1 *3066:B1_N 7.75412e-05
9 *3069:B1 *536:19 4.70343e-05
10 *3139:A *536:10 0.000256469
11 *3174:A *536:10 0.00011852
12 *3174:A *536:19 5.33085e-05
13 *3184:A *3066:B1_N 0
14 *3184:A *536:19 0
15 *145:8 *3067:B1_N 8.8266e-05
16 *466:10 *536:19 0
17 *504:19 *536:19 0
*RES
1 *3139:X *536:10 11.295 
2 *536:10 *3068:B1_N 3.6 
3 *536:10 *536:19 2.145 
4 *536:19 *3067:B1_N 4.74 
5 *536:19 *3066:B1_N 5.745 
*END

*D_NET *537 0.00604015
*CONN
*I *2757:B I *D sky130_fd_sc_hd__and2_4
*I *2760:A2 I *D sky130_fd_sc_hd__a21oi_2
*I *2759:A2 I *D sky130_fd_sc_hd__o21ai_2
*I *2762:A1 I *D sky130_fd_sc_hd__o211ai_2
*I *2985:B I *D sky130_fd_sc_hd__xor2_2
*I *2986:S I *D sky130_fd_sc_hd__mux2_1
*I *2758:B I *D sky130_fd_sc_hd__nor2_2
*I *3140:X O *D sky130_fd_sc_hd__dlymetal6s4s_1
*CAP
1 *2757:B 0
2 *2760:A2 0.000152447
3 *2759:A2 0.000114963
4 *2762:A1 0.000184094
5 *2985:B 9.38836e-05
6 *2986:S 0
7 *2758:B 0.00013709
8 *3140:X 0.000227226
9 *537:66 0.000444922
10 *537:58 0.000363409
11 *537:32 0.000319032
12 *537:23 5.50619e-05
13 *537:12 0.000151097
14 *537:10 0.000413123
15 *2758:B *3113:A 4.66108e-05
16 *2759:A2 *572:60 0
17 *2760:A2 *572:60 1.12578e-05
18 *537:10 *3188:A 6.03847e-05
19 *537:10 *572:10 0.000155928
20 *537:23 *3113:A 8.52883e-05
21 *537:32 *3113:A 0.000194267
22 *537:58 *572:10 2.07184e-05
23 *537:58 *572:35 0.000319174
24 *2758:A *2758:B 0.000175802
25 *2759:B1 *2759:A2 0.000182349
26 *2760:B1 *2760:A2 8.65961e-05
27 *2761:A2 *2758:B 0.000504864
28 *2762:A2 *2759:A2 9.50342e-06
29 *2762:A2 *2762:A1 8.8266e-05
30 *2762:B1 *2762:A1 9.21168e-05
31 *2763:B *2762:A1 8.8266e-05
32 *2985:A *2985:B 0.000141599
33 *3114:A *2758:B 4.66108e-05
34 *3114:A *2985:B 0
35 *3114:A *537:23 7.44125e-05
36 *3114:A *537:32 0.00018285
37 *219:8 *2759:A2 0.00012904
38 *220:6 *2760:A2 0.000170065
39 *450:6 *2758:B 0.000154051
40 *450:30 *2762:A1 0.000130714
41 *450:30 *2985:B 4.9968e-05
42 *452:34 *537:66 9.78953e-05
43 *457:6 *2759:A2 9.53428e-06
44 *457:10 *537:66 3.22894e-05
45 *457:61 *2760:A2 2.16833e-05
46 *457:61 *537:66 2.16917e-05
*RES
1 *3140:X *537:10 7.725 
2 *537:10 *537:12 2 
3 *537:12 *2758:B 7.24 
4 *537:12 *537:23 0.795 
5 *537:23 *2986:S 1.6 
6 *537:23 *537:32 3.83 
7 *537:32 *2985:B 4.145 
8 *537:32 *2762:A1 8.13 
9 *537:10 *537:58 5.93 
10 *537:58 *537:66 3.345 
11 *537:66 *2759:A2 8.555 
12 *537:66 *2760:A2 5.275 
13 *537:58 *2757:B 1.6 
*END

*D_NET *538 0.00248902
*CONN
*I *3084:A2 I *D sky130_fd_sc_hd__o21a_4
*I *3080:A_N I *D sky130_fd_sc_hd__nand2b_2
*I *3081:B I *D sky130_fd_sc_hd__nand2_4
*I *3082:B I *D sky130_fd_sc_hd__nand2_2
*I *3141:X O *D sky130_fd_sc_hd__clkdlybuf4s25_1
*CAP
1 *3084:A2 0
2 *3080:A_N 6.72297e-05
3 *3081:B 0.000113673
4 *3082:B 0
5 *3141:X 0.000196565
6 *538:19 0.000180903
7 *538:17 0.000154973
8 *538:10 0.000351538
9 *538:10 *539:10 0
10 *3080:B *3080:A_N 5.21615e-05
11 *3081:A *3081:B 0
12 *3081:A *538:10 3.35901e-05
13 *3083:A_N *538:10 0
14 *3083:B *3080:A_N 0.000150451
15 *3083:B *3081:B 0.000141599
16 *3088:A1 *538:10 8.53113e-06
17 *3125:A *538:10 0.000104625
18 *162:8 *538:17 4.82863e-05
19 *449:105 *538:10 3.57846e-05
20 *469:28 *538:10 0.000395666
21 *469:50 *538:17 0.000381082
22 *469:76 *538:10 7.23602e-05
*RES
1 *3141:X *538:10 11.06 
2 *538:10 *3082:B 1.6 
3 *538:10 *538:17 3.555 
4 *538:17 *538:19 2 
5 *538:19 *3081:B 6 
6 *538:19 *3080:A_N 5.49 
7 *538:17 *3084:A2 1.6 
*END

*D_NET *539 0.00459785
*CONN
*I *3090:A2 I *D sky130_fd_sc_hd__a21oi_4
*I *3087:B I *D sky130_fd_sc_hd__and2_4
*I *3088:A2 I *D sky130_fd_sc_hd__o21ai_2
*I *3091:A2 I *D sky130_fd_sc_hd__o21ai_4
*I *3089:A2 I *D sky130_fd_sc_hd__a21oi_2
*I *3142:X O *D sky130_fd_sc_hd__clkdlybuf4s25_1
*CAP
1 *3090:A2 0.000196348
2 *3087:B 0.000279523
3 *3088:A2 0.000128501
4 *3091:A2 2.08101e-05
5 *3089:A2 0.000277876
6 *3142:X 0.000268671
7 *539:36 0.000513668
8 *539:32 0.000424556
9 *539:12 0.000358508
10 *539:10 0.000451056
11 *2783:B1 *3089:A2 0.00015806
12 *3042:A *539:10 0
13 *3088:B1 *3088:A2 0.000139238
14 *3088:B1 *539:10 0
15 *3088:B1 *539:36 0.000349726
16 *3089:B1 *3089:A2 0.000131069
17 *3089:B1 *539:10 0
18 *3091:B1 *3090:A2 1.78306e-05
19 *3091:B1 *3091:A2 0
20 *3091:B1 *539:32 8.69014e-05
21 *3240:A *3088:A2 5.23362e-05
22 *161:10 *3088:A2 0.000108322
23 *161:10 *539:36 0.000358944
24 *161:27 *3088:A2 2.49909e-05
25 *163:8 *3088:A2 0
26 *166:12 *3088:A2 5.83121e-06
27 *169:10 *3089:A2 1.47347e-05
28 *169:10 *539:12 5.07419e-05
29 *169:10 *539:32 3.64998e-06
30 *449:88 *3087:B 2.11084e-05
31 *449:105 *3090:A2 9.11073e-05
32 *449:105 *539:32 7.68414e-06
33 *469:28 *539:10 0
34 *518:10 *3087:B 4.65515e-05
35 *533:10 *539:10 0
36 *533:10 *539:36 9.50342e-06
37 *538:10 *539:10 0
*RES
1 *3142:X *539:10 9.53 
2 *539:10 *539:12 1.14 
3 *539:12 *3089:A2 6.55 
4 *539:12 *3091:A2 1.96 
5 *539:10 *539:32 2.19 
6 *539:32 *539:36 6.185 
7 *539:36 *3088:A2 6.63 
8 *539:36 *3087:B 7.845 
9 *539:32 *3090:A2 4.93 
*END

*D_NET *540 0.00384986
*CONN
*I *3043:B I *D sky130_fd_sc_hd__and2_2
*I *3045:A2 I *D sky130_fd_sc_hd__o21ai_2
*I *3042:B I *D sky130_fd_sc_hd__nor2_2
*I *3143:X O *D sky130_fd_sc_hd__clkdlybuf4s25_1
*CAP
1 *3043:B 0.000137437
2 *3045:A2 0
3 *3042:B 9.66934e-05
4 *3143:X 0.000166083
5 *540:20 0.000789492
6 *540:8 0.000996318
7 *3043:B *3194:A 0.000210151
8 *540:8 *3209:A 0.000232105
9 *540:20 *3045:B1 4.82919e-05
10 *540:20 *3191:A 1.31646e-05
11 S[12] *540:20 0
12 S[13] *540:20 6.06899e-05
13 S[14] *540:20 0
14 S[28] *3043:B 5.20968e-05
15 S[28] *540:20 2.11552e-05
16 *3039:A *3043:B 0
17 *3043:A *3043:B 0
18 *3045:A1 *540:20 0.000225394
19 *3057:B1 *3043:B 5.21458e-05
20 *3057:B1 *540:20 7.96996e-05
21 *3147:A *540:20 0
22 *3162:A *540:20 0.000106987
23 *520:16 *540:20 0.00056196
*RES
1 *3143:X *540:8 5.775 
2 *540:8 *540:20 16.88 
3 *540:20 *3042:B 3.085 
4 *540:20 *3045:A2 1.6 
5 *540:8 *3043:B 7.275 
*END

*D_NET *541 0.00388117
*CONN
*I *3039:B I *D sky130_fd_sc_hd__nand2_2
*I *3038:B I *D sky130_fd_sc_hd__and2_4
*I *3037:B I *D sky130_fd_sc_hd__nor2_2
*I *3144:X O *D sky130_fd_sc_hd__clkdlybuf4s25_1
*CAP
1 *3039:B 0.000182086
2 *3038:B 7.40178e-05
3 *3037:B 0
4 *3144:X 0.000445023
5 *541:25 0.000514956
6 *541:12 0.000703875
7 *3038:B *3040:B1_N 0.000160635
8 *3039:B *555:10 7.82935e-05
9 *541:25 *3040:B1_N 8.23457e-05
10 *3020:A *3039:B 1.16578e-05
11 *3037:A *3038:B 4.66108e-05
12 *3037:A *541:25 0.00043005
13 *3039:A *3039:B 0.000289317
14 *3040:A1 *541:25 2.05056e-05
15 *3040:A2 *3038:B 0.000101723
16 *3040:A2 *541:25 5.18486e-05
17 *3041:A_N *541:12 0.000162325
18 *3041:B *3039:B 8.09021e-06
19 *3051:A1 *541:12 0
20 *3169:A *541:12 0.000100998
21 *115:6 *541:25 2.75229e-05
22 *118:14 *3038:B 0
23 *119:16 *3039:B 0.000146281
24 *121:10 *3039:B 2.65814e-06
25 *129:12 *3039:B 7.21296e-06
26 *470:16 *3038:B 4.82863e-05
27 *470:20 *3038:B 0.000184852
*RES
1 *3144:X *541:12 12.89 
2 *541:12 *3037:B 1.6 
3 *541:12 *541:25 5.67 
4 *541:25 *3038:B 4.585 
5 *541:25 *3039:B 10.43 
*END

*D_NET *542 0.00380811
*CONN
*I *3036:A2 I *D sky130_fd_sc_hd__o21ai_2
*I *3033:B I *D sky130_fd_sc_hd__and2_4
*I *3034:B I *D sky130_fd_sc_hd__nor2_4
*I *3145:X O *D sky130_fd_sc_hd__clkdlybuf4s25_1
*CAP
1 *3036:A2 4.84753e-05
2 *3033:B 0
3 *3034:B 0.00014521
4 *3145:X 0.000395908
5 *542:18 0.000438474
6 *542:6 0.000737648
7 *542:18 *3036:B1 0.000209855
8 *542:18 *566:18 0.000109989
9 *3019:B2 *3036:A2 1.08758e-05
10 *3019:B2 *542:6 0.000109947
11 *3020:B *542:6 0.000418498
12 *3033:A *542:18 4.82863e-05
13 *3036:A1 *542:18 1.34361e-05
14 *3049:A1 *542:18 0.000155555
15 *3055:A2 *542:18 0
16 *3060:D1 *542:18 2.46007e-05
17 *3112:A *3034:B 6.35622e-05
18 *3112:A *542:18 0
19 *110:37 *542:6 0.000427094
20 *110:37 *542:18 0.00015639
21 *111:22 *542:18 0
22 *114:6 *542:18 7.00889e-06
23 *129:16 *542:6 4.16353e-05
24 *129:28 *3036:A2 1.47256e-05
25 *129:28 *542:6 7.67415e-06
26 *129:28 *542:18 2.26018e-05
27 *471:19 *542:18 8.68724e-05
28 *471:34 *3034:B 0
29 *471:47 *3034:B 0
30 *501:10 *542:18 0.00011379
*RES
1 *3145:X *542:6 10.33 
2 *542:6 *542:18 12.355 
3 *542:18 *3034:B 8.285 
4 *542:18 *3033:B 1.6 
5 *542:6 *3036:A2 2.77 
*END

*D_NET *543 0.00118831
*CONN
*I *3031:B I *D sky130_fd_sc_hd__and2_4
*I *3030:B I *D sky130_fd_sc_hd__nor2_2
*I *3146:X O *D sky130_fd_sc_hd__clkdlybuf4s25_1
*CAP
1 *3031:B 0
2 *3030:B 0.000198726
3 *3146:X 0.000187846
4 *543:12 0.000386572
5 *543:12 *577:10 0.000142669
6 *3031:A *3030:B 0.000110911
7 *3051:A2 *3030:B 4.43871e-06
8 *3146:A *543:12 0
9 *108:8 *3030:B 9.6044e-05
10 *109:8 *3030:B 6.11019e-05
*RES
1 *3146:X *543:12 9.155 
2 *543:12 *3030:B 10.04 
3 *543:12 *3031:B 1.6 
*END

*D_NET *544 0.00302913
*CONN
*I *3056:B1_N I *D sky130_fd_sc_hd__o21bai_2
*I *3047:C I *D sky130_fd_sc_hd__nand3_2
*I *3013:A1 I *D sky130_fd_sc_hd__a22o_4
*I *3045:B1 I *D sky130_fd_sc_hd__o21ai_2
*I *3147:X O *D sky130_fd_sc_hd__clkdlybuf4s25_1
*CAP
1 *3056:B1_N 2.08101e-05
2 *3047:C 0.000123934
3 *3013:A1 9.71884e-06
4 *3045:B1 0.000195153
5 *3147:X 3.05072e-05
6 *544:23 0.00021457
7 *544:10 0.000605725
8 *544:6 0.000380973
9 *3013:A1 *3193:A 4.82919e-05
10 *3045:B1 *3192:A 0.00018471
11 *3045:B1 *559:12 0
12 *3047:C *3209:A 0.000197269
13 *3013:A2 *3047:C 0.00029593
14 *3013:A2 *544:23 4.43871e-06
15 *3013:B1 *3013:A1 4.82919e-05
16 *3043:A *3045:B1 0
17 *3045:A1 *3045:B1 4.99619e-05
18 *3056:A1 *544:10 0.000237249
19 *3056:A2 *544:10 4.66108e-05
20 *3245:A *3047:C 8.53113e-06
21 *3250:A *3045:B1 0
22 *3250:A *544:23 0
23 *123:10 *3045:B1 0.000152203
24 *123:10 *3047:C 7.46619e-05
25 *123:10 *544:23 5.12946e-05
26 *540:20 *3045:B1 4.82919e-05
*RES
1 *3147:X *544:6 2.05 
2 *544:6 *544:10 6.935 
3 *544:10 *3045:B1 8.49 
4 *544:10 *544:23 1.635 
5 *544:23 *3013:A1 4.05 
6 *544:23 *3047:C 7.83 
7 *544:6 *3056:B1_N 1.96 
*END

*D_NET *545 0.00173058
*CONN
*I *3026:A I *D sky130_fd_sc_hd__nand2_2
*I *3024:A I *D sky130_fd_sc_hd__nor2_8
*I *3025:A I *D sky130_fd_sc_hd__and2_4
*I *3148:X O *D sky130_fd_sc_hd__clkdlybuf4s25_1
*CAP
1 *3026:A 0.000119315
2 *3024:A 0
3 *3025:A 0.000165165
4 *3148:X 4.16951e-05
5 *545:10 0.000269773
6 *545:8 0.000265618
7 *3025:A *3027:C 0.000107341
8 *3025:A *588:10 0.000215282
9 *545:10 *3027:C 0.000206116
10 *2828:A *545:8 2.87867e-05
11 *2828:A *545:10 1.65192e-05
12 *3026:B *3026:A 3.70488e-05
13 *3027:A_N *3025:A 2.24852e-05
14 *3027:A_N *3026:A 8.65905e-05
15 *3027:A_N *545:10 7.67378e-05
16 *3027:B *3026:A 9.80943e-06
17 *3028:A1 *3025:A 4.49134e-05
18 *3148:A *545:8 0
19 *3148:A *545:10 0
20 *459:32 *3025:A 1.73877e-05
*RES
1 *3148:X *545:8 4.47 
2 *545:8 *545:10 2.91 
3 *545:10 *3025:A 7.98 
4 *545:10 *3024:A 3.6 
5 *545:8 *3026:A 5.805 
*END

*D_NET *546 0.00191798
*CONN
*I *2796:B I *D sky130_fd_sc_hd__nor2_4
*I *2798:B I *D sky130_fd_sc_hd__nand2_2
*I *2797:B I *D sky130_fd_sc_hd__and2_4
*I *3149:X O *D sky130_fd_sc_hd__clkdlybuf4s25_1
*CAP
1 *2796:B 0.000147319
2 *2798:B 6.26319e-05
3 *2797:B 0
4 *3149:X 0.00025902
5 *546:14 0.000146001
6 *546:10 0.000489708
7 *2798:B *547:6 3.90495e-05
8 *2798:B *599:10 0.000200615
9 *546:14 *547:6 0.000241483
10 *546:14 *599:10 0.000204748
11 *2796:A *2796:B 4.18603e-06
12 *2798:A *2798:B 0.000123225
13 *2800:A2 *2796:B 0
14 *458:23 *2796:B 0
*RES
1 *3149:X *546:10 6.81 
2 *546:10 *546:14 5.21 
3 *546:14 *2797:B 1.6 
4 *546:14 *2798:B 4.15 
5 *546:10 *2796:B 6 
*END

*D_NET *547 0.00301975
*CONN
*I *2806:B I *D sky130_fd_sc_hd__nand2_2
*I *2805:B I *D sky130_fd_sc_hd__and2_4
*I *2804:B I *D sky130_fd_sc_hd__nor2_4
*I *3150:X O *D sky130_fd_sc_hd__clkdlybuf4s25_1
*CAP
1 *2806:B 0.000104976
2 *2805:B 8.8297e-05
3 *2804:B 0
4 *3150:X 0.000774732
5 *547:12 0.000210994
6 *547:6 0.0010024
7 *547:12 *572:60 0.00012819
8 *2798:A *547:6 0.00012657
9 *2798:B *547:6 3.90495e-05
10 *2799:B *547:6 1.33293e-05
11 *262:10 *2805:B 8.8266e-05
12 *458:51 *547:12 4.18603e-06
13 *458:55 *2805:B 0.000197269
14 *546:14 *547:6 0.000241483
*RES
1 *3150:X *547:6 13.435 
2 *547:6 *547:12 6.655 
3 *547:12 *2804:B 1.6 
4 *547:12 *2805:B 3.775 
5 *547:6 *2806:B 3.1 
*END

*D_NET *548 0.0040342
*CONN
*I *2819:B I *D sky130_fd_sc_hd__and2_2
*I *2818:B I *D sky130_fd_sc_hd__nor2_2
*I *3151:X O *D sky130_fd_sc_hd__clkdlybuf4s25_1
*CAP
1 *2819:B 0
2 *2818:B 2.80837e-05
3 *3151:X 0.00106484
4 *548:12 0.00109292
5 *548:12 *2891:B 0.000162325
6 *548:12 *3197:A 0
7 *548:12 *552:10 0
8 *548:12 *554:14 0.000110683
9 *548:12 *554:16 0.000203002
10 *2818:A *2818:B 0.000241483
11 *2818:A *548:12 7.49327e-05
12 *2892:A *548:12 0.000189426
13 *2897:B *548:12 0
14 *2901:B *548:12 0
15 *3187:A *548:12 0
16 *337:23 *548:12 4.19967e-05
17 *339:6 *2818:B 0.000241483
18 *339:6 *548:12 0.000464505
19 *347:10 *548:12 0
20 *463:84 *548:12 0
21 *474:46 *548:12 0.00011852
*RES
1 *3151:X *548:12 27.545 
2 *548:12 *2818:B 3.775 
3 *548:12 *2819:B 1.6 
*END

*D_NET *549 0.00558432
*CONN
*I *2751:B I *D sky130_fd_sc_hd__nand2_2
*I *2749:A_N I *D sky130_fd_sc_hd__nand2b_4
*I *2752:B I *D sky130_fd_sc_hd__nor2_2
*I *2750:B I *D sky130_fd_sc_hd__nand2_4
*I *3152:X O *D sky130_fd_sc_hd__clkdlybuf4s25_1
*CAP
1 *2751:B 0.000292488
2 *2749:A_N 0
3 *2752:B 0.00028318
4 *2750:B 2.08101e-05
5 *3152:X 0.000580145
6 *549:16 0.000489669
7 *549:12 0.000373349
8 *549:8 0.0010603
9 *2752:B *2725:A2 0.000387902
10 *549:12 *564:10 0
11 *2725:B1_N *2752:B 7.32509e-05
12 *2726:B1 *2752:B 0
13 *2755:B *549:12 1.07797e-05
14 *2755:B *549:16 0.000118294
15 *2756:A2 *2751:B 3.99039e-05
16 *2763:B *549:8 8.8266e-05
17 *2988:A2 *2751:B 2.67275e-05
18 *3102:A *2752:B 1.73877e-05
19 *3117:A *549:16 0.000308236
20 *3134:A *2752:B 0.000185176
21 *3152:A *549:8 0.000576848
22 *3258:A *2751:B 6.03436e-05
23 *212:10 *2751:B 7.30547e-05
24 *212:10 *2752:B 2.75229e-05
25 *212:10 *549:12 9.14049e-05
26 *212:21 *2751:B 0.00010596
27 *215:8 *2751:B 0
28 *215:8 *549:12 0
29 *215:29 *2751:B 5.53249e-06
30 *456:6 *2752:B 4.82863e-05
31 *457:67 *2752:B 7.35729e-05
32 *473:12 *549:12 0.000139933
33 *531:21 *2752:B 2.59981e-05
*RES
1 *3152:X *549:8 11.295 
2 *549:8 *549:12 5.42 
3 *549:12 *549:16 4.26 
4 *549:16 *2750:B 1.96 
5 *549:16 *2752:B 12.785 
6 *549:12 *2749:A_N 1.6 
7 *549:8 *2751:B 8.64 
*END

*D_NET *550 0.00169236
*CONN
*I *2828:B I *D sky130_fd_sc_hd__and2_4
*I *2831:A2 I *D sky130_fd_sc_hd__a21oi_2
*I *2830:A2 I *D sky130_fd_sc_hd__o21ai_4
*I *2829:B I *D sky130_fd_sc_hd__nor2_2
*I *3153:X O *D sky130_fd_sc_hd__clkdlybuf4s25_1
*CAP
1 *2828:B 0.000166326
2 *2831:A2 0
3 *2830:A2 0
4 *2829:B 0.00025807
5 *3153:X 0.000114658
6 *550:35 0.000200771
7 *550:12 0.000338284
8 *2828:A *2828:B 1.73877e-05
9 *2828:A *550:12 5.72091e-05
10 *2830:A1 *2828:B 8.57024e-05
11 *2830:A1 *550:12 6.74079e-05
12 *2830:A1 *550:35 8.8266e-05
13 *2832:A2 *2829:B 4.66108e-05
14 *3118:A *550:12 0
15 *284:10 *2828:B 0
16 *286:12 *2828:B 4.43871e-06
17 *286:12 *2829:B 3.72916e-05
18 *460:6 *2828:B 7.23635e-05
19 *460:41 *2828:B 0
20 *484:10 *2828:B 0.000137571
*RES
1 *3153:X *550:12 7.685 
2 *550:12 *2829:B 5.53 
3 *550:12 *2830:A2 1.6 
4 *3153:X *550:35 2.395 
5 *550:35 *2831:A2 1.6 
6 *550:35 *2828:B 9.23 
*END

*D_NET *551 0.00241153
*CONN
*I *2846:A2 I *D sky130_fd_sc_hd__o21ai_2
*I *2843:B I *D sky130_fd_sc_hd__and2_4
*I *2842:B I *D sky130_fd_sc_hd__nor2_2
*I *2847:A2 I *D sky130_fd_sc_hd__a21oi_2
*I *3154:X O *D sky130_fd_sc_hd__clkdlybuf4s25_1
*CAP
1 *2846:A2 2.96407e-05
2 *2843:B 0.000152076
3 *2842:B 0
4 *2847:A2 0.000127512
5 *3154:X 0.000520381
6 *551:23 0.000232353
7 *551:8 0.000207789
8 *551:6 0.000550021
9 *2843:A *2843:B 0.000225854
10 *2843:A *551:23 8.53113e-06
11 *2847:A1 *2847:A2 2.86975e-05
12 *460:45 *2847:A2 0.000143266
13 *460:54 *2847:A2 3.09164e-05
14 *460:54 *551:23 0.000154488
*RES
1 *3154:X *551:6 9.295 
2 *551:6 *551:8 2 
3 *551:8 *2847:A2 6.3 
4 *551:8 *551:23 1.89 
5 *551:23 *2842:B 3.6 
6 *551:23 *2843:B 6.795 
7 *551:6 *2846:A2 2.05 
*END

*D_NET *552 0.00181667
*CONN
*I *2860:B I *D sky130_fd_sc_hd__nand2_2
*I *2859:B I *D sky130_fd_sc_hd__and2_4
*I *2858:B I *D sky130_fd_sc_hd__nor2_4
*I *3155:X O *D sky130_fd_sc_hd__clkdlybuf4s25_1
*CAP
1 *2860:B 0
2 *2859:B 0.000206819
3 *2858:B 0.000114314
4 *3155:X 6.62719e-05
5 *552:14 0.000375709
6 *552:10 0.000120848
7 *2858:B *3198:A 0.000154451
8 *2859:B *3197:A 2.97004e-06
9 *2859:B *3198:A 0
10 *552:14 *3198:A 0
11 S[18] *2859:B 0.000298374
12 S[18] *552:10 6.47516e-05
13 S[19] *2858:B 5.30673e-05
14 *2858:A *2858:B 4.63914e-05
15 *2858:A *552:14 5.60949e-05
16 *2861:B *2858:B 0.000129109
17 *2861:B *552:14 6.38806e-05
18 *3120:A *2859:B 0
19 *312:6 *2858:B 4.82863e-05
20 *463:71 *2859:B 5.83121e-06
21 *463:84 *2859:B 0
22 *463:84 *552:10 9.50342e-06
23 *548:12 *552:10 0
*RES
1 *3155:X *552:10 6.98 
2 *552:10 *552:14 1.5 
3 *552:14 *2858:B 5.275 
4 *552:14 *2859:B 9.98 
5 *552:10 *2860:B 1.6 
*END

*D_NET *553 0.00374136
*CONN
*I *2869:B I *D sky130_fd_sc_hd__and2_4
*I *2868:B I *D sky130_fd_sc_hd__nor2_2
*I *2872:A2 I *D sky130_fd_sc_hd__o21ai_2
*I *2873:A2 I *D sky130_fd_sc_hd__a21o_2
*I *3156:X O *D sky130_fd_sc_hd__clkdlybuf4s25_1
*CAP
1 *2869:B 1.48514e-05
2 *2868:B 0.000335656
3 *2872:A2 0
4 *2873:A2 0.000182287
5 *3156:X 0.000595899
6 *553:16 0.000268811
7 *553:12 0.000575642
8 *553:8 0.000764213
9 *553:8 *3198:A 0
10 *553:12 *3198:A 0
11 *2862:A2 *553:8 0
12 *2863:A1 *553:8 0
13 *2870:A1 *2868:B 1.91597e-05
14 *2870:B1_N *553:16 5.05437e-05
15 *2871:B1_N *553:16 4.00541e-06
16 *2872:A1 *2869:B 4.82919e-05
17 *2872:A1 *553:12 0
18 *2875:A1 *2869:B 8.65961e-05
19 *2884:A1 *2873:A2 0
20 *3120:A *553:8 0
21 *312:17 *553:8 0
22 *321:8 *2868:B 0.000239813
23 *324:6 *553:16 0.000198046
24 *325:6 *2873:A2 2.30292e-05
25 *462:10 *2873:A2 5.16418e-05
26 *462:10 *553:8 0
27 *462:10 *553:12 0
28 *463:45 *2869:B 4.99619e-05
29 *507:19 *2873:A2 0.000163199
30 *507:19 *553:16 6.97118e-05
*RES
1 *3156:X *553:8 13.14 
2 *553:8 *553:12 4.145 
3 *553:12 *553:16 2.535 
4 *553:16 *2873:A2 8.405 
5 *553:16 *2872:A2 1.6 
6 *553:12 *2868:B 7.165 
7 *553:8 *2869:B 4.395 
*END

*D_NET *554 0.00232728
*CONN
*I *2892:B I *D sky130_fd_sc_hd__and2_2
*I *2893:B I *D sky130_fd_sc_hd__nand2_2
*I *2891:B I *D sky130_fd_sc_hd__nor2_2
*I *3157:X O *D sky130_fd_sc_hd__clkdlybuf4s25_1
*CAP
1 *2892:B 0
2 *2893:B 0
3 *2891:B 5.1072e-05
4 *3157:X 0.000524118
5 *554:16 0.000113957
6 *554:14 0.000587003
7 *554:14 *3205:A 0.0001249
8 S[25] *554:14 1.17309e-05
9 *2894:A_N *554:14 4.18603e-06
10 *2894:A_N *554:16 8.26527e-05
11 *3122:A *554:14 8.8266e-05
12 *3157:A *554:14 0.000106107
13 *343:10 *2891:B 6.64979e-05
14 *343:10 *554:16 4.18603e-06
15 *509:12 *554:14 8.65961e-05
16 *509:18 *554:14 0
17 *548:12 *2891:B 0.000162325
18 *548:12 *554:14 0.000110683
19 *548:12 *554:16 0.000203002
*RES
1 *3157:X *554:14 12.36 
2 *554:14 *554:16 2.4 
3 *554:16 *2891:B 5.49 
4 *554:16 *2893:B 3.6 
5 *554:14 *2892:B 3.6 
*END

*D_NET *555 0.00218752
*CONN
*I *3041:C I *D sky130_fd_sc_hd__nand3b_4
*I *3040:B1_N I *D sky130_fd_sc_hd__o21bai_4
*I *3158:X O *D sky130_fd_sc_hd__clkdlybuf4s25_1
*CAP
1 *3041:C 3.99841e-05
2 *3040:B1_N 4.86174e-05
3 *3158:X 0.000278092
4 *555:10 0.000366694
5 *3038:B *3040:B1_N 0.000160635
6 *3039:B *555:10 7.82935e-05
7 *3040:A2 *3040:B1_N 0.000234674
8 *3041:B *3041:C 0.000162325
9 *3041:B *555:10 0.000358703
10 *3043:A *555:10 5.6361e-05
11 *119:16 *3041:C 0.000153794
12 *119:16 *555:10 0.000167
13 *541:25 *3040:B1_N 8.23457e-05
*RES
1 *3158:X *555:10 9.45 
2 *555:10 *3040:B1_N 5.775 
3 *555:10 *3041:C 5.49 
*END

*D_NET *556 0.00233074
*CONN
*I *2905:A2 I *D sky130_fd_sc_hd__o21ai_2
*I *2903:B I *D sky130_fd_sc_hd__and2_4
*I *2906:A2 I *D sky130_fd_sc_hd__a21o_2
*I *2902:B I *D sky130_fd_sc_hd__nor2_2
*I *3159:X O *D sky130_fd_sc_hd__clkdlybuf4s25_1
*CAP
1 *2905:A2 0.00020036
2 *2903:B 5.66328e-05
3 *2906:A2 0.000181127
4 *2902:B 4.4569e-05
5 *3159:X 0.000131014
6 *556:22 0.000409046
7 *556:20 0.000458091
8 *2905:A2 *3206:A 0
9 *556:22 *3206:A 0
10 *2904:A1 *2902:B 4.82863e-05
11 *2904:A1 *556:20 4.58257e-05
12 *2904:A2 *556:22 0
13 *2905:A1 *2905:A2 0.000188007
14 *2906:B1 *2906:A2 0
15 *3123:A *2905:A2 0.000122337
16 *3159:A *2905:A2 0
17 *3159:A *556:22 0
18 *356:8 *556:22 0
19 *474:38 *2906:A2 0.000323061
20 *474:38 *556:22 1.22762e-05
21 *513:6 *2905:A2 0.000110107
*RES
1 *3159:X *2902:B 3.995 
2 *3159:X *556:20 4.74 
3 *556:20 *556:22 2.91 
4 *556:22 *2906:A2 7.755 
5 *556:22 *2903:B 4.395 
6 *556:20 *2905:A2 8.46 
*END

*D_NET *557 0.00131678
*CONN
*I *2916:B I *D sky130_fd_sc_hd__and2_2
*I *2915:B I *D sky130_fd_sc_hd__nor2_2
*I *3160:X O *D sky130_fd_sc_hd__clkdlybuf4s25_1
*CAP
1 *2916:B 0
2 *2915:B 8.4081e-05
3 *3160:X 0.000279137
4 *557:12 0.000363218
5 *474:14 *557:12 0.000433003
6 *474:20 *2915:B 0.000118294
7 *474:20 *557:12 3.90495e-05
*RES
1 *3160:X *557:12 11.57 
2 *557:12 *2915:B 3.43 
3 *557:12 *2916:B 1.6 
*END

*D_NET *558 0.00176311
*CONN
*I *2924:B I *D sky130_fd_sc_hd__and2_4
*I *2923:B I *D sky130_fd_sc_hd__nor2_2
*I *3161:X O *D sky130_fd_sc_hd__clkdlybuf4s25_1
*CAP
1 *2924:B 0
2 *2923:B 0.00012477
3 *3161:X 0.000573941
4 *558:6 0.000698711
5 *2923:A *2923:B 0.000162325
6 *2924:A *2923:B 9.66106e-05
7 *2924:A *558:6 2.30292e-05
8 *2926:A *2923:B 5.53249e-06
9 *372:8 *2923:B 7.81876e-05
*RES
1 *3161:X *558:6 10.33 
2 *558:6 *2923:B 8.975 
3 *558:6 *2924:B 1.6 
*END

*D_NET *559 0.00460978
*CONN
*I *2935:B I *D sky130_fd_sc_hd__nor2_2
*I *2936:B I *D sky130_fd_sc_hd__and2_2
*I *3162:X O *D sky130_fd_sc_hd__clkdlybuf4s25_1
*CAP
1 *2935:B 3.55506e-05
2 *2936:B 0.000150049
3 *3162:X 0.00170555
4 *559:12 0.00189115
5 *559:12 *3192:A 2.05056e-05
6 *2792:B *2936:B 0.000164686
7 *2935:A *559:12 0.00016569
8 *2939:B *2936:B 7.89689e-05
9 *3043:A *559:12 8.71001e-05
10 *3045:B1 *559:12 0
11 *3250:A *559:12 0.000226513
12 *383:6 *2936:B 8.40213e-05
13 *383:17 *2936:B 0
*RES
1 *3162:X *559:12 30.71 
2 *559:12 *2936:B 8.975 
3 *559:12 *2935:B 2.215 
*END

*D_NET *560 0.00671966
*CONN
*I *2953:B I *D sky130_fd_sc_hd__and2_2
*I *2952:B I *D sky130_fd_sc_hd__nor2_2
*I *3163:X O *D sky130_fd_sc_hd__clkdlybuf4s25_1
*CAP
1 *2953:B 0.000281924
2 *2952:B 7.95201e-05
3 *3163:X 0.00133699
4 *560:14 0.00169843
5 *560:14 *2731:B 0.000319174
6 *560:14 *565:16 0.000278117
7 *2726:B1 *560:14 0.000810588
8 *2728:C *560:14 0.000138551
9 *2731:A *560:14 8.09021e-06
10 *2954:A *2953:B 4.82863e-05
11 *2954:B *2953:B 1.14511e-05
12 *2996:B1 *560:14 0.000116158
13 *3128:A *560:14 0.000184382
14 *3134:A *560:14 0
15 *399:8 *2953:B 6.55328e-05
16 *400:6 *2953:B 1.33293e-05
17 *401:10 *2953:B 8.48869e-05
18 *449:52 *560:14 0.000636626
19 *456:38 *560:14 0.00012381
20 *521:14 *2953:B 0
21 *521:14 *560:14 0.000483819
*RES
1 *3163:X *560:14 36.87 
2 *560:14 *2952:B 4.74 
3 *560:14 *2953:B 8.46 
*END

*D_NET *561 0.00474982
*CONN
*I *2764:B I *D sky130_fd_sc_hd__nor2_2
*I *2767:A2 I *D sky130_fd_sc_hd__o21ai_4
*I *2765:B I *D sky130_fd_sc_hd__and2_4
*I *3164:X O *D sky130_fd_sc_hd__clkdlybuf4s25_1
*CAP
1 *2764:B 0
2 *2767:A2 0.000122999
3 *2765:B 0.000119362
4 *3164:X 0.00145288
5 *561:12 0.000364139
6 *561:10 0.00157466
7 *2765:B *572:60 0.000227536
8 *561:10 *572:60 0.000109009
9 *561:12 *572:60 0.000333723
10 *2767:B1 *2767:A2 8.49205e-05
11 *2775:A1 *561:12 3.04982e-05
12 *2993:B *561:10 0
13 *2993:B *561:12 0
14 *225:40 *2765:B 0.000112971
15 *225:40 *561:12 6.55406e-05
16 *453:36 *2765:B 0.000151575
*RES
1 *3164:X *561:10 19.92 
2 *561:10 *561:12 3.93 
3 *561:12 *2765:B 7.395 
4 *561:12 *2767:A2 5.445 
5 *561:10 *2764:B 3.6 
*END

*D_NET *562 0.000527993
*CONN
*I *2962:B I *D sky130_fd_sc_hd__and2_2
*I *2961:B I *D sky130_fd_sc_hd__nor2_2
*I *3165:X O *D sky130_fd_sc_hd__clkdlybuf4s25_1
*CAP
1 *2962:B 0.000126391
2 *2961:B 5.58321e-05
3 *3165:X 0.000182223
4 *2962:B *3211:A 0.000124895
5 *2962:A *2962:B 0
6 *408:10 *2962:B 3.86529e-05
*RES
1 *3165:X *2961:B 3.995 
2 *3165:X *2962:B 9.72 
*END

*D_NET *563 0.00110697
*CONN
*I *2976:B I *D sky130_fd_sc_hd__xor2_2
*I *3166:X O *D sky130_fd_sc_hd__clkdlybuf4s25_1
*CAP
1 *2976:B 0.000478172
2 *3166:X 0.000478172
3 *2976:B *3220:A 0
4 carryOut *2976:B 0.000150623
5 *2977:B *2976:B 0
6 *3021:A1_N *2976:B 0
7 *3131:A *2976:B 0
8 *421:10 *2976:B 0
9 *528:8 *2976:B 0
*RES
1 *3166:X *2976:B 13.1 
*END

*D_NET *564 0.0070205
*CONN
*I *2772:A2 I *D sky130_fd_sc_hd__a21o_2
*I *2769:B I *D sky130_fd_sc_hd__and2_4
*I *2771:A2 I *D sky130_fd_sc_hd__o21ai_4
*I *2770:B I *D sky130_fd_sc_hd__nor2_2
*I *3167:X O *D sky130_fd_sc_hd__clkdlybuf4s25_1
*CAP
1 *2772:A2 0.000414209
2 *2769:B 0
3 *2771:A2 8.10115e-05
4 *2770:B 0
5 *3167:X 0.00146229
6 *564:29 0.000226184
7 *564:14 0.00029726
8 *564:10 0.00202859
9 *564:10 *567:18 8.53113e-06
10 S[0] *564:10 7.68414e-06
11 *2753:B *564:10 0.000288989
12 *2771:A1 *2771:A2 3.74161e-05
13 *2772:A1 *2771:A2 4.66108e-05
14 *2772:A1 *2772:A2 0.000283304
15 *2773:A2 *2772:A2 0
16 *2773:B1_N *2772:A2 9.66021e-05
17 *2786:A1 *564:10 3.3075e-05
18 *2787:A1 *2772:A2 0
19 *2789:B2 *2772:A2 0
20 *3117:A *564:10 3.18137e-05
21 *3140:A *564:10 9.51101e-05
22 *3152:A *564:10 1.65105e-05
23 *3167:A *564:10 0.000291812
24 *3170:A *564:10 2.30292e-05
25 *212:10 *564:10 5.64143e-05
26 *229:10 *2771:A2 0.000164686
27 *229:10 *564:29 9.10587e-05
28 *233:10 *2772:A2 1.61831e-05
29 *455:59 *564:29 2.97004e-06
30 *455:70 *2771:A2 8.53113e-06
31 *455:70 *564:29 4.91758e-05
32 *455:81 *2771:A2 0.000154488
33 *522:10 *564:10 0.000216318
34 *529:10 *2772:A2 0
35 *529:10 *564:10 0
36 *529:10 *564:29 0.000210846
37 *530:14 *564:10 0.000279787
38 *549:12 *564:10 0
*RES
1 *3167:X *564:10 27.36 
2 *564:10 *564:14 4.175 
3 *564:14 *2770:B 1.6 
4 *564:14 *564:29 7.645 
5 *564:29 *2771:A2 8.285 
6 *564:29 *2769:B 1.6 
7 *564:10 *2772:A2 12.165 
*END

*D_NET *565 0.00657482
*CONN
*I *2732:B I *D sky130_fd_sc_hd__nand2_2
*I *2731:B I *D sky130_fd_sc_hd__and2_2
*I *2733:A_N I *D sky130_fd_sc_hd__nand2b_2
*I *2735:A2 I *D sky130_fd_sc_hd__a21oi_2
*I *2734:A2 I *D sky130_fd_sc_hd__o21ai_2
*I *3168:X O *D sky130_fd_sc_hd__clkdlybuf4s25_1
*CAP
1 *2732:B 9.59172e-05
2 *2731:B 8.9484e-05
3 *2733:A_N 3.55506e-05
4 *2735:A2 0
5 *2734:A2 0
6 *3168:X 0.000859724
7 *565:42 0.000327583
8 *565:40 0.000524322
9 *565:27 0.000364896
10 *565:16 0.000998764
11 *565:16 *3215:A 0.000167667
12 S[5] *565:16 4.99619e-05
13 *2731:A *2731:B 0.000180379
14 *2734:B1 *565:16 0
15 *2738:B1 *2732:B 0.000160665
16 *2994:A1 *565:27 0
17 *2994:A1 *565:40 0
18 *2996:A1 *2733:A_N 0
19 *2996:A1 *565:42 4.66108e-05
20 *2996:A2 *565:42 2.49909e-05
21 *2996:B1 *565:40 2.20732e-05
22 *2996:B1 *565:42 1.78166e-05
23 *2996:B2 *565:40 5.83121e-06
24 *2999:B *565:16 0.00031207
25 *3102:A *565:16 9.66021e-05
26 *3128:A *565:16 0
27 *3133:A *565:16 0.000341293
28 *3163:A *565:16 0.00011577
29 *3168:A *565:16 9.80943e-06
30 *186:12 *565:16 0.000132498
31 *193:12 *565:42 5.0704e-05
32 *194:10 *565:16 2.65814e-06
33 *449:40 *2732:B 4.41506e-05
34 *456:19 *565:16 0.000269274
35 *456:67 *565:16 0.00013521
36 *457:101 *2732:B 0.000160665
37 *457:101 *565:16 0.000107658
38 *457:101 *565:27 0.00010506
39 *457:101 *565:40 0.000121876
40 *521:14 *565:16 0
41 *560:14 *2731:B 0.000319174
42 *560:14 *565:16 0.000278117
*RES
1 *3168:X *565:16 26.375 
2 *565:16 *2734:A2 1.6 
3 *565:16 *565:27 4.595 
4 *565:27 *2735:A2 3.6 
5 *565:27 *565:40 5.795 
6 *565:40 *565:42 2.865 
7 *565:42 *2733:A_N 2.215 
8 *565:42 *2731:B 9.275 
9 *565:40 *2732:B 8.285 
*END

*D_NET *566 0.00595616
*CONN
*I *3050:B1_N I *D sky130_fd_sc_hd__o21bai_4
*I *3048:A2 I *D sky130_fd_sc_hd__a22oi_2
*I *3053:A1 I *D sky130_fd_sc_hd__o21ai_2
*I *3052:A1 I *D sky130_fd_sc_hd__o21a_2
*I *3036:B1 I *D sky130_fd_sc_hd__o21ai_2
*I *3169:X O *D sky130_fd_sc_hd__clkdlybuf4s25_1
*CAP
1 *3050:B1_N 0
2 *3048:A2 1.85694e-05
3 *3053:A1 0.000250438
4 *3052:A1 0.000200053
5 *3036:B1 0.000115808
6 *3169:X 0.000720857
7 *566:43 0.000547098
8 *566:37 0.000423081
9 *566:18 0.000561997
10 *566:12 0.000859142
11 *3018:B *3036:B1 1.22762e-05
12 *3035:A *3053:A1 8.09753e-05
13 *3036:A1 *3036:B1 0.00021934
14 *3036:A1 *566:18 0.000116853
15 *3048:A1 *3053:A1 3.9442e-05
16 *3048:A1 *566:43 6.36656e-05
17 *3048:B1 *3048:A2 0
18 *3048:B2 *3048:A2 0
19 *3048:B2 *566:37 0
20 *3049:A1 *3036:B1 3.27239e-05
21 *3050:A1 *3053:A1 0.000138551
22 *3052:A2 *3052:A1 0.000106908
23 *3052:B1 *3052:A1 2.75145e-05
24 *3053:A2 *3053:A1 6.52252e-05
25 *3053:B1 *3053:A1 0
26 *3186:A *566:12 3.09179e-05
27 *3236:A *566:18 4.66108e-05
28 *3244:A *3052:A1 4.82863e-05
29 *110:16 *566:12 1.32843e-05
30 *112:10 *3053:A1 4.21314e-05
31 *113:17 *3053:A1 7.1301e-06
32 *114:6 *3036:B1 4.82919e-05
33 *118:14 *566:37 0.000119756
34 *118:20 *566:37 0.000119762
35 *129:12 *566:12 9.66106e-05
36 *129:28 *3036:B1 8.65961e-05
37 *129:43 *3053:A1 0
38 *129:43 *566:43 0
39 *136:10 *566:37 2.44101e-05
40 *136:10 *566:43 1.4399e-05
41 *470:8 *566:12 1.03323e-05
42 *470:10 *566:12 4.91927e-05
43 *470:16 *566:12 2.97004e-06
44 *471:8 *566:18 0.000194694
45 *472:12 *566:12 3.64998e-06
46 *474:14 *566:12 1.7386e-05
47 *492:8 *566:12 5.4256e-05
48 *492:10 *3036:B1 5.12944e-06
49 *542:18 *3036:B1 0.000209855
50 *542:18 *566:18 0.000109989
*RES
1 *3169:X *566:12 14.93 
2 *566:12 *566:18 5.555 
3 *566:18 *3036:B1 7.56 
4 *566:18 *566:37 6.02 
5 *566:37 *566:43 3.83 
6 *566:43 *3052:A1 7.17 
7 *566:43 *3053:A1 8.625 
8 *566:37 *3048:A2 1.96 
9 *566:12 *3050:B1_N 1.6 
*END

*D_NET *567 0.00963812
*CONN
*I *2726:A2 I *D sky130_fd_sc_hd__o21ai_4
*I *2724:A2 I *D sky130_fd_sc_hd__o21a_2
*I *2722:B I *D sky130_fd_sc_hd__nand2b_2
*I *2727:A2 I *D sky130_fd_sc_hd__a21oi_2
*I *2723:B I *D sky130_fd_sc_hd__nand2_2
*I *2721:A_N I *D sky130_fd_sc_hd__nand2b_4
*I *2725:A2 I *D sky130_fd_sc_hd__a21boi_2
*I *3170:X O *D sky130_fd_sc_hd__clkdlybuf4s25_1
*CAP
1 *2726:A2 0.000187555
2 *2724:A2 6.54123e-05
3 *2722:B 0.000779257
4 *2727:A2 0
5 *2723:B 2.43002e-05
6 *2721:A_N 6.69071e-05
7 *2725:A2 0.00034013
8 *3170:X 0.000747829
9 *567:72 0.000889842
10 *567:70 0.000347521
11 *567:59 0.000244091
12 *567:44 0.000211057
13 *567:31 0.000262201
14 *567:18 0.00122579
15 *2722:A_N *2721:A_N 0
16 *2722:A_N *2722:B 0.000232698
17 *2724:B1 *2724:A2 4.82919e-05
18 *2727:A1 *567:72 0
19 *2729:A2 *567:70 2.20732e-05
20 *2752:B *2725:A2 0.000387902
21 *2755:C *567:18 5.53249e-06
22 *2755:C *567:31 0.00010844
23 *2780:C *2723:B 2.75145e-05
24 *2780:C *567:44 7.89767e-05
25 *2780:C *567:59 2.4997e-05
26 *2994:A1 *567:59 3.7445e-05
27 *2994:A1 *567:70 0.000354719
28 *2998:A1 *2722:B 4.01778e-05
29 *2998:A2 *2722:B 0.000155066
30 *2998:B1 *2722:B 9.95239e-05
31 *3023:A *2722:B 4.99619e-05
32 *3117:A *567:18 5.83373e-05
33 *3132:A *2721:A_N 4.66108e-05
34 *3132:A *567:18 3.26822e-05
35 *3132:A *567:31 6.57032e-05
36 *3132:A *567:44 8.08153e-06
37 *3167:A *567:18 0.000622848
38 *181:6 *2722:B 2.7441e-05
39 *187:10 *2722:B 5.43211e-05
40 *187:10 *2724:A2 4.35348e-05
41 *187:10 *567:70 0.000163199
42 *187:10 *567:72 1.7396e-05
43 *455:8 *567:31 0.000201393
44 *455:8 *567:44 7.47215e-05
45 *455:18 *2721:A_N 2.8694e-05
46 *455:46 *567:44 0.000109016
47 *455:46 *567:59 8.53113e-06
48 *455:59 *567:59 0.000172852
49 *456:6 *2725:A2 0.000134314
50 *456:19 *2725:A2 2.30292e-05
51 *456:25 *2726:A2 8.34139e-05
52 *456:38 *2726:A2 2.23922e-05
53 *457:61 *567:59 6.58423e-05
54 *457:61 *567:70 1.03323e-05
55 *529:10 *567:59 0
56 *530:14 *2726:A2 0
57 *530:14 *567:18 0.000394681
58 *530:14 *567:31 9.50036e-05
59 *530:14 *567:72 0
60 *531:40 *2722:B 0
61 *531:40 *567:70 0
62 *564:10 *567:18 8.53113e-06
*RES
1 *3170:X *567:18 18.94 
2 *567:18 *2725:A2 9.93 
3 *567:18 *567:31 4.44 
4 *567:31 *2721:A_N 4.755 
5 *567:31 *567:44 2.145 
6 *567:44 *2723:B 4.05 
7 *567:44 *567:59 5.285 
8 *567:59 *2727:A2 1.6 
9 *567:59 *567:70 5.825 
10 *567:70 *567:72 0.87 
11 *567:72 *2722:B 15.18 
12 *567:72 *2724:A2 4.74 
13 *567:70 *2726:A2 6.48 
*END

*D_NET *568 0.00317196
*CONN
*I *2719:A2 I *D sky130_fd_sc_hd__a21o_2
*I *3097:B I *D sky130_fd_sc_hd__nand2_2
*I *3098:B I *D sky130_fd_sc_hd__and2_2
*I *3100:A2 I *D sky130_fd_sc_hd__o21ai_2
*I *3096:A_N I *D sky130_fd_sc_hd__nand2b_4
*I *3171:X O *D sky130_fd_sc_hd__clkdlybuf4s25_1
*CAP
1 *2719:A2 5.50563e-05
2 *3097:B 5.93418e-05
3 *3098:B 0
4 *3100:A2 6.04155e-05
5 *3096:A_N 1.85694e-05
6 *3171:X 7.56244e-05
7 *568:34 0.000149075
8 *568:19 0.000186693
9 *568:10 0.000446038
10 *568:6 0.000521605
11 *2719:A2 *3214:A 9.54399e-05
12 *3098:A *3096:A_N 9.53428e-06
13 *3098:A *568:10 0.000221525
14 *3098:A *568:19 9.21168e-05
15 *3098:A *568:34 0.00015482
16 *3100:B1 *3100:A2 7.63125e-05
17 *3171:A *568:10 0.000237243
18 *3182:A *3100:A2 4.43871e-06
19 *176:10 *3097:B 4.60584e-05
20 *176:10 *3100:A2 4.19797e-05
21 *176:10 *568:19 0.000124895
22 *176:10 *568:34 0.000347029
23 *177:10 *2719:A2 0
24 *475:10 *3100:A2 0
25 *475:21 *3097:B 0.000122155
26 *475:21 *568:34 2.59926e-05
*RES
1 *3171:X *568:6 2.395 
2 *568:6 *568:10 6.675 
3 *568:10 *3096:A_N 1.96 
4 *568:10 *568:19 1.485 
5 *568:19 *3100:A2 7.235 
6 *568:19 *568:34 3.57 
7 *568:34 *3098:B 1.6 
8 *568:34 *3097:B 3.43 
9 *568:6 *2719:A2 6.725 
*END

*D_NET *569 0.00614063
*CONN
*I *2740:B I *D sky130_fd_sc_hd__and2_4
*I *2744:A2 I *D sky130_fd_sc_hd__o21ai_2
*I *2742:A2 I *D sky130_fd_sc_hd__a21boi_2
*I *2743:A2 I *D sky130_fd_sc_hd__a21bo_2
*I *2739:B I *D sky130_fd_sc_hd__nor2_2
*I *3172:X O *D sky130_fd_sc_hd__clkdlybuf4s25_1
*CAP
1 *2740:B 0
2 *2744:A2 0.000107696
3 *2742:A2 0
4 *2743:A2 0.000129751
5 *2739:B 0.000297483
6 *3172:X 0.000433253
7 *569:47 0.000450036
8 *569:25 0.000385507
9 *569:21 0.000682964
10 *569:10 0.000815604
11 *2741:A1 *569:47 4.82863e-05
12 *2742:A1 *2743:A2 6.42896e-05
13 *2743:A1 *2743:A2 0.000118081
14 *2743:B1_N *2743:A2 4.66108e-05
15 *2744:B1 *2743:A2 8.65961e-05
16 *3003:A *569:21 0
17 *3003:B *569:10 0.000209179
18 *3003:B *569:21 0.000177568
19 *3003:B *569:47 2.07184e-05
20 *3004:A2 *569:10 0.000139231
21 *3006:A1 *569:25 4.66108e-05
22 *3073:B *569:10 9.68787e-05
23 *3075:A *569:10 0.000551068
24 *3075:A *569:21 8.53113e-06
25 *3077:A *569:21 0
26 *3246:A *569:10 0
27 *152:8 *569:10 0.000116853
28 *438:10 *2744:A2 4.21889e-05
29 *438:10 *569:47 0.000552124
30 *465:73 *2744:A2 0.000163204
31 *503:10 *569:10 6.36578e-05
32 *534:12 *2743:A2 0.000140267
33 *535:14 *569:10 0.000146392
*RES
1 *3172:X *569:10 14.565 
2 *569:10 *2739:B 7.845 
3 *569:10 *569:21 2.145 
4 *569:21 *569:25 5.9 
5 *569:25 *2743:A2 4.93 
6 *569:25 *2742:A2 1.6 
7 *569:21 *569:47 9.83 
8 *569:47 *2744:A2 3.775 
9 *569:47 *2740:B 1.6 
*END

*D_NET *570 0.00447281
*CONN
*I *3071:B I *D sky130_fd_sc_hd__nand2_2
*I *3072:B I *D sky130_fd_sc_hd__nand2_2
*I *3074:A2 I *D sky130_fd_sc_hd__o21a_4
*I *3073:A_N I *D sky130_fd_sc_hd__nand2b_4
*I *3173:X O *D sky130_fd_sc_hd__clkdlybuf4s25_1
*CAP
1 *3071:B 6.71671e-05
2 *3072:B 0.000188126
3 *3074:A2 0
4 *3073:A_N 0.000167279
5 *3173:X 0.000674768
6 *570:34 0.000405976
7 *570:23 0.000330307
8 *570:6 0.00102167
9 S[7] *3072:B 0.000131269
10 S[7] *570:23 0
11 *3072:A *3072:B 8.69014e-05
12 *3073:B *570:23 0
13 *3073:B *570:34 0
14 *3074:A1 *570:23 5.53249e-06
15 *3074:A1 *570:34 9.39947e-05
16 *3076:B *570:34 0.000141592
17 *3076:C *570:23 0.000102834
18 *3076:C *570:34 9.428e-05
19 *3172:A *570:23 0
20 *3173:A *3073:A_N 4.66108e-05
21 *3173:A *570:6 0.00058891
22 *3173:A *570:23 2.92496e-05
23 *3246:A *570:34 2.59981e-05
24 *465:27 *3072:B 4.99619e-05
25 *466:10 *570:6 0.000109101
26 *468:12 *3071:B 9.07793e-05
27 *468:12 *3072:B 2.05056e-05
*RES
1 *3173:X *570:6 11.02 
2 *570:6 *3073:A_N 3.7 
3 *570:6 *570:23 5.465 
4 *570:23 *3074:A2 3.6 
5 *570:23 *570:34 6.185 
6 *570:34 *3072:B 5.74 
7 *570:34 *3071:B 3.085 
*END

*D_NET *571 0.00207271
*CONN
*I *3064:B I *D sky130_fd_sc_hd__nor2_2
*I *3069:A2 I *D sky130_fd_sc_hd__o21ai_2
*I *3065:B I *D sky130_fd_sc_hd__and2_4
*I *3068:A2 I *D sky130_fd_sc_hd__a21boi_2
*I *3174:X O *D sky130_fd_sc_hd__clkdlybuf4s25_1
*CAP
1 *3064:B 0
2 *3069:A2 7.76006e-05
3 *3065:B 0
4 *3068:A2 0.000173647
5 *3174:X 0.000165719
6 *571:36 0.000460129
7 *571:21 0.000471843
8 *571:8 0.000428681
9 *3064:A *571:36 5.78262e-05
10 *3069:A1 *3069:A2 8.8266e-05
11 *3069:A1 *571:36 1.46744e-05
12 *3174:A *3068:A2 4.60584e-05
13 *504:19 *3068:A2 8.8266e-05
14 *504:19 *571:21 0
15 *504:32 *571:36 0
*RES
1 *3174:X *571:8 5.43 
2 *571:8 *3068:A2 6.645 
3 *571:8 *571:21 1.38 
4 *571:21 *3065:B 3.6 
5 *571:21 *571:36 8.12 
6 *571:36 *3069:A2 3.085 
7 *571:36 *3064:B 1.6 
*END

*D_NET *572 0.0170666
*CONN
*I *3248:A I *D sky130_fd_sc_hd__buf_2
*I *3107:A I *D sky130_fd_sc_hd__dlymetal6s2s_1
*I *3104:A I *D sky130_fd_sc_hd__buf_4
*I *3113:A I *D sky130_fd_sc_hd__buf_8
*I *3175:X O *D sky130_fd_sc_hd__buf_8
*CAP
1 *3248:A 0.000237403
2 *3107:A 0
3 *3104:A 3.59266e-05
4 *3113:A 0.00221367
5 *3175:X 0.000142275
6 *572:60 0.00229926
7 *572:35 0.00236975
8 *572:10 0.00262791
9 S[1] *3113:A 0.000111293
10 *2730:C1 *3113:A 0.000983688
11 *2753:B *3113:A 6.12936e-05
12 *2755:A_N *3113:A 0.000354719
13 *2758:B *3113:A 4.66108e-05
14 *2759:A1 *3104:A 1.50383e-05
15 *2759:A1 *572:35 2.78732e-05
16 *2759:A2 *572:60 0
17 *2759:B1 *3104:A 2.0231e-05
18 *2759:B1 *572:60 0
19 *2760:A2 *572:60 1.12578e-05
20 *2760:B1 *572:60 2.30292e-05
21 *2761:A1 *572:35 4.30524e-05
22 *2761:A2 *572:10 8.53113e-06
23 *2761:A2 *572:35 0.000156155
24 *2765:B *572:60 0.000227536
25 *2767:B1 *572:60 8.97564e-05
26 *2806:A *572:60 7.75325e-05
27 *2808:B *3248:A 4.82919e-05
28 *2808:B *572:60 0
29 *2808:C *3248:A 6.92319e-05
30 *2808:C *572:60 4.82919e-05
31 *2961:A *572:60 0.000743116
32 *2966:B *572:60 0
33 *2974:B1 *572:60 0
34 *2984:B1 *572:60 0.00011379
35 *2987:B *3113:A 1.6418e-05
36 *3114:A *3113:A 0.000111285
37 *3257:A *3113:A 2.49909e-05
38 *178:16 *3113:A 6.05513e-05
39 *212:10 *3113:A 0.000939369
40 *219:8 *572:60 0
41 *220:6 *572:60 4.99619e-05
42 *262:10 *572:60 5.42473e-05
43 *266:10 *3248:A 3.00381e-05
44 *411:12 *572:60 0
45 *423:22 *572:60 0
46 *451:10 *572:60 3.09233e-05
47 *452:34 *3104:A 2.97746e-05
48 *453:10 *572:60 6.28765e-05
49 *453:36 *572:60 0.000292284
50 *453:42 *572:60 0
51 *457:10 *572:35 0.000194898
52 *457:10 *572:60 7.32549e-05
53 *457:61 *572:60 0.00014269
54 *458:51 *572:60 0
55 *521:14 *3113:A 0.000307825
56 *526:10 *572:60 9.24049e-05
57 *537:10 *572:10 0.000155928
58 *537:23 *3113:A 8.52883e-05
59 *537:32 *3113:A 0.000194267
60 *537:58 *572:10 2.07184e-05
61 *537:58 *572:35 0.000319174
62 *547:12 *572:60 0.00012819
63 *561:10 *572:60 0.000109009
64 *561:12 *572:60 0.000333723
*RES
1 *3175:X *572:10 6.195 
2 *572:10 *3113:A 40.44 
3 *572:10 *572:35 8.27 
4 *572:35 *3104:A 6.47 
5 *572:35 *572:60 48.355 
6 *572:60 *3107:A 1.6 
7 *572:60 *3248:A 5.98 
*END

*D_NET *573 0.000693184
*CONN
*I *3188:A I *D sky130_fd_sc_hd__clkdlybuf4s25_1
*I *2985:X O *D sky130_fd_sc_hd__xor2_2
*CAP
1 *3188:A 0.000191189
2 *2985:X 0.000191189
3 S[0] *3188:A 0.000238077
4 *2985:A *3188:A 1.23437e-05
5 *537:10 *3188:A 6.03847e-05
*RES
1 *2985:X *3188:A 11.52 
*END

*D_NET *574 0.000581233
*CONN
*I *3189:A I *D sky130_fd_sc_hd__buf_6
*I *3007:X O *D sky130_fd_sc_hd__xor2_2
*CAP
1 *3189:A 0.000197575
2 *3007:X 0.000197575
3 *3189:A *3190:A 0.000186083
4 *3009:B *3189:A 0
*RES
1 *3007:X *3189:A 11.13 
*END

*D_NET *575 0.000732784
*CONN
*I *3190:A I *D sky130_fd_sc_hd__buf_6
*I *3009:X O *D sky130_fd_sc_hd__xor2_2
*CAP
1 *3190:A 0.000247722
2 *3009:X 0.000247722
3 S[10] *3190:A 1.54862e-05
4 S[11] *3190:A 3.57702e-05
5 *3009:B *3190:A 0
6 *3189:A *3190:A 0.000186083
*RES
1 *3009:X *3190:A 12.09 
*END

*D_NET *576 0.000943493
*CONN
*I *3191:A I *D sky130_fd_sc_hd__buf_6
*I *3012:X O *D sky130_fd_sc_hd__xor2_2
*CAP
1 *3191:A 0.000355782
2 *3012:X 0.000355782
3 *3191:A *3192:A 0.000160635
4 S[12] *3191:A 0
5 *3162:A *3191:A 5.8129e-05
6 *540:20 *3191:A 1.31646e-05
*RES
1 *3012:X *3191:A 12.735 
*END

*D_NET *577 0.00118194
*CONN
*I *3032:C_N I *D sky130_fd_sc_hd__or3b_4
*I *3051:B1_N I *D sky130_fd_sc_hd__o21bai_2
*I *3176:X O *D sky130_fd_sc_hd__clkdlybuf4s25_1
*CAP
1 *3032:C_N 0
2 *3051:B1_N 9.83522e-05
3 *3176:X 0.000273983
4 *577:10 0.000372335
5 *3031:A *3051:B1_N 5.16418e-05
6 *3031:A *577:10 0.000210617
7 *3051:A2 *3051:B1_N 0
8 *110:16 *3051:B1_N 3.23391e-05
9 *474:14 *3051:B1_N 0
10 *474:14 *577:10 0
11 *543:12 *577:10 0.000142669
*RES
1 *3176:X *577:10 8.7 
2 *577:10 *3051:B1_N 5.49 
3 *577:10 *3032:C_N 3.6 
*END

*D_NET *578 0.000900579
*CONN
*I *3192:A I *D sky130_fd_sc_hd__buf_6
*I *3014:Y O *D sky130_fd_sc_hd__xnor2_2
*CAP
1 *3192:A 0.000185762
2 *3014:Y 0.000185762
3 *3045:B1 *3192:A 0.00018471
4 *3191:A *3192:A 0.000160635
5 *3250:A *3192:A 0.000163204
6 *559:12 *3192:A 2.05056e-05
*RES
1 *3014:Y *3192:A 11.865 
*END

*D_NET *579 0.00172693
*CONN
*I *3193:A I *D sky130_fd_sc_hd__buf_6
*I *3017:X O *D sky130_fd_sc_hd__xor2_2
*CAP
1 *3193:A 0.000637233
2 *3017:X 0.000637233
3 *3013:A1 *3193:A 4.82919e-05
4 *3013:B1 *3193:A 0.000216177
5 *520:16 *3193:A 0.000187999
*RES
1 *3017:X *3193:A 13.325 
*END

*D_NET *580 0.000817613
*CONN
*I *3194:A I *D sky130_fd_sc_hd__clkbuf_2
*I *3020:Y O *D sky130_fd_sc_hd__nor2_4
*CAP
1 *3194:A 0.00028169
2 *3020:Y 0.00028169
3 S[15] *3194:A 0
4 *3039:A *3194:A 0
5 *3041:B *3194:A 4.40812e-05
6 *3043:B *3194:A 0.000210151
7 *3158:A *3194:A 0
*RES
1 *3020:Y *3194:A 12.615 
*END

*D_NET *581 0.00135821
*CONN
*I *3195:A I *D sky130_fd_sc_hd__buf_6
*I *2795:X O *D sky130_fd_sc_hd__xor2_2
*CAP
1 *3195:A 0.000414183
2 *2795:X 0.000414183
3 *2795:B *3195:A 0
4 *2802:B1_N *3195:A 0.000125317
5 *2812:A *3195:A 3.09164e-05
6 *105:10 *3195:A 0.000141023
7 *105:21 *3195:A 0.000232586
*RES
1 *2795:X *3195:A 15.06 
*END

*D_NET *582 0.00116414
*CONN
*I *3196:A I *D sky130_fd_sc_hd__buf_6
*I *2803:X O *D sky130_fd_sc_hd__xor2_2
*CAP
1 *3196:A 0.000443012
2 *2803:X 0.000443012
3 *3028:A2 *3196:A 0
4 *106:10 *3196:A 0
5 *258:8 *3196:A 0
6 *258:21 *3196:A 0
7 *459:8 *3196:A 0.000278117
8 *459:19 *3196:A 0
9 *459:32 *3196:A 0
*RES
1 *2803:X *3196:A 15.03 
*END

*D_NET *583 0.00327977
*CONN
*I *3197:A I *D sky130_fd_sc_hd__buf_2
*I *2815:X O *D sky130_fd_sc_hd__xor2_2
*CAP
1 *3197:A 0.00113336
2 *2815:X 0.00113336
3 *2859:B *3197:A 2.97004e-06
4 *463:12 *3197:A 0.000378347
5 *463:32 *3197:A 0.000302247
6 *463:41 *3197:A 0.000105841
7 *463:71 *3197:A 0.000192721
8 *463:84 *3197:A 3.09233e-05
9 *548:12 *3197:A 0
*RES
1 *2815:X *3197:A 30.66 
*END

*D_NET *584 0.00353674
*CONN
*I *3198:A I *D sky130_fd_sc_hd__buf_4
*I *2827:Y O *D sky130_fd_sc_hd__nand2_2
*CAP
1 *3198:A 0.00126731
2 *2827:Y 0.00126731
3 *2858:A *3198:A 0.000160641
4 *2858:B *3198:A 0.000154451
5 *2859:B *3198:A 0
6 *2861:B *3198:A 8.08439e-05
7 *2863:A1 *3198:A 8.97486e-05
8 *2870:A1 *3198:A 0.000164679
9 *2871:A1 *3198:A 0
10 *2872:A1 *3198:A 0
11 *2886:B1 *3198:A 0
12 *3120:A *3198:A 3.26735e-05
13 *275:10 *3198:A 0.00016163
14 *290:16 *3198:A 5.34747e-05
15 *312:17 *3198:A 0.000103974
16 *463:12 *3198:A 0
17 *463:32 *3198:A 0
18 *463:41 *3198:A 0
19 *463:71 *3198:A 0
20 *552:14 *3198:A 0
21 *553:8 *3198:A 0
22 *553:12 *3198:A 0
*RES
1 *2827:Y *3198:A 30.69 
*END

*D_NET *585 0.000191498
*CONN
*I *3199:A I *D sky130_fd_sc_hd__buf_6
*I *2987:Y O *D sky130_fd_sc_hd__xnor2_2
*CAP
1 *3199:A 7.87958e-05
2 *2987:Y 7.87958e-05
3 *3199:A *3210:A 0
4 S[1] *3199:A 3.39064e-05
5 *3114:A *3199:A 0
6 *3257:A *3199:A 0
*RES
1 *2987:Y *3199:A 8.58 
*END

*D_NET *586 0.00146659
*CONN
*I *3200:A I *D sky130_fd_sc_hd__clkbuf_4
*I *2841:X O *D sky130_fd_sc_hd__xor2_4
*CAP
1 *3200:A 0.000360107
2 *2841:X 0.000360107
3 *2832:A2 *3200:A 4.82863e-05
4 *2832:B1_N *3200:A 4.82863e-05
5 *288:12 *3200:A 0.000649801
*RES
1 *2841:X *3200:A 9.5875 
*END

*D_NET *587 0.00306442
*CONN
*I *3201:A I *D sky130_fd_sc_hd__buf_8
*I *2852:Y O *D sky130_fd_sc_hd__nand2_4
*CAP
1 *3201:A 0.000840265
2 *2852:Y 0.000840265
3 *2865:A2 *3201:A 0.00015829
4 *2867:B *3201:A 0.000530394
5 *2876:A *3201:A 0.00017688
6 *2878:B1 *3201:A 0.000187759
7 *2879:A2 *3201:A 7.21296e-06
8 *2884:D1 *3201:A 0
9 *3106:A *3201:A 4.10476e-05
10 *296:49 *3201:A 0
11 *307:19 *3201:A 0.000211914
12 *309:10 *3201:A 7.03934e-05
13 *317:12 *3201:A 0
14 *318:10 *3201:A 0
*RES
1 *2852:Y *3201:A 24.645 
*END

*D_NET *588 0.00182751
*CONN
*I *3027:C I *D sky130_fd_sc_hd__nand3b_2
*I *3028:B1_N I *D sky130_fd_sc_hd__o21bai_4
*I *3177:X O *D sky130_fd_sc_hd__clkdlybuf4s25_1
*CAP
1 *3027:C 0.000100048
2 *3028:B1_N 0.000274224
3 *3177:X 8.97972e-05
4 *588:10 0.00046407
5 *2828:A *3027:C 3.68784e-05
6 *3025:A *3027:C 0.000107341
7 *3025:A *588:10 0.000215282
8 *3028:A2 *3028:B1_N 6.71882e-05
9 *106:10 *3028:B1_N 3.07153e-05
10 *459:32 *3027:C 6.11008e-05
11 *459:32 *588:10 0.000101317
12 *459:41 *3027:C 7.34286e-05
13 *545:10 *3027:C 0.000206116
*RES
1 *3177:X *588:10 6.195 
2 *588:10 *3028:B1_N 7.08 
3 *588:10 *3027:C 7.275 
*END

*D_NET *589 0.000457213
*CONN
*I *3202:A I *D sky130_fd_sc_hd__buf_8
*I *2867:Y O *D sky130_fd_sc_hd__nand2_4
*CAP
1 *3202:A 0.000120452
2 *2867:Y 0.000120452
3 S[21] *3202:A 0.000166346
4 S[22] *3202:A 4.99619e-05
5 *2867:B *3202:A 0
6 *2876:A *3202:A 0
*RES
1 *2867:Y *3202:A 9.885 
*END

*D_NET *590 0.000364221
*CONN
*I *3203:A I *D sky130_fd_sc_hd__buf_6
*I *2883:Y O *D sky130_fd_sc_hd__nor2_4
*CAP
1 *3203:A 0.000140572
2 *2883:Y 0.000140572
3 S[23] *3203:A 7.35729e-05
4 *2879:A1 *3203:A 9.50342e-06
5 *507:12 *3203:A 0
*RES
1 *2883:Y *3203:A 9.72 
*END

*D_NET *591 0.00208087
*CONN
*I *3204:A I *D sky130_fd_sc_hd__clkbuf_2
*I *2901:X O *D sky130_fd_sc_hd__and2_2
*CAP
1 *3204:A 0.00062527
2 *2901:X 0.00062527
3 *3204:A *3205:A 5.72004e-05
4 *2897:A *3204:A 0
5 *2901:A *3204:A 7.60965e-05
6 *2901:B *3204:A 1.83756e-05
7 *2908:B *3204:A 0.000112971
8 *2909:A1 *3204:A 0.000132723
9 *2909:A2 *3204:A 0.000296088
10 *2910:A *3204:A 0.000136877
11 *2910:B *3204:A 0
12 *509:18 *3204:A 0
*RES
1 *2901:X *3204:A 19.965 
*END

*D_NET *592 0.000793669
*CONN
*I *3205:A I *D sky130_fd_sc_hd__clkbuf_2
*I *2910:Y O *D sky130_fd_sc_hd__nand2_2
*CAP
1 *3205:A 0.000272317
2 *2910:Y 0.000272317
3 S[24] *3205:A 0
4 S[25] *3205:A 6.69341e-05
5 *3204:A *3205:A 5.72004e-05
6 *554:14 *3205:A 0.0001249
*RES
1 *2910:Y *3205:A 12.54 
*END

*D_NET *593 0.00140986
*CONN
*I *3206:A I *D sky130_fd_sc_hd__clkbuf_2
*I *2922:Y O *D sky130_fd_sc_hd__nand2_2
*CAP
1 *3206:A 0.000570134
2 *2922:Y 0.000570134
3 S[26] *3206:A 3.64998e-06
4 *2905:A1 *3206:A 2.50702e-05
5 *2905:A2 *3206:A 0
6 *2918:B1_N *3206:A 0
7 *2919:B *3206:A 0
8 *2922:A *3206:A 1.43521e-05
9 *2930:A1 *3206:A 8.65905e-05
10 *363:18 *3206:A 0
11 *367:8 *3206:A 0
12 *368:10 *3206:A 0
13 *474:30 *3206:A 0
14 *474:38 *3206:A 0.000139933
15 *556:22 *3206:A 0
*RES
1 *2922:Y *3206:A 17.055 
*END

*D_NET *594 0.00257201
*CONN
*I *3207:A I *D sky130_fd_sc_hd__buf_4
*I *2934:Y O *D sky130_fd_sc_hd__o21ai_2
*CAP
1 *3207:A 0.00124105
2 *2934:Y 0.00124105
3 *2932:A2 *3207:A 2.8185e-05
4 *2934:A1 *3207:A 4.60584e-05
5 *2934:A2 *3207:A 1.56632e-05
6 *376:20 *3207:A 0
*RES
1 *2934:Y *3207:A 22.31 
*END

*D_NET *595 0.00784713
*CONN
*I *3208:A I *D sky130_fd_sc_hd__buf_6
*I *2951:X O *D sky130_fd_sc_hd__and2b_4
*CAP
1 *3208:A 0.00219533
2 *2951:X 0.00219533
3 *3208:A *3209:A 0.00227486
4 *2959:A1 *3208:A 1.61831e-05
5 *2959:A2 *3208:A 0.000158066
6 *2960:B1 *3208:A 0.000235755
7 *3012:B *3208:A 8.08153e-06
8 *3057:A1 *3208:A 4.82863e-05
9 *3057:A2 *3208:A 0.000311288
10 *3057:B1 *3208:A 3.518e-05
11 *121:36 *3208:A 1.19928e-05
12 *123:10 *3208:A 9.14049e-05
13 *135:10 *3208:A 0.000265381
*RES
1 *2951:X *3208:A 39.6 
*END

*D_NET *596 0.00549972
*CONN
*I *3209:A I *D sky130_fd_sc_hd__buf_6
*I *2960:Y O *D sky130_fd_sc_hd__o21ai_2
*CAP
1 *3209:A 0.00103807
2 *2960:Y 0.00103807
3 *2960:B1 *3209:A 4.66108e-05
4 *3011:B *3209:A 0.000118081
5 *3013:A2 *3209:A 0.000106078
6 *3047:A *3209:A 0.00012657
7 *3047:C *3209:A 0.000197269
8 *3143:A *3209:A 5.84828e-05
9 *3208:A *3209:A 0.00227486
10 *118:47 *3209:A 8.57321e-05
11 *125:8 *3209:A 5.5626e-05
12 *135:36 *3209:A 3.13457e-05
13 *442:16 *3209:A 4.08514e-05
14 *502:10 *3209:A 4.99619e-05
15 *540:8 *3209:A 0.000232105
*RES
1 *2960:Y *3209:A 30.92 
*END

*D_NET *597 0.00181606
*CONN
*I *3210:A I *D sky130_fd_sc_hd__buf_6
*I *2990:X O *D sky130_fd_sc_hd__xor2_2
*CAP
1 *3210:A 0.000654391
2 *2990:X 0.000654391
3 S[1] *3210:A 0
4 *2756:A2 *3210:A 0
5 *2763:A *3210:A 0.000140905
6 *2987:A *3210:A 0
7 *2988:C1 *3210:A 0
8 *2989:B1 *3210:A 0
9 *2990:B *3210:A 0
10 *3199:A *3210:A 0
11 *3257:A *3210:A 0.000226848
12 *215:8 *3210:A 0
13 *215:23 *3210:A 0
14 *223:14 *3210:A 9.5433e-05
15 *431:10 *3210:A 4.40899e-05
*RES
1 *2990:X *3210:A 19.29 
*END

*D_NET *598 0.00302033
*CONN
*I *3211:A I *D sky130_fd_sc_hd__buf_6
*I *2974:Y O *D sky130_fd_sc_hd__o21ai_4
*CAP
1 *3211:A 0.00135055
2 *2974:Y 0.00135055
3 *3211:A *3220:A 2.75229e-05
4 carryOut *3211:A 0.000118513
5 *2962:B *3211:A 0.000124895
6 *408:10 *3211:A 4.82919e-05
*RES
1 *2974:Y *3211:A 25.71 
*END

*D_NET *599 0.00201215
*CONN
*I *2800:B1_N I *D sky130_fd_sc_hd__o21bai_4
*I *2799:C I *D sky130_fd_sc_hd__nand3b_4
*I *3178:X O *D sky130_fd_sc_hd__clkdlybuf4s25_1
*CAP
1 *2800:B1_N 9.59437e-05
2 *2799:C 0
3 *3178:X 0.000443926
4 *599:10 0.00053987
5 *2798:B *599:10 0.000200615
6 *2799:B *599:10 0.000189886
7 *3150:A *599:10 2.11084e-05
8 *258:8 *2800:B1_N 0.000162318
9 *258:8 *599:10 3.25831e-05
10 *259:10 *2800:B1_N 3.45588e-05
11 *451:6 *2800:B1_N 8.65905e-05
12 *458:23 *2800:B1_N 0
13 *458:23 *599:10 0
14 *546:14 *599:10 0.000204748
*RES
1 *3178:X *599:10 12.15 
2 *599:10 *2799:C 3.6 
3 *599:10 *2800:B1_N 6.285 
*END

*D_NET *600 0.00255047
*CONN
*I *3212:A I *D sky130_fd_sc_hd__buf_6
*I *2984:Y O *D sky130_fd_sc_hd__a22oi_4
*CAP
1 *3212:A 0.000999681
2 *2984:Y 0.000999681
3 *2979:A1 *3212:A 0.00018305
4 *2979:B1 *3212:A 0
5 *2984:A1 *3212:A 0
6 *2984:B2 *3212:A 0.00031209
7 *3131:A *3212:A 5.59676e-05
*RES
1 *2984:Y *3212:A 24.15 
*END

*D_NET *601 0.00352366
*CONN
*I *3213:A I *D sky130_fd_sc_hd__buf_8
*I *2993:Y O *D sky130_fd_sc_hd__nand2b_4
*CAP
1 *3213:A 0.000910634
2 *2993:Y 0.000910634
3 *2764:A *3213:A 3.83041e-05
4 *2766:A1 *3213:A 0.000203178
5 *453:57 *3213:A 8.65961e-05
6 *526:10 *3213:A 0.00137431
*RES
1 *2993:Y *3213:A 27.27 
*END

*D_NET *602 0.00277242
*CONN
*I *3214:A I *D sky130_fd_sc_hd__buf_6
*I *2995:Y O *D sky130_fd_sc_hd__xnor2_2
*CAP
1 *3214:A 0.000972706
2 *2995:Y 0.000972706
3 *3214:A *3216:A 7.66727e-05
4 *2719:A2 *3214:A 9.54399e-05
5 *2720:B1 *3214:A 8.39764e-05
6 *2730:C1 *3214:A 0
7 *2776:A *3214:A 0.000202735
8 *2776:B *3214:A 0.000119277
9 *2776:D *3214:A 0
10 *2994:A1 *3214:A 0
11 *2998:B1 *3214:A 0
12 *2999:A *3214:A 0
13 *177:10 *3214:A 0
14 *190:21 *3214:A 0
15 *434:10 *3214:A 0.000162318
16 *435:8 *3214:A 0
17 *449:40 *3214:A 8.65905e-05
*RES
1 *2995:Y *3214:A 26.46 
*END

*D_NET *603 0.0015052
*CONN
*I *3215:A I *D sky130_fd_sc_hd__buf_6
*I *2997:Y O *D sky130_fd_sc_hd__xnor2_2
*CAP
1 *3215:A 0.00040992
2 *2997:Y 0.00040992
3 *3215:A *3216:A 0
4 S[4] *3215:A 0
5 *2720:A1 *3215:A 0
6 *2720:B1 *3215:A 0
7 *2730:B1 *3215:A 5.33085e-05
8 *2999:A *3215:A 0
9 *2999:B *3215:A 0.00031207
10 *3128:A *3215:A 0
11 *186:12 *3215:A 0.000104287
12 *457:101 *3215:A 4.80285e-05
13 *565:16 *3215:A 0.000167667
*RES
1 *2997:Y *3215:A 15.75 
*END

*D_NET *604 0.00028261
*CONN
*I *3216:A I *D sky130_fd_sc_hd__buf_6
*I *2999:Y O *D sky130_fd_sc_hd__xnor2_2
*CAP
1 *3216:A 9.50964e-05
2 *2999:Y 9.50964e-05
3 S[4] *3216:A 7.21296e-06
4 S[5] *3216:A 8.53113e-06
5 *3214:A *3216:A 7.66727e-05
6 *3215:A *3216:A 0
*RES
1 *2999:Y *3216:A 9.345 
*END

*D_NET *605 0.000313216
*CONN
*I *3217:A I *D sky130_fd_sc_hd__buf_6
*I *3001:X O *D sky130_fd_sc_hd__xor2_2
*CAP
1 *3217:A 4.66638e-05
2 *3001:X 4.66638e-05
3 *449:12 *3217:A 0.000140912
4 *534:8 *3217:A 7.89767e-05
*RES
1 *3001:X *3217:A 8.835 
*END

*D_NET *606 0.000912039
*CONN
*I *3218:A I *D sky130_fd_sc_hd__buf_6
*I *3003:Y O *D sky130_fd_sc_hd__xnor2_2
*CAP
1 *3218:A 0.000308587
2 *3003:Y 0.000308587
3 *3004:B1 *3218:A 0
4 *3078:D *3218:A 4.66108e-05
5 *154:19 *3218:A 0.000248254
6 *475:40 *3218:A 0
*RES
1 *3003:Y *3218:A 12.015 
*END

*D_NET *607 0.000772455
*CONN
*I *3219:A I *D sky130_fd_sc_hd__buf_6
*I *3005:Y O *D sky130_fd_sc_hd__xnor2_2
*CAP
1 *3219:A 0.000210519
2 *3005:Y 0.000210519
3 S[9] *3219:A 4.99619e-05
4 *3139:A *3219:A 6.05595e-05
5 *3174:A *3219:A 3.57846e-05
6 *466:10 *3219:A 0
7 *504:8 *3219:A 8.65905e-05
8 *536:10 *3219:A 0.00011852
*RES
1 *3005:Y *3219:A 11.625 
*END

*D_NET *608 0.000908137
*CONN
*I *3220:A I *D sky130_fd_sc_hd__buf_6
*I *3021:Y O *D sky130_fd_sc_hd__o2bb2ai_4
*CAP
1 *3220:A 0.000406634
2 *3021:Y 0.000406634
3 carryOut *3220:A 0
4 *2962:A *3220:A 0
5 *2965:B1_N *3220:A 0
6 *2976:B *3220:A 0
7 *3021:A1_N *3220:A 2.24336e-05
8 *3130:A *3220:A 0
9 *3165:A *3220:A 0
10 *3211:A *3220:A 2.75229e-05
11 *410:10 *3220:A 0
12 *527:12 *3220:A 4.49134e-05
*RES
1 *3021:Y *3220:A 13.875 
*END

*D_NET *609 0.00499418
*CONN
*I *2912:A2 I *D sky130_fd_sc_hd__a21boi_2
*I *2899:A2 I *D sky130_fd_sc_hd__a21o_2
*I *2898:A2 I *D sky130_fd_sc_hd__a21oi_2
*I *2929:A2 I *D sky130_fd_sc_hd__a21oi_4
*I *2945:A2 I *D sky130_fd_sc_hd__o21a_4
*I *2946:A2 I *D sky130_fd_sc_hd__o21ai_2
*I *3187:X O *D sky130_fd_sc_hd__buf_6
*CAP
1 *2912:A2 6.00811e-05
2 *2899:A2 0.000183648
3 *2898:A2 0.000253065
4 *2929:A2 9.10008e-05
5 *2945:A2 9.73191e-06
6 *2946:A2 0.000170311
7 *3187:X 0.000442233
8 *609:62 0.00030223
9 *609:47 0.000384518
10 *609:12 0.000338787
11 *609:10 0.000346923
12 *609:8 0.000612362
13 *2898:A1 *2898:A2 4.82863e-05
14 *2900:A1 *609:10 0
15 *2900:A1 *609:12 0
16 *2900:B1 *609:8 4.82863e-05
17 *2900:C1 *609:8 8.65961e-05
18 *2901:B *609:8 9.91257e-05
19 *2911:A *2898:A2 4.47209e-05
20 *2911:B *2912:A2 2.15594e-05
21 *2911:B *609:62 7.89689e-05
22 *2912:A1 *2899:A2 0.000353831
23 *2912:A1 *2912:A2 4.82919e-05
24 *2912:B1_N *2912:A2 4.43871e-06
25 *2912:B1_N *609:62 8.6099e-05
26 *2929:A1 *2929:A2 4.99619e-05
27 *2929:B1 *2912:A2 1.73877e-05
28 *2929:B1 *609:10 5.98004e-06
29 *2941:A *609:10 1.70935e-05
30 *2941:A *609:47 8.51478e-05
31 *2941:A *609:62 1.03755e-05
32 *2943:B *2945:A2 4.82863e-05
33 *2945:B1 *2945:A2 4.82863e-05
34 *2945:B1 *2946:A2 4.82919e-05
35 *2948:B1 *2946:A2 3.00381e-05
36 *254:12 *2946:A2 0
37 *254:12 *609:12 0
38 *342:10 *609:12 0
39 *342:21 *2898:A2 0
40 *342:21 *609:10 0
41 *342:21 *609:47 0
42 *389:10 *2946:A2 1.29698e-05
43 *389:10 *609:10 0.000164686
44 *389:10 *609:12 0.00034058
*RES
1 *3187:X *609:8 10.95 
2 *609:8 *609:10 2.4 
3 *609:10 *609:12 3.93 
4 *609:12 *2946:A2 6.165 
5 *609:12 *2945:A2 4.05 
6 *609:10 *2929:A2 5.085 
7 *609:8 *609:47 1.7625 
8 *609:47 *2898:A2 7.8375 
9 *609:47 *609:62 2.0175 
10 *609:62 *2899:A2 7.155 
11 *609:62 *2912:A2 5.01 
*END
