*SPEF "ieee 1481-1999"
*DESIGN "addsub32"
*DATE "09:29:42 Tuesday September 29, 2026"
*VENDOR "The OpenROAD Project"
*PROGRAM "OpenROAD"
*VERSION "dcf36133a369abc8f3c5e5738cd4d82e4903c0e0"
*DESIGN_FLOW "NAME_SCOPE LOCAL" "PIN_CAP NONE"
*DIVIDER /
*DELIMITER :
*BUS_DELIMITER []
*T_UNIT 1 NS
*C_UNIT 1 PF
*R_UNIT 1 OHM
*L_UNIT 1 HENRY

*NAME_MAP
*1 A[0]
*2 A[10]
*3 A[11]
*4 A[12]
*5 A[13]
*6 A[14]
*7 A[15]
*8 A[16]
*9 A[17]
*10 A[18]
*11 A[19]
*12 A[1]
*13 A[20]
*14 A[21]
*15 A[22]
*16 A[23]
*17 A[24]
*18 A[25]
*19 A[26]
*20 A[27]
*21 A[28]
*22 A[29]
*23 A[2]
*24 A[30]
*25 A[31]
*26 A[3]
*27 A[4]
*28 A[5]
*29 A[6]
*30 A[7]
*31 A[8]
*32 A[9]
*33 B[0]
*34 B[10]
*35 B[11]
*36 B[12]
*37 B[13]
*38 B[14]
*39 B[15]
*40 B[16]
*41 B[17]
*42 B[18]
*43 B[19]
*44 B[1]
*45 B[20]
*46 B[21]
*47 B[22]
*48 B[23]
*49 B[24]
*50 B[25]
*51 B[26]
*52 B[27]
*53 B[28]
*54 B[29]
*55 B[2]
*56 B[30]
*57 B[31]
*58 B[3]
*59 B[4]
*60 B[5]
*61 B[6]
*62 B[7]
*63 B[8]
*64 B[9]
*65 S[0]
*66 S[10]
*67 S[11]
*68 S[12]
*69 S[13]
*70 S[14]
*71 S[15]
*72 S[16]
*73 S[17]
*74 S[18]
*75 S[19]
*76 S[1]
*77 S[20]
*78 S[21]
*79 S[22]
*80 S[23]
*81 S[24]
*82 S[25]
*83 S[26]
*84 S[27]
*85 S[28]
*86 S[29]
*87 S[2]
*88 S[30]
*89 S[31]
*90 S[3]
*91 S[4]
*92 S[5]
*93 S[6]
*94 S[7]
*95 S[8]
*96 S[9]
*99 carryOut
*100 sub
*101 _000_
*102 _001_
*103 _002_
*104 _003_
*105 _004_
*106 _005_
*107 _006_
*108 _007_
*109 _008_
*110 _009_
*111 _010_
*112 _011_
*113 _012_
*114 _013_
*115 _014_
*116 _015_
*117 _016_
*118 _017_
*119 _018_
*120 _019_
*121 _020_
*122 _021_
*123 _022_
*124 _023_
*125 _024_
*126 _025_
*127 _026_
*128 _027_
*129 _028_
*130 _029_
*131 _030_
*132 _031_
*133 _032_
*134 _033_
*135 _034_
*136 _035_
*137 _036_
*138 _037_
*139 _038_
*140 _039_
*141 _040_
*142 _041_
*143 _042_
*144 _043_
*145 _044_
*146 _045_
*147 _046_
*148 _047_
*149 _048_
*150 _049_
*151 _050_
*152 _051_
*153 _052_
*154 _053_
*155 _054_
*156 _055_
*157 _056_
*158 _057_
*159 _058_
*160 _059_
*161 _060_
*162 _061_
*163 _062_
*164 _063_
*165 _064_
*166 _065_
*167 _066_
*168 _067_
*169 _068_
*170 _069_
*171 _070_
*172 _071_
*173 _072_
*174 _073_
*175 _074_
*176 _075_
*177 _076_
*178 _077_
*179 _078_
*180 _079_
*181 _080_
*182 _081_
*183 _082_
*184 _083_
*185 _084_
*186 _085_
*187 _086_
*188 _087_
*189 _088_
*190 _089_
*191 _090_
*192 _091_
*193 _092_
*194 _093_
*195 _094_
*196 _095_
*197 _096_
*198 _097_
*199 _098_
*200 _099_
*201 _100_
*202 _101_
*203 _102_
*204 _103_
*205 _104_
*206 _105_
*207 _106_
*208 _107_
*209 _108_
*210 _109_
*211 _110_
*212 _111_
*213 _112_
*214 _113_
*215 _114_
*216 _115_
*217 _116_
*218 _117_
*219 _118_
*220 _119_
*221 _120_
*222 _121_
*223 _122_
*224 _123_
*225 _124_
*226 _125_
*227 _126_
*228 _127_
*229 _128_
*230 _129_
*231 _130_
*232 _131_
*233 _132_
*234 _133_
*235 _134_
*236 _135_
*237 _136_
*238 _137_
*239 _138_
*240 _139_
*241 _140_
*242 _141_
*243 _142_
*244 _143_
*245 _144_
*246 _145_
*247 _146_
*248 _147_
*249 _148_
*250 _149_
*251 _150_
*252 _151_
*253 _152_
*254 _153_
*255 _154_
*256 _155_
*257 _156_
*258 _157_
*259 _158_
*260 _159_
*261 _160_
*262 _161_
*263 _162_
*264 _163_
*265 _164_
*266 _165_
*267 _166_
*268 _167_
*269 _168_
*270 _169_
*271 _170_
*272 _171_
*273 _172_
*274 _173_
*275 _174_
*276 _175_
*277 _176_
*278 _177_
*279 _178_
*280 _179_
*281 _180_
*282 _181_
*283 _182_
*284 _183_
*285 _184_
*286 _185_
*287 _186_
*288 _187_
*289 _188_
*290 _189_
*291 _190_
*292 _191_
*293 _192_
*294 _193_
*295 _194_
*296 _195_
*297 _196_
*298 _197_
*299 _198_
*300 _199_
*301 _200_
*302 _201_
*303 _202_
*304 _203_
*305 _204_
*306 _205_
*307 _206_
*308 _207_
*309 _208_
*310 _209_
*311 _210_
*312 _211_
*313 _212_
*314 _213_
*315 _214_
*316 _215_
*317 _216_
*318 _217_
*319 _218_
*320 _219_
*321 _220_
*322 _221_
*323 _222_
*324 _223_
*325 _224_
*326 _225_
*327 _226_
*328 _227_
*329 _228_
*330 _229_
*331 _230_
*332 _231_
*333 _232_
*334 _233_
*335 _234_
*336 _235_
*337 _236_
*338 _237_
*339 _238_
*340 _239_
*341 _240_
*342 _241_
*343 _242_
*344 _243_
*345 _244_
*346 _245_
*347 _246_
*348 _247_
*349 _248_
*350 _249_
*351 _250_
*352 _251_
*353 _252_
*354 _253_
*355 _254_
*356 _255_
*357 _256_
*358 _257_
*359 _258_
*360 _259_
*361 _260_
*362 _261_
*363 _262_
*364 _263_
*365 _264_
*366 _265_
*367 _266_
*368 _267_
*369 _268_
*370 _269_
*371 _270_
*372 _271_
*373 _272_
*374 _273_
*375 _274_
*376 _275_
*377 _276_
*378 _277_
*379 _278_
*380 _279_
*381 _280_
*382 _281_
*383 _282_
*384 _283_
*385 _284_
*386 _285_
*387 _286_
*388 _287_
*389 _288_
*390 _289_
*391 _290_
*392 _291_
*393 _292_
*394 _293_
*395 _294_
*396 _295_
*397 _296_
*398 _297_
*399 _298_
*400 _299_
*401 _300_
*402 _301_
*403 _302_
*404 _303_
*405 _304_
*406 _305_
*407 _306_
*408 _307_
*409 _308_
*410 _309_
*411 _310_
*412 _311_
*413 _312_
*414 _313_
*415 _314_
*416 _315_
*417 _316_
*418 _317_
*419 _318_
*420 _319_
*421 _320_
*422 _321_
*423 _322_
*424 _323_
*425 _324_
*426 _325_
*427 _326_
*428 _327_
*429 _328_
*430 _329_
*431 _330_
*432 _331_
*433 _332_
*434 _333_
*435 _334_
*436 _335_
*437 _336_
*438 _337_
*439 _338_
*440 _339_
*441 _340_
*442 _341_
*443 _342_
*444 _343_
*445 _344_
*446 _345_
*447 _346_
*448 _347_
*449 _348_
*450 _349_
*451 _350_
*452 _351_
*453 _352_
*454 net1
*455 net10
*456 net101
*457 net102
*458 net103
*459 net104
*460 net105
*461 net106
*462 net107
*463 net108
*464 net109
*465 net11
*466 net110
*467 net111
*468 net112
*469 net113
*470 net114
*471 net115
*472 net116
*473 net117
*474 net118
*475 net119
*476 net12
*477 net120
*478 net121
*479 net122
*480 net123
*481 net124
*482 net125
*483 net126
*484 net127
*485 net128
*486 net129
*487 net13
*488 net130
*489 net131
*490 net132
*491 net133
*492 net134
*493 net135
*494 net136
*495 net137
*496 net138
*497 net139
*498 net14
*499 net140
*500 net141
*501 net142
*502 net143
*503 net144
*504 net145
*505 net147
*506 net148
*507 net15
*508 net158
*509 net16
*510 net166
*511 net167
*512 net17
*513 net18
*514 net187
*515 net19
*516 net2
*517 net20
*518 net203
*519 net204
*520 net205
*521 net206
*522 net21
*523 net22
*524 net23
*525 net24
*526 net25
*527 net26
*528 net27
*529 net28
*530 net29
*531 net3
*532 net30
*533 net31
*534 net32
*535 net33
*536 net34
*537 net35
*538 net36
*539 net37
*540 net38
*541 net39
*542 net4
*543 net40
*544 net41
*545 net42
*546 net43
*547 net44
*548 net45
*549 net46
*550 net47
*551 net48
*552 net49
*553 net5
*554 net50
*555 net51
*556 net52
*557 net53
*558 net54
*559 net55
*560 net56
*561 net57
*562 net58
*563 net59
*564 net6
*565 net60
*566 net61
*567 net62
*568 net63
*569 net64
*570 net65
*571 net66
*572 net67
*573 net68
*574 net69
*575 net7
*576 net70
*577 net71
*578 net72
*579 net73
*580 net74
*581 net75
*582 net76
*583 net77
*584 net78
*585 net79
*586 net8
*587 net80
*588 net81
*589 net82
*590 net83
*591 net84
*592 net85
*593 net86
*594 net87
*595 net88
*596 net89
*597 net9
*598 net90
*599 net91
*600 net92
*601 net93
*602 net94
*603 net95
*604 net96
*605 net97
*606 net98
*607 net99
*608 FILLER_0_102
*609 FILLER_0_113
*610 FILLER_0_116
*611 FILLER_0_12
*612 FILLER_0_136
*613 FILLER_0_139
*614 FILLER_0_141
*615 FILLER_0_15
*616 FILLER_0_151
*617 FILLER_0_169
*618 FILLER_0_18
*619 FILLER_0_189
*620 FILLER_0_192
*621 FILLER_0_195
*622 FILLER_0_197
*623 FILLER_0_200
*624 FILLER_0_203
*625 FILLER_0_206
*626 FILLER_0_21
*627 FILLER_0_24
*628 FILLER_0_29
*629 FILLER_0_3
*630 FILLER_0_42
*631 FILLER_0_45
*632 FILLER_0_55
*633 FILLER_0_6
*634 FILLER_0_85
*635 FILLER_0_9
*636 FILLER_10_100
*637 FILLER_10_103
*638 FILLER_10_122
*639 FILLER_10_125
*640 FILLER_10_128
*641 FILLER_10_131
*642 FILLER_10_134
*643 FILLER_10_137
*644 FILLER_10_141
*645 FILLER_10_144
*646 FILLER_10_147
*647 FILLER_10_150
*648 FILLER_10_157
*649 FILLER_10_197
*650 FILLER_10_3
*651 FILLER_10_49
*652 FILLER_10_73
*653 FILLER_10_76
*654 FILLER_10_85
*655 FILLER_10_88
*656 FILLER_10_91
*657 FILLER_10_94
*658 FILLER_10_97
*659 FILLER_11_100
*660 FILLER_11_103
*661 FILLER_11_106
*662 FILLER_11_109
*663 FILLER_11_113
*664 FILLER_11_141
*665 FILLER_11_144
*666 FILLER_11_147
*667 FILLER_11_166
*668 FILLER_11_173
*669 FILLER_11_206
*670 FILLER_11_3
*671 FILLER_11_50
*672 FILLER_11_53
*673 FILLER_11_64
*674 FILLER_11_67
*675 FILLER_11_70
*676 FILLER_11_73
*677 FILLER_11_94
*678 FILLER_11_97
*679 FILLER_12_101
*680 FILLER_12_104
*681 FILLER_12_107
*682 FILLER_12_110
*683 FILLER_12_113
*684 FILLER_12_116
*685 FILLER_12_119
*686 FILLER_12_122
*687 FILLER_12_125
*688 FILLER_12_128
*689 FILLER_12_131
*690 FILLER_12_141
*691 FILLER_12_151
*692 FILLER_12_197
*693 FILLER_12_3
*694 FILLER_12_37
*695 FILLER_12_49
*696 FILLER_12_52
*697 FILLER_12_55
*698 FILLER_12_6
*699 FILLER_12_63
*700 FILLER_12_66
*701 FILLER_12_69
*702 FILLER_12_72
*703 FILLER_12_85
*704 FILLER_12_95
*705 FILLER_12_98
*706 FILLER_13_101
*707 FILLER_13_104
*708 FILLER_13_107
*709 FILLER_13_110
*710 FILLER_13_113
*711 FILLER_13_116
*712 FILLER_13_119
*713 FILLER_13_122
*714 FILLER_13_154
*715 FILLER_13_164
*716 FILLER_13_167
*717 FILLER_13_188
*718 FILLER_13_205
*719 FILLER_13_50
*720 FILLER_13_53
*721 FILLER_13_57
*722 FILLER_13_60
*723 FILLER_13_63
*724 FILLER_13_66
*725 FILLER_13_69
*726 FILLER_13_72
*727 FILLER_13_84
*728 FILLER_13_87
*729 FILLER_13_95
*730 FILLER_13_98
*731 FILLER_14_102
*732 FILLER_14_105
*733 FILLER_14_108
*734 FILLER_14_111
*735 FILLER_14_114
*736 FILLER_14_117
*737 FILLER_14_120
*738 FILLER_14_123
*739 FILLER_14_126
*740 FILLER_14_129
*741 FILLER_14_136
*742 FILLER_14_139
*743 FILLER_14_141
*744 FILLER_14_144
*745 FILLER_14_147
*746 FILLER_14_174
*747 FILLER_14_195
*748 FILLER_14_197
*749 FILLER_14_25
*750 FILLER_14_50
*751 FILLER_14_53
*752 FILLER_14_56
*753 FILLER_14_63
*754 FILLER_14_66
*755 FILLER_14_69
*756 FILLER_14_72
*757 FILLER_14_75
*758 FILLER_14_78
*759 FILLER_14_81
*760 FILLER_14_90
*761 FILLER_14_93
*762 FILLER_14_96
*763 FILLER_14_99
*764 FILLER_15_102
*765 FILLER_15_105
*766 FILLER_15_108
*767 FILLER_15_111
*768 FILLER_15_113
*769 FILLER_15_116
*770 FILLER_15_119
*771 FILLER_15_122
*772 FILLER_15_125
*773 FILLER_15_128
*774 FILLER_15_131
*775 FILLER_15_134
*776 FILLER_15_137
*777 FILLER_15_140
*778 FILLER_15_143
*779 FILLER_15_146
*780 FILLER_15_149
*781 FILLER_15_152
*782 FILLER_15_155
*783 FILLER_15_158
*784 FILLER_15_169
*785 FILLER_15_183
*786 FILLER_15_204
*787 FILLER_15_207
*788 FILLER_15_27
*789 FILLER_15_49
*790 FILLER_15_52
*791 FILLER_15_55
*792 FILLER_15_57
*793 FILLER_15_60
*794 FILLER_15_63
*795 FILLER_15_66
*796 FILLER_15_69
*797 FILLER_15_72
*798 FILLER_15_75
*799 FILLER_15_78
*800 FILLER_15_81
*801 FILLER_15_84
*802 FILLER_15_87
*803 FILLER_15_90
*804 FILLER_15_93
*805 FILLER_15_96
*806 FILLER_15_99
*807 FILLER_16_105
*808 FILLER_16_108
*809 FILLER_16_111
*810 FILLER_16_114
*811 FILLER_16_121
*812 FILLER_16_141
*813 FILLER_16_144
*814 FILLER_16_147
*815 FILLER_16_150
*816 FILLER_16_175
*817 FILLER_16_19
*818 FILLER_16_205
*819 FILLER_16_51
*820 FILLER_16_54
*821 FILLER_16_57
*822 FILLER_16_60
*823 FILLER_16_63
*824 FILLER_16_66
*825 FILLER_16_69
*826 FILLER_16_72
*827 FILLER_16_75
*828 FILLER_16_78
*829 FILLER_16_81
*830 FILLER_16_85
*831 FILLER_16_88
*832 FILLER_16_91
*833 FILLER_16_94
*834 FILLER_16_97
*835 FILLER_17_110
*836 FILLER_17_113
*837 FILLER_17_116
*838 FILLER_17_148
*839 FILLER_17_165
*840 FILLER_17_169
*841 FILLER_17_172
*842 FILLER_17_175
*843 FILLER_17_207
*844 FILLER_17_52
*845 FILLER_17_55
*846 FILLER_17_57
*847 FILLER_17_60
*848 FILLER_17_63
*849 FILLER_17_66
*850 FILLER_17_69
*851 FILLER_17_72
*852 FILLER_17_75
*853 FILLER_17_78
*854 FILLER_17_81
*855 FILLER_17_84
*856 FILLER_17_87
*857 FILLER_17_90
*858 FILLER_18_109
*859 FILLER_18_112
*860 FILLER_18_124
*861 FILLER_18_127
*862 FILLER_18_133
*863 FILLER_18_136
*864 FILLER_18_139
*865 FILLER_18_141
*866 FILLER_18_144
*867 FILLER_18_165
*868 FILLER_18_168
*869 FILLER_18_171
*870 FILLER_18_194
*871 FILLER_18_197
*872 FILLER_18_3
*873 FILLER_18_41
*874 FILLER_18_50
*875 FILLER_18_60
*876 FILLER_18_63
*877 FILLER_18_66
*878 FILLER_18_69
*879 FILLER_18_72
*880 FILLER_18_75
*881 FILLER_18_78
*882 FILLER_18_81
*883 FILLER_18_85
*884 FILLER_18_88
*885 FILLER_18_91
*886 FILLER_19_106
*887 FILLER_19_109
*888 FILLER_19_128
*889 FILLER_19_131
*890 FILLER_19_134
*891 FILLER_19_137
*892 FILLER_19_140
*893 FILLER_19_143
*894 FILLER_19_146
*895 FILLER_19_149
*896 FILLER_19_152
*897 FILLER_19_162
*898 FILLER_19_165
*899 FILLER_19_169
*900 FILLER_19_172
*901 FILLER_19_175
*902 FILLER_19_178
*903 FILLER_19_181
*904 FILLER_19_191
*905 FILLER_19_206
*906 FILLER_19_38
*907 FILLER_19_57
*908 FILLER_19_63
*909 FILLER_19_66
*910 FILLER_19_69
*911 FILLER_19_72
*912 FILLER_19_75
*913 FILLER_19_78
*914 FILLER_19_81
*915 FILLER_19_84
*916 FILLER_19_87
*917 FILLER_19_90
*918 FILLER_19_93
*919 FILLER_19_96
*920 FILLER_19_99
*921 FILLER_1_101
*922 FILLER_1_104
*923 FILLER_1_113
*924 FILLER_1_12
*925 FILLER_1_135
*926 FILLER_1_15
*927 FILLER_1_153
*928 FILLER_1_167
*929 FILLER_1_18
*930 FILLER_1_185
*931 FILLER_1_193
*932 FILLER_1_196
*933 FILLER_1_199
*934 FILLER_1_202
*935 FILLER_1_205
*936 FILLER_1_21
*937 FILLER_1_24
*938 FILLER_1_3
*939 FILLER_1_44
*940 FILLER_1_53
*941 FILLER_1_6
*942 FILLER_1_75
*943 FILLER_1_9
*944 FILLER_20_100
*945 FILLER_20_103
*946 FILLER_20_106
*947 FILLER_20_109
*948 FILLER_20_112
*949 FILLER_20_115
*950 FILLER_20_118
*951 FILLER_20_121
*952 FILLER_20_124
*953 FILLER_20_127
*954 FILLER_20_130
*955 FILLER_20_133
*956 FILLER_20_136
*957 FILLER_20_139
*958 FILLER_20_141
*959 FILLER_20_144
*960 FILLER_20_147
*961 FILLER_20_150
*962 FILLER_20_153
*963 FILLER_20_156
*964 FILLER_20_159
*965 FILLER_20_162
*966 FILLER_20_165
*967 FILLER_20_168
*968 FILLER_20_171
*969 FILLER_20_177
*970 FILLER_20_180
*971 FILLER_20_197
*972 FILLER_20_3
*973 FILLER_20_52
*974 FILLER_20_71
*975 FILLER_20_74
*976 FILLER_20_77
*977 FILLER_20_80
*978 FILLER_20_83
*979 FILLER_20_85
*980 FILLER_20_88
*981 FILLER_20_91
*982 FILLER_20_94
*983 FILLER_20_97
*984 FILLER_21_100
*985 FILLER_21_103
*986 FILLER_21_106
*987 FILLER_21_109
*988 FILLER_21_113
*989 FILLER_21_116
*990 FILLER_21_119
*991 FILLER_21_122
*992 FILLER_21_125
*993 FILLER_21_128
*994 FILLER_21_131
*995 FILLER_21_134
*996 FILLER_21_137
*997 FILLER_21_140
*998 FILLER_21_143
*999 FILLER_21_146
*1000 FILLER_21_149
*1001 FILLER_21_15
*1002 FILLER_21_152
*1003 FILLER_21_155
*1004 FILLER_21_158
*1005 FILLER_21_161
*1006 FILLER_21_164
*1007 FILLER_21_167
*1008 FILLER_21_169
*1009 FILLER_21_181
*1010 FILLER_21_204
*1011 FILLER_21_207
*1012 FILLER_21_3
*1013 FILLER_21_36
*1014 FILLER_21_52
*1015 FILLER_21_55
*1016 FILLER_21_6
*1017 FILLER_21_70
*1018 FILLER_21_73
*1019 FILLER_21_76
*1020 FILLER_21_79
*1021 FILLER_21_82
*1022 FILLER_21_85
*1023 FILLER_21_88
*1024 FILLER_21_91
*1025 FILLER_21_94
*1026 FILLER_21_97
*1027 FILLER_22_100
*1028 FILLER_22_103
*1029 FILLER_22_106
*1030 FILLER_22_109
*1031 FILLER_22_112
*1032 FILLER_22_115
*1033 FILLER_22_118
*1034 FILLER_22_121
*1035 FILLER_22_124
*1036 FILLER_22_127
*1037 FILLER_22_130
*1038 FILLER_22_133
*1039 FILLER_22_136
*1040 FILLER_22_139
*1041 FILLER_22_141
*1042 FILLER_22_144
*1043 FILLER_22_147
*1044 FILLER_22_158
*1045 FILLER_22_161
*1046 FILLER_22_164
*1047 FILLER_22_167
*1048 FILLER_22_187
*1049 FILLER_22_197
*1050 FILLER_22_25
*1051 FILLER_22_33
*1052 FILLER_22_43
*1053 FILLER_22_46
*1054 FILLER_22_49
*1055 FILLER_22_75
*1056 FILLER_22_78
*1057 FILLER_22_81
*1058 FILLER_22_85
*1059 FILLER_22_88
*1060 FILLER_22_91
*1061 FILLER_22_94
*1062 FILLER_22_97
*1063 FILLER_23_102
*1064 FILLER_23_126
*1065 FILLER_23_129
*1066 FILLER_23_132
*1067 FILLER_23_135
*1068 FILLER_23_138
*1069 FILLER_23_141
*1070 FILLER_23_164
*1071 FILLER_23_167
*1072 FILLER_23_169
*1073 FILLER_23_180
*1074 FILLER_23_188
*1075 FILLER_23_26
*1076 FILLER_23_29
*1077 FILLER_23_49
*1078 FILLER_23_52
*1079 FILLER_23_55
*1080 FILLER_23_57
*1081 FILLER_23_60
*1082 FILLER_23_63
*1083 FILLER_23_66
*1084 FILLER_23_69
*1085 FILLER_23_72
*1086 FILLER_23_75
*1087 FILLER_23_90
*1088 FILLER_23_93
*1089 FILLER_23_96
*1090 FILLER_23_99
*1091 FILLER_24_133
*1092 FILLER_24_136
*1093 FILLER_24_139
*1094 FILLER_24_141
*1095 FILLER_24_144
*1096 FILLER_24_147
*1097 FILLER_24_158
*1098 FILLER_24_161
*1099 FILLER_24_164
*1100 FILLER_24_167
*1101 FILLER_24_170
*1102 FILLER_24_173
*1103 FILLER_24_176
*1104 FILLER_24_193
*1105 FILLER_24_197
*1106 FILLER_24_27
*1107 FILLER_24_29
*1108 FILLER_24_3
*1109 FILLER_24_32
*1110 FILLER_24_35
*1111 FILLER_24_58
*1112 FILLER_24_76
*1113 FILLER_24_79
*1114 FILLER_24_82
*1115 FILLER_24_85
*1116 FILLER_24_88
*1117 FILLER_24_91
*1118 FILLER_24_94
*1119 FILLER_24_97
*1120 FILLER_25_102
*1121 FILLER_25_105
*1122 FILLER_25_108
*1123 FILLER_25_111
*1124 FILLER_25_113
*1125 FILLER_25_116
*1126 FILLER_25_119
*1127 FILLER_25_122
*1128 FILLER_25_125
*1129 FILLER_25_136
*1130 FILLER_25_139
*1131 FILLER_25_155
*1132 FILLER_25_158
*1133 FILLER_25_161
*1134 FILLER_25_164
*1135 FILLER_25_167
*1136 FILLER_25_174
*1137 FILLER_25_177
*1138 FILLER_25_18
*1139 FILLER_25_180
*1140 FILLER_25_183
*1141 FILLER_25_186
*1142 FILLER_25_21
*1143 FILLER_25_24
*1144 FILLER_25_27
*1145 FILLER_25_3
*1146 FILLER_25_30
*1147 FILLER_25_33
*1148 FILLER_25_39
*1149 FILLER_25_42
*1150 FILLER_25_45
*1151 FILLER_25_48
*1152 FILLER_25_51
*1153 FILLER_25_54
*1154 FILLER_25_57
*1155 FILLER_25_60
*1156 FILLER_25_63
*1157 FILLER_25_66
*1158 FILLER_25_69
*1159 FILLER_25_72
*1160 FILLER_25_75
*1161 FILLER_25_78
*1162 FILLER_25_81
*1163 FILLER_25_84
*1164 FILLER_25_87
*1165 FILLER_25_90
*1166 FILLER_25_93
*1167 FILLER_25_96
*1168 FILLER_25_99
*1169 FILLER_26_100
*1170 FILLER_26_103
*1171 FILLER_26_106
*1172 FILLER_26_109
*1173 FILLER_26_112
*1174 FILLER_26_115
*1175 FILLER_26_118
*1176 FILLER_26_121
*1177 FILLER_26_124
*1178 FILLER_26_127
*1179 FILLER_26_137
*1180 FILLER_26_141
*1181 FILLER_26_144
*1182 FILLER_26_158
*1183 FILLER_26_161
*1184 FILLER_26_164
*1185 FILLER_26_180
*1186 FILLER_26_183
*1187 FILLER_26_186
*1188 FILLER_26_206
*1189 FILLER_26_27
*1190 FILLER_26_29
*1191 FILLER_26_3
*1192 FILLER_26_46
*1193 FILLER_26_49
*1194 FILLER_26_52
*1195 FILLER_26_55
*1196 FILLER_26_58
*1197 FILLER_26_6
*1198 FILLER_26_61
*1199 FILLER_26_64
*1200 FILLER_26_67
*1201 FILLER_26_78
*1202 FILLER_26_81
*1203 FILLER_26_85
*1204 FILLER_26_88
*1205 FILLER_26_9
*1206 FILLER_26_91
*1207 FILLER_26_94
*1208 FILLER_26_97
*1209 FILLER_27_101
*1210 FILLER_27_104
*1211 FILLER_27_156
*1212 FILLER_27_159
*1213 FILLER_27_162
*1214 FILLER_27_165
*1215 FILLER_27_198
*1216 FILLER_27_27
*1217 FILLER_27_30
*1218 FILLER_27_48
*1219 FILLER_27_51
*1220 FILLER_27_54
*1221 FILLER_27_95
*1222 FILLER_27_98
*1223 FILLER_28_102
*1224 FILLER_28_118
*1225 FILLER_28_128
*1226 FILLER_28_138
*1227 FILLER_28_141
*1228 FILLER_28_149
*1229 FILLER_28_152
*1230 FILLER_28_158
*1231 FILLER_28_161
*1232 FILLER_28_164
*1233 FILLER_28_167
*1234 FILLER_28_170
*1235 FILLER_28_178
*1236 FILLER_28_181
*1237 FILLER_28_194
*1238 FILLER_28_197
*1239 FILLER_28_25
*1240 FILLER_28_29
*1241 FILLER_28_32
*1242 FILLER_28_49
*1243 FILLER_28_52
*1244 FILLER_28_55
*1245 FILLER_28_58
*1246 FILLER_28_70
*1247 FILLER_28_73
*1248 FILLER_28_76
*1249 FILLER_28_90
*1250 FILLER_28_93
*1251 FILLER_28_96
*1252 FILLER_28_99
*1253 FILLER_29_101
*1254 FILLER_29_111
*1255 FILLER_29_113
*1256 FILLER_29_116
*1257 FILLER_29_123
*1258 FILLER_29_126
*1259 FILLER_29_136
*1260 FILLER_29_139
*1261 FILLER_29_142
*1262 FILLER_29_145
*1263 FILLER_29_148
*1264 FILLER_29_151
*1265 FILLER_29_154
*1266 FILLER_29_157
*1267 FILLER_29_160
*1268 FILLER_29_163
*1269 FILLER_29_166
*1270 FILLER_29_169
*1271 FILLER_29_172
*1272 FILLER_29_175
*1273 FILLER_29_178
*1274 FILLER_29_186
*1275 FILLER_29_194
*1276 FILLER_29_197
*1277 FILLER_29_204
*1278 FILLER_29_207
*1279 FILLER_29_37
*1280 FILLER_29_46
*1281 FILLER_29_57
*1282 FILLER_29_77
*1283 FILLER_29_8
*1284 FILLER_29_80
*1285 FILLER_29_83
*1286 FILLER_29_86
*1287 FILLER_29_89
*1288 FILLER_29_92
*1289 FILLER_29_95
*1290 FILLER_29_98
*1291 FILLER_2_113
*1292 FILLER_2_133
*1293 FILLER_2_141
*1294 FILLER_2_160
*1295 FILLER_2_18
*1296 FILLER_2_193
*1297 FILLER_2_197
*1298 FILLER_2_204
*1299 FILLER_2_207
*1300 FILLER_2_21
*1301 FILLER_2_24
*1302 FILLER_2_27
*1303 FILLER_2_29
*1304 FILLER_2_3
*1305 FILLER_2_40
*1306 FILLER_2_46
*1307 FILLER_2_6
*1308 FILLER_2_66
*1309 FILLER_2_69
*1310 FILLER_2_9
*1311 FILLER_2_93
*1312 FILLER_30_117
*1313 FILLER_30_145
*1314 FILLER_30_148
*1315 FILLER_30_163
*1316 FILLER_30_166
*1317 FILLER_30_169
*1318 FILLER_30_172
*1319 FILLER_30_197
*1320 FILLER_30_36
*1321 FILLER_30_46
*1322 FILLER_30_49
*1323 FILLER_30_52
*1324 FILLER_30_55
*1325 FILLER_30_58
*1326 FILLER_30_71
*1327 FILLER_30_92
*1328 FILLER_30_95
*1329 FILLER_31_113
*1330 FILLER_31_119
*1331 FILLER_31_122
*1332 FILLER_31_125
*1333 FILLER_31_145
*1334 FILLER_31_166
*1335 FILLER_31_169
*1336 FILLER_31_172
*1337 FILLER_31_175
*1338 FILLER_31_178
*1339 FILLER_31_181
*1340 FILLER_31_184
*1341 FILLER_31_187
*1342 FILLER_31_38
*1343 FILLER_31_50
*1344 FILLER_31_57
*1345 FILLER_31_60
*1346 FILLER_31_74
*1347 FILLER_31_92
*1348 FILLER_31_95
*1349 FILLER_32_124
*1350 FILLER_32_130
*1351 FILLER_32_133
*1352 FILLER_32_136
*1353 FILLER_32_139
*1354 FILLER_32_141
*1355 FILLER_32_144
*1356 FILLER_32_15
*1357 FILLER_32_154
*1358 FILLER_32_157
*1359 FILLER_32_177
*1360 FILLER_32_180
*1361 FILLER_32_183
*1362 FILLER_32_186
*1363 FILLER_32_189
*1364 FILLER_32_192
*1365 FILLER_32_195
*1366 FILLER_32_197
*1367 FILLER_32_29
*1368 FILLER_32_41
*1369 FILLER_32_58
*1370 FILLER_32_78
*1371 FILLER_32_85
*1372 FILLER_32_88
*1373 FILLER_33_121
*1374 FILLER_33_132
*1375 FILLER_33_135
*1376 FILLER_33_158
*1377 FILLER_33_180
*1378 FILLER_33_183
*1379 FILLER_33_186
*1380 FILLER_33_189
*1381 FILLER_33_192
*1382 FILLER_33_195
*1383 FILLER_33_198
*1384 FILLER_33_201
*1385 FILLER_33_204
*1386 FILLER_33_207
*1387 FILLER_33_3
*1388 FILLER_33_57
*1389 FILLER_33_60
*1390 FILLER_33_81
*1391 FILLER_33_84
*1392 FILLER_33_87
*1393 FILLER_34_103
*1394 FILLER_34_106
*1395 FILLER_34_111
*1396 FILLER_34_122
*1397 FILLER_34_125
*1398 FILLER_34_128
*1399 FILLER_34_141
*1400 FILLER_34_177
*1401 FILLER_34_180
*1402 FILLER_34_183
*1403 FILLER_34_186
*1404 FILLER_34_189
*1405 FILLER_34_192
*1406 FILLER_34_195
*1407 FILLER_34_197
*1408 FILLER_34_200
*1409 FILLER_34_203
*1410 FILLER_34_206
*1411 FILLER_34_29
*1412 FILLER_34_3
*1413 FILLER_34_43
*1414 FILLER_34_46
*1415 FILLER_34_57
*1416 FILLER_34_6
*1417 FILLER_34_85
*1418 FILLER_34_9
*1419 FILLER_3_113
*1420 FILLER_3_116
*1421 FILLER_3_119
*1422 FILLER_3_143
*1423 FILLER_3_151
*1424 FILLER_3_154
*1425 FILLER_3_157
*1426 FILLER_3_160
*1427 FILLER_3_163
*1428 FILLER_3_166
*1429 FILLER_3_181
*1430 FILLER_3_184
*1431 FILLER_3_187
*1432 FILLER_3_190
*1433 FILLER_3_193
*1434 FILLER_3_24
*1435 FILLER_3_27
*1436 FILLER_3_3
*1437 FILLER_3_32
*1438 FILLER_3_47
*1439 FILLER_3_57
*1440 FILLER_3_65
*1441 FILLER_3_68
*1442 FILLER_3_71
*1443 FILLER_3_74
*1444 FILLER_3_96
*1445 FILLER_4_111
*1446 FILLER_4_114
*1447 FILLER_4_117
*1448 FILLER_4_120
*1449 FILLER_4_127
*1450 FILLER_4_130
*1451 FILLER_4_133
*1452 FILLER_4_136
*1453 FILLER_4_139
*1454 FILLER_4_141
*1455 FILLER_4_144
*1456 FILLER_4_147
*1457 FILLER_4_150
*1458 FILLER_4_16
*1459 FILLER_4_164
*1460 FILLER_4_167
*1461 FILLER_4_170
*1462 FILLER_4_176
*1463 FILLER_4_179
*1464 FILLER_4_182
*1465 FILLER_4_185
*1466 FILLER_4_188
*1467 FILLER_4_197
*1468 FILLER_4_29
*1469 FILLER_4_3
*1470 FILLER_4_55
*1471 FILLER_4_58
*1472 FILLER_4_65
*1473 FILLER_4_68
*1474 FILLER_4_71
*1475 FILLER_4_92
*1476 FILLER_4_95
*1477 FILLER_5_109
*1478 FILLER_5_113
*1479 FILLER_5_132
*1480 FILLER_5_135
*1481 FILLER_5_159
*1482 FILLER_5_181
*1483 FILLER_5_184
*1484 FILLER_5_38
*1485 FILLER_5_51
*1486 FILLER_5_54
*1487 FILLER_5_70
*1488 FILLER_5_73
*1489 FILLER_5_87
*1490 FILLER_5_90
*1491 FILLER_6_102
*1492 FILLER_6_141
*1493 FILLER_6_160
*1494 FILLER_6_163
*1495 FILLER_6_166
*1496 FILLER_6_169
*1497 FILLER_6_175
*1498 FILLER_6_197
*1499 FILLER_6_27
*1500 FILLER_6_34
*1501 FILLER_6_43
*1502 FILLER_6_46
*1503 FILLER_6_49
*1504 FILLER_6_52
*1505 FILLER_6_55
*1506 FILLER_6_58
*1507 FILLER_6_61
*1508 FILLER_6_64
*1509 FILLER_6_67
*1510 FILLER_6_77
*1511 FILLER_6_80
*1512 FILLER_6_83
*1513 FILLER_6_85
*1514 FILLER_6_88
*1515 FILLER_7_113
*1516 FILLER_7_118
*1517 FILLER_7_121
*1518 FILLER_7_124
*1519 FILLER_7_127
*1520 FILLER_7_130
*1521 FILLER_7_133
*1522 FILLER_7_145
*1523 FILLER_7_148
*1524 FILLER_7_151
*1525 FILLER_7_154
*1526 FILLER_7_157
*1527 FILLER_7_160
*1528 FILLER_7_163
*1529 FILLER_7_166
*1530 FILLER_7_169
*1531 FILLER_7_172
*1532 FILLER_7_175
*1533 FILLER_7_24
*1534 FILLER_7_51
*1535 FILLER_7_54
*1536 FILLER_7_65
*1537 FILLER_7_68
*1538 FILLER_7_71
*1539 FILLER_7_74
*1540 FILLER_7_77
*1541 FILLER_7_95
*1542 FILLER_7_98
*1543 FILLER_8_106
*1544 FILLER_8_121
*1545 FILLER_8_139
*1546 FILLER_8_141
*1547 FILLER_8_144
*1548 FILLER_8_147
*1549 FILLER_8_150
*1550 FILLER_8_153
*1551 FILLER_8_156
*1552 FILLER_8_159
*1553 FILLER_8_193
*1554 FILLER_8_197
*1555 FILLER_8_26
*1556 FILLER_8_29
*1557 FILLER_8_3
*1558 FILLER_8_64
*1559 FILLER_8_67
*1560 FILLER_8_82
*1561 FILLER_8_92
*1562 FILLER_8_95
*1563 FILLER_9_113
*1564 FILLER_9_116
*1565 FILLER_9_119
*1566 FILLER_9_122
*1567 FILLER_9_125
*1568 FILLER_9_128
*1569 FILLER_9_131
*1570 FILLER_9_134
*1571 FILLER_9_137
*1572 FILLER_9_140
*1573 FILLER_9_143
*1574 FILLER_9_146
*1575 FILLER_9_149
*1576 FILLER_9_167
*1577 FILLER_9_169
*1578 FILLER_9_188
*1579 FILLER_9_48
*1580 FILLER_9_51
*1581 FILLER_9_54
*1582 FILLER_9_57
*1583 FILLER_9_66
*1584 FILLER_9_69
*1585 FILLER_9_72
*1586 FILLER_9_75
*1587 FILLER_9_78
*1588 FILLER_9_81
*1589 FILLER_9_88
*1590 FILLER_9_91
*1591 FILLER_9_94
*1592 PHY_EDGE_ROW_0_Left_35
*1593 PHY_EDGE_ROW_0_Right_0
*1594 PHY_EDGE_ROW_10_Left_45
*1595 PHY_EDGE_ROW_10_Right_10
*1596 PHY_EDGE_ROW_11_Left_46
*1597 PHY_EDGE_ROW_11_Right_11
*1598 PHY_EDGE_ROW_12_Left_47
*1599 PHY_EDGE_ROW_12_Right_12
*1600 PHY_EDGE_ROW_13_Left_48
*1601 PHY_EDGE_ROW_13_Right_13
*1602 PHY_EDGE_ROW_14_Left_49
*1603 PHY_EDGE_ROW_14_Right_14
*1604 PHY_EDGE_ROW_15_Left_50
*1605 PHY_EDGE_ROW_15_Right_15
*1606 PHY_EDGE_ROW_16_Left_51
*1607 PHY_EDGE_ROW_16_Right_16
*1608 PHY_EDGE_ROW_17_Left_52
*1609 PHY_EDGE_ROW_17_Right_17
*1610 PHY_EDGE_ROW_18_Left_53
*1611 PHY_EDGE_ROW_18_Right_18
*1612 PHY_EDGE_ROW_19_Left_54
*1613 PHY_EDGE_ROW_19_Right_19
*1614 PHY_EDGE_ROW_1_Left_36
*1615 PHY_EDGE_ROW_1_Right_1
*1616 PHY_EDGE_ROW_20_Left_55
*1617 PHY_EDGE_ROW_20_Right_20
*1618 PHY_EDGE_ROW_21_Left_56
*1619 PHY_EDGE_ROW_21_Right_21
*1620 PHY_EDGE_ROW_22_Left_57
*1621 PHY_EDGE_ROW_22_Right_22
*1622 PHY_EDGE_ROW_23_Left_58
*1623 PHY_EDGE_ROW_23_Right_23
*1624 PHY_EDGE_ROW_24_Left_59
*1625 PHY_EDGE_ROW_24_Right_24
*1626 PHY_EDGE_ROW_25_Left_60
*1627 PHY_EDGE_ROW_25_Right_25
*1628 PHY_EDGE_ROW_26_Left_61
*1629 PHY_EDGE_ROW_26_Right_26
*1630 PHY_EDGE_ROW_27_Left_62
*1631 PHY_EDGE_ROW_27_Right_27
*1632 PHY_EDGE_ROW_28_Left_63
*1633 PHY_EDGE_ROW_28_Right_28
*1634 PHY_EDGE_ROW_29_Left_64
*1635 PHY_EDGE_ROW_29_Right_29
*1636 PHY_EDGE_ROW_2_Left_37
*1637 PHY_EDGE_ROW_2_Right_2
*1638 PHY_EDGE_ROW_30_Left_65
*1639 PHY_EDGE_ROW_30_Right_30
*1640 PHY_EDGE_ROW_31_Left_66
*1641 PHY_EDGE_ROW_31_Right_31
*1642 PHY_EDGE_ROW_32_Left_67
*1643 PHY_EDGE_ROW_32_Right_32
*1644 PHY_EDGE_ROW_33_Left_68
*1645 PHY_EDGE_ROW_33_Right_33
*1646 PHY_EDGE_ROW_34_Left_69
*1647 PHY_EDGE_ROW_34_Right_34
*1648 PHY_EDGE_ROW_3_Left_38
*1649 PHY_EDGE_ROW_3_Right_3
*1650 PHY_EDGE_ROW_4_Left_39
*1651 PHY_EDGE_ROW_4_Right_4
*1652 PHY_EDGE_ROW_5_Left_40
*1653 PHY_EDGE_ROW_5_Right_5
*1654 PHY_EDGE_ROW_6_Left_41
*1655 PHY_EDGE_ROW_6_Right_6
*1656 PHY_EDGE_ROW_7_Left_42
*1657 PHY_EDGE_ROW_7_Right_7
*1658 PHY_EDGE_ROW_8_Left_43
*1659 PHY_EDGE_ROW_8_Right_8
*1660 PHY_EDGE_ROW_9_Left_44
*1661 PHY_EDGE_ROW_9_Right_9
*1662 TAP_TAPCELL_ROW_0_70
*1663 TAP_TAPCELL_ROW_0_71
*1664 TAP_TAPCELL_ROW_0_72
*1665 TAP_TAPCELL_ROW_0_73
*1666 TAP_TAPCELL_ROW_0_74
*1667 TAP_TAPCELL_ROW_0_75
*1668 TAP_TAPCELL_ROW_0_76
*1669 TAP_TAPCELL_ROW_10_108
*1670 TAP_TAPCELL_ROW_10_109
*1671 TAP_TAPCELL_ROW_10_110
*1672 TAP_TAPCELL_ROW_10_111
*1673 TAP_TAPCELL_ROW_11_112
*1674 TAP_TAPCELL_ROW_11_113
*1675 TAP_TAPCELL_ROW_11_114
*1676 TAP_TAPCELL_ROW_12_115
*1677 TAP_TAPCELL_ROW_12_116
*1678 TAP_TAPCELL_ROW_12_117
*1679 TAP_TAPCELL_ROW_12_118
*1680 TAP_TAPCELL_ROW_13_119
*1681 TAP_TAPCELL_ROW_13_120
*1682 TAP_TAPCELL_ROW_13_121
*1683 TAP_TAPCELL_ROW_14_122
*1684 TAP_TAPCELL_ROW_14_123
*1685 TAP_TAPCELL_ROW_14_124
*1686 TAP_TAPCELL_ROW_14_125
*1687 TAP_TAPCELL_ROW_15_126
*1688 TAP_TAPCELL_ROW_15_127
*1689 TAP_TAPCELL_ROW_15_128
*1690 TAP_TAPCELL_ROW_16_129
*1691 TAP_TAPCELL_ROW_16_130
*1692 TAP_TAPCELL_ROW_16_131
*1693 TAP_TAPCELL_ROW_16_132
*1694 TAP_TAPCELL_ROW_17_133
*1695 TAP_TAPCELL_ROW_17_134
*1696 TAP_TAPCELL_ROW_17_135
*1697 TAP_TAPCELL_ROW_18_136
*1698 TAP_TAPCELL_ROW_18_137
*1699 TAP_TAPCELL_ROW_18_138
*1700 TAP_TAPCELL_ROW_18_139
*1701 TAP_TAPCELL_ROW_19_140
*1702 TAP_TAPCELL_ROW_19_141
*1703 TAP_TAPCELL_ROW_19_142
*1704 TAP_TAPCELL_ROW_1_77
*1705 TAP_TAPCELL_ROW_1_78
*1706 TAP_TAPCELL_ROW_1_79
*1707 TAP_TAPCELL_ROW_20_143
*1708 TAP_TAPCELL_ROW_20_144
*1709 TAP_TAPCELL_ROW_20_145
*1710 TAP_TAPCELL_ROW_20_146
*1711 TAP_TAPCELL_ROW_21_147
*1712 TAP_TAPCELL_ROW_21_148
*1713 TAP_TAPCELL_ROW_21_149
*1714 TAP_TAPCELL_ROW_22_150
*1715 TAP_TAPCELL_ROW_22_151
*1716 TAP_TAPCELL_ROW_22_152
*1717 TAP_TAPCELL_ROW_22_153
*1718 TAP_TAPCELL_ROW_23_154
*1719 TAP_TAPCELL_ROW_23_155
*1720 TAP_TAPCELL_ROW_23_156
*1721 TAP_TAPCELL_ROW_24_157
*1722 TAP_TAPCELL_ROW_24_158
*1723 TAP_TAPCELL_ROW_24_159
*1724 TAP_TAPCELL_ROW_24_160
*1725 TAP_TAPCELL_ROW_25_161
*1726 TAP_TAPCELL_ROW_25_162
*1727 TAP_TAPCELL_ROW_25_163
*1728 TAP_TAPCELL_ROW_26_164
*1729 TAP_TAPCELL_ROW_26_165
*1730 TAP_TAPCELL_ROW_26_166
*1731 TAP_TAPCELL_ROW_26_167
*1732 TAP_TAPCELL_ROW_27_168
*1733 TAP_TAPCELL_ROW_27_169
*1734 TAP_TAPCELL_ROW_27_170
*1735 TAP_TAPCELL_ROW_28_171
*1736 TAP_TAPCELL_ROW_28_172
*1737 TAP_TAPCELL_ROW_28_173
*1738 TAP_TAPCELL_ROW_28_174
*1739 TAP_TAPCELL_ROW_29_175
*1740 TAP_TAPCELL_ROW_29_176
*1741 TAP_TAPCELL_ROW_29_177
*1742 TAP_TAPCELL_ROW_2_80
*1743 TAP_TAPCELL_ROW_2_81
*1744 TAP_TAPCELL_ROW_2_82
*1745 TAP_TAPCELL_ROW_2_83
*1746 TAP_TAPCELL_ROW_30_178
*1747 TAP_TAPCELL_ROW_30_179
*1748 TAP_TAPCELL_ROW_30_180
*1749 TAP_TAPCELL_ROW_30_181
*1750 TAP_TAPCELL_ROW_31_182
*1751 TAP_TAPCELL_ROW_31_183
*1752 TAP_TAPCELL_ROW_31_184
*1753 TAP_TAPCELL_ROW_32_185
*1754 TAP_TAPCELL_ROW_32_186
*1755 TAP_TAPCELL_ROW_32_187
*1756 TAP_TAPCELL_ROW_32_188
*1757 TAP_TAPCELL_ROW_33_189
*1758 TAP_TAPCELL_ROW_33_190
*1759 TAP_TAPCELL_ROW_33_191
*1760 TAP_TAPCELL_ROW_34_192
*1761 TAP_TAPCELL_ROW_34_193
*1762 TAP_TAPCELL_ROW_34_194
*1763 TAP_TAPCELL_ROW_34_195
*1764 TAP_TAPCELL_ROW_34_196
*1765 TAP_TAPCELL_ROW_34_197
*1766 TAP_TAPCELL_ROW_34_198
*1767 TAP_TAPCELL_ROW_3_84
*1768 TAP_TAPCELL_ROW_3_85
*1769 TAP_TAPCELL_ROW_3_86
*1770 TAP_TAPCELL_ROW_4_87
*1771 TAP_TAPCELL_ROW_4_88
*1772 TAP_TAPCELL_ROW_4_89
*1773 TAP_TAPCELL_ROW_4_90
*1774 TAP_TAPCELL_ROW_5_91
*1775 TAP_TAPCELL_ROW_5_92
*1776 TAP_TAPCELL_ROW_5_93
*1777 TAP_TAPCELL_ROW_6_94
*1778 TAP_TAPCELL_ROW_6_95
*1779 TAP_TAPCELL_ROW_6_96
*1780 TAP_TAPCELL_ROW_6_97
*1781 TAP_TAPCELL_ROW_7_100
*1782 TAP_TAPCELL_ROW_7_98
*1783 TAP_TAPCELL_ROW_7_99
*1784 TAP_TAPCELL_ROW_8_101
*1785 TAP_TAPCELL_ROW_8_102
*1786 TAP_TAPCELL_ROW_8_103
*1787 TAP_TAPCELL_ROW_8_104
*1788 TAP_TAPCELL_ROW_9_105
*1789 TAP_TAPCELL_ROW_9_106
*1790 TAP_TAPCELL_ROW_9_107
*1791 _353_
*1792 _354_
*1793 _355_
*1794 _356_
*1795 _357_
*1796 _358_
*1797 _359_
*1798 _360_
*1799 _361_
*1800 _362_
*1801 _363_
*1802 _364_
*1803 _365_
*1804 _366_
*1805 _367_
*1806 _368_
*1807 _369_
*1808 _370_
*1809 _371_
*1810 _372_
*1811 _373_
*1812 _374_
*1813 _375_
*1814 _376_
*1815 _377_
*1816 _378_
*1817 _379_
*1818 _380_
*1819 _381_
*1820 _382_
*1821 _383_
*1822 _384_
*1823 _385_
*1824 _386_
*1825 _387_
*1826 _388_
*1827 _389_
*1828 _390_
*1829 _391_
*1830 _392_
*1831 _393_
*1832 _394_
*1833 _395_
*1834 _396_
*1835 _397_
*1836 _398_
*1837 _399_
*1838 _400_
*1839 _401_
*1840 _402_
*1841 _403_
*1842 _404_
*1843 _405_
*1844 _406_
*1845 _407_
*1846 _408_
*1847 _409_
*1848 _410_
*1849 _411_
*1850 _412_
*1851 _413_
*1852 _414_
*1853 _415_
*1854 _416_
*1855 _417_
*1856 _418_
*1857 _419_
*1858 _420_
*1859 _421_
*1860 _422_
*1861 _423_
*1862 _424_
*1863 _425_
*1864 _426_
*1865 _427_
*1866 _428_
*1867 _429_
*1868 _430_
*1869 _431_
*1870 _432_
*1871 _433_
*1872 _434_
*1873 _435_
*1874 _436_
*1875 _437_
*1876 _438_
*1877 _439_
*1878 _440_
*1879 _441_
*1880 _442_
*1881 _443_
*1882 _444_
*1883 _445_
*1884 _446_
*1885 _447_
*1886 _448_
*1887 _449_
*1888 _450_
*1889 _451_
*1890 _452_
*1891 _453_
*1892 _454_
*1893 _455_
*1894 _456_
*1895 _457_
*1896 _458_
*1897 _459_
*1898 _460_
*1899 _461_
*1900 _462_
*1901 _463_
*1902 _464_
*1903 _465_
*1904 _466_
*1905 _467_
*1906 _468_
*1907 _469_
*1908 _470_
*1909 _471_
*1910 _472_
*1911 _473_
*1912 _474_
*1913 _475_
*1914 _476_
*1915 _477_
*1916 _478_
*1917 _479_
*1918 _480_
*1919 _481_
*1920 _482_
*1921 _483_
*1922 _484_
*1923 _485_
*1924 _486_
*1925 _487_
*1926 _488_
*1927 _489_
*1928 _490_
*1929 _491_
*1930 _492_
*1931 _493_
*1932 _494_
*1933 _495_
*1934 _496_
*1935 _497_
*1936 _498_
*1937 _499_
*1938 _500_
*1939 _501_
*1940 _502_
*1941 _503_
*1942 _504_
*1943 _505_
*1944 _506_
*1945 _507_
*1946 _508_
*1947 _509_
*1948 _510_
*1949 _511_
*1950 _512_
*1951 _513_
*1952 _514_
*1953 _515_
*1954 _516_
*1955 _517_
*1956 _518_
*1957 _519_
*1958 _520_
*1959 _521_
*1960 _522_
*1961 _523_
*1962 _524_
*1963 _525_
*1964 _526_
*1965 _527_
*1966 _528_
*1967 _529_
*1968 _530_
*1969 _531_
*1970 _532_
*1971 _533_
*1972 _534_
*1973 _535_
*1974 _536_
*1975 _537_
*1976 _538_
*1977 _539_
*1978 _540_
*1979 _541_
*1980 _542_
*1981 _543_
*1982 _544_
*1983 _545_
*1984 _546_
*1985 _547_
*1986 _548_
*1987 _549_
*1988 _550_
*1989 _551_
*1990 _552_
*1991 _553_
*1992 _554_
*1993 _555_
*1994 _556_
*1995 _557_
*1996 _558_
*1997 _559_
*1998 _560_
*1999 _561_
*2000 _562_
*2001 _563_
*2002 _564_
*2003 _565_
*2004 _566_
*2005 _567_
*2006 _568_
*2007 _569_
*2008 _570_
*2009 _571_
*2010 _572_
*2011 _573_
*2012 _574_
*2013 _575_
*2014 _576_
*2015 _577_
*2016 _578_
*2017 _579_
*2018 _580_
*2019 _581_
*2020 _582_
*2021 _583_
*2022 _584_
*2023 _585_
*2024 _586_
*2025 _587_
*2026 _588_
*2027 _589_
*2028 _590_
*2029 _591_
*2030 _592_
*2031 _593_
*2032 _594_
*2033 _595_
*2034 _596_
*2035 _597_
*2036 _598_
*2037 _599_
*2038 _600_
*2039 _601_
*2040 _602_
*2041 _603_
*2042 _604_
*2043 _605_
*2044 _606_
*2045 _607_
*2046 _608_
*2047 _609_
*2048 _610_
*2049 _611_
*2050 _612_
*2051 _613_
*2052 _614_
*2053 _615_
*2054 _616_
*2055 _617_
*2056 _618_
*2057 _619_
*2058 _620_
*2059 _621_
*2060 _622_
*2061 _623_
*2062 _624_
*2063 _625_
*2064 _626_
*2065 _627_
*2066 _628_
*2067 _629_
*2068 _630_
*2069 _631_
*2070 _632_
*2071 _633_
*2072 _634_
*2073 _635_
*2074 _636_
*2075 _637_
*2076 _638_
*2077 _639_
*2078 _640_
*2079 _641_
*2080 _642_
*2081 _643_
*2082 _644_
*2083 _645_
*2084 _646_
*2085 _647_
*2086 _648_
*2087 _649_
*2088 _650_
*2089 _651_
*2090 _652_
*2091 _653_
*2092 _654_
*2093 _655_
*2094 _656_
*2095 _657_
*2096 _658_
*2097 _659_
*2098 _660_
*2099 _661_
*2100 _662_
*2101 _663_
*2102 _664_
*2103 _665_
*2104 _666_
*2105 _667_
*2106 _668_
*2107 _669_
*2108 _670_
*2109 _671_
*2110 _672_
*2111 _673_
*2112 _674_
*2113 _675_
*2114 _676_
*2115 _677_
*2116 _678_
*2117 _679_
*2118 _680_
*2119 _681_
*2120 _682_
*2121 _683_
*2122 _684_
*2123 _685_
*2124 _686_
*2125 _687_
*2126 _688_
*2127 _689_
*2128 _690_
*2129 _691_
*2130 _692_
*2131 _693_
*2132 _694_
*2133 _695_
*2134 _696_
*2135 _697_
*2136 _698_
*2137 _699_
*2138 _700_
*2139 _701_
*2140 _702_
*2141 _703_
*2142 _704_
*2143 _705_
*2144 _706_
*2145 _707_
*2146 _708_
*2147 _709_
*2148 _710_
*2149 _711_
*2150 _712_
*2151 _713_
*2152 _714_
*2153 _715_
*2154 _716_
*2155 _717_
*2156 _718_
*2157 _719_
*2158 _720_
*2159 _721_
*2160 _722_
*2161 _723_
*2162 _724_
*2163 _725_
*2164 _726_
*2165 _727_
*2166 _728_
*2167 _729_
*2168 _730_
*2169 _731_
*2170 _732_
*2171 _733_
*2172 _734_
*2173 _735_
*2174 _736_
*2175 _737_
*2176 _738_
*2177 fanout101
*2178 fanout103
*2179 fanout105
*2180 fanout106
*2181 fanout107
*2182 fanout108
*2183 fanout109
*2184 fanout111
*2185 fanout113
*2186 fanout115
*2187 fanout116
*2188 fanout117
*2189 fanout99
*2190 input1
*2191 input10
*2192 input11
*2193 input12
*2194 input13
*2195 input14
*2196 input15
*2197 input16
*2198 input17
*2199 input18
*2200 input19
*2201 input2
*2202 input20
*2203 input21
*2204 input22
*2205 input23
*2206 input24
*2207 input25
*2208 input26
*2209 input27
*2210 input28
*2211 input29
*2212 input3
*2213 input30
*2214 input31
*2215 input32
*2216 input33
*2217 input34
*2218 input35
*2219 input36
*2220 input37
*2221 input38
*2222 input39
*2223 input4
*2224 input40
*2225 input41
*2226 input42
*2227 input43
*2228 input44
*2229 input45
*2230 input46
*2231 input47
*2232 input48
*2233 input49
*2234 input5
*2235 input50
*2236 input51
*2237 input52
*2238 input53
*2239 input54
*2240 input55
*2241 input56
*2242 input57
*2243 input58
*2244 input59
*2245 input6
*2246 input60
*2247 input61
*2248 input62
*2249 input63
*2250 input64
*2251 input65
*2252 input7
*2253 input8
*2254 input9
*2255 load_slew102
*2256 load_slew104
*2257 load_slew110
*2258 load_slew112
*2259 load_slew114
*2260 output66
*2261 output67
*2262 output68
*2263 output69
*2264 output70
*2265 output71
*2266 output72
*2267 output73
*2268 output74
*2269 output75
*2270 output76
*2271 output77
*2272 output78
*2273 output79
*2274 output80
*2275 output81
*2276 output82
*2277 output83
*2278 output84
*2279 output85
*2280 output86
*2281 output87
*2282 output88
*2283 output89
*2284 output90
*2285 output91
*2286 output92
*2287 output93
*2288 output94
*2289 output95
*2290 output96
*2291 output97
*2292 output98
*2293 rebuffer118
*2294 rebuffer119
*2295 rebuffer120
*2296 rebuffer121
*2297 rebuffer122
*2298 rebuffer123
*2299 rebuffer124
*2300 rebuffer125
*2301 rebuffer126
*2302 rebuffer127
*2303 rebuffer128
*2304 rebuffer129
*2305 rebuffer130
*2306 rebuffer131
*2307 rebuffer132
*2308 rebuffer133
*2309 rebuffer134
*2310 rebuffer135
*2311 rebuffer136
*2312 rebuffer137
*2313 rebuffer138
*2314 rebuffer139
*2315 rebuffer140
*2316 rebuffer141
*2317 rebuffer142
*2318 rebuffer143
*2319 rebuffer144
*2320 rebuffer145
*2321 rebuffer147
*2322 rebuffer148
*2323 rebuffer158
*2324 rebuffer166
*2325 rebuffer167
*2326 rebuffer187
*2327 rebuffer203
*2328 rebuffer204
*2329 rebuffer205
*2330 rebuffer206

*PORTS
A[0] I
A[10] I
A[11] I
A[12] I
A[13] I
A[14] I
A[15] I
A[16] I
A[17] I
A[18] I
A[19] I
A[1] I
A[20] I
A[21] I
A[22] I
A[23] I
A[24] I
A[25] I
A[26] I
A[27] I
A[28] I
A[29] I
A[2] I
A[30] I
A[31] I
A[3] I
A[4] I
A[5] I
A[6] I
A[7] I
A[8] I
A[9] I
B[0] I
B[10] I
B[11] I
B[12] I
B[13] I
B[14] I
B[15] I
B[16] I
B[17] I
B[18] I
B[19] I
B[1] I
B[20] I
B[21] I
B[22] I
B[23] I
B[24] I
B[25] I
B[26] I
B[27] I
B[28] I
B[29] I
B[2] I
B[30] I
B[31] I
B[3] I
B[4] I
B[5] I
B[6] I
B[7] I
B[8] I
B[9] I
S[0] O
S[10] O
S[11] O
S[12] O
S[13] O
S[14] O
S[15] O
S[16] O
S[17] O
S[18] O
S[19] O
S[1] O
S[20] O
S[21] O
S[22] O
S[23] O
S[24] O
S[25] O
S[26] O
S[27] O
S[28] O
S[29] O
S[2] O
S[30] O
S[31] O
S[3] O
S[4] O
S[5] O
S[6] O
S[7] O
S[8] O
S[9] O
carryOut O
sub I

*D_NET *1 0.00379291
*CONN
*P A[0] I
*I *2190:A I *D sky130_fd_sc_hd__clkdlybuf4s25_1
*CAP
1 A[0] 0.00154588
2 *2190:A 0.00154588
3 *2190:A *1846:B 5.18317e-06
4 *2190:A *1848:A1 2.73701e-05
5 *2190:A *2186:A 0
6 *2190:A *2205:A 0.000239155
7 *2190:A *2216:A 0.000240519
8 *2190:A *2240:A 0.000188914
9 *2190:A *2243:A 0
10 *2190:A *458:22 0
*RES
1 A[0] *2190:A 8.15943 
*END

*D_NET *2 0.00181694
*CONN
*P A[10] I
*I *2201:A I *D sky130_fd_sc_hd__clkdlybuf4s25_1
*CAP
1 A[10] 0.000811729
2 *2201:A 0.000811729
3 *2201:A S[10] 0
4 *2201:A S[8] 0
5 *2201:A *2217:A 0.000153332
6 *2201:A *2218:A 4.01548e-05
*RES
1 A[10] *2201:A 16.3552 
*END

*D_NET *3 0.0016662
*CONN
*P A[11] I
*I *2212:A I *D sky130_fd_sc_hd__clkdlybuf4s25_1
*CAP
1 A[11] 0.000500368
2 *2212:A 0.000500368
3 *2212:A S[11] 0.000484907
4 *2212:A *2148:A1 5.07229e-05
5 *2212:A *2218:A 0.000129833
6 *2212:A *531:10 0
*RES
1 A[11] *2212:A 7.38923 
*END

*D_NET *4 0.00167226
*CONN
*P A[12] I
*I *2223:A I *D sky130_fd_sc_hd__clkdlybuf4s25_1
*CAP
1 A[12] 0.000472804
2 *2223:A 0.000472804
3 *2223:A S[13] 0.000361751
4 *2223:A *2220:A 0.0003649
5 *2223:A *2242:A 0
*RES
1 A[12] *2223:A 9.58963 
*END

*D_NET *5 0.00134237
*CONN
*P A[13] I
*I *2234:A I *D sky130_fd_sc_hd__clkdlybuf4s25_1
*CAP
1 A[13] 0.000244592
2 *2234:A 0.000244592
3 *2234:A S[14] 0.000304925
4 *2234:A *2220:A 0.00052896
5 *2234:A *2292:A 1.92979e-05
*RES
1 A[13] *2234:A 5.72077 
*END

*D_NET *6 0.00137644
*CONN
*P A[14] I
*I *2245:A I *D sky130_fd_sc_hd__clkdlybuf4s25_1
*CAP
1 A[14] 0.000231055
2 *2245:A 0.000231055
3 *2245:A S[15] 0.000368799
4 *2245:A *2207:A 0.000183781
5 *2245:A *2221:A 0.000361751
6 *2245:A *526:10 0
*RES
1 A[14] *2245:A 7.54963 
*END

*D_NET *7 0.00173509
*CONN
*P A[15] I
*I *2252:A I *D sky130_fd_sc_hd__clkdlybuf4s25_1
*CAP
1 A[15] 0.00040917
2 *2252:A 0.00040917
3 *2252:A *2191:A 0.000107794
4 *2252:A *2222:A 0.000355624
5 *2252:A *2226:A 0.000161508
6 *2252:A *2253:A 0.000170388
7 *2252:A *2254:A 0.000121437
*RES
1 A[15] *2252:A 12.7155 
*END

*D_NET *8 0.00181146
*CONN
*P A[16] I
*I *2253:A I *D sky130_fd_sc_hd__clkdlybuf4s25_1
*CAP
1 A[16] 0.000453467
2 *2253:A 0.000453467
3 *2253:A S[18] 9.48869e-05
4 *2253:A *2191:A 4.93447e-05
5 *2253:A *2224:A 0.000491788
6 *2253:A *2226:A 9.81149e-05
7 *2252:A *2253:A 0.000170388
*RES
1 A[16] *2253:A 14.0407 
*END

*D_NET *9 0.00162076
*CONN
*P A[17] I
*I *2254:A I *D sky130_fd_sc_hd__clkdlybuf4s25_1
*CAP
1 A[17] 0.000410256
2 *2254:A 0.000410256
3 *2254:A *2193:A 0.00027837
4 *2254:A *2222:A 3.42469e-05
5 *2254:A *2225:A 0.000316235
6 *2254:A *575:10 4.99619e-05
7 *2252:A *2254:A 0.000121437
*RES
1 A[17] *2254:A 10.0668 
*END

*D_NET *10 0.00149296
*CONN
*P A[18] I
*I *2191:A I *D sky130_fd_sc_hd__clkdlybuf4s25_1
*CAP
1 A[18] 0.000506877
2 *2191:A 0.000506877
3 *2191:A S[17] 0.000105108
4 *2191:A S[18] 0.000188914
5 *2191:A *1886:B 0
6 *2191:A *2222:A 1.79536e-05
7 *2191:A *2224:A 0
8 *2191:A *2226:A 1.00941e-05
9 *2252:A *2191:A 0.000107794
10 *2253:A *2191:A 4.93447e-05
*RES
1 A[18] *2191:A 12.4288 
*END

*D_NET *11 0.00308574
*CONN
*P A[19] I
*I *2192:A I *D sky130_fd_sc_hd__clkdlybuf4s25_1
*CAP
1 A[19] 0.000795284
2 *2192:A 0.000795284
3 *2192:A S[17] 0
4 *2192:A S[19] 5.22519e-05
5 *2192:A *1900:A_N 5.05227e-05
6 *2192:A *1901:A2 0.00020779
7 *2192:A *2227:A 0.000582572
8 *2192:A *463:71 0
9 *2192:A *465:10 0.000122331
10 *2192:A *570:18 0.000479711
*RES
1 A[19] *2192:A 13.6893 
*END

*D_NET *12 0.00395403
*CONN
*P A[1] I
*I *2193:A I *D sky130_fd_sc_hd__clkdlybuf4s25_1
*CAP
1 A[1] 0.000791167
2 *2193:A 0.000791167
3 *2193:A *1841:A_N 0.000459366
4 *2193:A *1841:B 0.000272984
5 *2193:A *1852:B1 0.000231508
6 *2193:A *2205:A 0.000286419
7 *2193:A *2222:A 0
8 *2193:A *2225:A 0.000243409
9 *2193:A *2228:A 0.00029997
10 *2193:A *233:10 0.000200615
11 *2193:A *459:55 9.90522e-05
12 *2193:A *460:18 0
13 *2254:A *2193:A 0.00027837
*RES
1 A[1] *2193:A 21.3451 
*END

*D_NET *13 0.00146442
*CONN
*P A[20] I
*I *2194:A I *D sky130_fd_sc_hd__clkdlybuf4s25_1
*CAP
1 A[20] 0.000455645
2 *2194:A 0.000455645
3 *2194:A S[20] 6.28008e-05
4 *2194:A S[22] 0
5 *2194:A *1909:A 0.000144018
6 *2194:A *2229:A 0.000346313
7 *2194:A *2272:A 0
8 *2194:A *487:10 0
*RES
1 A[20] *2194:A 9.80663 
*END

*D_NET *14 0.00197893
*CONN
*P A[21] I
*I *2195:A I *D sky130_fd_sc_hd__clkdlybuf4s25_1
*CAP
1 A[21] 0.000654233
2 *2195:A 0.000654233
3 *2195:A *1927:B1_N 9.13949e-06
4 *2195:A *2230:A 0.000561776
5 *2195:A *498:6 2.86975e-05
6 *2195:A *498:21 7.08493e-05
7 *2195:A *549:8 0
*RES
1 A[21] *2195:A 18.4275 
*END

*D_NET *15 0.00127084
*CONN
*P A[22] I
*I *2196:A I *D sky130_fd_sc_hd__clkdlybuf4s25_1
*CAP
1 A[22] 0.000635418
2 *2196:A 0.000635418
3 *2196:A *2197:A 0
4 *2196:A *2231:A 0
*RES
1 A[22] *2196:A 14.8125 
*END

*D_NET *16 0.0028519
*CONN
*P A[23] I
*I *2197:A I *D sky130_fd_sc_hd__clkdlybuf4s25_1
*CAP
1 A[23] 0.000705739
2 *2197:A 0.000705739
3 *2197:A *1954:A_N 8.53113e-06
4 *2197:A *1954:C 0.000145331
5 *2197:A *1968:A 0.000274659
6 *2197:A *2232:A 0.000648923
7 *2197:A *2267:A 0.000362979
8 *2197:A *2277:A 0
9 *2197:A *348:10 0
10 *2197:A *512:16 0
11 *2196:A *2197:A 0
*RES
1 A[23] *2197:A 22.7475 
*END

*D_NET *17 0.00190159
*CONN
*P A[24] I
*I *2198:A I *D sky130_fd_sc_hd__clkdlybuf4s25_1
*CAP
1 A[24] 0.000600204
2 *2198:A 0.000600204
3 *2198:A S[16] 0
4 *2198:A S[25] 0.000637243
5 *2198:A *2277:A 4.82919e-05
6 *2198:A *512:10 1.56428e-05
*RES
1 A[24] *2198:A 17.6775 
*END

*D_NET *18 0.00127405
*CONN
*P A[25] I
*I *2199:A I *D sky130_fd_sc_hd__clkdlybuf4s25_1
*CAP
1 A[25] 0.000637026
2 *2199:A 0.000637026
3 *2199:A S[27] 0
4 *2199:A *2235:A 0
*RES
1 A[25] *2199:A 14.8125 
*END

*D_NET *19 0.00196618
*CONN
*P A[26] I
*I *2200:A I *D sky130_fd_sc_hd__clkdlybuf4s25_1
*CAP
1 A[26] 0.000623231
2 *2200:A 0.000623231
3 *2200:A *2235:A 8.8266e-05
4 *2200:A *2236:A 0.000548339
5 *2200:A *554:10 8.31173e-05
*RES
1 A[26] *2200:A 18.3675 
*END

*D_NET *20 0.00147508
*CONN
*P A[27] I
*I *2202:A I *D sky130_fd_sc_hd__clkdlybuf4s25_1
*CAP
1 A[27] 0.000503978
2 *2202:A 0.000503978
3 *2202:A S[30] 1.07734e-05
4 *2202:A *2059:C1 0
5 *2202:A *2237:A 0.000368799
6 *2202:A *2283:A 8.75474e-05
*RES
1 A[27] *2202:A 6.54403 
*END

*D_NET *21 0.000971948
*CONN
*P A[28] I
*I *2203:A I *D sky130_fd_sc_hd__clkdlybuf4s25_1
*CAP
1 A[28] 0.000382238
2 *2203:A 0.000382238
3 *2203:A S[28] 0
4 *2203:A *2238:A 0.000207472
*RES
1 A[28] *2203:A 6.78463 
*END

*D_NET *22 0.00118579
*CONN
*P A[29] I
*I *2204:A I *D sky130_fd_sc_hd__clkdlybuf4s25_1
*CAP
1 A[29] 0.000380201
2 *2204:A 0.000380201
3 *2204:A S[29] 9.59674e-05
4 *2204:A *2239:A 0.000183965
5 *2204:A *558:12 0.000145453
*RES
1 A[29] *2204:A 8.05963 
*END

*D_NET *23 0.00120909
*CONN
*P A[2] I
*I *2205:A I *D sky130_fd_sc_hd__clkdlybuf4s25_1
*CAP
1 A[2] 0.000341756
2 *2205:A 0.000341756
3 *2205:A *2243:A 0
4 *2190:A *2205:A 0.000239155
5 *2193:A *2205:A 0.000286419
*RES
1 A[2] *2205:A 8.7353 
*END

*D_NET *24 0.00103743
*CONN
*P A[30] I
*I *2206:A I *D sky130_fd_sc_hd__clkdlybuf4s25_1
*CAP
1 A[30] 0.000233351
2 *2206:A 0.000233351
3 *2206:A S[15] 0.000200442
4 *2206:A *2207:A 8.53113e-06
5 *2206:A *2241:A 0.000361751
6 *2206:A *525:10 0
*RES
1 A[30] *2206:A 6.52963 
*END

*D_NET *25 0.00229404
*CONN
*P A[31] I
*I *2207:A I *D sky130_fd_sc_hd__clkdlybuf4s25_1
*CAP
1 A[31] 0.000463401
2 *2207:A 0.000463401
3 *2207:A S[15] 8.3739e-05
4 *2207:A S[31] 0.000384305
5 *2207:A *2058:B 0.000124895
6 *2207:A *2221:A 0.000391627
7 *2207:A *526:10 0.000190358
8 *2206:A *2207:A 8.53113e-06
9 *2245:A *2207:A 0.000183781
*RES
1 A[31] *2207:A 12.7829 
*END

*D_NET *26 0.00179321
*CONN
*P A[3] I
*I *2208:A I *D sky130_fd_sc_hd__clkdlybuf4s25_1
*CAP
1 A[3] 0.000581906
2 *2208:A 0.000581906
3 *2208:A S[3] 0
4 *2208:A S[7] 0.000467034
5 *2208:A *1813:B1 4.82919e-05
6 *2208:A *2166:B 5.53249e-06
7 *2208:A *2169:B 4.82919e-05
8 *2208:A *2169:C 6.02447e-05
9 *2208:A *171:8 0
10 *2208:A *567:10 0
*RES
1 A[3] *2208:A 17.13 
*END

*D_NET *27 0.00108367
*CONN
*P A[4] I
*I *2209:A I *D sky130_fd_sc_hd__clkdlybuf4s25_1
*CAP
1 A[4] 0.000541837
2 *2209:A 0.000541837
3 *2209:A S[12] 0
4 *2209:A S[4] 0
5 *2209:A *2244:A 0
*RES
1 A[4] *2209:A 13.05 
*END

*D_NET *28 0.00161672
*CONN
*P A[5] I
*I *2210:A I *D sky130_fd_sc_hd__clkdlybuf4s25_1
*CAP
1 A[5] 0.000503791
2 *2210:A 0.000503791
3 *2210:A *1792:B 8.7152e-06
4 *2210:A *2246:A 0.000590022
5 *2210:A *183:10 0
6 *2210:A *529:14 1.04063e-05
*RES
1 A[5] *2210:A 15.45 
*END

*D_NET *29 0.00232241
*CONN
*P A[6] I
*I *2211:A I *D sky130_fd_sc_hd__clkdlybuf4s25_1
*CAP
1 A[6] 0.000771556
2 *2211:A 0.000771556
3 *2211:A *1798:A1 0
4 *2211:A *2247:A 0.000677517
5 *2211:A *2323:A 0.000101778
*RES
1 A[6] *2211:A 7.40197 
*END

*D_NET *30 0.00169649
*CONN
*P A[7] I
*I *2213:A I *D sky130_fd_sc_hd__clkdlybuf4s25_1
*CAP
1 A[7] 0.000331262
2 *2213:A 0.000331262
3 *2213:A S[7] 0.000455473
4 *2213:A *2248:A 0.000578498
*RES
1 A[7] *2213:A 14.88 
*END

*D_NET *31 0.00151145
*CONN
*P A[8] I
*I *2214:A I *D sky130_fd_sc_hd__clkdlybuf4s25_1
*CAP
1 A[8] 0.000484769
2 *2214:A 0.000484769
3 *2214:A *2158:B1 0
4 *2214:A *2249:A 0.000464377
5 *2214:A *2291:A 0
6 *2214:A *160:8 7.75325e-05
*RES
1 A[8] *2214:A 15.345 
*END

*D_NET *32 0.0015214
*CONN
*P A[9] I
*I *2215:A I *D sky130_fd_sc_hd__clkdlybuf4s25_1
*CAP
1 A[9] 0.000527181
2 *2215:A 0.000527181
3 *2215:A *2153:A1 0
4 *2215:A *2250:A 0.000467034
5 *2215:A *569:10 0
6 *2215:A *569:19 0
*RES
1 A[9] *2215:A 15.45 
*END

*D_NET *33 0.00196269
*CONN
*P B[0] I
*I *2216:A I *D sky130_fd_sc_hd__dlymetal6s4s_1
*CAP
1 B[0] 0.000688272
2 *2216:A 0.000688272
3 *2216:A S[0] 0
4 *2216:A S[2] 5.22519e-05
5 *2216:A *2065:A0 0.000104464
6 *2216:A *2240:A 0.000188914
7 *2216:A *454:29 0
8 *2190:A *2216:A 0.000240519
*RES
1 B[0] *2216:A 7.11063 
*END

*D_NET *34 0.00160747
*CONN
*P B[10] I
*I *2217:A I *D sky130_fd_sc_hd__clkdlybuf4s25_1
*CAP
1 B[10] 0.00055535
2 *2217:A 0.00055535
3 *2217:A S[10] 0
4 *2217:A S[11] 0.000195876
5 *2217:A *2087:B2 0
6 *2217:A *2148:A1 5.2126e-05
7 *2217:A *2148:B1 9.54399e-05
8 *2217:A *2218:A 0
9 *2201:A *2217:A 0.000153332
*RES
1 B[10] *2217:A 10.6096 
*END

*D_NET *35 0.00151917
*CONN
*P B[11] I
*I *2218:A I *D sky130_fd_sc_hd__clkdlybuf4s25_1
*CAP
1 B[11] 0.000639594
2 *2218:A 0.000639594
3 *2218:A *2219:A 6.99883e-05
4 *2201:A *2218:A 4.01548e-05
5 *2212:A *2218:A 0.000129833
6 *2217:A *2218:A 0
*RES
1 B[11] *2218:A 13.582 
*END

*D_NET *36 0.00152752
*CONN
*P B[12] I
*I *2219:A I *D sky130_fd_sc_hd__clkdlybuf4s25_1
*CAP
1 B[12] 0.000685406
2 *2219:A 0.000685406
3 *2219:A S[13] 8.67192e-05
4 *2218:A *2219:A 6.99883e-05
*RES
1 B[12] *2219:A 15.1754 
*END

*D_NET *37 0.00204168
*CONN
*P B[13] I
*I *2220:A I *D sky130_fd_sc_hd__clkdlybuf4s25_1
*CAP
1 B[13] 0.000488164
2 *2220:A 0.000488164
3 *2220:A S[13] 0.000152627
4 *2220:A *553:8 1.88656e-05
5 *2220:A *561:10 0
6 *2223:A *2220:A 0.0003649
7 *2234:A *2220:A 0.00052896
*RES
1 B[13] *2220:A 6.9519 
*END

*D_NET *38 0.00161925
*CONN
*P B[14] I
*I *2221:A I *D sky130_fd_sc_hd__clkdlybuf4s25_1
*CAP
1 B[14] 0.000312912
2 *2221:A 0.000312912
3 *2221:A S[15] 2.04738e-05
4 *2221:A S[31] 7.43927e-05
5 *2221:A *2058:B 3.09233e-05
6 *2221:A *2266:A 4.92063e-05
7 *2221:A *430:12 6.50568e-05
8 *2207:A *2221:A 0.000391627
9 *2245:A *2221:A 0.000361751
*RES
1 B[14] *2221:A 6.48577 
*END

*D_NET *39 0.00178537
*CONN
*P B[15] I
*I *2222:A I *D sky130_fd_sc_hd__clkdlybuf4s25_1
*CAP
1 B[15] 0.000579712
2 *2222:A 0.000579712
3 *2222:A *2224:A 9.48869e-05
4 *2222:A *2225:A 0.000103837
5 *2222:A *2226:A 1.94009e-05
6 *2191:A *2222:A 1.79536e-05
7 *2193:A *2222:A 0
8 *2252:A *2222:A 0.000355624
9 *2254:A *2222:A 3.42469e-05
*RES
1 B[15] *2222:A 13.417 
*END

*D_NET *40 0.0016597
*CONN
*P B[16] I
*I *2224:A I *D sky130_fd_sc_hd__clkdlybuf4s25_1
*CAP
1 B[16] 0.000464089
2 *2224:A 0.000464089
3 *2224:A *2225:A 9.48869e-05
4 *2224:A *586:16 4.99619e-05
5 *2191:A *2224:A 0
6 *2222:A *2224:A 9.48869e-05
7 *2253:A *2224:A 0.000491788
*RES
1 B[16] *2224:A 12.6157 
*END

*D_NET *41 0.00348648
*CONN
*P B[17] I
*I *2225:A I *D sky130_fd_sc_hd__clkdlybuf4s25_1
*CAP
1 B[17] 0.00104217
2 *2225:A 0.00104217
3 *2225:A *1842:B 0.000122331
4 *2225:A *1843:B 4.66108e-05
5 *2225:A *2226:A 0
6 *2225:A *230:10 0.00039029
7 *2225:A *460:18 0
8 *2225:A *541:12 8.45369e-05
9 *2193:A *2225:A 0.000243409
10 *2222:A *2225:A 0.000103837
11 *2224:A *2225:A 9.48869e-05
12 *2254:A *2225:A 0.000316235
*RES
1 B[17] *2225:A 19.6334 
*END

*D_NET *42 0.00122927
*CONN
*P B[18] I
*I *2226:A I *D sky130_fd_sc_hd__clkdlybuf4s25_1
*CAP
1 B[18] 0.000359956
2 *2226:A 0.000359956
3 *2226:A S[18] 6.93699e-05
4 *2226:A *1843:A 8.8266e-05
5 *2226:A *1886:B 2.30292e-05
6 *2226:A *2101:A 3.95724e-05
7 *2191:A *2226:A 1.00941e-05
8 *2222:A *2226:A 1.94009e-05
9 *2225:A *2226:A 0
10 *2252:A *2226:A 0.000161508
11 *2253:A *2226:A 9.81149e-05
*RES
1 B[18] *2226:A 8.8403 
*END

*D_NET *43 0.00207247
*CONN
*P B[19] I
*I *2227:A I *D sky130_fd_sc_hd__clkdlybuf4s25_1
*CAP
1 B[19] 0.000722283
2 *2227:A 0.000722283
3 *2227:A S[22] 0
4 *2227:A *1886:A 1.7635e-05
5 *2227:A *1900:C 6.57653e-06
6 *2227:A *287:10 1.81522e-05
7 *2227:A *465:12 2.97004e-06
8 *2192:A *2227:A 0.000582572
*RES
1 B[19] *2227:A 6.6589 
*END

*D_NET *44 0.00215369
*CONN
*P B[1] I
*I *2228:A I *D sky130_fd_sc_hd__clkdlybuf4s25_1
*CAP
1 B[1] 0.000583773
2 *2228:A 0.000583773
3 *2228:A *1843:A 8.75474e-05
4 *2228:A *2186:A 4.92063e-05
5 *2228:A *2243:A 0.000549416
6 *2193:A *2228:A 0.00029997
*RES
1 B[1] *2228:A 6.9139 
*END

*D_NET *45 0.00194591
*CONN
*P B[20] I
*I *2229:A I *D sky130_fd_sc_hd__clkdlybuf4s25_1
*CAP
1 B[20] 0.000423306
2 *2229:A 0.000423306
3 *2229:A S[20] 0.000333182
4 *2229:A *1910:B 5.59619e-05
5 *2229:A *2272:A 0.00016163
6 *2229:A *304:42 0.000176068
7 *2229:A *487:10 2.25079e-05
8 *2229:A *570:18 3.63701e-06
9 *2194:A *2229:A 0.000346313
*RES
1 B[20] *2229:A 9.25277 
*END

*D_NET *46 0.00136857
*CONN
*P B[21] I
*I *2230:A I *D sky130_fd_sc_hd__clkdlybuf4s25_1
*CAP
1 B[21] 0.000403399
2 *2230:A 0.000403399
3 *2195:A *2230:A 0.000561776
*RES
1 B[21] *2230:A 14.3625 
*END

*D_NET *47 0.00207323
*CONN
*P B[22] I
*I *2231:A I *D sky130_fd_sc_hd__clkdlybuf4s25_1
*CAP
1 B[22] 0.00097171
2 *2231:A 0.00097171
3 *2231:A S[23] 0
4 *2231:A *1939:B 0
5 *2231:A *1941:A 2.75229e-05
6 *2231:A *321:10 9.37731e-05
7 *2231:A *550:8 8.51589e-06
8 *2196:A *2231:A 0
*RES
1 B[22] *2231:A 19.1175 
*END

*D_NET *48 0.00232954
*CONN
*P B[23] I
*I *2232:A I *D sky130_fd_sc_hd__clkdlybuf4s25_1
*CAP
1 B[23] 0.00052716
2 *2232:A 0.00052716
3 *2232:A S[16] 0.000188537
4 *2232:A *2188:A 6.97118e-05
5 *2232:A *512:10 0.000109009
6 *2232:A *512:16 0.000259043
7 *2197:A *2232:A 0.000648923
*RES
1 B[23] *2232:A 20.1375 
*END

*D_NET *49 0.00202836
*CONN
*P B[24] I
*I *2233:A I *D sky130_fd_sc_hd__clkdlybuf4s25_1
*CAP
1 B[24] 0.000639682
2 *2233:A 0.000639682
3 *2233:A S[24] 0.000413004
4 *2233:A S[25] 9.48427e-06
5 *2233:A *1973:A2 4.43871e-06
6 *2233:A *2188:A 0.000162325
7 *2233:A *2277:A 0
8 *2233:A *353:6 0.000159747
*RES
1 B[24] *2233:A 19.3425 
*END

*D_NET *50 0.00221787
*CONN
*P B[25] I
*I *2235:A I *D sky130_fd_sc_hd__clkdlybuf4s25_1
*CAP
1 B[25] 0.000589356
2 *2235:A 0.000589356
3 *2235:A S[27] 0.000786019
4 *2235:A *2236:A 0
5 *2235:A *2279:A 0.000164874
6 *2199:A *2235:A 0
7 *2200:A *2235:A 8.8266e-05
*RES
1 B[25] *2235:A 18.8175 
*END

*D_NET *51 0.00200976
*CONN
*P B[26] I
*I *2236:A I *D sky130_fd_sc_hd__clkdlybuf4s25_1
*CAP
1 B[26] 0.000563353
2 *2236:A 0.000563353
3 *2236:A *2279:A 0
4 *2236:A *472:6 0.000124895
5 *2236:A *472:106 4.66108e-05
6 *2236:A *473:89 0.000163204
7 *2236:A *513:8 0
8 *2236:A *554:10 0
9 *2200:A *2236:A 0.000548339
10 *2235:A *2236:A 0
*RES
1 B[26] *2236:A 17.6325 
*END

*D_NET *52 0.00151492
*CONN
*P B[27] I
*I *2237:A I *D sky130_fd_sc_hd__clkdlybuf4s25_1
*CAP
1 B[27] 0.000316454
2 *2237:A 0.000316454
3 *2237:A S[30] 0.000513215
4 *2237:A *2283:A 0
5 *2237:A *556:14 0
6 *2202:A *2237:A 0.000368799
*RES
1 B[27] *2237:A 8.82463 
*END

*D_NET *53 0.00130689
*CONN
*P B[28] I
*I *2238:A I *D sky130_fd_sc_hd__clkdlybuf4s25_1
*CAP
1 B[28] 0.00054971
2 *2238:A 0.00054971
3 *2203:A *2238:A 0.000207472
*RES
1 B[28] *2238:A 11.9568 
*END

*D_NET *54 0.00130518
*CONN
*P B[29] I
*I *2239:A I *D sky130_fd_sc_hd__clkdlybuf4s25_1
*CAP
1 B[29] 0.000468622
2 *2239:A 0.000468622
3 *2239:A S[29] 0.000183965
4 *2239:A *558:12 0
5 *2204:A *2239:A 0.000183965
*RES
1 B[29] *2239:A 11.2235 
*END

*D_NET *55 0.00270253
*CONN
*P B[2] I
*I *2240:A I *D sky130_fd_sc_hd__clkdlybuf4s25_1
*CAP
1 B[2] 0.000787662
2 *2240:A 0.000787662
3 *2240:A *2066:B 0
4 *2240:A *2310:A 8.65905e-05
5 *2240:A *456:12 0.00016063
6 *2240:A *493:16 0.00014717
7 *2240:A *535:8 0.0002437
8 *2240:A *535:30 0.000111285
9 *2190:A *2240:A 0.000188914
10 *2216:A *2240:A 0.000188914
*RES
1 B[2] *2240:A 18.8038 
*END

*D_NET *56 0.00122427
*CONN
*P B[30] I
*I *2241:A I *D sky130_fd_sc_hd__clkdlybuf4s25_1
*CAP
1 B[30] 0.000213016
2 *2241:A 0.000213016
3 *2241:A S[30] 0.000436487
4 *2241:A *417:14 0
5 *2206:A *2241:A 0.000361751
*RES
1 B[30] *2241:A 6.78463 
*END

*D_NET *57 0.0014883
*CONN
*P B[31] I
*I *2242:A I *D sky130_fd_sc_hd__clkdlybuf4s25_1
*CAP
1 B[31] 0.000610419
2 *2242:A 0.000610419
3 *2242:A S[14] 0.000133733
4 *2242:A carryOut 0.000133733
5 *2223:A *2242:A 0
*RES
1 B[31] *2242:A 13.582 
*END

*D_NET *58 0.00377088
*CONN
*P B[3] I
*I *2243:A I *D sky130_fd_sc_hd__clkdlybuf4s25_1
*CAP
1 B[3] 0.0011722
2 *2243:A 0.0011722
3 *2243:A *1841:B 0.000181376
4 *2243:A *1843:C 0.000139252
5 *2243:A *1850:B2 0
6 *2243:A *2064:B 0.00020779
7 *2243:A *2065:A0 0
8 *2243:A *2065:S 0.000126392
9 *2243:A *2066:B 0
10 *2243:A *2260:A 0
11 *2243:A *230:10 0
12 *2243:A *460:18 0.000222247
13 *2243:A *508:14 0
14 *2190:A *2243:A 0
15 *2205:A *2243:A 0
16 *2228:A *2243:A 0.000549416
*RES
1 B[3] *2243:A 20.021 
*END

*D_NET *59 0.00108367
*CONN
*P B[4] I
*I *2244:A I *D sky130_fd_sc_hd__clkdlybuf4s25_1
*CAP
1 B[4] 0.000541837
2 *2244:A 0.000541837
3 *2209:A *2244:A 0
*RES
1 B[4] *2244:A 13.05 
*END

*D_NET *60 0.00132475
*CONN
*P B[5] I
*I *2246:A I *D sky130_fd_sc_hd__clkdlybuf4s25_1
*CAP
1 B[5] 0.000367365
2 *2246:A 0.000367365
3 *2210:A *2246:A 0.000590022
*RES
1 B[5] *2246:A 13.05 
*END

*D_NET *61 0.00174806
*CONN
*P B[6] I
*I *2247:A I *D sky130_fd_sc_hd__clkdlybuf4s25_1
*CAP
1 B[6] 0.000502945
2 *2247:A 0.000502945
3 *2247:A S[1] 0
4 *2247:A *2323:A 2.28346e-05
5 *2247:A *508:14 4.18147e-05
6 *2211:A *2247:A 0.000677517
*RES
1 B[6] *2247:A 6.4039 
*END

*D_NET *62 0.00137665
*CONN
*P B[7] I
*I *2248:A I *D sky130_fd_sc_hd__clkdlybuf4s25_1
*CAP
1 B[7] 0.000399074
2 *2248:A 0.000399074
3 *2248:A S[7] 0
4 *2213:A *2248:A 0.000578498
*RES
1 B[7] *2248:A 13.74 
*END

*D_NET *63 0.00125167
*CONN
*P B[8] I
*I *2249:A I *D sky130_fd_sc_hd__clkdlybuf4s25_1
*CAP
1 B[8] 0.000368014
2 *2249:A 0.000368014
3 *2249:A S[9] 0
4 *2249:A *2291:A 2.97004e-06
5 *2249:A *568:6 4.82919e-05
6 *2214:A *2249:A 0.000464377
*RES
1 B[8] *2249:A 13.05 
*END

*D_NET *64 0.00122229
*CONN
*P B[9] I
*I *2250:A I *D sky130_fd_sc_hd__clkdlybuf4s25_1
*CAP
1 B[9] 0.000368438
2 *2250:A 0.000368438
3 *2250:A *569:10 1.83847e-05
4 *2215:A *2250:A 0.000467034
*RES
1 B[9] *2250:A 13.05 
*END

*D_NET *65 0.00205989
*CONN
*P S[0] O
*I *2260:X O *D sky130_fd_sc_hd__clkdlybuf4s25_1
*CAP
1 S[0] 0.000532417
2 *2260:X 0.000532417
3 S[0] S[1] 0.000426351
4 S[0] S[2] 9.48869e-05
5 S[0] *2066:B 0.000219383
6 S[0] *2260:A 0.000254439
7 *2216:A S[0] 0
*RES
1 *2260:X S[0] 12.8666 
*END

*D_NET *66 0.00222916
*CONN
*P S[10] O
*I *2261:X O *D sky130_fd_sc_hd__clkbuf_2
*CAP
1 S[10] 0.000704399
2 *2261:X 0.000704399
3 S[10] S[8] 0.000398814
4 S[10] *2087:B2 5.2126e-05
5 S[10] *2261:A 0.000369427
6 *2201:A S[10] 0
7 *2217:A S[10] 0
*RES
1 *2261:X S[10] 14.4127 
*END

*D_NET *67 0.00210471
*CONN
*P S[11] O
*I *2262:X O *D sky130_fd_sc_hd__buf_4
*CAP
1 S[11] 0.000696627
2 *2262:X 0.000696627
3 S[11] *2144:A2 0
4 S[11] *147:12 3.06701e-05
5 *2212:A S[11] 0.000484907
6 *2217:A S[11] 0.000195876
*RES
1 *2262:X S[11] 6.9519 
*END

*D_NET *68 0.00142562
*CONN
*P S[12] O
*I *2263:X O *D sky130_fd_sc_hd__dlymetal6s4s_1
*CAP
1 S[12] 0.000643096
2 *2263:X 0.000643096
3 S[12] S[4] 0
4 S[12] *1822:A2 2.65814e-06
5 S[12] *2286:A 7.63047e-05
6 S[12] *528:14 6.04659e-05
7 *2209:A S[12] 0
*RES
1 *2263:X S[12] 14.925 
*END

*D_NET *69 0.00181174
*CONN
*P S[13] O
*I *2264:X O *D sky130_fd_sc_hd__dlygate4sd1_1
*CAP
1 S[13] 0.00059504
2 *2264:X 0.00059504
3 S[13] *553:8 2.05641e-05
4 *2219:A S[13] 8.67192e-05
5 *2220:A S[13] 0.000152627
6 *2223:A S[13] 0.000361751
*RES
1 *2264:X S[13] 6.07037 
*END

*D_NET *70 0.00159287
*CONN
*P S[14] O
*I *2265:X O *D sky130_fd_sc_hd__buf_6
*CAP
1 S[14] 0.000478434
2 *2265:X 0.000478434
3 S[14] S[31] 0
4 S[14] carryOut 0.000191192
5 S[14] *2054:B 0
6 S[14] *2057:A1 6.15576e-06
7 *2234:A S[14] 0.000304925
8 *2242:A S[14] 0.000133733
*RES
1 *2265:X S[14] 6.0121 
*END

*D_NET *71 0.00114628
*CONN
*P S[15] O
*I *2266:X O *D sky130_fd_sc_hd__clkbuf_4
*CAP
1 S[15] 0.000213062
2 *2266:X 0.000213062
3 S[15] S[30] 0
4 S[15] *526:10 4.66991e-05
5 *2206:A S[15] 0.000200442
6 *2207:A S[15] 8.3739e-05
7 *2221:A S[15] 2.04738e-05
8 *2245:A S[15] 0.000368799
*RES
1 *2266:X S[15] 6.13617 
*END

*D_NET *72 0.00154616
*CONN
*P S[16] O
*I *2267:X O *D sky130_fd_sc_hd__buf_6
*CAP
1 S[16] 0.000627786
2 *2267:X 0.000627786
3 S[16] S[25] 0
4 S[16] *1973:B1_N 4.99619e-05
5 S[16] *2277:A 0
6 S[16] *512:10 5.2089e-05
7 *2198:A S[16] 0
8 *2232:A S[16] 0.000188537
*RES
1 *2267:X S[16] 16.3425 
*END

*D_NET *73 0.00100831
*CONN
*P S[17] O
*I *2268:X O *D sky130_fd_sc_hd__buf_6
*CAP
1 S[17] 0.000451599
2 *2268:X 0.000451599
3 S[17] S[18] 0
4 S[17] S[19] 0
5 S[17] *1889:A2 0
6 S[17] *1889:B1_N 0
7 S[17] *570:18 0
8 *2191:A S[17] 0.000105108
9 *2192:A S[17] 0
*RES
1 *2268:X S[17] 7.5699 
*END

*D_NET *74 0.00186816
*CONN
*P S[18] O
*I *2269:X O *D sky130_fd_sc_hd__buf_6
*CAP
1 S[18] 0.000662698
2 *2269:X 0.000662698
3 S[18] *1886:A 6.14445e-05
4 S[18] *274:8 2.96556e-06
5 S[18] *570:18 0.000125182
6 S[17] S[18] 0
7 *2191:A S[18] 0.000188914
8 *2226:A S[18] 6.93699e-05
9 *2253:A S[18] 9.48869e-05
*RES
1 *2269:X S[18] 7.36563 
*END

*D_NET *75 0.000919445
*CONN
*P S[19] O
*I *2270:X O *D sky130_fd_sc_hd__buf_6
*CAP
1 S[19] 0.000433596
2 *2270:X 0.000433596
3 S[17] S[19] 0
4 *2192:A S[19] 5.22519e-05
*RES
1 *2270:X S[19] 10.3507 
*END

*D_NET *76 0.0020552
*CONN
*P S[1] O
*I *2271:X O *D sky130_fd_sc_hd__buf_6
*CAP
1 S[1] 0.000628091
2 *2271:X 0.000628091
3 S[1] S[2] 0
4 S[1] *2066:A 0.000157343
5 S[1] *2066:B 4.66108e-05
6 S[1] *2067:A1 8.04449e-05
7 S[1] *2271:A 8.8266e-05
8 S[0] S[1] 0.000426351
9 *2247:A S[1] 0
*RES
1 *2271:X S[1] 12.8384 
*END

*D_NET *77 0.00149096
*CONN
*P S[20] O
*I *2272:X O *D sky130_fd_sc_hd__buf_8
*CAP
1 S[20] 0.000445166
2 *2272:X 0.000445166
3 S[20] *1909:B 0.000134938
4 S[20] *1910:B 6.97034e-05
5 *2194:A S[20] 6.28008e-05
6 *2229:A S[20] 0.000333182
*RES
1 *2272:X S[20] 9.56837 
*END

*D_NET *78 0.0014704
*CONN
*P S[21] O
*I *2273:X O *D sky130_fd_sc_hd__buf_8
*CAP
1 S[21] 0.000699966
2 *2273:X 0.000699966
3 S[21] *2273:A 4.99619e-05
4 S[21] *463:10 2.05056e-05
*RES
1 *2273:X S[21] 15.9375 
*END

*D_NET *79 0.00127639
*CONN
*P S[22] O
*I *2274:X O *D sky130_fd_sc_hd__buf_6
*CAP
1 S[22] 0.000638194
2 *2274:X 0.000638194
3 S[22] *463:71 0
4 *2194:A S[22] 0
5 *2227:A S[22] 0
*RES
1 *2274:X S[22] 10.2168 
*END

*D_NET *80 0.00136189
*CONN
*P S[23] O
*I *2275:X O *D sky130_fd_sc_hd__buf_6
*CAP
1 S[23] 0.000675115
2 *2275:X 0.000675115
3 S[23] *1939:B 1.16578e-05
4 *2231:A S[23] 0
*RES
1 *2275:X S[23] 15.3525 
*END

*D_NET *81 0.00149698
*CONN
*P S[24] O
*I *2276:X O *D sky130_fd_sc_hd__buf_6
*CAP
1 S[24] 0.000540162
2 *2276:X 0.000540162
3 S[24] *473:10 3.64998e-06
4 *2233:A S[24] 0.000413004
*RES
1 *2276:X S[24] 15.9375 
*END

*D_NET *82 0.00184986
*CONN
*P S[25] O
*I *2277:X O *D sky130_fd_sc_hd__buf_6
*CAP
1 S[25] 0.00057742
2 *2277:X 0.00057742
3 S[25] *2277:A 4.82919e-05
4 S[16] S[25] 0
5 *2198:A S[25] 0.000637243
6 *2233:A S[25] 9.48427e-06
*RES
1 *2277:X S[25] 17.1375 
*END

*D_NET *83 0.0014767
*CONN
*P S[26] O
*I *2278:X O *D sky130_fd_sc_hd__buf_6
*CAP
1 S[26] 0.000694219
2 *2278:X 0.000694219
3 S[26] *2278:A 8.8266e-05
*RES
1 *2278:X S[26] 15.9375 
*END

*D_NET *84 0.00196134
*CONN
*P S[27] O
*I *2279:X O *D sky130_fd_sc_hd__buf_6
*CAP
1 S[27] 0.00058766
2 *2279:X 0.00058766
3 *2199:A S[27] 0
4 *2235:A S[27] 0.000786019
*RES
1 *2279:X S[27] 17.4225 
*END

*D_NET *85 0.00159737
*CONN
*P S[28] O
*I *2280:X O *D sky130_fd_sc_hd__clkbuf_2
*CAP
1 S[28] 0.000550277
2 *2280:X 0.000550277
3 S[28] S[29] 0.000440853
4 S[28] *2037:B2 0
5 S[28] *2281:A 0
6 S[28] *558:12 5.59619e-05
7 *2203:A S[28] 0
*RES
1 *2280:X S[28] 8.8027 
*END

*D_NET *86 0.00166327
*CONN
*P S[29] O
*I *2281:X O *D sky130_fd_sc_hd__clkbuf_4
*CAP
1 S[29] 0.000451526
2 *2281:X 0.000451526
3 S[29] *2037:B2 2.05641e-05
4 S[29] *523:10 1.88656e-05
5 S[28] S[29] 0.000440853
6 *2204:A S[29] 9.59674e-05
7 *2239:A S[29] 0.000183965
*RES
1 *2281:X S[29] 5.89557 
*END

*D_NET *87 0.00138504
*CONN
*P S[2] O
*I *2282:X O *D sky130_fd_sc_hd__buf_6
*CAP
1 S[2] 0.000618949
2 *2282:X 0.000618949
3 S[0] S[2] 9.48869e-05
4 S[1] S[2] 0
5 *2216:A S[2] 5.22519e-05
*RES
1 *2282:X S[2] 13.6657 
*END

*D_NET *88 0.0014695
*CONN
*P S[30] O
*I *2283:X O *D sky130_fd_sc_hd__buf_6
*CAP
1 S[30] 0.000254515
2 *2283:X 0.000254515
3 S[30] *2283:A 0
4 S[15] S[30] 0
5 *2202:A S[30] 1.07734e-05
6 *2237:A S[30] 0.000513215
7 *2241:A S[30] 0.000436487
*RES
1 *2283:X S[30] 7.8629 
*END

*D_NET *89 0.00185077
*CONN
*P S[31] O
*I *2284:X O *D sky130_fd_sc_hd__buf_6
*CAP
1 S[31] 0.000440747
2 *2284:X 0.000440747
3 S[31] carryOut 0.000482425
4 S[31] *429:21 0
5 S[31] *430:12 2.81572e-05
6 S[14] S[31] 0
7 *2207:A S[31] 0.000384305
8 *2221:A S[31] 7.43927e-05
*RES
1 *2284:X S[31] 6.71883 
*END

*D_NET *90 0.00128195
*CONN
*P S[3] O
*I *2285:X O *D sky130_fd_sc_hd__buf_6
*CAP
1 S[3] 0.00060821
2 *2285:X 0.00060821
3 S[3] S[5] 0
4 S[3] *2289:A 0
5 S[3] *567:10 6.55328e-05
6 *2208:A S[3] 0
*RES
1 *2285:X S[3] 14.64 
*END

*D_NET *91 0.00151771
*CONN
*P S[4] O
*I *2286:X O *D sky130_fd_sc_hd__buf_6
*CAP
1 S[4] 0.000751658
2 *2286:X 0.000751658
3 S[4] *528:14 1.4389e-05
4 S[12] S[4] 0
5 *2209:A S[4] 0
*RES
1 *2286:X S[4] 15.9 
*END

*D_NET *92 0.00115989
*CONN
*P S[5] O
*I *2287:X O *D sky130_fd_sc_hd__buf_6
*CAP
1 S[5] 0.000579944
2 *2287:X 0.000579944
3 S[5] S[6] 0
4 S[3] S[5] 0
*RES
1 *2287:X S[5] 13.485 
*END

*D_NET *93 0.00135875
*CONN
*P S[6] O
*I *2288:X O *D sky130_fd_sc_hd__buf_6
*CAP
1 S[6] 0.000634053
2 *2288:X 0.000634053
3 S[6] *2288:A 8.65905e-05
4 S[6] *565:10 4.05674e-06
5 S[5] S[6] 0
*RES
1 *2288:X S[6] 14.52 
*END

*D_NET *94 0.00151008
*CONN
*P S[7] O
*I *2289:X O *D sky130_fd_sc_hd__buf_6
*CAP
1 S[7] 0.000262415
2 *2289:X 0.000262415
3 S[7] *567:10 6.27438e-05
4 *2208:A S[7] 0.000467034
5 *2213:A S[7] 0.000455473
6 *2248:A S[7] 0
*RES
1 *2289:X S[7] 14.085 
*END

*D_NET *95 0.001452
*CONN
*P S[8] O
*I *2290:X O *D sky130_fd_sc_hd__buf_6
*CAP
1 S[8] 0.000526593
2 *2290:X 0.000526593
3 S[10] S[8] 0.000398814
4 *2201:A S[8] 0
*RES
1 *2290:X S[8] 10.4129 
*END

*D_NET *96 0.00124818
*CONN
*P S[9] O
*I *2291:X O *D sky130_fd_sc_hd__buf_4
*CAP
1 S[9] 0.000594854
2 *2291:X 0.000594854
3 S[9] *2291:A 5.84694e-05
4 *2249:A S[9] 0
*RES
1 *2291:X S[9] 13.995 
*END

*D_NET *99 0.00190579
*CONN
*P carryOut O
*I *2292:X O *D sky130_fd_sc_hd__buf_2
*CAP
1 carryOut 0.000349896
2 *2292:X 0.000349896
3 carryOut *2056:B 4.24292e-06
4 carryOut *2057:B1_N 0.000184815
5 carryOut *2266:A 6.55429e-05
6 carryOut *2292:A 0.000133465
7 carryOut *526:10 1.05827e-05
8 S[14] carryOut 0.000191192
9 S[31] carryOut 0.000482425
10 *2242:A carryOut 0.000133733
*RES
1 *2292:X carryOut 9.11597 
*END

*D_NET *100 0.000846137
*CONN
*P sub I
*I *2251:A I *D sky130_fd_sc_hd__buf_8
*CAP
1 sub 0.000423068
2 *2251:A 0.000423068
*RES
1 sub *2251:A 9.7507 
*END

*D_NET *101 0.00112549
*CONN
*I *2123:A2 I *D sky130_fd_sc_hd__o21ai_2
*I *2121:B I *D sky130_fd_sc_hd__nand2_2
*I *2099:Y O *D sky130_fd_sc_hd__inv_2
*CAP
1 *2123:A2 0.000119868
2 *2121:B 3.07736e-05
3 *2099:Y 0.00017034
4 *101:12 0.000320982
5 *2121:B *2092:B 1.56428e-05
6 *2123:A2 *2099:A 0
7 *2123:A2 *2123:A1 0.000182071
8 *2123:A2 *125:14 2.75229e-05
9 *2123:A2 *542:24 4.99619e-05
10 *2123:A2 *607:41 0
11 *101:12 *2092:B 5.83589e-05
12 *101:12 *2099:A 6.17032e-05
13 *101:12 *2123:A1 0
14 *101:12 *467:6 8.8266e-05
*RES
1 *2099:Y *101:12 9.155 
2 *101:12 *2121:B 2.05 
3 *101:12 *2123:A2 8.45 
*END

*D_NET *102 0.00213213
*CONN
*I *1798:A2 I *D sky130_fd_sc_hd__o21bai_2
*I *1797:A2 I *D sky130_fd_sc_hd__o21ai_4
*I *1793:A I *D sky130_fd_sc_hd__nand2_2
*I *2100:Y O *D sky130_fd_sc_hd__inv_2
*CAP
1 *1798:A2 0.000177934
2 *1797:A2 0.000301178
3 *1793:A 0
4 *2100:Y 0.000127824
5 *102:23 0.000631495
6 *102:12 0.000280206
7 *1797:A2 *1795:A2 0.000233724
8 *1797:A2 *1799:A_N 7.20529e-05
9 *1797:A2 *1799:C 5.05774e-05
10 *1797:A2 *457:76 9.50342e-06
11 *1797:A2 *565:41 7.23533e-05
12 *1798:A2 *1798:A1 6.99759e-05
13 *102:12 *1795:A2 0
14 *102:12 *1798:A1 1.70935e-05
15 *102:23 *1798:A1 8.82096e-05
*RES
1 *2100:Y *102:12 7.685 
2 *102:12 *1793:A 1.6 
3 *102:12 *102:23 2.55 
4 *102:23 *1797:A2 11.45 
5 *102:23 *1798:A2 4.045 
*END

*D_NET *103 0.00242047
*CONN
*I *1843:A I *D sky130_fd_sc_hd__nand3_4
*I *2101:Y O *D sky130_fd_sc_hd__inv_2
*CAP
1 *1843:A 0.000492782
2 *2101:Y 0.000492782
3 *1843:A *1843:B 4.43871e-06
4 *1843:A *1881:A2 6.35448e-05
5 *1843:A *1886:B 0.000353831
6 *1843:A *2101:A 5.41685e-05
7 *1843:A *2103:A 7.81954e-05
8 *1843:A *2103:B 0
9 *1843:A *2186:A 0.000185965
10 *1843:A *460:10 0.000312182
11 *1843:A *545:21 0.000187281
12 *1843:A *570:18 1.94805e-05
13 *2226:A *1843:A 8.8266e-05
14 *2228:A *1843:A 8.75474e-05
*RES
1 *2101:Y *1843:A 20.91 
*END

*D_NET *104 0.000705348
*CONN
*I *1991:A I *D sky130_fd_sc_hd__or3_4
*I *1992:B1 I *D sky130_fd_sc_hd__o21ai_2
*I *2102:Y O *D sky130_fd_sc_hd__inv_2
*CAP
1 *1991:A 1.90984e-05
2 *1992:B1 0.000118811
3 *2102:Y 0.000104052
4 *104:6 0.000241961
5 *1991:A *1991:C 4.00541e-06
6 *1992:B1 *1992:A2 0.000141323
7 *104:6 *1991:C 6.90876e-05
8 *104:6 *1992:A2 7.00889e-06
*RES
1 *2102:Y *104:6 3.43 
2 *104:6 *1992:B1 3.775 
3 *104:6 *1991:A 1.96 
*END

*D_NET *105 0.00245602
*CONN
*I *2106:B I *D sky130_fd_sc_hd__or2_4
*I *2104:B I *D sky130_fd_sc_hd__nand2_4
*I *1893:B I *D sky130_fd_sc_hd__nand3_2
*I *2103:X O *D sky130_fd_sc_hd__xor2_4
*CAP
1 *2106:B 5.06945e-05
2 *2104:B 5.98433e-05
3 *1893:B 0
4 *2103:X 0.000300245
5 *105:24 0.0002224
6 *105:9 0.000412107
7 *2104:B *1885:B 2.60986e-05
8 *2104:B *1888:B 0.000183738
9 *2104:B *1895:A2 0.000226848
10 *2106:B *462:16 0.000108098
11 *2106:B *545:21 2.01259e-05
12 *105:9 *1895:A1 8.64421e-05
13 *105:9 *1895:A2 0.000160215
14 *105:9 *1895:B1 4.94457e-05
15 *105:9 *1896:B 9.13295e-05
16 *105:24 *1894:A2 4.66108e-05
17 *105:24 *1895:A2 0.000179769
18 *105:24 *266:29 0.000139245
19 *105:24 *462:16 8.40269e-05
20 *105:24 *545:21 8.73389e-06
*RES
1 *2103:X *105:9 5.8575 
2 *105:9 *1893:B 1.6 
3 *105:9 *105:24 7.225 
4 *105:24 *2104:B 8.255 
5 *105:24 *2106:B 2.74 
*END

*D_NET *106 0.00269916
*CONN
*I *2107:A I *D sky130_fd_sc_hd__nand2_2
*I *1915:C I *D sky130_fd_sc_hd__nand4b_4
*I *1883:A1 I *D sky130_fd_sc_hd__a21bo_2
*I *2105:A I *D sky130_fd_sc_hd__inv_2
*I *1894:A1 I *D sky130_fd_sc_hd__a21bo_2
*I *2104:Y O *D sky130_fd_sc_hd__nand2_4
*CAP
1 *2107:A 8.58472e-05
2 *1915:C 0.000157518
3 *1883:A1 0
4 *2105:A 0
5 *1894:A1 3.16897e-05
6 *2104:Y 0.000358236
7 *106:50 0.000449318
8 *106:37 0.000454146
9 *106:26 0.00057474
10 *1894:A1 *1895:A2 0.000117825
11 *1894:A1 *1917:A 0.000117825
12 *1915:C *1915:B 0
13 *1915:C *2107:B 1.16578e-05
14 *2107:A *2107:B 4.99619e-05
15 *106:26 *1888:B 1.08758e-05
16 *106:37 *1892:A 0
17 *106:37 *1915:D 2.97004e-06
18 *106:37 *263:12 0.000143266
19 *106:37 *269:12 0
20 *106:50 *1915:D 0.000123781
21 *106:50 *263:12 9.50342e-06
*RES
1 *2104:Y *1894:A1 8.58 
2 *2104:Y *106:26 6.22 
3 *106:26 *2105:A 1.6 
4 *106:26 *106:37 6.41 
5 *106:37 *1883:A1 3.6 
6 *106:37 *106:50 6.035 
7 *106:50 *1915:C 3.79 
8 *106:50 *2107:A 3.1 
*END

*D_NET *107 0.000476187
*CONN
*I *1892:A I *D sky130_fd_sc_hd__or3b_4
*I *2105:Y O *D sky130_fd_sc_hd__inv_2
*CAP
1 *1892:A 0.000102996
2 *2105:Y 0.000102996
3 *1892:A *1887:A 0
4 *1892:A *1915:D 0
5 *1892:A *108:27 1.91597e-05
6 *1892:A *263:21 8.65905e-05
7 *1892:A *269:12 0.000116158
8 *1892:A *269:22 4.82863e-05
9 *106:37 *1892:A 0
*RES
1 *2105:Y *1892:A 9.63 
*END

*D_NET *108 0.00214593
*CONN
*I *2107:B I *D sky130_fd_sc_hd__nand2_2
*I *1915:D I *D sky130_fd_sc_hd__nand4b_4
*I *1883:B1_N I *D sky130_fd_sc_hd__a21bo_2
*I *1892:C_N I *D sky130_fd_sc_hd__or3b_4
*I *2106:X O *D sky130_fd_sc_hd__or2_4
*CAP
1 *2107:B 1.79079e-05
2 *1915:D 0.000230034
3 *1883:B1_N 0
4 *1892:C_N 2.75583e-05
5 *2106:X 0.000193171
6 *108:27 0.000401789
7 *108:12 0.000410393
8 *1892:C_N *263:21 2.30292e-05
9 *1892:C_N *269:22 8.65905e-05
10 *1892:C_N *278:6 5.30673e-05
11 *1915:D *1884:B 7.81954e-05
12 *1915:D *263:21 2.72642e-05
13 *108:12 *1887:A 0
14 *108:12 *2104:A 7.81954e-05
15 *108:12 *269:12 0.000114483
16 *108:12 *462:16 6.60261e-06
17 *108:27 *2322:A 0
18 *108:27 *263:21 7.93102e-05
19 *108:27 *269:22 0.000110808
20 *1892:A *1915:D 0
21 *1892:A *108:27 1.91597e-05
22 *1915:C *2107:B 1.16578e-05
23 *2107:A *2107:B 4.99619e-05
24 *106:37 *1915:D 2.97004e-06
25 *106:50 *1915:D 0.000123781
*RES
1 *2106:X *108:12 9.47 
2 *108:12 *1892:C_N 2.74 
3 *108:12 *108:27 3.69375 
4 *108:27 *1883:B1_N 1.6 
5 *108:27 *1915:D 10.2312 
6 *1915:D *2107:B 3.65 
*END

*D_NET *109 0.000484736
*CONN
*I *1876:A I *D sky130_fd_sc_hd__xor2_2
*I *2107:Y O *D sky130_fd_sc_hd__nand2_2
*CAP
1 *1876:A 0.000222347
2 *2107:Y 0.000222347
3 *1876:A *1876:B 9.50342e-06
4 *1876:A *341:16 3.05373e-05
*RES
1 *2107:Y *1876:A 10.83 
*END

*D_NET *110 0.000928752
*CONN
*I *2111:B I *D sky130_fd_sc_hd__nand3b_2
*I *2110:A1 I *D sky130_fd_sc_hd__a21bo_2
*I *2108:Y O *D sky130_fd_sc_hd__nand2_2
*CAP
1 *2111:B 0.000157855
2 *2110:A1 0
3 *2108:Y 0.000175369
4 *110:12 0.000333223
5 *2111:B *2111:A_N 1.47256e-05
6 *2111:B *2111:C 7.51357e-05
7 *2111:B *112:6 2.66586e-05
8 *110:12 *2111:A_N 4.18603e-06
9 *110:12 *2189:A 0.000141599
*RES
1 *2108:Y *110:12 8.375 
2 *110:12 *2110:A1 1.6 
3 *110:12 *2111:B 4.495 
*END

*D_NET *111 0.000492472
*CONN
*I *2111:C I *D sky130_fd_sc_hd__nand3b_2
*I *2110:A2 I *D sky130_fd_sc_hd__a21bo_2
*I *2109:Y O *D sky130_fd_sc_hd__nand2b_2
*CAP
1 *2111:C 4.84995e-05
2 *2110:A2 0
3 *2109:Y 6.75371e-05
4 *111:10 0.000116037
5 *2111:C *2111:A_N 8.49205e-05
6 *2111:C *112:6 2.30292e-05
7 *111:10 *2111:A_N 1.52184e-05
8 *111:10 *2189:A 6.20952e-05
9 *2111:B *2111:C 7.51357e-05
*RES
1 *2109:Y *111:10 6.98 
2 *111:10 *2110:A2 1.6 
3 *111:10 *2111:C 3.1 
*END

*D_NET *112 0.00385635
*CONN
*I *2127:A I *D sky130_fd_sc_hd__nand3_2
*I *2134:A I *D sky130_fd_sc_hd__nand2_2
*I *2135:A I *D sky130_fd_sc_hd__nand4_2
*I *2110:X O *D sky130_fd_sc_hd__a21bo_2
*CAP
1 *2127:A 0
2 *2134:A 0.000196738
3 *2135:A 7.62686e-05
4 *2110:X 0.000717627
5 *112:23 0.000401305
6 *112:6 0.000998463
7 *2134:A *2134:B 6.68594e-05
8 *2134:A *258:12 0
9 *2134:A *262:8 0.000115464
10 *2135:A *2128:B 0.000139238
11 *2135:A *2135:B 4.82919e-05
12 *2135:A *133:29 0
13 *2135:A *137:10 7.23533e-05
14 *2135:A *262:8 0
15 *112:6 *1873:B1 0.000148084
16 *112:6 *2111:A_N 0.00027299
17 *112:6 *113:6 0.000313852
18 *112:23 *1873:B1 0.000227383
19 *112:23 *2127:B 0
20 *112:23 *129:6 1.17409e-05
21 *2111:B *112:6 2.66586e-05
22 *2111:C *112:6 2.30292e-05
*RES
1 *2110:X *112:6 11.02 
2 *112:6 *2135:A 7.685 
3 *112:6 *112:23 3.045 
4 *112:23 *2134:A 8.735 
5 *112:23 *2127:A 1.6 
*END

*D_NET *113 0.00334143
*CONN
*I *1873:B1 I *D sky130_fd_sc_hd__a2bb2o_2
*I *2134:B I *D sky130_fd_sc_hd__nand2_2
*I *1872:A1_N I *D sky130_fd_sc_hd__o2bb2a_2
*I *2135:B I *D sky130_fd_sc_hd__nand4_2
*I *2128:A I *D sky130_fd_sc_hd__nand2_2
*I *2111:Y O *D sky130_fd_sc_hd__nand3b_2
*CAP
1 *1873:B1 0.000108673
2 *2134:B 0.000210461
3 *1872:A1_N 0
4 *2135:B 0.00019427
5 *2128:A 0
6 *2111:Y 0.000113821
7 *113:34 0.000340552
8 *113:12 0.000307623
9 *113:8 0.000243444
10 *113:6 0.000222494
11 *1873:B1 *1873:A1_N 0.000168962
12 *1873:B1 *129:6 1.19928e-05
13 *1873:B1 *129:10 9.94134e-06
14 *1873:B1 *261:12 1.17309e-05
15 *2134:B *1872:B1 8.65905e-05
16 *2134:B *607:33 0.000246783
17 *2135:B *1874:B 2.75145e-05
18 *2135:B *2095:C1 0
19 *2135:B *133:29 1.16578e-05
20 *2135:B *137:10 6.90876e-05
21 *113:12 *2109:B 0
22 *113:12 *2128:B 6.14602e-05
23 *113:34 *1872:A2_N 3.47668e-05
24 *113:34 *2109:B 0
25 *113:34 *2128:B 3.26084e-05
26 *113:34 *261:12 0
27 *113:34 *607:33 2.25285e-05
28 *2134:A *2134:B 6.68594e-05
29 *2135:A *2135:B 4.82919e-05
30 *112:6 *1873:B1 0.000148084
31 *112:6 *113:6 0.000313852
32 *112:23 *1873:B1 0.000227383
*RES
1 *2111:Y *113:6 4.465 
2 *113:6 *113:8 2 
3 *113:8 *113:12 3.89 
4 *113:12 *2128:A 1.6 
5 *113:12 *2135:B 5.185 
6 *113:8 *113:34 4.6175 
7 *113:34 *1872:A1_N 1.6 
8 *113:34 *2134:B 6.2125 
9 *113:6 *1873:B1 5.17 
*END

*D_NET *114 0.00259876
*CONN
*I *2126:A1 I *D sky130_fd_sc_hd__o211ai_2
*I *2129:A2 I *D sky130_fd_sc_hd__o21ai_2
*I *2116:A1 I *D sky130_fd_sc_hd__o21ai_4
*I *2112:X O *D sky130_fd_sc_hd__and2_4
*CAP
1 *2126:A1 0
2 *2129:A2 0.000175573
3 *2116:A1 2.13387e-05
4 *2112:X 0.000101394
5 *114:25 0.000372434
6 *114:12 0.000319594
7 *2116:A1 *2115:A2 1.91597e-05
8 *2116:A1 *2116:A2 4.66108e-05
9 *2116:A1 *2131:B1 8.65905e-05
10 *2129:A2 *2129:A1 0.000206076
11 *2129:A2 *2129:B1 0
12 *2129:A2 *2131:D1 3.09164e-05
13 *2129:A2 *118:14 0.000347029
14 *2129:A2 *118:35 0.000116165
15 *114:12 *2115:A2 1.91597e-05
16 *114:12 *2116:A2 3.57349e-05
17 *114:12 *2131:B1 0.000128264
18 *114:12 *540:19 0.000116165
19 *114:25 *2112:A 0.000158297
20 *114:25 *2115:B1 4.65721e-05
21 *114:25 *2116:A2 0.000116158
22 *114:25 *2129:A1 5.53249e-06
23 *114:25 *2131:B1 0
24 *114:25 *116:29 8.15598e-05
25 *114:25 *118:35 3.57846e-05
26 *114:25 *540:23 1.26548e-05
*RES
1 *2112:X *114:12 8.12 
2 *114:12 *2116:A1 2.395 
3 *114:12 *114:25 6.89 
4 *114:25 *2129:A2 8.805 
5 *114:25 *2126:A1 3.6 
*END

*D_NET *115 0.000510892
*CONN
*I *2116:A2 I *D sky130_fd_sc_hd__o21ai_4
*I *2113:Y O *D sky130_fd_sc_hd__nor2_2
*CAP
1 *2116:A2 5.91802e-05
2 *2113:Y 5.91802e-05
3 *2116:A2 *2115:A2 8.23457e-05
4 *2116:A2 *2115:B1 0.000111682
5 *2116:A1 *2116:A2 4.66108e-05
6 *114:12 *2116:A2 3.57349e-05
7 *114:25 *2116:A2 0.000116158
*RES
1 *2113:Y *2116:A2 9.375 
*END

*D_NET *116 0.00218514
*CONN
*I *2126:A2 I *D sky130_fd_sc_hd__o211ai_2
*I *2129:A1 I *D sky130_fd_sc_hd__o21ai_2
*I *2115:B1 I *D sky130_fd_sc_hd__a21o_2
*I *2114:Y O *D sky130_fd_sc_hd__o21bai_2
*CAP
1 *2126:A2 0
2 *2129:A1 0.000148771
3 *2115:B1 0.000234404
4 *2114:Y 2.28171e-05
5 *116:29 0.00024171
6 *116:6 0.000350159
7 *2115:B1 *2113:A 0.000158965
8 *2115:B1 *2115:A2 4.99619e-05
9 *2115:B1 *2131:B1 9.66021e-05
10 *2115:B1 *2266:A 0.000160635
11 *2115:B1 *607:98 5.05437e-05
12 *2115:B1 *607:106 3.47837e-05
13 *2129:A1 *2126:C1 5.85158e-05
14 *2129:A1 *2131:D1 0
15 *116:6 *2113:A 1.08758e-05
16 *116:6 *2114:A2 1.47347e-05
17 *116:6 *2266:A 7.57202e-05
18 *116:29 *2126:C1 2.45182e-05
19 *116:29 *2131:B1 0
20 *2116:A2 *2115:B1 0.000111682
21 *2129:A2 *2129:A1 0.000206076
22 *114:25 *2115:B1 4.65721e-05
23 *114:25 *2129:A1 5.53249e-06
24 *114:25 *116:29 8.15598e-05
*RES
1 *2114:Y *116:6 2.395 
2 *116:6 *2115:B1 11.525 
3 *116:6 *116:29 3.89 
4 *116:29 *2129:A1 6.975 
5 *116:29 *2126:A2 3.6 
*END

*D_NET *117 0.00239414
*CONN
*I *2131:B1 I *D sky130_fd_sc_hd__o2111ai_4
*I *2115:X O *D sky130_fd_sc_hd__a21o_2
*CAP
1 *2131:B1 0.000711876
2 *2115:X 0.000711876
3 *2131:B1 *2114:B1_N 9.428e-05
4 *2131:B1 *2115:A2 9.80032e-06
5 *2131:B1 *2126:C1 0.000402041
6 *2131:B1 *118:10 0.00011665
7 *2131:B1 *121:31 9.50342e-06
8 *2131:B1 *127:12 0
9 *2131:B1 *540:19 0
10 *2131:B1 *540:23 0
11 *2131:B1 *607:98 2.66586e-05
12 *2115:B1 *2131:B1 9.66021e-05
13 *2116:A1 *2131:B1 8.65905e-05
14 *114:12 *2131:B1 0.000128264
15 *114:25 *2131:B1 0
16 *116:29 *2131:B1 0
*RES
1 *2115:X *2131:B1 21.255 
*END

*D_NET *118 0.00488368
*CONN
*I *2129:B1 I *D sky130_fd_sc_hd__o21ai_2
*I *2127:B I *D sky130_fd_sc_hd__nand3_2
*I *2095:B1 I *D sky130_fd_sc_hd__o211a_2
*I *2131:D1 I *D sky130_fd_sc_hd__o2111ai_4
*I *2116:Y O *D sky130_fd_sc_hd__o21ai_4
*CAP
1 *2129:B1 0.000118831
2 *2127:B 0.000153927
3 *2095:B1 3.31218e-05
4 *2131:D1 0.000210874
5 *2116:Y 0.000237614
6 *118:35 0.000776353
7 *118:14 0.00110493
8 *118:10 0.000661201
9 *2095:B1 *2127:C 5.16418e-05
10 *2095:B1 *133:10 4.18603e-06
11 *2095:B1 *133:29 1.52945e-05
12 *2095:B1 *258:12 1.26548e-05
13 *2127:B *2096:B 0
14 *2127:B *2127:C 0.000109016
15 *2127:B *607:33 4.23612e-05
16 *2129:B1 *2094:A 1.83756e-05
17 *2131:D1 *2099:A 1.12467e-05
18 *2131:D1 *2126:C1 0
19 *2131:D1 *133:10 5.83121e-06
20 *118:10 *2114:B1_N 0.000141606
21 *118:10 *127:12 4.40899e-05
22 *118:35 *128:8 0.000360745
23 *118:35 *133:29 0.000123225
24 *2129:A1 *2131:D1 0
25 *2129:A2 *2129:B1 0
26 *2129:A2 *2131:D1 3.09164e-05
27 *2129:A2 *118:14 0.000347029
28 *2129:A2 *118:35 0.000116165
29 *2131:B1 *118:10 0.00011665
30 *112:23 *2127:B 0
31 *114:25 *118:35 3.57846e-05
*RES
1 *2116:Y *118:10 10.805 
2 *118:10 *118:14 5.9 
3 *118:14 *2131:D1 7.065 
4 *118:14 *118:35 12.805 
5 *118:35 *2095:B1 4.47 
6 *118:35 *2127:B 6.48 
7 *118:10 *2129:B1 3.1 
*END

*D_NET *119 0.00241738
*CONN
*I *2119:A2 I *D sky130_fd_sc_hd__o21bai_4
*I *2131:A1 I *D sky130_fd_sc_hd__o2111ai_4
*I *2130:A1 I *D sky130_fd_sc_hd__o21ai_2
*I *2125:B2 I *D sky130_fd_sc_hd__o2bb2ai_4
*I *2117:X O *D sky130_fd_sc_hd__and2_4
*CAP
1 *2119:A2 9.13404e-05
2 *2131:A1 0.000254785
3 *2130:A1 0.000130032
4 *2125:B2 0.000177475
5 *2117:X 0.000235409
6 *119:22 0.000351411
7 *2119:A2 *2119:B1_N 0.0001249
8 *2119:A2 *121:10 0.000315527
9 *2130:A1 *2130:A2 4.66108e-05
10 *2130:A1 *2130:B1 8.65905e-05
11 *2130:A1 *126:16 0.000120655
12 *2130:A1 *132:10 1.46828e-05
13 *2130:A1 *468:10 4.66108e-05
14 *2131:A1 *2092:B 1.52776e-05
15 *2131:A1 *2317:A 0.000126679
16 *2131:A1 *132:10 0.000114492
17 *2131:A1 *468:12 2.92496e-05
18 *119:22 *2092:B 1.94892e-05
19 *119:22 *2125:B1 0
20 *119:22 *468:12 0.000116158
*RES
1 *2117:X *2125:B2 5.735 
2 *2117:X *119:22 4.98 
3 *119:22 *2130:A1 5.085 
4 *119:22 *2131:A1 8.025 
5 *2130:A1 *2119:A2 6.065 
*END

*D_NET *120 0.00145305
*CONN
*I *2119:A1 I *D sky130_fd_sc_hd__o21bai_4
*I *2118:Y O *D sky130_fd_sc_hd__nor2_2
*CAP
1 *2119:A1 0.000471948
2 *2118:Y 0.000471948
3 *2119:A1 *1819:A1 4.82919e-05
4 *2119:A1 *2118:A 5.83121e-06
5 *2119:A1 *2124:B1 7.81954e-05
6 *2119:A1 *2144:A2 0.00012342
7 *2119:A1 *145:12 0
8 *2119:A1 *145:14 0.00010978
9 *2119:A1 *147:12 0
10 *2119:A1 *468:12 0
11 *2119:A1 *468:14 0
12 *2119:A1 *531:10 0
13 *2119:A1 *538:20 0.00014364
14 *2119:A1 *539:12 0
15 *2119:A1 *542:12 0
*RES
1 *2118:Y *2119:A1 16.215 
*END

*D_NET *121 0.00410795
*CONN
*I *2093:A1_N I *D sky130_fd_sc_hd__o2bb2ai_2
*I *2126:C1 I *D sky130_fd_sc_hd__o211ai_2
*I *2131:C1 I *D sky130_fd_sc_hd__o2111ai_4
*I *2130:B1 I *D sky130_fd_sc_hd__o21ai_2
*I *2119:Y O *D sky130_fd_sc_hd__o21bai_4
*CAP
1 *2093:A1_N 5.81042e-06
2 *2126:C1 0.00023695
3 *2131:C1 0
4 *2130:B1 2.48671e-05
5 *2119:Y 0.000244985
6 *121:31 0.000849764
7 *121:10 0.000888477
8 *2093:A1_N *2093:B2 4.99619e-05
9 *2093:A1_N *2126:B1 4.99619e-05
10 *2126:C1 *2126:B1 8.40269e-05
11 *2130:B1 *2130:A2 5.4155e-06
12 *2130:B1 *132:10 4.99619e-05
13 *2130:B1 *468:10 0
14 *121:10 *2119:B1_N 2.30292e-05
15 *121:10 *2130:A2 6.36068e-05
16 *121:31 *2092:B 3.43327e-05
17 *121:31 *2099:A 0
18 *121:31 *2258:A 0.000353831
19 *121:31 *126:16 8.82086e-05
20 *121:31 *127:12 0
21 *121:31 *132:10 0.000158066
22 *2119:A2 *121:10 0.000315527
23 *2129:A1 *2126:C1 5.85158e-05
24 *2130:A1 *2130:B1 8.65905e-05
25 *2131:B1 *2126:C1 0.000402041
26 *2131:B1 *121:31 9.50342e-06
27 *2131:D1 *2126:C1 0
28 *116:29 *2126:C1 2.45182e-05
*RES
1 *2119:Y *121:10 6.91 
2 *121:10 *2130:B1 2.755 
3 *121:10 *121:31 12.5 
4 *121:31 *2131:C1 3.6 
5 *121:31 *2126:C1 9.09 
6 *2126:C1 *2093:A1_N 3.65 
*END

*D_NET *122 0.00297724
*CONN
*I *2091:A2 I *D sky130_fd_sc_hd__a32o_2
*I *2125:A1_N I *D sky130_fd_sc_hd__o2bb2ai_4
*I *2132:A1 I *D sky130_fd_sc_hd__a21o_2
*I *2120:Y O *D sky130_fd_sc_hd__nand2_2
*CAP
1 *2091:A2 4.78633e-05
2 *2125:A1_N 0.000181318
3 *2132:A1 0.000459112
4 *2120:Y 0.000164518
5 *122:12 0.000757085
6 *2091:A2 *2091:A1 0.00018305
7 *2091:A2 *2132:A2 0.00018471
8 *2125:A1_N *2125:A2_N 2.49909e-05
9 *2132:A1 *2125:A2_N 3.83194e-05
10 *2132:A1 *542:24 0.000541107
11 *122:12 *2099:A 0.000158297
12 *122:12 *2120:A 4.49022e-05
13 *122:12 *2184:A 9.30717e-05
14 *122:12 *467:10 5.12017e-06
15 *122:12 *538:28 9.37731e-05
*RES
1 *2120:Y *122:12 8.96 
2 *122:12 *2132:A1 7.225 
3 *122:12 *2125:A1_N 4.15 
4 *2132:A1 *2091:A2 9.345 
*END

*D_NET *123 0.000472303
*CONN
*I *2091:A3 I *D sky130_fd_sc_hd__a32o_2
*I *2132:A2 I *D sky130_fd_sc_hd__a21o_2
*I *2121:Y O *D sky130_fd_sc_hd__nand2_2
*CAP
1 *2091:A3 0
2 *2132:A2 5.65503e-05
3 *2121:Y 2.32169e-05
4 *123:6 7.97672e-05
5 *2132:A2 *607:41 0.000100536
6 *123:6 *2092:B 2.75229e-05
7 *2091:A2 *2132:A2 0.00018471
*RES
1 *2121:Y *123:6 2.05 
2 *123:6 *2132:A2 7.745 
3 *123:6 *2091:A3 1.6 
*END

*D_NET *124 0.000600136
*CONN
*I *2125:A2_N I *D sky130_fd_sc_hd__o2bb2ai_4
*I *2123:B1 I *D sky130_fd_sc_hd__o21ai_2
*I *2122:X O *D sky130_fd_sc_hd__o21a_2
*CAP
1 *2125:A2_N 8.41465e-05
2 *2123:B1 2.12116e-05
3 *2122:X 6.91185e-05
4 *124:10 0.000174477
5 *2123:B1 *542:24 4.82863e-05
6 *2125:A2_N *542:24 3.57349e-05
7 *124:10 *2099:A 1.07797e-05
8 *124:10 *542:24 9.30717e-05
9 *124:10 *607:41 0
10 *2125:A1_N *2125:A2_N 2.49909e-05
11 *2132:A1 *2125:A2_N 3.83194e-05
*RES
1 *2122:X *124:10 6.98 
2 *124:10 *2123:B1 2.05 
3 *124:10 *2125:A2_N 3.085 
*END

*D_NET *125 0.00277721
*CONN
*I *2133:A I *D sky130_fd_sc_hd__and2_2
*I *2135:C I *D sky130_fd_sc_hd__nand4_2
*I *2123:Y O *D sky130_fd_sc_hd__o21ai_2
*CAP
1 *2133:A 0
2 *2135:C 0.000218176
3 *2123:Y 0.00037597
4 *125:14 0.000594146
5 *2135:C *2090:A 5.05437e-05
6 *2135:C *2133:B 4.82863e-05
7 *2135:C *2135:D 0.000283164
8 *2135:C *133:29 2.75229e-05
9 *2135:C *134:14 1.54318e-05
10 *2135:C *135:24 3.96737e-05
11 *2135:C *262:8 0.000541205
12 *125:14 *2090:A 1.34361e-05
13 *125:14 *2091:A1 2.49909e-05
14 *125:14 *134:14 0.000234214
15 *125:14 *135:24 2.49909e-05
16 *125:14 *258:12 0.000137571
17 *125:14 *542:24 0.000120359
18 *2123:A2 *125:14 2.75229e-05
*RES
1 *2123:Y *125:14 12.965 
2 *125:14 *2135:C 13.415 
3 *125:14 *2133:A 1.6 
*END

*D_NET *126 0.00269584
*CONN
*I *2130:A2 I *D sky130_fd_sc_hd__o21ai_2
*I *2131:A2 I *D sky130_fd_sc_hd__o2111ai_4
*I *2125:B1 I *D sky130_fd_sc_hd__o2bb2ai_4
*I *2124:Y O *D sky130_fd_sc_hd__o21ai_4
*CAP
1 *2130:A2 8.92365e-05
2 *2131:A2 0.000263594
3 *2125:B1 0.00011943
4 *2124:Y 0.00026686
5 *126:16 0.000541028
6 *126:12 0.0005141
7 *2125:B1 *2118:B 0
8 *2125:B1 *127:12 0
9 *2125:B1 *468:12 0
10 *2130:A2 *468:10 0
11 *2131:A2 *2092:B 0
12 *2131:A2 *127:12 0
13 *126:12 *2124:A2 0.000163204
14 *126:12 *468:12 6.55328e-05
15 *126:12 *539:12 0.00011686
16 *126:12 *539:16 4.82863e-05
17 *126:16 *2092:B 0.000161529
18 *126:16 *468:10 2.16833e-05
19 *2130:A1 *2130:A2 4.66108e-05
20 *2130:A1 *126:16 0.000120655
21 *2130:B1 *2130:A2 5.4155e-06
22 *119:22 *2125:B1 0
23 *121:10 *2130:A2 6.36068e-05
24 *121:31 *126:16 8.82086e-05
*RES
1 *2124:Y *126:12 10.535 
2 *126:12 *126:16 5.555 
3 *126:16 *2125:B1 5.49 
4 *126:16 *2131:A2 7.485 
5 *126:12 *2130:A2 3.355 
*END

*D_NET *127 0.00162064
*CONN
*I *2126:B1 I *D sky130_fd_sc_hd__o211ai_2
*I *2093:A2_N I *D sky130_fd_sc_hd__o2bb2ai_2
*I *2125:Y O *D sky130_fd_sc_hd__o2bb2ai_4
*CAP
1 *2126:B1 0.000104036
2 *2093:A2_N 0
3 *2125:Y 0.000534518
4 *127:12 0.000638554
5 *2126:B1 *2093:B2 7.88676e-05
6 *2126:B1 *128:8 0
7 *127:12 *2093:B2 8.65905e-05
8 *127:12 *2094:B 0
9 *127:12 *471:8 0
10 *2093:A1_N *2126:B1 4.99619e-05
11 *2125:B1 *127:12 0
12 *2126:C1 *2126:B1 8.40269e-05
13 *2131:A2 *127:12 0
14 *2131:B1 *127:12 0
15 *118:10 *127:12 4.40899e-05
16 *121:31 *127:12 0
*RES
1 *2125:Y *127:12 14.405 
2 *127:12 *2093:A2_N 1.6 
3 *127:12 *2126:B1 4.15 
*END

*D_NET *128 0.00208407
*CONN
*I *2127:C I *D sky130_fd_sc_hd__nand3_2
*I *2095:C1 I *D sky130_fd_sc_hd__o211a_2
*I *2126:Y O *D sky130_fd_sc_hd__o211ai_2
*CAP
1 *2127:C 5.29913e-05
2 *2095:C1 4.36089e-05
3 *2126:Y 0.000239774
4 *128:8 0.000336374
5 *2095:C1 *2095:A2 8.58302e-07
6 *2095:C1 *133:29 4.66108e-05
7 *2127:C *2096:A 4.18603e-06
8 *2127:C *2096:B 0
9 *2127:C *258:12 0.00018305
10 *128:8 *2093:B2 0.000439351
11 *128:8 *2095:A1 4.787e-05
12 *128:8 *2095:A2 9.02865e-06
13 *128:8 *133:29 0.00015896
14 *2095:B1 *2127:C 5.16418e-05
15 *2126:B1 *128:8 0
16 *2127:B *2127:C 0.000109016
17 *2135:B *2095:C1 0
18 *118:35 *128:8 0.000360745
*RES
1 *2126:Y *128:8 10 
2 *128:8 *2095:C1 2.41 
3 *128:8 *2127:C 7.745 
*END

*D_NET *129 0.00142312
*CONN
*I *1873:B2 I *D sky130_fd_sc_hd__a2bb2o_2
*I *1872:A2_N I *D sky130_fd_sc_hd__o2bb2a_2
*I *2128:B I *D sky130_fd_sc_hd__nand2_2
*I *2127:Y O *D sky130_fd_sc_hd__nand3_2
*CAP
1 *1873:B2 0
2 *1872:A2_N 9.3808e-05
3 *2128:B 8.20263e-05
4 *2127:Y 4.05022e-05
5 *129:10 0.000254893
6 *129:6 0.000119561
7 *1872:A2_N *1872:B2 1.07797e-05
8 *1872:A2_N *261:12 7.06865e-05
9 *1872:A2_N *607:33 8.65905e-05
10 *2128:B *1872:B2 1.1561e-05
11 *2128:B *137:10 3.68784e-05
12 *129:6 *607:33 0.000119762
13 *129:10 *1873:A1_N 9.77474e-05
14 *129:10 *261:12 4.82919e-05
15 *129:10 *607:33 4.82863e-05
16 *1873:B1 *129:6 1.19928e-05
17 *1873:B1 *129:10 9.94134e-06
18 *2135:A *2128:B 0.000139238
19 *112:23 *129:6 1.17409e-05
20 *113:12 *2128:B 6.14602e-05
21 *113:34 *1872:A2_N 3.47668e-05
22 *113:34 *2128:B 3.26084e-05
*RES
1 *2127:Y *129:6 2.74 
2 *129:6 *129:10 3.83 
3 *129:10 *2128:B 6.255 
4 *129:10 *1872:A2_N 5.52 
5 *129:6 *1873:B2 1.6 
*END

*D_NET *130 0.00133304
*CONN
*I *1874:B I *D sky130_fd_sc_hd__nand3_4
*I *2128:Y O *D sky130_fd_sc_hd__nand2_2
*CAP
1 *1874:B 0.000652762
2 *2128:Y 0.000652762
3 *1874:B *1874:A 0
4 *1874:B *262:8 0
5 *2135:B *1874:B 2.75145e-05
*RES
1 *2128:Y *1874:B 17.79 
*END

*D_NET *131 0.000390059
*CONN
*I *2094:A I *D sky130_fd_sc_hd__xnor2_2
*I *2129:Y O *D sky130_fd_sc_hd__o21ai_2
*CAP
1 *2094:A 0.000185842
2 *2129:Y 0.000185842
3 *2129:B1 *2094:A 1.83756e-05
*RES
1 *2129:Y *2094:A 6.08 
*END

*D_NET *132 0.00147277
*CONN
*I *2093:B1 I *D sky130_fd_sc_hd__o2bb2ai_2
*I *2092:A I *D sky130_fd_sc_hd__xnor2_2
*I *2130:Y O *D sky130_fd_sc_hd__o21ai_2
*CAP
1 *2093:B1 0.000269615
2 *2092:A 0
3 *2130:Y 9.48514e-05
4 *132:10 0.000364466
5 *2093:B1 *2054:A 1.47256e-05
6 *2093:B1 *2055:A 1.08758e-05
7 *2093:B1 *2094:B 0
8 *2093:B1 *2317:A 0.000208025
9 *132:10 *2092:B 7.63282e-05
10 *132:10 *2317:A 1.26626e-05
11 *132:10 *468:10 8.40213e-05
12 *2130:A1 *132:10 1.46828e-05
13 *2130:B1 *132:10 4.99619e-05
14 *2131:A1 *132:10 0.000114492
15 *121:31 *132:10 0.000158066
*RES
1 *2130:Y *132:10 6.72 
2 *132:10 *2092:A 3.6 
3 *132:10 *2093:B1 9.27 
*END

*D_NET *133 0.00385257
*CONN
*I *1872:B1 I *D sky130_fd_sc_hd__o2bb2a_2
*I *1873:A1_N I *D sky130_fd_sc_hd__a2bb2o_2
*I *2095:A1 I *D sky130_fd_sc_hd__o211a_2
*I *2131:Y O *D sky130_fd_sc_hd__o2111ai_4
*CAP
1 *1872:B1 0.000101101
2 *1873:A1_N 3.62956e-05
3 *2095:A1 9.68349e-06
4 *2131:Y 0.00066636
5 *133:29 0.000458524
6 *133:10 0.000997171
7 *1872:B1 *1872:B2 3.18137e-05
8 *1872:B1 *137:10 9.3062e-06
9 *1872:B1 *262:8 0.000179015
10 *1872:B1 *607:33 7.06865e-05
11 *2095:A1 *2093:B2 4.787e-05
12 *133:10 *2099:A 1.17309e-05
13 *133:10 *2123:A1 3.383e-05
14 *133:10 *258:12 0
15 *133:10 *449:10 0.00015428
16 *133:10 *607:35 0
17 *133:29 *2096:B 4.43871e-06
18 *133:29 *2135:D 2.75229e-05
19 *133:29 *137:10 8.56456e-05
20 *133:29 *262:8 0.000132842
21 *1873:B1 *1873:A1_N 0.000168962
22 *2095:B1 *133:10 4.18603e-06
23 *2095:B1 *133:29 1.52945e-05
24 *2095:C1 *133:29 4.66108e-05
25 *2131:D1 *133:10 5.83121e-06
26 *2134:B *1872:B1 8.65905e-05
27 *2135:A *133:29 0
28 *2135:B *133:29 1.16578e-05
29 *2135:C *133:29 2.75229e-05
30 *118:35 *133:29 0.000123225
31 *128:8 *2095:A1 4.787e-05
32 *128:8 *133:29 0.00015896
33 *129:10 *1873:A1_N 9.77474e-05
*RES
1 *2131:Y *133:10 12.645 
2 *133:10 *2095:A1 4.04625 
3 *133:10 *133:29 10.495 
4 *133:29 *1873:A1_N 5.16 
5 *133:29 *1872:B1 6.54 
*END

*D_NET *134 0.00179344
*CONN
*I *2135:D I *D sky130_fd_sc_hd__nand4_2
*I *2133:B I *D sky130_fd_sc_hd__and2_2
*I *2132:X O *D sky130_fd_sc_hd__a21o_2
*CAP
1 *2135:D 0.000200962
2 *2133:B 9.73191e-06
3 *2132:X 0.000201642
4 *134:14 0.000412336
5 *2133:B *135:24 4.82863e-05
6 *2135:D *2089:B 7.48806e-05
7 *2135:D *258:12 0.000153841
8 *134:14 *2090:A 7.23533e-05
9 *134:14 *258:12 5.70461e-06
10 *134:14 *262:8 5.08304e-06
11 *2135:C *2133:B 4.82863e-05
12 *2135:C *2135:D 0.000283164
13 *2135:C *134:14 1.54318e-05
14 *125:14 *134:14 0.000234214
15 *133:29 *2135:D 2.75229e-05
*RES
1 *2132:X *134:14 7.275 
2 *134:14 *2133:B 4.05 
3 *134:14 *2135:D 10.02 
*END

*D_NET *135 0.00149748
*CONN
*I *2091:B2 I *D sky130_fd_sc_hd__a32o_2
*I *2089:B I *D sky130_fd_sc_hd__nand2_2
*I *2090:A I *D sky130_fd_sc_hd__xor2_2
*I *2133:X O *D sky130_fd_sc_hd__and2_2
*CAP
1 *2091:B2 6.08943e-05
2 *2089:B 4.74804e-05
3 *2090:A 0.000189002
4 *2133:X 0.000305515
5 *135:24 0.000224887
6 *2089:B *258:12 0.000138277
7 *2090:A *1874:A 0
8 *2090:A *2090:B 9.50342e-06
9 *2090:A *258:12 8.14111e-05
10 *2090:A *262:8 0.000112291
11 *2091:B2 *2092:B 4.05674e-06
12 *2133:B *135:24 4.82863e-05
13 *2135:C *2090:A 5.05437e-05
14 *2135:C *135:24 3.96737e-05
15 *2135:D *2089:B 7.48806e-05
16 *125:14 *2090:A 1.34361e-05
17 *125:14 *135:24 2.49909e-05
18 *134:14 *2090:A 7.23533e-05
*RES
1 *2133:X *2090:A 11.76 
2 *2133:X *135:24 3.43 
3 *135:24 *2089:B 7.235 
4 *135:24 *2091:B2 2.395 
*END

*D_NET *136 0.000444264
*CONN
*I *2096:A I *D sky130_fd_sc_hd__xor2_2
*I *2134:Y O *D sky130_fd_sc_hd__nand2_2
*CAP
1 *2096:A 0.000217946
2 *2134:Y 0.000217946
3 *2096:A *2096:B 4.18603e-06
4 *2096:A *258:12 0
5 *2096:A *607:35 0
6 *2096:A *607:98 0
7 *2127:C *2096:A 4.18603e-06
*RES
1 *2134:Y *2096:A 10.32 
*END

*D_NET *137 0.00106628
*CONN
*I *1872:B2 I *D sky130_fd_sc_hd__o2bb2a_2
*I *1873:A2_N I *D sky130_fd_sc_hd__a2bb2o_2
*I *2135:Y O *D sky130_fd_sc_hd__nand4_2
*CAP
1 *1872:B2 9.96146e-05
2 *1873:A2_N 0
3 *2135:Y 0.000171691
4 *137:10 0.000271305
5 *1872:B2 *261:12 0.000157595
6 *1872:B2 *262:8 0
7 *1872:B2 *607:33 3.86529e-05
8 *1872:A2_N *1872:B2 1.07797e-05
9 *1872:B1 *1872:B2 3.18137e-05
10 *1872:B1 *137:10 9.3062e-06
11 *2128:B *1872:B2 1.1561e-05
12 *2128:B *137:10 3.68784e-05
13 *2135:A *137:10 7.23533e-05
14 *2135:B *137:10 6.90876e-05
15 *133:29 *137:10 8.56456e-05
*RES
1 *2135:Y *137:10 6.72 
2 *137:10 *1873:A2_N 3.6 
3 *137:10 *1872:B2 6 
*END

*D_NET *138 0.00267361
*CONN
*I *2087:A1_N I *D sky130_fd_sc_hd__a2bb2oi_2
*I *2141:A1 I *D sky130_fd_sc_hd__o21a_2
*I *2140:A2 I *D sky130_fd_sc_hd__o21bai_4
*I *2136:X O *D sky130_fd_sc_hd__and2_4
*CAP
1 *2087:A1_N 0.000139797
2 *2141:A1 0
3 *2140:A2 0.000134839
4 *2136:X 0.000226429
5 *138:12 0.000212375
6 *138:8 0.000443762
7 *2087:A1_N *2139:A2 0.000163314
8 *2087:A1_N *2149:A 2.0514e-05
9 *2087:A1_N *2298:A 4.99619e-05
10 *2087:A1_N *140:19 0.000123407
11 *2140:A2 *2140:A1 6.97202e-05
12 *2140:A2 *2140:B1_N 8.65905e-05
13 *2140:A2 *2290:A 0.000107415
14 *2140:A2 *142:8 8.73058e-05
15 *138:8 *2086:B 0.00020655
16 *138:8 *2087:B2 4.11729e-05
17 *138:8 *2136:B 0.000419398
18 *138:12 *2140:B1_N 4.18603e-06
19 *138:12 *140:19 0.000136877
20 *138:12 *536:23 0
*RES
1 *2136:X *138:8 9.225 
2 *138:8 *138:12 3.635 
3 *138:12 *2140:A2 5.185 
4 *138:12 *2141:A1 1.6 
5 *138:8 *2087:A1_N 7.605 
*END

*D_NET *139 0.00127328
*CONN
*I *2140:A1 I *D sky130_fd_sc_hd__o21bai_4
*I *2137:Y O *D sky130_fd_sc_hd__nor2_2
*CAP
1 *2140:A1 0.000403802
2 *2137:Y 0.000403802
3 *2140:A1 *2137:B 9.54399e-05
4 *2140:A1 *2290:A 0.000138188
5 *2140:A1 *536:23 0.000162325
6 *2140:A2 *2140:A1 6.97202e-05
*RES
1 *2137:Y *2140:A1 13.665 
*END

*D_NET *140 0.00160578
*CONN
*I *2087:A2_N I *D sky130_fd_sc_hd__a2bb2oi_2
*I *2139:B1 I *D sky130_fd_sc_hd__a21o_4
*I *2141:A2 I *D sky130_fd_sc_hd__o21a_2
*I *2138:Y O *D sky130_fd_sc_hd__o21ai_2
*CAP
1 *2087:A2_N 1.0276e-05
2 *2139:B1 6.62531e-05
3 *2141:A2 0
4 *2138:Y 9.21792e-05
5 *140:19 0.000274218
6 *140:8 0.000289868
7 *2087:A2_N *2139:A2 4.82919e-05
8 *2087:A2_N *2149:A 2.16917e-05
9 *2139:B1 *2087:B1 1.12578e-05
10 *2139:B1 *2139:A1 0.000104541
11 *2139:B1 *2139:A2 2.16833e-05
12 *2139:B1 *2149:A 0.000245488
13 *140:8 *2140:B1_N 0
14 *140:8 *470:24 0
15 *140:19 *2139:A1 0
16 *140:19 *2140:B1_N 0
17 *140:19 *142:14 0.000159747
18 *140:19 *470:24 0
19 *2087:A1_N *140:19 0.000123407
20 *138:12 *140:19 0.000136877
*RES
1 *2138:Y *140:8 4.98 
2 *140:8 *2141:A2 3.6 
3 *140:8 *140:19 6.695 
4 *140:19 *2139:B1 4.495 
5 *140:19 *2087:A2_N 2.05 
*END

*D_NET *141 0.00248374
*CONN
*I *1819:B1 I *D sky130_fd_sc_hd__o22a_2
*I *1820:A2 I *D sky130_fd_sc_hd__o221a_2
*I *2149:C I *D sky130_fd_sc_hd__nand4_4
*I *2139:X O *D sky130_fd_sc_hd__a21o_4
*CAP
1 *1819:B1 0.000115678
2 *1820:A2 0.000112323
3 *2149:C 0
4 *2139:X 0.000236571
5 *141:19 0.000291496
6 *141:10 0.000300067
7 *1819:B1 *1820:B2 5.64143e-05
8 *1819:B1 *1820:C1 2.59981e-05
9 *1819:B1 *470:16 0.000123225
10 *1819:B1 *478:10 0.000101564
11 *1819:B1 *538:20 0.000107102
12 *1820:A2 *1820:B1 3.25635e-05
13 *1820:A2 *1820:B2 0.00019637
14 *1820:A2 *2147:A1 8.49205e-05
15 *141:10 *1820:C1 0.000377797
16 *141:10 *2149:B 6.77162e-05
17 *141:10 *470:16 0
18 *141:10 *478:16 8.08439e-05
19 *141:19 *1820:C1 8.70923e-05
20 *141:19 *478:10 1.52184e-05
21 *141:19 *478:16 7.07801e-05
*RES
1 *2139:X *141:10 9.48 
2 *141:10 *2149:C 3.6 
3 *141:10 *141:19 1.89 
4 *141:19 *1820:A2 6.135 
5 *141:19 *1819:B1 7.14 
*END

*D_NET *142 0.00381697
*CONN
*I *2141:B1 I *D sky130_fd_sc_hd__o21a_2
*I *2087:B1 I *D sky130_fd_sc_hd__a2bb2oi_2
*I *2149:B I *D sky130_fd_sc_hd__nand4_4
*I *2140:Y O *D sky130_fd_sc_hd__o21bai_4
*CAP
1 *2141:B1 0
2 *2087:B1 0.000296683
3 *2149:B 0.000493068
4 *2140:Y 0.000213555
5 *142:14 0.000950287
6 *142:8 0.000374092
7 *2087:B1 *2087:B2 2.75229e-05
8 *2087:B1 *2139:A1 1.16578e-05
9 *2087:B1 *2139:A2 0.00023468
10 *2087:B1 *2298:A 7.30845e-05
11 *2149:B *2139:A1 0.000157343
12 *2149:B *2149:D 0.000120655
13 *2149:B *2295:A 0.000157595
14 *2149:B *146:10 6.71882e-05
15 *2149:B *470:16 0.000226834
16 *142:8 *2290:A 3.54025e-05
17 *142:14 *2086:A 5.12942e-05
18 *142:14 *2139:A1 0
19 *142:14 *470:24 0
20 *2139:B1 *2087:B1 1.12578e-05
21 *2140:A2 *142:8 8.73058e-05
22 *140:19 *142:14 0.000159747
23 *141:10 *2149:B 6.77162e-05
*RES
1 *2140:Y *142:8 4.645 
2 *142:8 *142:14 7.42 
3 *142:14 *2149:B 14.33 
4 *142:14 *2087:B1 6.91 
5 *142:8 *2141:B1 1.6 
*END

*D_NET *143 0.000375801
*CONN
*I *2086:A I *D sky130_fd_sc_hd__xor2_2
*I *2141:X O *D sky130_fd_sc_hd__o21a_2
*CAP
1 *2086:A 0.000118208
2 *2141:X 0.000118208
3 *2086:A *2290:A 4.99619e-05
4 *2086:A *470:18 0
5 *2086:A *470:24 3.81296e-05
6 *142:14 *2086:A 5.12942e-05
*RES
1 *2141:X *2086:A 9.285 
*END

*D_NET *144 0.00202165
*CONN
*I *2145:A2 I *D sky130_fd_sc_hd__o21bai_4
*I *2144:A1 I *D sky130_fd_sc_hd__o21ba_2
*I *2142:Y O *D sky130_fd_sc_hd__nor2_2
*CAP
1 *2145:A2 4.22076e-05
2 *2144:A1 0.00014799
3 *2142:Y 0.00031238
4 *144:8 0.000502577
5 *2144:A1 *2144:A2 0.000222813
6 *2144:A1 *2148:A1 4.82863e-05
7 *2144:A1 *2148:A2 6.95505e-05
8 *2144:A1 *2148:B1 3.00381e-05
9 *2144:A1 *148:12 1.7396e-05
10 *2145:A2 *2144:A2 0.000116158
11 *2145:A2 *148:12 4.11112e-05
12 *144:8 *2142:B 0.000312182
13 *144:8 *537:27 0.00015896
*RES
1 *2142:Y *144:8 7.845 
2 *144:8 *2144:A1 6.705 
3 *144:8 *2145:A2 4.98 
*END

*D_NET *145 0.00391579
*CONN
*I *2299:A I *D sky130_fd_sc_hd__buf_2
*I *2144:A2 I *D sky130_fd_sc_hd__o21ba_2
*I *2145:A1 I *D sky130_fd_sc_hd__o21bai_4
*I *1819:A1 I *D sky130_fd_sc_hd__o22a_2
*I *2143:X O *D sky130_fd_sc_hd__and2_4
*CAP
1 *2299:A 0.000295505
2 *2144:A2 0.000264957
3 *2145:A1 0
4 *1819:A1 6.75273e-05
5 *2143:X 0.000214205
6 *145:14 0.000107314
7 *145:12 0.000359867
8 *145:8 0.000564833
9 *1819:A1 *1819:A2 0.00023635
10 *1819:A1 *2118:A 4.70919e-05
11 *1819:A1 *538:20 2.66586e-05
12 *2144:A2 *147:12 0
13 *2144:A2 *148:12 0
14 *2144:A2 *537:18 0.000137571
15 *2299:A *2146:A2 4.82919e-05
16 *2299:A *2146:B1 0.00012657
17 *2299:A *148:10 0.000258855
18 *2299:A *531:10 2.75145e-05
19 *2299:A *537:42 1.1561e-05
20 *2299:A *542:12 0.000185091
21 *145:8 *2143:B 6.71882e-05
22 *145:8 *2146:A2 8.34281e-06
23 *145:8 *148:10 4.66108e-05
24 *145:8 *542:12 9.46111e-06
25 *145:12 *148:10 7.06865e-05
26 *145:12 *148:12 2.92496e-05
27 *145:14 *1819:A2 8.40213e-05
28 S[11] *2144:A2 0
29 *2119:A1 *1819:A1 4.82919e-05
30 *2119:A1 *2144:A2 0.00012342
31 *2119:A1 *145:12 0
32 *2119:A1 *145:14 0.00010978
33 *2144:A1 *2144:A2 0.000222813
34 *2145:A2 *2144:A2 0.000116158
*RES
1 *2143:X *145:8 6.12 
2 *145:8 *145:12 3.125 
3 *145:12 *145:14 1.14 
4 *145:14 *1819:A1 4.135 
5 *145:14 *2145:A1 1.6 
6 *145:12 *2144:A2 11.435 
7 *145:8 *2299:A 10.89 
*END

*D_NET *146 0.00328493
*CONN
*I *1819:B2 I *D sky130_fd_sc_hd__o22a_2
*I *1820:A1 I *D sky130_fd_sc_hd__o221a_2
*I *2144:X O *D sky130_fd_sc_hd__o21ba_2
*CAP
1 *1819:B2 4.09132e-05
2 *1820:A1 0.000366648
3 *2144:X 0.000569695
4 *146:10 0.000977255
5 *1819:B2 *1820:B2 0.00010596
6 *1819:B2 *470:16 6.28765e-05
7 *1820:A1 *1820:B1 0.00010748
8 *1820:A1 *1820:B2 3.361e-05
9 *1820:A1 *1820:C1 9.02259e-05
10 *1820:A1 *1821:B1 1.37328e-05
11 *1820:A1 *2147:A1 3.81908e-06
12 *146:10 *1820:B2 7.5416e-05
13 *146:10 *1820:C1 0.00012297
14 *146:10 *2148:A1 9.80943e-06
15 *146:10 *2148:A2 1.91597e-05
16 *146:10 *2148:B1 0.000241483
17 *146:10 *2149:A 0.000201503
18 *146:10 *2149:D 1.19928e-05
19 *146:10 *470:16 0.000163193
20 *2149:B *146:10 6.71882e-05
*RES
1 *2144:X *146:10 13.335 
2 *146:10 *1820:A1 8.46 
3 *146:10 *1819:B2 4.98 
*END

*D_NET *147 0.00343437
*CONN
*I *2298:A I *D sky130_fd_sc_hd__buf_2
*I *2149:A I *D sky130_fd_sc_hd__nand4_4
*I *2145:Y O *D sky130_fd_sc_hd__o21bai_4
*CAP
1 *2298:A 0.000211669
2 *2149:A 0.000495368
3 *2145:Y 0.000369282
4 *147:12 0.00107632
5 *2149:A *2139:A1 3.23663e-05
6 *2149:A *2139:A2 9.80032e-06
7 *2149:A *2148:A2 8.65905e-05
8 *2149:A *2295:A 0
9 *2298:A *2087:B2 4.82919e-05
10 *2298:A *2088:B 4.99619e-05
11 *2298:A *2139:A2 2.05056e-05
12 *147:12 *2088:B 0
13 *147:12 *2144:B1_N 0.00033242
14 *147:12 *531:10 4.44927e-05
15 *147:12 *537:18 0
16 *147:12 *538:20 1.4389e-05
17 S[11] *147:12 3.06701e-05
18 *2087:A1_N *2149:A 2.0514e-05
19 *2087:A1_N *2298:A 4.99619e-05
20 *2087:A2_N *2149:A 2.16917e-05
21 *2087:B1 *2298:A 7.30845e-05
22 *2119:A1 *147:12 0
23 *2139:B1 *2149:A 0.000245488
24 *2144:A2 *147:12 0
25 *146:10 *2149:A 0.000201503
*RES
1 *2145:Y *147:12 12.275 
2 *147:12 *2149:A 13.73 
3 *147:12 *2298:A 5.515 
*END

*D_NET *148 0.00284046
*CONN
*I *1819:A2 I *D sky130_fd_sc_hd__o22a_2
*I *2147:B1 I *D sky130_fd_sc_hd__a21o_4
*I *2148:A2 I *D sky130_fd_sc_hd__o21ai_2
*I *2146:Y O *D sky130_fd_sc_hd__o21ai_4
*CAP
1 *1819:A2 0.000244468
2 *2147:B1 1.91317e-05
3 *2148:A2 0.000183276
4 *2146:Y 0.000153886
5 *148:12 0.000297699
6 *148:10 0.000493645
7 *1819:A2 *470:16 5.83121e-06
8 *1819:A2 *538:20 2.86265e-06
9 *2147:B1 *2142:B 4.99619e-05
10 *2147:B1 *2147:A1 3.45588e-05
11 *2147:B1 *537:27 3.66286e-05
12 *2148:A2 *2142:A 2.97004e-06
13 *2148:A2 *2148:A1 4.82863e-05
14 *2148:A2 *2295:A 0
15 *2148:A2 *149:8 0
16 *2148:A2 *470:16 0
17 *148:10 *2146:A2 1.91597e-05
18 *148:10 *537:42 8.45475e-05
19 *148:12 *2142:A 4.24292e-06
20 *148:12 *537:42 0.000199727
21 *1819:A1 *1819:A2 0.00023635
22 *2144:A1 *2148:A2 6.95505e-05
23 *2144:A1 *148:12 1.7396e-05
24 *2144:A2 *148:12 0
25 *2145:A2 *148:12 4.11112e-05
26 *2149:A *2148:A2 8.65905e-05
27 *2299:A *148:10 0.000258855
28 *145:8 *148:10 4.66108e-05
29 *145:12 *148:10 7.06865e-05
30 *145:12 *148:12 2.92496e-05
31 *145:14 *1819:A2 8.40213e-05
32 *146:10 *2148:A2 1.91597e-05
*RES
1 *2146:Y *148:10 7.245 
2 *148:10 *148:12 2.655 
3 *148:12 *2148:A2 7.14 
4 *148:12 *2147:B1 4.395 
5 *148:10 *1819:A2 6.81 
*END

*D_NET *149 0.00140469
*CONN
*I *2149:D I *D sky130_fd_sc_hd__nand4_4
*I *2295:A I *D sky130_fd_sc_hd__buf_2
*I *2147:X O *D sky130_fd_sc_hd__a21o_4
*CAP
1 *2149:D 0.000292379
2 *2295:A 0.000115348
3 *2147:X 8.64267e-05
4 *149:8 0.000494154
5 *2149:D *2293:A 3.00381e-05
6 *2295:A *470:16 1.07797e-05
7 *149:8 *470:16 8.53177e-05
8 *2148:A2 *2295:A 0
9 *2148:A2 *149:8 0
10 *2149:A *2295:A 0
11 *2149:B *2149:D 0.000120655
12 *2149:B *2295:A 0.000157595
13 *146:10 *2149:D 1.19928e-05
*RES
1 *2147:X *149:8 5.49 
2 *149:8 *2295:A 5.745 
3 *149:8 *2149:D 8.205 
*END

*D_NET *150 0.00144183
*CONN
*I *2088:A I *D sky130_fd_sc_hd__xor2_2
*I *2148:Y O *D sky130_fd_sc_hd__o21ai_2
*CAP
1 *2088:A 0.000387109
2 *2148:Y 0.000387109
3 *2088:A *2088:B 5.72004e-05
4 *2088:A *2144:B1_N 0.000141599
5 *2088:A *2148:A1 0.000157522
6 *2088:A *537:18 0.000311288
*RES
1 *2148:Y *2088:A 13.425 
*END

*D_NET *151 0.0038114
*CONN
*I *2293:A I *D sky130_fd_sc_hd__buf_2
*I *1821:A1 I *D sky130_fd_sc_hd__o21ai_2
*I *2165:B I *D sky130_fd_sc_hd__nor2_4
*I *1830:A_N I *D sky130_fd_sc_hd__nand4b_4
*I *2149:Y O *D sky130_fd_sc_hd__nand4_4
*CAP
1 *2293:A 0.000424727
2 *1821:A1 6.69482e-05
3 *2165:B 0
4 *1830:A_N 6.27953e-05
5 *2149:Y 0
6 *151:16 0.000587833
7 *151:8 0.000861069
8 *151:4 0.00069381
9 *1821:A1 *1870:B1_N 8.5242e-05
10 *1821:A1 *206:21 0
11 *1830:A_N *2263:A 0.00020779
12 *1830:A_N *607:41 0.000115847
13 *2293:A *1820:B2 0
14 *2293:A *1821:B1 0
15 *2293:A *2259:A 8.38769e-05
16 *2293:A *206:21 0
17 *2293:A *478:10 0.000258775
18 *2293:A *478:16 7.23602e-05
19 *2293:A *542:12 9.66106e-05
20 *151:16 *1870:B1_N 7.70828e-05
21 *151:16 *2165:A 8.65905e-05
22 *151:16 *206:21 0
23 *2149:D *2293:A 3.00381e-05
*RES
1 *2149:Y *151:4 1.6 
2 *151:4 *151:8 4.865 
3 *151:8 *151:16 10.04 
4 *151:16 *1830:A_N 8 
5 *151:16 *2165:B 1.6 
6 *151:8 *1821:A1 4.98 
7 *151:4 *2293:A 13.94 
*END

*D_NET *152 0.000277932
*CONN
*I *2154:B I *D sky130_fd_sc_hd__nand3b_2
*I *2150:Y O *D sky130_fd_sc_hd__nand2b_2
*CAP
1 *2154:B 5.18825e-05
2 *2150:Y 5.18825e-05
3 *2154:B *2154:C 2.46007e-05
4 *2154:B *154:14 7.55391e-05
5 *2154:B *156:12 7.4027e-05
*RES
1 *2150:Y *2154:B 8.835 
*END

*D_NET *153 0.000668725
*CONN
*I *2154:C I *D sky130_fd_sc_hd__nand3b_2
*I *2151:Y O *D sky130_fd_sc_hd__nand2_2
*CAP
1 *2154:C 0.000140988
2 *2151:Y 0.000140988
3 *2154:C *2150:A_N 0.00012657
4 *2154:C *2154:A_N 9.50342e-06
5 *2154:C *156:12 6.28765e-05
6 *2154:C *478:75 0.000163199
7 *2154:C *569:25 0
8 *2154:B *2154:C 2.46007e-05
*RES
1 *2151:Y *2154:C 10.83 
*END

*D_NET *154 0.00393082
*CONN
*I *2155:A1 I *D sky130_fd_sc_hd__o21ai_2
*I *2163:A1 I *D sky130_fd_sc_hd__o2111a_2
*I *2164:A1 I *D sky130_fd_sc_hd__o2111ai_4
*I *1818:A1_N I *D sky130_fd_sc_hd__a2bb2oi_2
*I *2152:X O *D sky130_fd_sc_hd__and2_2
*CAP
1 *2155:A1 2.52602e-05
2 *2163:A1 8.88507e-05
3 *2164:A1 0.000254282
4 *1818:A1_N 0.000108342
5 *2152:X 0.000141545
6 *154:27 0.000428689
7 *154:14 0.000309532
8 *154:10 0.00028244
9 *1818:A1_N *1818:B2 9.2741e-05
10 *2155:A1 *2152:A 1.91597e-05
11 *2155:A1 *2155:A2 4.66108e-05
12 *2155:A1 *2155:B1 4.66108e-05
13 *2155:A1 *155:12 3.66286e-05
14 *2163:A1 *2085:A1 2.75229e-05
15 *2163:A1 *2163:A2 0.000128353
16 *2163:A1 *162:18 4.82919e-05
17 *2163:A1 *443:22 0
18 *2164:A1 *2164:A2 0.000123406
19 *2164:A1 *2164:C1 8.23457e-05
20 *154:10 *2152:A 0.000482447
21 *154:10 *2152:B 8.23457e-05
22 *154:10 *2155:A2 0
23 *154:10 *155:12 0.00020479
24 *154:14 *155:16 0.000338233
25 *154:14 *156:12 8.89644e-05
26 *154:27 *2163:A2 4.9968e-05
27 *154:27 *155:16 3.09233e-05
28 *154:27 *155:29 0.000175901
29 *154:27 *156:12 2.4997e-05
30 *154:27 *156:25 8.6099e-05
31 *2154:B *154:14 7.55391e-05
*RES
1 *2152:X *154:10 6.655 
2 *154:10 *154:14 5.93 
3 *154:14 *1818:A1_N 5.445 
4 *154:14 *154:27 2.91 
5 *154:27 *2164:A1 7.515 
6 *154:27 *2163:A1 5.685 
7 *154:10 *2155:A1 2.395 
*END

*D_NET *155 0.00332702
*CONN
*I *2155:A2 I *D sky130_fd_sc_hd__o21ai_2
*I *2163:A2 I *D sky130_fd_sc_hd__o2111a_2
*I *2164:A2 I *D sky130_fd_sc_hd__o2111ai_4
*I *1818:A2_N I *D sky130_fd_sc_hd__a2bb2oi_2
*I *2153:Y O *D sky130_fd_sc_hd__o21ai_2
*CAP
1 *2155:A2 8.17052e-05
2 *2163:A2 5.9964e-05
3 *2164:A2 0.000107449
4 *1818:A2_N 0
5 *2153:Y 0.000229793
6 *155:29 0.000297388
7 *155:16 0.000273733
8 *155:12 0.000455256
9 *2155:A2 *2155:B1 4.47209e-05
10 *2163:A2 *2163:B1 0.000157602
11 *2163:A2 *156:25 2.92496e-05
12 *2164:A2 *2164:C1 4.66108e-05
13 *155:12 *2153:A1 0
14 *155:12 *2154:A_N 5.20968e-05
15 *155:12 *569:19 4.91189e-05
16 *155:16 *2153:A1 7.06865e-05
17 *155:16 *2154:A_N 0
18 *155:16 *164:20 0
19 *155:16 *478:27 0.000154488
20 *155:29 *2164:C1 8.23457e-05
21 *155:29 *164:20 0
22 *2155:A1 *2155:A2 4.66108e-05
23 *2155:A1 *155:12 3.66286e-05
24 *2163:A1 *2163:A2 0.000128353
25 *2164:A1 *2164:A2 0.000123406
26 *154:10 *2155:A2 0
27 *154:10 *155:12 0.00020479
28 *154:14 *155:16 0.000338233
29 *154:27 *2163:A2 4.9968e-05
30 *154:27 *155:16 3.09233e-05
31 *154:27 *155:29 0.000175901
*RES
1 *2153:Y *155:12 10.19 
2 *155:12 *155:16 6.44 
3 *155:16 *1818:A2_N 3.6 
4 *155:16 *155:29 4.94 
5 *155:29 *2164:A2 3.895 
6 *155:29 *2163:A2 7.745 
7 *155:12 *2155:A2 3.1 
*END

*D_NET *156 0.00285248
*CONN
*I *2155:B1 I *D sky130_fd_sc_hd__o21ai_2
*I *2163:B1 I *D sky130_fd_sc_hd__o2111a_2
*I *2164:C1 I *D sky130_fd_sc_hd__o2111ai_4
*I *1818:B2 I *D sky130_fd_sc_hd__a2bb2oi_2
*I *2154:Y O *D sky130_fd_sc_hd__nand3b_2
*CAP
1 *2155:B1 0.000152215
2 *2163:B1 4.95884e-05
3 *2164:C1 6.78099e-05
4 *1818:B2 0.000256377
5 *2154:Y 0.000343956
6 *156:25 0.000203199
7 *156:12 0.000533918
8 *1818:B2 *164:20 9.66106e-05
9 *2155:B1 *2084:A 2.75229e-05
10 *2155:B1 *2152:A 4.66108e-05
11 *2155:B1 *2159:A1 0
12 *2163:B1 *2164:B1 0.000127373
13 *2163:B1 *166:8 9.3062e-06
14 *156:12 *2263:A 0
15 *156:12 *569:25 0
16 *156:12 *607:41 0
17 *156:25 *2164:B1 9.50342e-06
18 *156:25 *166:8 9.29751e-06
19 *156:25 *607:41 0
20 *1818:A1_N *1818:B2 9.2741e-05
21 *2154:B *156:12 7.4027e-05
22 *2154:C *156:12 6.28765e-05
23 *2155:A1 *2155:B1 4.66108e-05
24 *2155:A2 *2155:B1 4.47209e-05
25 *2163:A2 *2163:B1 0.000157602
26 *2163:A2 *156:25 2.92496e-05
27 *2164:A1 *2164:C1 8.23457e-05
28 *2164:A2 *2164:C1 4.66108e-05
29 *154:14 *156:12 8.89644e-05
30 *154:27 *156:12 2.4997e-05
31 *154:27 *156:25 8.6099e-05
32 *155:29 *2164:C1 8.23457e-05
*RES
1 *2154:Y *156:12 7.83 
2 *156:12 *1818:B2 8.205 
3 *156:12 *156:25 2.145 
4 *156:25 *2164:C1 5.085 
5 *156:25 *2163:B1 5.49 
6 *2154:Y *2155:B1 6.08 
*END

*D_NET *157 0.000330893
*CONN
*I *2084:A I *D sky130_fd_sc_hd__xor2_2
*I *2155:Y O *D sky130_fd_sc_hd__o21ai_2
*CAP
1 *2084:A 0.000118002
2 *2155:Y 0.000118002
3 *2084:A *2153:A1 0
4 *2084:A *2159:A2 6.73665e-05
5 *2155:B1 *2084:A 2.75229e-05
*RES
1 *2155:Y *2084:A 9.54 
*END

*D_NET *158 0.00128301
*CONN
*I *2083:A1 I *D sky130_fd_sc_hd__o22a_2
*I *2162:A2 I *D sky130_fd_sc_hd__o21bai_4
*I *2161:A1 I *D sky130_fd_sc_hd__o21ba_2
*I *2156:X O *D sky130_fd_sc_hd__and2_4
*CAP
1 *2083:A1 0.000174477
2 *2162:A2 0
3 *2161:A1 0
4 *2156:X 0.000161173
5 *158:23 0.000261489
6 *158:10 0.000248184
7 *2083:A1 *2159:A1 0.000138799
8 *158:10 *2161:A2 2.39856e-05
9 *158:10 *470:34 2.05056e-05
10 *158:23 *2160:A2 8.53177e-05
11 *158:23 *470:28 1.71013e-05
12 *158:23 *470:34 0.000122732
13 *158:23 *470:44 2.92496e-05
*RES
1 *2156:X *158:10 4.15 
2 *158:10 *2161:A1 1.6 
3 *158:10 *158:23 6.595 
4 *158:23 *2162:A2 1.6 
5 *158:23 *2083:A1 4.825 
*END

*D_NET *159 0.00138429
*CONN
*I *2162:A1 I *D sky130_fd_sc_hd__o21bai_4
*I *2161:A2 I *D sky130_fd_sc_hd__o21ba_2
*I *2157:Y O *D sky130_fd_sc_hd__nor2_2
*CAP
1 *2162:A1 6.64657e-05
2 *2161:A2 0.000163825
3 *2157:Y 0.000158097
4 *159:10 0.000388388
5 *2161:A2 *470:34 0.000120655
6 *2162:A1 *2160:A2 0.000133075
7 *159:10 *2157:A 8.65905e-05
8 *159:10 *2160:A2 3.09164e-05
9 *159:10 *470:44 4.99619e-05
10 *159:10 *568:30 0.000162332
11 *158:10 *2161:A2 2.39856e-05
*RES
1 *2157:Y *159:10 6.885 
2 *159:10 *2161:A2 6.135 
3 *159:10 *2162:A1 5.235 
*END

*D_NET *160 0.00153384
*CONN
*I *2160:B1 I *D sky130_fd_sc_hd__a21o_4
*I *2083:A2 I *D sky130_fd_sc_hd__o22a_2
*I *2159:B1 I *D sky130_fd_sc_hd__a21oi_2
*I *2158:Y O *D sky130_fd_sc_hd__o21ai_4
*CAP
1 *2160:B1 0.000209998
2 *2083:A2 0.000111739
3 *2159:B1 3.09322e-05
4 *2158:Y 0.000174307
5 *160:10 0.000142672
6 *160:8 0.000384305
7 *2083:A2 *2083:B2 4.82863e-05
8 *2083:A2 *2159:A1 7.99094e-05
9 *2159:B1 *2159:A1 8.65905e-05
10 *2160:B1 *1818:B1 6.5265e-05
11 *2160:B1 *2083:B1 4.43871e-06
12 *2160:B1 *2083:B2 0
13 *2160:B1 *162:12 8.53113e-06
14 *160:8 *2083:B1 6.02123e-05
15 *160:8 *2084:B 0
16 *160:8 *2158:B1 4.91189e-05
17 *160:8 *2162:B1_N 0
18 *160:8 *2291:A 0
19 *2214:A *160:8 7.75325e-05
*RES
1 *2158:Y *160:8 7.53 
2 *160:8 *160:10 2 
3 *160:10 *2159:B1 2.395 
4 *160:10 *2083:A2 3.79 
5 *160:8 *2160:B1 7.14 
*END

*D_NET *161 0.000877689
*CONN
*I *1818:B1 I *D sky130_fd_sc_hd__a2bb2oi_2
*I *2159:Y O *D sky130_fd_sc_hd__a21oi_2
*CAP
1 *1818:B1 0.000217927
2 *2159:Y 0.000217927
3 *1818:B1 *162:12 8.97486e-05
4 *1818:B1 *164:20 0.000198939
5 *1818:B1 *478:16 8.78813e-05
6 *2160:B1 *1818:B1 6.5265e-05
*RES
1 *2159:Y *1818:B1 12.705 
*END

*D_NET *162 0.00312396
*CONN
*I *2318:A I *D sky130_fd_sc_hd__buf_2
*I *2164:B1 I *D sky130_fd_sc_hd__o2111ai_4
*I *2163:D1 I *D sky130_fd_sc_hd__o2111a_2
*I *2160:X O *D sky130_fd_sc_hd__a21o_4
*CAP
1 *2318:A 1.77632e-05
2 *2164:B1 5.11315e-05
3 *2163:D1 5.71336e-05
4 *2160:X 0.000336639
5 *162:18 0.000428068
6 *162:12 0.000674206
7 *2163:D1 *2085:A1 3.1835e-05
8 *2163:D1 *2163:C1 4.82863e-05
9 *2164:B1 *166:8 7.44453e-05
10 *2318:A *2086:B 4.82919e-05
11 *162:12 *2083:B2 0
12 *162:12 *478:16 0
13 *162:12 *482:12 0.000113797
14 *162:12 *502:12 4.40899e-05
15 *162:18 *2085:A1 5.21615e-05
16 *162:18 *2085:B1 4.82919e-05
17 *162:18 *2086:B 0.000465398
18 *162:18 *2163:C1 0.000315779
19 *162:18 *443:14 3.31958e-05
20 *1818:B1 *162:12 8.97486e-05
21 *2160:B1 *162:12 8.53113e-06
22 *2163:A1 *162:18 4.82919e-05
23 *2163:B1 *2164:B1 0.000127373
24 *156:25 *2164:B1 9.50342e-06
*RES
1 *2160:X *162:12 12.02 
2 *162:12 *162:18 8.16 
3 *162:18 *2163:D1 2.755 
4 *162:18 *2164:B1 7.235 
5 *162:12 *2318:A 2.05 
*END

*D_NET *163 0.000650208
*CONN
*I *2083:B1 I *D sky130_fd_sc_hd__o22a_2
*I *2161:X O *D sky130_fd_sc_hd__o21ba_2
*CAP
1 *2083:B1 0.000260298
2 *2161:X 0.000260298
3 *2083:B1 *2083:B2 5.53249e-06
4 *2083:B1 *2158:B1 8.88523e-06
5 *2083:B1 *2162:B1_N 0
6 *2083:B1 *533:24 5.05437e-05
7 *2160:B1 *2083:B1 4.43871e-06
8 *160:8 *2083:B1 6.02123e-05
*RES
1 *2161:X *2083:B1 10.755 
*END

*D_NET *164 0.00345409
*CONN
*I *2300:A I *D sky130_fd_sc_hd__buf_2
*I *2163:C1 I *D sky130_fd_sc_hd__o2111a_2
*I *2164:D1 I *D sky130_fd_sc_hd__o2111ai_4
*I *2162:Y O *D sky130_fd_sc_hd__o21bai_4
*CAP
1 *2300:A 0
2 *2163:C1 0.00031496
3 *2164:D1 0
4 *2162:Y 0.000291879
5 *164:20 0.000854317
6 *164:12 0.000831236
7 *2163:C1 *206:8 0.000116158
8 *2163:C1 *443:22 5.02217e-05
9 *164:12 *2083:B2 0
10 *164:12 *470:26 6.23206e-05
11 *164:12 *470:28 5.42473e-05
12 *164:20 *206:8 0.000166346
13 *164:20 *478:16 0
14 *164:20 *482:12 5.27885e-05
15 *1818:B1 *164:20 0.000198939
16 *1818:B2 *164:20 9.66106e-05
17 *2163:D1 *2163:C1 4.82863e-05
18 *155:16 *164:20 0
19 *155:29 *164:20 0
20 *162:18 *2163:C1 0.000315779
*RES
1 *2162:Y *164:12 10.85 
2 *164:12 *164:20 11.33 
3 *164:20 *2164:D1 3.6 
4 *164:20 *2163:C1 8.535 
5 *164:12 *2300:A 1.6 
*END

*D_NET *165 0.000795961
*CONN
*I *1830:B I *D sky130_fd_sc_hd__nand4b_4
*I *2163:X O *D sky130_fd_sc_hd__o2111a_2
*CAP
1 *1830:B 0.000185327
2 *2163:X 0.000185327
3 *1830:B *443:14 0.000425307
*RES
1 *2163:X *1830:B 7.46 
*END

*D_NET *166 0.00140249
*CONN
*I *2165:A I *D sky130_fd_sc_hd__nor2_4
*I *2085:A1 I *D sky130_fd_sc_hd__o21ai_2
*I *2164:Y O *D sky130_fd_sc_hd__o2111ai_4
*CAP
1 *2165:A 0.000159921
2 *2085:A1 8.47841e-05
3 *2164:Y 0.00016262
4 *166:8 0.000407325
5 *2085:A1 *443:14 0.000296684
6 *2165:A *607:41 0
7 *166:8 *607:41 0
8 *2163:A1 *2085:A1 2.75229e-05
9 *2163:B1 *166:8 9.3062e-06
10 *2163:D1 *2085:A1 3.1835e-05
11 *2164:B1 *166:8 7.44453e-05
12 *151:16 *2165:A 8.65905e-05
13 *156:25 *166:8 9.29751e-06
14 *162:18 *2085:A1 5.21615e-05
*RES
1 *2164:Y *166:8 6.255 
2 *166:8 *2085:A1 6.48 
3 *166:8 *2165:A 6.285 
*END

*D_NET *167 0.00272815
*CONN
*I *1869:C I *D sky130_fd_sc_hd__nand3_2
*I *1868:B I *D sky130_fd_sc_hd__nand4_4
*I *1817:C I *D sky130_fd_sc_hd__nand3_4
*I *2165:Y O *D sky130_fd_sc_hd__nor2_4
*CAP
1 *1869:C 5.72363e-05
2 *1868:B 0.00014424
3 *1817:C 0
4 *2165:Y 0.000517852
5 *167:23 0.000599204
6 *167:10 0.00091558
7 *1868:B *1868:A 0.000160635
8 *1868:B *1868:C 3.70488e-05
9 *1869:C *1869:B 4.91189e-05
10 *1869:C *256:8 0.000120186
11 *167:10 *1817:B 0
12 *167:10 *1870:A1 0
13 *167:23 *1870:A1 0
14 *167:23 *1871:C 6.47192e-05
15 *167:23 *205:10 6.23288e-05
*RES
1 *2165:Y *167:10 10.86 
2 *167:10 *1817:C 3.6 
3 *167:10 *167:23 8.555 
4 *167:23 *1868:B 4.135 
5 *167:23 *1869:C 7.34 
*END

*D_NET *168 0.000934475
*CONN
*I *2169:B I *D sky130_fd_sc_hd__nand3b_4
*I *2166:Y O *D sky130_fd_sc_hd__nand2b_2
*CAP
1 *2169:B 0.000292326
2 *2166:Y 0.000292326
3 *2169:B *1813:B1 0.000222562
4 *2169:B *171:8 7.89689e-05
5 *2208:A *2169:B 4.82919e-05
*RES
1 *2166:Y *2169:B 12.735 
*END

*D_NET *169 0.00086985
*CONN
*I *2169:C I *D sky130_fd_sc_hd__nand3b_4
*I *2167:Y O *D sky130_fd_sc_hd__nand2b_2
*CAP
1 *2169:C 0.000254318
2 *2167:Y 0.000254318
3 *2169:C *2166:B 5.16348e-05
4 *2169:C *2285:A 0.000162419
5 *2169:C *461:58 8.69157e-05
6 *2208:A *2169:C 6.02447e-05
*RES
1 *2167:Y *2169:C 12.795 
*END

*D_NET *170 0.000861197
*CONN
*I *1815:A2_N I *D sky130_fd_sc_hd__a2bb2oi_2
*I *1826:A1 I *D sky130_fd_sc_hd__o21ai_2
*I *2168:X O *D sky130_fd_sc_hd__and2_2
*CAP
1 *1815:A2_N 1.02651e-05
2 *1826:A1 0.000124243
3 *2168:X 0.000113977
4 *1815:A2_N *1826:A2 8.8266e-05
5 *1815:A2_N *1830:C 8.8266e-05
6 *1826:A1 *1826:B1 8.65905e-05
7 *1826:A1 *1829:A 0
8 *1826:A1 *1830:C 0.000164566
9 *1826:A1 *171:19 9.30717e-05
10 *1826:A1 *171:36 2.92496e-05
11 *1826:A1 *440:10 6.27029e-05
*RES
1 *2168:X *1826:A1 10.41 
2 *1826:A1 *1815:A2_N 3.995 
*END

*D_NET *171 0.00372936
*CONN
*I *2079:A1 I *D sky130_fd_sc_hd__a22oi_4
*I *1817:B I *D sky130_fd_sc_hd__nand3_4
*I *1826:B1 I *D sky130_fd_sc_hd__o21ai_2
*I *1828:A I *D sky130_fd_sc_hd__nand4_2
*I *2169:Y O *D sky130_fd_sc_hd__nand3b_4
*CAP
1 *2079:A1 0
2 *1817:B 0.000256344
3 *1826:B1 1.41866e-05
4 *1828:A 5.05305e-05
5 *2169:Y 0.000105064
6 *171:36 0.000966837
7 *171:19 0.000956574
8 *171:8 0.000387489
9 *1817:B *1817:A 0
10 *1817:B *2071:B 0
11 *1817:B *2072:B 4.18603e-06
12 *1817:B *2079:A2 0
13 *1817:B *439:8 5.63405e-05
14 *1826:B1 *440:10 8.65905e-05
15 *1828:A *1813:B1 0.0001249
16 *171:8 *1813:B1 0
17 *171:8 *532:10 0
18 *171:19 *1828:C 0
19 *171:19 *1829:A 0
20 *171:19 *527:10 0
21 *171:36 *1816:B1 0.000165076
22 *171:36 *1829:A 0
23 *171:36 *1829:B 0.000189891
24 *171:36 *199:21 1.19928e-05
25 *171:36 *443:14 6.54766e-05
26 *171:36 *527:10 0
27 *1826:A1 *1826:B1 8.65905e-05
28 *1826:A1 *171:19 9.30717e-05
29 *1826:A1 *171:36 2.92496e-05
30 *2169:B *171:8 7.89689e-05
31 *2208:A *171:8 0
32 *167:10 *1817:B 0
*RES
1 *2169:Y *171:8 5.745 
2 *171:8 *1828:A 4.74 
3 *171:8 *171:19 3.93 
4 *171:19 *1826:B1 4.395 
5 *171:19 *171:36 13.55 
6 *171:36 *1817:B 9.785 
7 *171:36 *2079:A1 1.6 
*END

*D_NET *172 0.000343702
*CONN
*I *1825:A1 I *D sky130_fd_sc_hd__o22ai_2
*I *2170:X O *D sky130_fd_sc_hd__and2_2
*CAP
1 *1825:A1 9.20983e-05
2 *2170:X 9.20983e-05
3 *1825:A1 *1823:A1 7.07801e-05
4 *1825:A1 *1824:A_N 9.50342e-06
5 *1825:A1 *1825:A2 5.53249e-06
6 *1825:A1 *1825:B1 0
7 *1825:A1 *213:10 4.61744e-05
8 *1825:A1 *478:79 2.75145e-05
*RES
1 *2170:X *1825:A1 9.285 
*END

*D_NET *173 0.00053751
*CONN
*I *1825:B1 I *D sky130_fd_sc_hd__o22ai_2
*I *2171:X O *D sky130_fd_sc_hd__and2b_2
*CAP
1 *1825:B1 0.000218361
2 *2171:X 0.000218361
3 *1825:B1 *2073:B1 0
4 *1825:B1 *210:12 4.18603e-06
5 *1825:B1 *213:10 0
6 *1825:B1 *478:79 9.66021e-05
7 *1825:A1 *1825:B1 0
*RES
1 *2171:X *1825:B1 10.32 
*END

*D_NET *174 0.000597197
*CONN
*I *1824:B I *D sky130_fd_sc_hd__nand3b_2
*I *2172:Y O *D sky130_fd_sc_hd__nand2_2
*CAP
1 *1824:B 0.000176574
2 *2172:Y 0.000176574
3 *1824:B *2263:A 0
4 *1824:B *2286:A 8.08439e-05
5 *1824:B *478:75 0.000163204
*RES
1 *2172:Y *1824:B 10.32 
*END

*D_NET *175 0.000349869
*CONN
*I *1824:C I *D sky130_fd_sc_hd__nand3b_2
*I *2173:Y O *D sky130_fd_sc_hd__nand2b_2
*CAP
1 *1824:C 3.28455e-05
2 *2173:Y 3.28455e-05
3 *1824:C *1822:A2 0.000140912
4 *1824:C *2286:A 0.000143266
*RES
1 *2173:Y *1824:C 8.835 
*END

*D_NET *176 0.00227212
*CONN
*I *1825:A2 I *D sky130_fd_sc_hd__o22ai_2
*I *2175:B1 I *D sky130_fd_sc_hd__a21o_2
*I *2174:Y O *D sky130_fd_sc_hd__o21ai_2
*CAP
1 *1825:A2 0.000331619
2 *2175:B1 0.00036264
3 *2174:Y 0
4 *176:4 0.000694259
5 *1825:A2 *1822:A1 9.27255e-06
6 *1825:A2 *1824:A_N 3.99039e-05
7 *1825:A2 *2174:B1 0.000122155
8 *1825:A2 *210:12 0.000130686
9 *1825:A2 *528:20 2.7441e-05
10 *2175:B1 *1813:B1 0
11 *2175:B1 *1822:A1 4.85494e-05
12 *2175:B1 *1828:B 0.000206817
13 *2175:B1 *2073:B1 0
14 *2175:B1 *2174:A1 0
15 *2175:B1 *177:10 5.83121e-06
16 *2175:B1 *563:12 0.000122337
17 *2175:B1 *563:30 6.55406e-05
18 *2175:B1 *563:45 9.9535e-05
19 *1825:A1 *1825:A2 5.53249e-06
*RES
1 *2174:Y *176:4 1.6 
2 *176:4 *2175:B1 12.845 
3 *176:4 *1825:A2 10.895 
*END

*D_NET *177 0.00182396
*CONN
*I *1816:A1 I *D sky130_fd_sc_hd__o21ai_4
*I *2073:A3 I *D sky130_fd_sc_hd__a31o_4
*I *1828:B I *D sky130_fd_sc_hd__nand4_2
*I *2175:X O *D sky130_fd_sc_hd__a21o_2
*CAP
1 *1816:A1 9.74298e-05
2 *2073:A3 0
3 *1828:B 0.000107484
4 *2175:X 9.80897e-05
5 *177:23 0.000165106
6 *177:10 0.000273249
7 *1816:A1 *2073:A1 0.00032734
8 *1816:A1 *2073:A2 9.61052e-05
9 *1816:A1 *2328:A 0.00015997
10 *1828:B *1813:B1 0
11 *1828:B *1828:C 6.65426e-05
12 *1828:B *1829:A 0.000103966
13 *1828:B *2073:B1 0
14 *177:23 *1829:A 5.29053e-05
15 *177:23 *2073:A1 3.25831e-05
16 *177:23 *2073:A2 3.05373e-05
17 *2175:B1 *1828:B 0.000206817
18 *2175:B1 *177:10 5.83121e-06
*RES
1 *2175:X *177:10 4.755 
2 *177:10 *1828:B 6.96 
3 *177:10 *177:23 1.635 
4 *177:23 *2073:A3 3.6 
5 *177:23 *1816:A1 7.53 
*END

*D_NET *178 0.00032393
*CONN
*I *1800:A1 I *D sky130_fd_sc_hd__o22ai_2
*I *2176:X O *D sky130_fd_sc_hd__and2_2
*CAP
1 *1800:A1 0.000107786
2 *2176:X 0.000107786
3 *1800:A1 *1800:A2 8.08439e-05
4 *1800:A1 *2288:A 0
5 *1800:A1 *461:35 2.75145e-05
*RES
1 *2176:X *1800:A1 9.285 
*END

*D_NET *179 0.00118959
*CONN
*I *1812:A1_N I *D sky130_fd_sc_hd__o2bb2ai_2
*I *1791:Y O *D sky130_fd_sc_hd__nand2_2
*CAP
1 *1812:A1_N 0.000286889
2 *1791:Y 0.000286889
3 *1812:A1_N *1791:A 4.89295e-05
4 *1812:A1_N *1811:A 4.77757e-05
5 *1812:A1_N *1812:A2_N 0.000339893
6 *1812:A1_N *183:10 0.000179213
*RES
1 *1791:Y *1812:A1_N 13.62 
*END

*D_NET *180 0.000616255
*CONN
*I *2075:B2 I *D sky130_fd_sc_hd__o2bb2a_2
*I *1800:B1 I *D sky130_fd_sc_hd__o22ai_2
*I *1792:Y O *D sky130_fd_sc_hd__nor2_2
*CAP
1 *2075:B2 6.05253e-05
2 *1800:B1 0
3 *1792:Y 9.0488e-05
4 *180:12 0.000151013
5 *2075:B2 *1800:B2 4.2666e-05
6 *2075:B2 *2075:A2_N 1.17309e-05
7 *2075:B2 *2076:B 0.00012657
8 *180:12 *1792:B 3.00381e-05
9 *180:12 *186:12 6.20952e-05
10 *180:12 *565:21 4.11281e-05
*RES
1 *1792:Y *180:12 7.43 
2 *180:12 *1800:B1 1.6 
3 *180:12 *2075:B2 3.355 
*END

*D_NET *181 0.000943793
*CONN
*I *1799:B I *D sky130_fd_sc_hd__nand3b_2
*I *1793:Y O *D sky130_fd_sc_hd__nand2_2
*CAP
1 *1799:B 0.000281026
2 *1793:Y 0.000281026
3 *1799:B *1791:A 0.000111668
4 *1799:B *1798:A1 6.55328e-05
5 *1799:B *1799:A_N 4.77757e-05
6 *1799:B *565:41 0.000156765
*RES
1 *1793:Y *1799:B 12.495 
*END

*D_NET *182 0.000286269
*CONN
*I *1799:C I *D sky130_fd_sc_hd__nand3b_2
*I *1794:Y O *D sky130_fd_sc_hd__nand2_2
*CAP
1 *1799:C 0.000109646
2 *1794:Y 0.000109646
3 *1799:C *1799:A_N 8.30853e-06
4 *1799:C *183:10 0
5 *1799:C *565:41 8.09021e-06
6 *1797:A2 *1799:C 5.05774e-05
*RES
1 *1794:Y *1799:C 8.835 
*END

*D_NET *183 0.00235441
*CONN
*I *1812:A2_N I *D sky130_fd_sc_hd__o2bb2ai_2
*I *1797:B1 I *D sky130_fd_sc_hd__o21ai_4
*I *1795:X O *D sky130_fd_sc_hd__o21a_4
*CAP
1 *1812:A2_N 0.000185429
2 *1797:B1 0.000109131
3 *1795:X 0.000410183
4 *183:10 0.000704743
5 *1812:A2_N *1809:A2 0
6 *1812:A2_N *193:14 0.000210151
7 *1812:A2_N *195:10 4.60123e-05
8 *1812:A2_N *457:76 0
9 *183:10 *1795:B1 0.000163019
10 *183:10 *1797:A1 6.63219e-06
11 *183:10 *2075:A1_N 0
12 *183:10 *529:14 0
13 *183:10 *529:38 0
14 *183:10 *565:47 0
15 *1799:C *183:10 0
16 *1812:A1_N *1812:A2_N 0.000339893
17 *1812:A1_N *183:10 0.000179213
18 *2210:A *183:10 0
*RES
1 *1795:X *183:10 10.62 
2 *183:10 *1797:B1 5.085 
3 *183:10 *1812:A2_N 8.58 
*END

*D_NET *184 0.00103165
*CONN
*I *1800:A2 I *D sky130_fd_sc_hd__o22ai_2
*I *1796:Y O *D sky130_fd_sc_hd__o21ai_2
*CAP
1 *1800:A2 0.000231333
2 *1796:Y 0.000231333
3 *1800:A2 *1796:A1 0.000162311
4 *1800:A2 *1810:A 0.000141599
5 *1800:A2 *2074:A 3.25831e-05
6 *1800:A2 *2288:A 0
7 *1800:A2 *461:35 0.000108098
8 *1800:A2 *565:23 4.35432e-05
9 *1800:A1 *1800:A2 8.08439e-05
*RES
1 *1796:Y *1800:A2 12.3 
*END

*D_NET *185 0.00139774
*CONN
*I *1811:B I *D sky130_fd_sc_hd__nand4_4
*I *2075:A1_N I *D sky130_fd_sc_hd__o2bb2a_2
*I *1797:Y O *D sky130_fd_sc_hd__o21ai_4
*CAP
1 *1811:B 0.00016207
2 *2075:A1_N 0.000140302
3 *1797:Y 0
4 *185:6 0.000302372
5 *1811:B *1796:B1 3.25831e-05
6 *1811:B *1811:A 0.000147495
7 *1811:B *193:18 0.000157887
8 *1811:B *199:12 2.65814e-06
9 *2075:A1_N *1796:B1 0.000109989
10 *2075:A1_N *1811:A 0.000134503
11 *2075:A1_N *529:38 7.30547e-05
12 *2075:A1_N *565:33 0.000134821
13 *183:10 *2075:A1_N 0
*RES
1 *1797:Y *185:6 3.6 
2 *185:6 *2075:A1_N 6.9975 
3 *185:6 *1811:B 7.335 
*END

*D_NET *186 0.00176539
*CONN
*I *2075:B1 I *D sky130_fd_sc_hd__o2bb2a_2
*I *1800:B2 I *D sky130_fd_sc_hd__o22ai_2
*I *1798:Y O *D sky130_fd_sc_hd__o21bai_2
*CAP
1 *2075:B1 0
2 *1800:B2 7.65883e-05
3 *1798:Y 0.000322587
4 *186:12 0.000399176
5 *1800:B2 *2075:A2_N 0.000160641
6 *1800:B2 *2076:B 1.17409e-05
7 *186:12 *1792:B 0.000352156
8 *186:12 *1795:B1 7.27003e-05
9 *186:12 *529:8 0.000201508
10 *186:12 *529:14 6.35307e-05
11 *186:12 *529:38 0
12 *186:12 *565:21 0
13 *2075:B2 *1800:B2 4.2666e-05
14 *180:12 *186:12 6.20952e-05
*RES
1 *1798:Y *186:12 12.515 
2 *186:12 *1800:B2 3.805 
3 *186:12 *2075:B1 1.6 
*END

*D_NET *187 0.00110541
*CONN
*I *1811:A I *D sky130_fd_sc_hd__nand4_4
*I *1799:Y O *D sky130_fd_sc_hd__nand3b_2
*CAP
1 *1811:A 0.000228274
2 *1799:Y 0.000228274
3 *1811:A *1791:A 4.21579e-05
4 *1811:A *1799:A_N 0.000232403
5 *1811:A *1809:A2 3.60024e-06
6 *1811:A *565:33 1.14169e-05
7 *1811:A *565:41 2.95083e-05
8 *1811:B *1811:A 0.000147495
9 *1812:A1_N *1811:A 4.77757e-05
10 *2075:A1_N *1811:A 0.000134503
*RES
1 *1799:Y *1811:A 13.05 
*END

*D_NET *188 0.0013068
*CONN
*I *1810:A I *D sky130_fd_sc_hd__nor2_2
*I *2074:A I *D sky130_fd_sc_hd__xor2_2
*I *1800:Y O *D sky130_fd_sc_hd__o22ai_2
*CAP
1 *1810:A 0.000176452
2 *2074:A 0.000136258
3 *1800:Y 0
4 *188:6 0.00031271
5 *1810:A *1809:B1 0
6 *1810:A *1810:B 5.4155e-06
7 *1810:A *2076:B 5.12859e-05
8 *1810:A *2288:A 0
9 *1810:A *193:33 5.28853e-05
10 *1810:A *197:6 2.75145e-05
11 *1810:A *565:21 0.000173533
12 *2074:A *2288:A 0
13 *2074:A *565:10 9.50342e-06
14 *2074:A *565:21 0.000187064
15 *1800:A2 *1810:A 0.000141599
16 *1800:A2 *2074:A 3.25831e-05
*RES
1 *1800:Y *188:6 3.6 
2 *188:6 *2074:A 6.54 
3 *188:6 *1810:A 8.085 
*END

*D_NET *189 0.000434707
*CONN
*I *1805:B I *D sky130_fd_sc_hd__nand3b_4
*I *1801:Y O *D sky130_fd_sc_hd__nand2b_4
*CAP
1 *1805:B 0.000217354
2 *1801:Y 0.000217354
3 *1805:B *1805:A_N 0
4 *1805:B *1805:C 0
5 *1805:B *457:47 0
6 *1805:B *566:42 0
*RES
1 *1801:Y *1805:B 10.62 
*END

*D_NET *190 0.000951477
*CONN
*I *1805:C I *D sky130_fd_sc_hd__nand3b_4
*I *1802:Y O *D sky130_fd_sc_hd__nand2b_4
*CAP
1 *1805:C 0.000324263
2 *1802:Y 0.000324263
3 *1805:C *1801:A_N 0.000141606
4 *1805:C *1804:A 0
5 *1805:C *2260:A 0.000161344
6 *1805:C *457:47 0
7 *1805:C *457:51 0
8 *1805:B *1805:C 0
*RES
1 *1802:Y *1805:C 13.425 
*END

*D_NET *191 0.00108701
*CONN
*I *1812:B1 I *D sky130_fd_sc_hd__o2bb2ai_2
*I *1809:A1 I *D sky130_fd_sc_hd__o21ai_2
*I *1803:X O *D sky130_fd_sc_hd__and2_2
*CAP
1 *1812:B1 0
2 *1809:A1 8.8428e-05
3 *1803:X 0.000362379
4 *191:10 0.000450807
5 *1809:A1 *1809:A2 0.000185398
6 *1809:A1 *2076:B 0
7 *191:10 *2076:B 0
*RES
1 *1803:X *191:10 7.845 
2 *191:10 *1809:A1 5.745 
3 *191:10 *1812:B1 3.6 
*END

*D_NET *192 0.000545554
*CONN
*I *1808:B I *D sky130_fd_sc_hd__nand2_4
*I *1804:Y O *D sky130_fd_sc_hd__nand2_2
*CAP
1 *1808:B 0.000161893
2 *1804:Y 0.000161893
3 *1808:B *1798:A1 5.72091e-05
4 *1808:B *2323:A 0.000127269
5 *1808:B *508:14 3.72916e-05
*RES
1 *1804:Y *1808:B 10.665 
*END

*D_NET *193 0.0059312
*CONN
*I *1811:C I *D sky130_fd_sc_hd__nand4_4
*I *1815:B2 I *D sky130_fd_sc_hd__a2bb2oi_2
*I *2077:A1_N I *D sky130_fd_sc_hd__o2bb2a_2
*I *1809:B1 I *D sky130_fd_sc_hd__o21ai_2
*I *1805:Y O *D sky130_fd_sc_hd__nand3b_4
*CAP
1 *1811:C 0
2 *1815:B2 0
3 *2077:A1_N 0.000169376
4 *1809:B1 2.08101e-05
5 *1805:Y 0.000873747
6 *193:33 0.000610146
7 *193:18 0.000965242
8 *193:14 0.00137741
9 *2077:A1_N *1815:B1 0.000208484
10 *2077:A1_N *2077:A2_N 9.54469e-05
11 *2077:A1_N *2077:B1 0
12 *2077:A1_N *2078:B 0
13 *2077:A1_N *2285:A 0
14 *2077:A1_N *2289:A 0.000105068
15 *2077:A1_N *199:21 1.20789e-05
16 *193:14 *1803:B 0.000126336
17 *193:14 *1807:A1 0.00011432
18 *193:14 *1861:A2 4.57347e-05
19 *193:14 *457:76 0
20 *193:14 *566:8 0.000237243
21 *193:18 *1809:A2 5.30673e-05
22 *193:18 *1811:D 0
23 *193:18 *197:6 2.11084e-05
24 *193:18 *199:12 2.157e-05
25 *193:33 *1810:B 1.47347e-05
26 *193:33 *1826:A2 0
27 *193:33 *1830:C 0.000174577
28 *193:33 *197:6 9.29176e-05
29 *193:33 *199:12 7.65504e-06
30 *193:33 *440:10 0.000163204
31 *1810:A *1809:B1 0
32 *1810:A *193:33 5.28853e-05
33 *1811:B *193:18 0.000157887
34 *1812:A2_N *193:14 0.000210151
*RES
1 *1805:Y *193:14 18.185 
2 *193:14 *193:18 6.24 
3 *193:18 *1809:B1 1.96 
4 *193:18 *193:33 7.83 
5 *193:33 *2077:A1_N 10.0025 
6 *193:33 *1815:B2 1.6 
7 *193:14 *1811:C 1.6 
*END

*D_NET *194 0.000480376
*CONN
*I *1808:A I *D sky130_fd_sc_hd__nand2_4
*I *1806:X O *D sky130_fd_sc_hd__o21a_4
*CAP
1 *1808:A 7.43987e-05
2 *1806:X 7.43987e-05
3 *1808:A *2323:A 0.000185398
4 *1808:A *457:36 4.66108e-05
5 *1808:A *508:14 7.45794e-05
6 *1808:A *530:10 2.49909e-05
*RES
1 *1806:X *1808:A 9.795 
*END

*D_NET *195 0.0013822
*CONN
*I *1812:B2 I *D sky130_fd_sc_hd__o2bb2ai_2
*I *1809:A2 I *D sky130_fd_sc_hd__o21ai_2
*I *1807:Y O *D sky130_fd_sc_hd__o21ai_2
*CAP
1 *1812:B2 0
2 *1809:A2 0.000125594
3 *1807:Y 0.000338645
4 *195:10 0.000464239
5 *1809:A2 *2076:B 0
6 *1809:A2 *199:12 3.45679e-05
7 *195:10 *1807:A2 6.69608e-06
8 *195:10 *200:8 0.00012438
9 *1809:A1 *1809:A2 0.000185398
10 *1811:A *1809:A2 3.60024e-06
11 *1812:A2_N *1809:A2 0
12 *1812:A2_N *195:10 4.60123e-05
13 *193:18 *1809:A2 5.30673e-05
*RES
1 *1807:Y *195:10 6.91 
2 *195:10 *1809:A2 8.795 
3 *195:10 *1812:B2 1.6 
*END

*D_NET *196 0.00035388
*CONN
*I *1811:D I *D sky130_fd_sc_hd__nand4_4
*I *1808:Y O *D sky130_fd_sc_hd__nand2_4
*CAP
1 *1811:D 0.00017694
2 *1808:Y 0.00017694
3 *193:18 *1811:D 0
*RES
1 *1808:Y *1811:D 5.645 
*END

*D_NET *197 0.000870207
*CONN
*I *1810:B I *D sky130_fd_sc_hd__nor2_2
*I *2076:A I *D sky130_fd_sc_hd__xnor2_2
*I *1809:Y O *D sky130_fd_sc_hd__o21ai_2
*CAP
1 *1810:B 3.12954e-05
2 *2076:A 0.000106615
3 *1809:Y 7.28635e-05
4 *197:6 0.000210774
5 *1810:B *199:12 2.75229e-05
6 *2076:A *2076:B 7.45881e-05
7 *2076:A *2288:A 0
8 *2076:A *199:12 0
9 *197:6 *199:12 0.000184858
10 *1810:A *1810:B 5.4155e-06
11 *1810:A *197:6 2.75145e-05
12 *193:18 *197:6 2.11084e-05
13 *193:33 *1810:B 1.47347e-05
14 *193:33 *197:6 9.29176e-05
*RES
1 *1809:Y *197:6 4.465 
2 *197:6 *2076:A 7.745 
3 *197:6 *1810:B 2.41 
*END

*D_NET *198 0.00453705
*CONN
*I *1830:C I *D sky130_fd_sc_hd__nand4b_4
*I *1810:Y O *D sky130_fd_sc_hd__nor2_2
*CAP
1 *1830:C 0.00133986
2 *1810:Y 0.00133986
3 *1830:C *1816:B1 0.000540225
4 *1830:C *1826:A2 0.000125968
5 *1830:C *1830:D 0.000116853
6 *1830:C *2073:A2 3.1835e-05
7 *1830:C *2073:B1 5.07419e-05
8 *1830:C *2286:A 7.44453e-05
9 *1830:C *199:12 0.000238919
10 *1830:C *201:27 4.66108e-05
11 *1830:C *213:10 0
12 *1830:C *440:10 0.00020432
13 *1815:A2_N *1830:C 8.8266e-05
14 *1826:A1 *1830:C 0.000164566
15 *193:33 *1830:C 0.000174577
*RES
1 *1810:Y *1830:C 33.645 
*END

*D_NET *199 0.0043211
*CONN
*I *1816:A2 I *D sky130_fd_sc_hd__o21ai_4
*I *1829:B I *D sky130_fd_sc_hd__nor2_4
*I *2077:B2 I *D sky130_fd_sc_hd__o2bb2a_2
*I *1811:Y O *D sky130_fd_sc_hd__nand4_4
*CAP
1 *1816:A2 0
2 *1829:B 9.31177e-05
3 *2077:B2 0
4 *1811:Y 0.000768309
5 *199:21 0.000781811
6 *199:12 0.001457
7 *1829:B *1816:B1 1.01661e-05
8 *1829:B *1829:A 0
9 *1829:B *2073:A1 0
10 *199:12 *2077:B1 0.000294421
11 *199:12 *2285:A 0
12 *199:12 *2288:A 0.00011852
13 *199:21 *2077:B1 2.49909e-05
14 *199:21 *2078:B 4.10476e-05
15 *1809:A2 *199:12 3.45679e-05
16 *1810:B *199:12 2.75229e-05
17 *1811:B *199:12 2.65814e-06
18 *1830:C *199:12 0.000238919
19 *2076:A *199:12 0
20 *2077:A1_N *199:21 1.20789e-05
21 *171:36 *1829:B 0.000189891
22 *171:36 *199:21 1.19928e-05
23 *193:18 *199:12 2.157e-05
24 *193:33 *199:12 7.65504e-06
25 *197:6 *199:12 0.000184858
*RES
1 *1811:Y *199:12 17.57 
2 *199:12 *2077:B2 1.6 
3 *199:12 *199:21 9.69 
4 *199:21 *1829:B 7.94 
5 *199:21 *1816:A2 1.6 
*END

*D_NET *200 0.00215989
*CONN
*I *2077:A2_N I *D sky130_fd_sc_hd__o2bb2a_2
*I *1815:B1 I *D sky130_fd_sc_hd__a2bb2oi_2
*I *1812:Y O *D sky130_fd_sc_hd__o2bb2ai_2
*CAP
1 *2077:A2_N 3.2135e-05
2 *1815:B1 6.22659e-05
3 *1812:Y 0.00071206
4 *200:8 0.000806461
5 *1815:B1 *2077:B1 8.47542e-05
6 *2077:A2_N *2077:B1 3.39069e-05
7 *2077:A1_N *1815:B1 0.000208484
8 *2077:A1_N *2077:A2_N 9.54469e-05
9 *195:10 *200:8 0.00012438
*RES
1 *1812:Y *200:8 13.365 
2 *200:8 *1815:B1 6 
3 *200:8 *2077:A2_N 4.725 
*END

*D_NET *201 0.00248616
*CONN
*I *1815:A1_N I *D sky130_fd_sc_hd__a2bb2oi_2
*I *1826:A2 I *D sky130_fd_sc_hd__o21ai_2
*I *1814:B1 I *D sky130_fd_sc_hd__a21o_2
*I *1813:Y O *D sky130_fd_sc_hd__o21ai_2
*CAP
1 *1815:A1_N 0
2 *1826:A2 9.46406e-05
3 *1814:B1 0.000142198
4 *1813:Y 0.000152743
5 *201:27 0.000153111
6 *201:10 0.000353412
7 *1814:B1 *1814:A1 0.0001249
8 *1814:B1 *2168:B 8.26273e-05
9 *1814:B1 *461:31 0.000120655
10 *1814:B1 *567:52 4.82919e-05
11 *1826:A2 *440:10 0.000313857
12 *201:10 *1813:A1 0.000119756
13 *201:10 *2167:B 9.37731e-05
14 *201:10 *2285:A 0.000158297
15 *201:10 *2289:A 3.76596e-05
16 *201:27 *2285:A 0.000137578
17 *201:27 *2289:A 7.26551e-05
18 *201:27 *440:10 1.91597e-05
19 *1815:A2_N *1826:A2 8.8266e-05
20 *1830:C *1826:A2 0.000125968
21 *1830:C *201:27 4.66108e-05
22 *193:33 *1826:A2 0
*RES
1 *1813:Y *201:10 6.63 
2 *201:10 *1814:B1 6.825 
3 *201:10 *201:27 4.085 
4 *201:27 *1826:A2 5.185 
5 *201:27 *1815:A1_N 1.6 
*END

*D_NET *202 0.00131779
*CONN
*I *1828:C I *D sky130_fd_sc_hd__nand4_2
*I *1814:X O *D sky130_fd_sc_hd__a21o_2
*CAP
1 *1828:C 0.000435979
2 *1814:X 0.000435979
3 *1828:C *1813:B1 8.53113e-06
4 *1828:C *1828:D 1.37328e-05
5 *1828:C *1829:A 0.000194717
6 *1828:C *2168:B 0.000162311
7 *1828:B *1828:C 6.65426e-05
8 *171:19 *1828:C 0
*RES
1 *1814:X *1828:C 15 
*END

*D_NET *203 0.00164718
*CONN
*I *1816:B1 I *D sky130_fd_sc_hd__o21ai_4
*I *1815:Y O *D sky130_fd_sc_hd__a2bb2oi_2
*CAP
1 *1816:B1 0.00035493
2 *1815:Y 0.00035493
3 *1816:B1 *214:10 9.54399e-05
4 *1816:B1 *527:10 0.000126415
5 *1829:B *1816:B1 1.01661e-05
6 *1830:C *1816:B1 0.000540225
7 *171:36 *1816:B1 0.000165076
*RES
1 *1815:Y *1816:B1 15.81 
*END

*D_NET *204 0.00198633
*CONN
*I *2297:A I *D sky130_fd_sc_hd__buf_2
*I *1817:A I *D sky130_fd_sc_hd__nand3_4
*I *1816:Y O *D sky130_fd_sc_hd__o21ai_4
*CAP
1 *2297:A 0.000149462
2 *1817:A 0.000127505
3 *1816:Y 0.000336719
4 *204:12 0.000613686
5 *1817:A *2071:B 3.09233e-05
6 *1817:A *217:21 0
7 *204:12 *2073:A1 0
8 *204:12 *2328:A 0
9 *204:12 *246:10 0.000391354
10 *204:12 *251:25 0.000273114
11 *204:12 *527:10 6.35622e-05
12 *1817:B *1817:A 0
*RES
1 *1816:Y *204:12 13.46 
2 *204:12 *1817:A 7.745 
3 *204:12 *2297:A 3.79 
*END

*D_NET *205 0.00117937
*CONN
*I *1874:A I *D sky130_fd_sc_hd__nand3_4
*I *1871:A I *D sky130_fd_sc_hd__nand4_2
*I *1817:Y O *D sky130_fd_sc_hd__nand3_4
*CAP
1 *1874:A 0.000145282
2 *1871:A 3.64111e-05
3 *1817:Y 0.00032359
4 *205:10 0.000505283
5 *1871:A *2090:B 8.65905e-05
6 *1874:A *2090:B 0
7 *205:10 *1870:A2 1.98869e-05
8 *205:10 *1871:C 0
9 *205:10 *258:12 0
10 *1874:B *1874:A 0
11 *2090:A *1874:A 0
12 *167:23 *205:10 6.23288e-05
*RES
1 *1817:Y *205:10 8.505 
2 *205:10 *1871:A 4.395 
3 *205:10 *1874:A 6 
*END

*D_NET *206 0.00229539
*CONN
*I *1820:B1 I *D sky130_fd_sc_hd__o221a_2
*I *1821:A2 I *D sky130_fd_sc_hd__o21ai_2
*I *2085:B1 I *D sky130_fd_sc_hd__o21ai_2
*I *1818:Y O *D sky130_fd_sc_hd__a2bb2oi_2
*CAP
1 *1820:B1 0.000103478
2 *1821:A2 8.43296e-05
3 *2085:B1 2.54989e-05
4 *1818:Y 0.000147774
5 *206:21 0.000641763
6 *206:8 0.000627227
7 *1820:B1 *1820:B2 5.03783e-05
8 *1820:B1 *1871:C 2.75229e-05
9 *1821:A2 *1821:B1 2.75145e-05
10 *1821:A2 *1871:C 7.25441e-05
11 *206:8 *443:22 7.21296e-06
12 *206:8 *478:16 0
13 *206:21 *443:22 9.3062e-06
14 *206:21 *478:16 0
15 *1820:A1 *1820:B1 0.00010748
16 *1820:A2 *1820:B1 3.25635e-05
17 *1821:A1 *206:21 0
18 *2163:C1 *206:8 0.000116158
19 *2293:A *206:21 0
20 *151:16 *206:21 0
21 *162:18 *2085:B1 4.82919e-05
22 *164:20 *206:8 0.000166346
*RES
1 *1818:Y *206:8 7.02 
2 *206:8 *2085:B1 4.05 
3 *206:8 *206:21 8.735 
4 *206:21 *1821:A2 3.43 
5 *206:21 *1820:B1 4.60375 
*END

*D_NET *207 0.00145204
*CONN
*I *1821:B1 I *D sky130_fd_sc_hd__o21ai_2
*I *1819:X O *D sky130_fd_sc_hd__o22a_2
*CAP
1 *1821:B1 0.000473413
2 *1819:X 0.000473413
3 *1821:B1 *2120:A 5.4003e-05
4 *1821:B1 *2296:A 9.10587e-05
5 *1821:B1 *470:16 6.77501e-05
6 *1821:B1 *478:10 0.000234674
7 *1821:B1 *538:20 9.27255e-06
8 *1821:B1 *538:28 7.21296e-06
9 *1820:A1 *1821:B1 1.37328e-05
10 *1821:A2 *1821:B1 2.75145e-05
11 *2293:A *1821:B1 0
*RES
1 *1819:X *1821:B1 14.055 
*END

*D_NET *208 0.00323791
*CONN
*I *1871:C I *D sky130_fd_sc_hd__nand4_2
*I *1820:X O *D sky130_fd_sc_hd__o221a_2
*CAP
1 *1871:C 0.00153656
2 *1820:X 0.00153656
3 *1871:C *217:21 0
4 *1871:C *256:8 0
5 *1820:B1 *1871:C 2.75229e-05
6 *1821:A2 *1871:C 7.25441e-05
7 *167:23 *1871:C 6.47192e-05
8 *205:10 *1871:C 0
*RES
1 *1820:X *1871:C 25.14 
*END

*D_NET *209 0.00104928
*CONN
*I *1870:B1_N I *D sky130_fd_sc_hd__o21bai_4
*I *1821:Y O *D sky130_fd_sc_hd__o21ai_2
*CAP
1 *1870:B1_N 0.000443475
2 *1821:Y 0.000443475
3 *1821:A1 *1870:B1_N 8.5242e-05
4 *151:16 *1870:B1_N 7.70828e-05
*RES
1 *1821:Y *1870:B1_N 14.37 
*END

*D_NET *210 0.000837009
*CONN
*I *1823:B1 I *D sky130_fd_sc_hd__a21oi_2
*I *1825:B2 I *D sky130_fd_sc_hd__o22ai_2
*I *1822:Y O *D sky130_fd_sc_hd__o21bai_2
*CAP
1 *1823:B1 5.50793e-05
2 *1825:B2 0
3 *1822:Y 0.000109333
4 *210:12 0.000164412
5 *1823:B1 *1823:A1 0.000119631
6 *1823:B1 *1828:D 0.000200615
7 *210:12 *2073:B1 0
8 *210:12 *528:20 5.30673e-05
9 *1825:A2 *210:12 0.000130686
10 *1825:B1 *210:12 4.18603e-06
*RES
1 *1822:Y *210:12 8.03 
2 *210:12 *1825:B2 1.6 
3 *210:12 *1823:B1 3.79 
*END

*D_NET *211 0.000895682
*CONN
*I *2073:B1 I *D sky130_fd_sc_hd__a31o_4
*I *1823:Y O *D sky130_fd_sc_hd__a21oi_2
*CAP
1 *2073:B1 0.000298971
2 *1823:Y 0.000298971
3 *2073:B1 *2174:A1 0.000122103
4 *2073:B1 *440:10 0.000124895
5 *1825:B1 *2073:B1 0
6 *1828:B *2073:B1 0
7 *1830:C *2073:B1 5.07419e-05
8 *2175:B1 *2073:B1 0
9 *210:12 *2073:B1 0
*RES
1 *1823:Y *2073:B1 12.78 
*END

*D_NET *212 0.00138645
*CONN
*I *1828:D I *D sky130_fd_sc_hd__nand4_2
*I *1824:Y O *D sky130_fd_sc_hd__nand3b_2
*CAP
1 *1828:D 0.000470639
2 *1824:Y 0.000470639
3 *1828:D *1823:A1 0.000147095
4 *1828:D *1823:A2 3.70488e-05
5 *1828:D *1824:A_N 4.66826e-05
6 *1823:B1 *1828:D 0.000200615
7 *1828:C *1828:D 1.37328e-05
*RES
1 *1824:Y *1828:D 11.375 
*END

*D_NET *213 0.00129758
*CONN
*I *1827:A I *D sky130_fd_sc_hd__nor2_2
*I *2072:A I *D sky130_fd_sc_hd__xnor2_2
*I *1825:Y O *D sky130_fd_sc_hd__o22ai_2
*CAP
1 *1827:A 0.000115935
2 *2072:A 0
3 *1825:Y 0.000382347
4 *213:10 0.000498283
5 *1827:A *1827:B 0.000157343
6 *1827:A *1830:D 4.92062e-05
7 *1827:A *2286:A 4.82919e-05
8 *213:10 *1823:A1 0
9 *213:10 *2286:A 0
10 *213:10 *2316:A 0
11 *1825:A1 *213:10 4.61744e-05
12 *1825:B1 *213:10 0
13 *1830:C *213:10 0
*RES
1 *1825:Y *213:10 11.825 
2 *213:10 *2072:A 1.6 
3 *213:10 *1827:A 4.465 
*END

*D_NET *214 0.00289954
*CONN
*I *1827:B I *D sky130_fd_sc_hd__nor2_2
*I *2078:A I *D sky130_fd_sc_hd__xor2_2
*I *1826:Y O *D sky130_fd_sc_hd__o21ai_2
*CAP
1 *1827:B 0.000918224
2 *2078:A 0.000176953
3 *1826:Y 2.69906e-05
4 *214:10 0.00112217
5 *1827:B *2071:B 2.11084e-05
6 *1827:B *2072:B 0.000122155
7 *1827:B *2286:A 8.49205e-05
8 *1827:B *2328:A 2.75229e-05
9 *1827:B *217:10 5.12718e-05
10 *214:10 *527:10 9.54399e-05
11 *1816:B1 *214:10 9.54399e-05
12 *1827:A *1827:B 0.000157343
*RES
1 *1826:Y *214:10 6.725 
2 *214:10 *2078:A 4.045 
3 *214:10 *1827:B 15.775 
*END

*D_NET *215 0.000669227
*CONN
*I *1830:D I *D sky130_fd_sc_hd__nand4b_4
*I *1827:Y O *D sky130_fd_sc_hd__nor2_2
*CAP
1 *1830:D 0.000208072
2 *1827:Y 0.000208072
3 *1830:D *2079:A2 0
4 *1830:D *2286:A 1.34503e-05
5 *1830:D *443:14 7.35729e-05
6 *1827:A *1830:D 4.92062e-05
7 *1830:C *1830:D 0.000116853
*RES
1 *1827:Y *1830:D 10.86 
*END

*D_NET *216 0.00109095
*CONN
*I *1829:A I *D sky130_fd_sc_hd__nor2_4
*I *1828:Y O *D sky130_fd_sc_hd__nand4_2
*CAP
1 *1829:A 0.000265782
2 *1828:Y 0.000265782
3 *1829:A *2073:A1 0.000207797
4 *1826:A1 *1829:A 0
5 *1828:B *1829:A 0.000103966
6 *1828:C *1829:A 0.000194717
7 *1829:B *1829:A 0
8 *171:19 *1829:A 0
9 *171:36 *1829:A 0
10 *177:23 *1829:A 5.29053e-05
*RES
1 *1828:Y *1829:A 13.365 
*END

*D_NET *217 0.00236015
*CONN
*I *1869:B I *D sky130_fd_sc_hd__nand3_2
*I *1868:A I *D sky130_fd_sc_hd__nand4_4
*I *2079:B2 I *D sky130_fd_sc_hd__a22oi_4
*I *1829:Y O *D sky130_fd_sc_hd__nor2_4
*CAP
1 *1869:B 0.000123882
2 *1868:A 6.38339e-05
3 *2079:B2 0
4 *1829:Y 0.000253795
5 *217:21 0.00045269
6 *217:10 0.000518769
7 *1869:B *1869:A 5.53249e-06
8 *1869:B *256:8 0
9 *217:10 *2071:B 0
10 *217:10 *2073:A2 0.000116165
11 *217:10 *2328:A 2.49909e-05
12 *217:21 *1867:B 0
13 *217:21 *1868:C 0.000187759
14 *217:21 *2071:B 8.68387e-05
15 *217:21 *2073:A2 0.000112971
16 *217:21 *251:25 0.000139245
17 *217:21 *255:12 1.26548e-05
18 *217:21 *256:8 0
19 *1817:A *217:21 0
20 *1827:B *217:10 5.12718e-05
21 *1868:B *1868:A 0.000160635
22 *1869:C *1869:B 4.91189e-05
23 *1871:C *217:21 0
*RES
1 *1829:Y *217:10 7.155 
2 *217:10 *2079:B2 3.6 
3 *217:10 *217:21 6.93 
4 *217:21 *1868:A 5.085 
5 *217:21 *1869:B 5.94 
*END

*D_NET *218 0.000440576
*CONN
*I *1870:A1 I *D sky130_fd_sc_hd__o21bai_4
*I *1830:Y O *D sky130_fd_sc_hd__nand4b_4
*CAP
1 *1870:A1 0.000220288
2 *1830:Y 0.000220288
3 *1870:A1 *2079:A2 0
4 *167:10 *1870:A1 0
5 *167:23 *1870:A1 0
*RES
1 *1830:Y *1870:A1 10.62 
*END

*D_NET *219 0.000664029
*CONN
*I *1854:B I *D sky130_fd_sc_hd__nand3b_2
*I *1834:A I *D sky130_fd_sc_hd__nand2_2
*I *1831:Y O *D sky130_fd_sc_hd__nand2b_2
*CAP
1 *1854:B 0
2 *1834:A 0.000109676
3 *1831:Y 6.87101e-05
4 *219:8 0.000178386
5 *1834:A *1834:B 0.000166346
6 *1834:A *220:8 9.50342e-06
7 *219:8 *220:8 0.000131408
*RES
1 *1831:Y *219:8 5.235 
2 *219:8 *1834:A 5.94 
3 *219:8 *1854:B 3.6 
*END

*D_NET *220 0.000998043
*CONN
*I *1854:C I *D sky130_fd_sc_hd__nand3b_2
*I *1834:B I *D sky130_fd_sc_hd__nand2_2
*I *1832:Y O *D sky130_fd_sc_hd__nand2_2
*CAP
1 *1854:C 0
2 *1834:B 3.46037e-05
3 *1832:Y 0.000210535
4 *220:8 0.000245139
5 *1834:B *1854:A_N 1.34361e-05
6 *1834:B *1864:B1 0.000143266
7 *220:8 *1832:B 0
8 *220:8 *1864:B1 4.38051e-05
9 *220:8 *221:10 0
10 *1834:A *1834:B 0.000166346
11 *1834:A *220:8 9.50342e-06
12 *219:8 *220:8 0.000131408
*RES
1 *1832:Y *220:8 7.53 
2 *220:8 *1834:B 5.49 
3 *220:8 *1854:C 3.6 
*END

*D_NET *221 0.00101588
*CONN
*I *1859:A1 I *D sky130_fd_sc_hd__o22ai_2
*I *1864:A1 I *D sky130_fd_sc_hd__o21ai_2
*I *1833:X O *D sky130_fd_sc_hd__and2_2
*CAP
1 *1859:A1 2.2266e-05
2 *1864:A1 0.000122612
3 *1833:X 0.000165799
4 *221:10 0.000310678
5 *1859:A1 *1869:A 4.82919e-05
6 *1864:A1 *1854:A_N 0
7 *1864:A1 *1859:A2 0.000120186
8 *1864:A1 *1864:A2 3.29384e-05
9 *221:10 *1833:A 4.82863e-05
10 *221:10 *1864:B1 0
11 *221:10 *461:6 7.40446e-05
12 *221:10 *461:19 7.07801e-05
13 *220:8 *221:10 0
*RES
1 *1833:X *221:10 6.375 
2 *221:10 *1864:A1 6.15 
3 *221:10 *1859:A1 4.05 
*END

*D_NET *222 0.00198296
*CONN
*I *1857:A2 I *D sky130_fd_sc_hd__o21ai_2
*I *1856:A2 I *D sky130_fd_sc_hd__o21a_2
*I *1858:A2 I *D sky130_fd_sc_hd__a22oi_4
*I *1834:Y O *D sky130_fd_sc_hd__nand2_2
*CAP
1 *1857:A2 0.000157793
2 *1856:A2 0
3 *1858:A2 0.00010818
4 *1834:Y 7.64629e-05
5 *222:10 0.000276264
6 *222:8 0.00040234
7 *1857:A2 *1835:B1 4.60584e-05
8 *1857:A2 *527:36 7.49327e-05
9 *1857:A2 *527:38 0.000162311
10 *1858:A2 *1867:B 0
11 *1858:A2 *246:10 3.00381e-05
12 *1858:A2 *251:25 4.82919e-05
13 *1858:A2 *527:10 9.50342e-06
14 *1858:A2 *527:19 0.000139245
15 *1858:A2 *527:36 3.09233e-05
16 *222:8 *1854:A_N 4.4073e-05
17 *222:8 *527:36 2.07184e-05
18 *222:10 *1867:B 0
19 *222:10 *527:36 0.000355823
*RES
1 *1834:Y *222:8 5.235 
2 *222:8 *222:10 4.185 
3 *222:10 *1858:A2 5.94 
4 *222:10 *1856:A2 3.6 
5 *222:8 *1857:A2 6.81 
*END

*D_NET *223 0.000617838
*CONN
*I *1859:A2 I *D sky130_fd_sc_hd__o22ai_2
*I *1864:A2 I *D sky130_fd_sc_hd__o21ai_2
*I *1835:Y O *D sky130_fd_sc_hd__o21ai_2
*CAP
1 *1859:A2 4.49286e-05
2 *1864:A2 0.000115795
3 *1835:Y 0.000160724
4 *1859:A2 *1854:A_N 0
5 *1859:A2 *461:19 0.000143266
6 *1864:A1 *1859:A2 0.000120186
7 *1864:A1 *1864:A2 3.29384e-05
*RES
1 *1835:Y *1864:A2 5.045 
2 *1835:Y *1859:A2 8.835 
*END

*D_NET *224 0.00176114
*CONN
*I *1838:A I *D sky130_fd_sc_hd__nor2_2
*I *1855:A1 I *D sky130_fd_sc_hd__o21bai_2
*I *1865:A1 I *D sky130_fd_sc_hd__o21ai_2
*I *1853:A1 I *D sky130_fd_sc_hd__o211ai_4
*I *1836:X O *D sky130_fd_sc_hd__and2_4
*CAP
1 *1838:A 2.80535e-05
2 *1855:A1 0
3 *1865:A1 1.85597e-05
4 *1853:A1 0.000102528
5 *1836:X 4.21505e-05
6 *224:44 0.000190106
7 *224:16 0.000294833
8 *224:8 0.000377949
9 *1838:A *1838:B 8.8266e-05
10 *1853:A1 *1853:A2 0.000206817
11 *1853:A1 *2070:B 9.50342e-06
12 *1865:A1 *2068:A 4.82919e-05
13 *224:8 *1839:A1 9.54469e-05
14 *224:8 *225:12 4.7043e-05
15 *224:8 *227:12 0
16 *224:16 *2068:A 1.33285e-05
17 *224:16 *2069:A1 4.40725e-05
18 *224:16 *225:12 1.22676e-05
19 *224:16 *227:12 4.82863e-05
20 *224:16 *243:12 0
21 *224:44 *1838:B 4.83736e-05
22 *224:44 *1839:A1 0
23 *224:44 *226:8 4.52673e-05
*RES
1 *1836:X *224:8 4.98 
2 *224:8 *224:16 5.045 
3 *224:16 *1853:A1 8 
4 *224:16 *1865:A1 2.05 
5 *224:8 *224:44 5.255 
6 *224:44 *1855:A1 1.6 
7 *224:44 *1838:A 2.395 
*END

*D_NET *225 0.00123407
*CONN
*I *1855:A2 I *D sky130_fd_sc_hd__o21bai_2
*I *1838:B I *D sky130_fd_sc_hd__nor2_2
*I *1837:Y O *D sky130_fd_sc_hd__nor2_2
*CAP
1 *1855:A2 0
2 *1838:B 0.000106171
3 *1837:Y 0.000234775
4 *225:12 0.000340947
5 *1838:B *1855:B1_N 0
6 *1838:B *226:8 0.000238919
7 *225:12 *1837:B 5.72091e-05
8 *225:12 *1839:A1 0
9 *225:12 *1859:B2 2.75145e-05
10 *225:12 *243:12 3.25831e-05
11 *1838:A *1838:B 8.8266e-05
12 *224:8 *225:12 4.7043e-05
13 *224:16 *225:12 1.22676e-05
14 *224:44 *1838:B 4.83736e-05
*RES
1 *1837:Y *225:12 9.98 
2 *225:12 *1838:B 4.84 
3 *225:12 *1855:A2 1.6 
*END

*D_NET *226 0.00414489
*CONN
*I *1852:A1 I *D sky130_fd_sc_hd__a22oi_2
*I *2069:A2 I *D sky130_fd_sc_hd__o22a_2
*I *1838:Y O *D sky130_fd_sc_hd__nor2_2
*CAP
1 *1852:A1 0.000309754
2 *2069:A2 0.000256248
3 *1838:Y 0.000394971
4 *226:8 0.000960973
5 *1852:A1 *1851:A 5.80112e-05
6 *1852:A1 *1859:B2 6.06805e-05
7 *1852:A1 *227:12 3.50033e-05
8 *1852:A1 *233:10 0.000376549
9 *1852:A1 *494:12 0
10 *1852:A1 *524:29 0.000239807
11 *1852:A1 *559:18 0.000187766
12 *2069:A2 *2069:A1 0.000263947
13 *2069:A2 *2314:A 6.44307e-05
14 *2069:A2 *227:12 6.5525e-05
15 *2069:A2 *233:10 0.000295387
16 *2069:A2 *241:24 7.00889e-06
17 *2069:A2 *562:10 8.8266e-05
18 *226:8 *1855:B1_N 7.57202e-05
19 *226:8 *524:33 0.000120655
20 *1838:B *226:8 0.000238919
21 *224:44 *226:8 4.52673e-05
*RES
1 *1838:Y *226:8 8.88 
2 *226:8 *2069:A2 11.01 
3 *226:8 *1852:A1 11.61 
*END

*D_NET *227 0.00140699
*CONN
*I *1865:A2 I *D sky130_fd_sc_hd__o21ai_2
*I *1853:A2 I *D sky130_fd_sc_hd__o211ai_4
*I *1839:Y O *D sky130_fd_sc_hd__o21ai_2
*CAP
1 *1865:A2 0
2 *1853:A2 0.000142405
3 *1839:Y 0.00016719
4 *227:12 0.000309594
5 *1853:A2 *2069:A1 0
6 *1853:A2 *241:24 1.22676e-05
7 *1853:A2 *251:12 4.82863e-05
8 *227:12 *1839:A1 4.18603e-06
9 *227:12 *2068:A 0.000198939
10 *227:12 *2069:A1 0.000137571
11 *227:12 *559:18 3.09233e-05
12 *1852:A1 *227:12 3.50033e-05
13 *1853:A1 *1853:A2 0.000206817
14 *2069:A2 *227:12 6.5525e-05
15 *224:8 *227:12 0
16 *224:16 *227:12 4.82863e-05
*RES
1 *1839:Y *227:12 9.83 
2 *227:12 *1853:A2 8.795 
3 *227:12 *1865:A2 1.6 
*END

*D_NET *228 0.00294953
*CONN
*I *1843:B I *D sky130_fd_sc_hd__nand3_4
*I *1840:Y O *D sky130_fd_sc_hd__nand2b_2
*CAP
1 *1843:B 0.000832008
2 *1840:Y 0.000832008
3 *1843:B *1840:B 0.000447324
4 *1843:B *1850:B2 4.58406e-05
5 *1843:B *1860:A1 2.20732e-05
6 *1843:B *2186:A 0.000146595
7 *1843:B *230:10 5.33288e-05
8 *1843:B *231:10 0
9 *1843:B *232:19 0
10 *1843:B *248:8 1.01661e-05
11 *1843:B *547:18 0.000249212
12 *1843:B *547:44 0.000259924
13 *1843:A *1843:B 4.43871e-06
14 *2225:A *1843:B 4.66108e-05
*RES
1 *1840:Y *1843:B 19.725 
*END

*D_NET *229 0.000686021
*CONN
*I *1843:C I *D sky130_fd_sc_hd__nand3_4
*I *1841:Y O *D sky130_fd_sc_hd__nand2b_2
*CAP
1 *1843:C 0.000147808
2 *1841:Y 0.000147808
3 *1843:C *1841:B 0.000111901
4 *1843:C *460:18 0.000139252
5 *2243:A *1843:C 0.000139252
*RES
1 *1841:Y *1843:C 10.665 
*END

*D_NET *230 0.00276742
*CONN
*I *1860:A2 I *D sky130_fd_sc_hd__o21ai_4
*I *1850:B2 I *D sky130_fd_sc_hd__o22ai_2
*I *1842:X O *D sky130_fd_sc_hd__and2_2
*CAP
1 *1860:A2 0
2 *1850:B2 0.000270649
3 *1842:X 0.000262353
4 *230:10 0.000533001
5 *1850:B2 *2065:A0 1.94805e-05
6 *1850:B2 *248:8 0
7 *1850:B2 *547:18 0
8 *230:10 *1842:B 0.00019188
9 *230:10 *2186:A 0.00017151
10 *230:10 *541:12 0.000829085
11 *1843:B *1850:B2 4.58406e-05
12 *1843:B *230:10 5.33288e-05
13 *2225:A *230:10 0.00039029
14 *2243:A *1850:B2 0
15 *2243:A *230:10 0
*RES
1 *1842:X *230:10 13.44 
2 *230:10 *1850:B2 7.785 
3 *230:10 *1860:A2 3.6 
*END

*D_NET *231 0.00343779
*CONN
*I *1851:A I *D sky130_fd_sc_hd__nand2_2
*I *1852:B2 I *D sky130_fd_sc_hd__a22oi_2
*I *1860:B1 I *D sky130_fd_sc_hd__o21ai_4
*I *1843:Y O *D sky130_fd_sc_hd__nand3_4
*CAP
1 *1851:A 0.000435756
2 *1852:B2 0
3 *1860:B1 4.80506e-05
4 *1843:Y 7.89623e-05
5 *231:29 0.000732274
6 *231:10 0.000423531
7 *1851:A *1846:B 0
8 *1851:A *1852:B1 7.66965e-05
9 *1851:A *1859:B2 2.92283e-05
10 *1851:A *233:10 0.000130264
11 *1851:A *239:10 5.12462e-05
12 *1851:A *524:29 0
13 *1860:B1 *1860:A1 8.65905e-05
14 *1860:B1 *232:6 3.74161e-05
15 *1860:B1 *547:18 8.18626e-05
16 *231:10 *2101:A 0.000130698
17 *231:10 *232:19 1.23268e-05
18 *231:10 *476:10 7.9642e-06
19 *231:29 *1852:B1 0.000272848
20 *231:29 *1881:B1 2.16833e-05
21 *231:29 *233:10 0.000151179
22 *231:29 *458:22 9.52078e-05
23 *231:29 *459:39 3.66286e-05
24 *231:29 *459:55 0.000122337
25 *231:29 *547:18 8.40213e-05
26 *231:29 *547:44 0.00023301
27 *1843:B *231:10 0
28 *1852:A1 *1851:A 5.80112e-05
*RES
1 *1843:Y *231:10 7.235 
2 *231:10 *1860:B1 3.085 
3 *231:10 *231:29 11.89 
4 *231:29 *1852:B2 1.6 
5 *231:29 *1851:A 13.13 
*END

*D_NET *232 0.00224731
*CONN
*I *1845:B1 I *D sky130_fd_sc_hd__a21o_4
*I *1850:B1 I *D sky130_fd_sc_hd__o22ai_2
*I *1860:A1 I *D sky130_fd_sc_hd__o21ai_4
*I *1844:Y O *D sky130_fd_sc_hd__o21ai_4
*CAP
1 *1845:B1 0
2 *1850:B1 0.000155059
3 *1860:A1 0.000269886
4 *1844:Y 2.3906e-05
5 *232:19 0.000261333
6 *232:6 0.000400065
7 *1850:B1 *1850:A1 4.82919e-05
8 *1850:B1 *1850:A2 0.000128956
9 *1850:B1 *1852:B1 0.000191167
10 *1850:B1 *2065:A0 0.000198939
11 *1850:B1 *2065:A1 3.64998e-06
12 *1850:B1 *248:8 0.00013178
13 *1850:B1 *454:14 4.58257e-05
14 *232:19 *1852:B1 9.50342e-06
15 *232:19 *248:8 0.000172845
16 *232:19 *459:55 0
17 *232:19 *476:10 4.7692e-05
18 *1843:B *1860:A1 2.20732e-05
19 *1843:B *232:19 0
20 *1860:B1 *1860:A1 8.65905e-05
21 *1860:B1 *232:6 3.74161e-05
22 *231:10 *232:19 1.23268e-05
*RES
1 *1844:Y *232:6 2.05 
2 *232:6 *1860:A1 5.515 
3 *232:6 *232:19 4.655 
4 *232:19 *1850:B1 8.46 
5 *232:19 *1845:B1 3.6 
*END

*D_NET *233 0.00422666
*CONN
*I *1853:B1 I *D sky130_fd_sc_hd__o211ai_4
*I *2314:A I *D sky130_fd_sc_hd__buf_2
*I *1845:X O *D sky130_fd_sc_hd__a21o_4
*CAP
1 *1853:B1 0
2 *2314:A 0.000148019
3 *1845:X 0.000711619
4 *233:10 0.000859639
5 *2314:A *2067:B1 0
6 *2314:A *2329:A 0
7 *2314:A *562:10 7.60965e-05
8 *233:10 *1852:B1 3.91132e-05
9 *233:10 *1859:B2 0.000390926
10 *233:10 *476:10 0.000419852
11 *233:10 *494:10 0
12 *233:10 *494:12 0
13 *233:10 *524:29 0.000362965
14 *1851:A *233:10 0.000130264
15 *1852:A1 *233:10 0.000376549
16 *2069:A2 *2314:A 6.44307e-05
17 *2069:A2 *233:10 0.000295387
18 *2193:A *233:10 0.000200615
19 *231:29 *233:10 0.000151179
*RES
1 *1845:X *233:10 22.485 
2 *233:10 *2314:A 6.63 
3 *233:10 *1853:B1 3.6 
*END

*D_NET *234 0.00335591
*CONN
*I *1861:A1 I *D sky130_fd_sc_hd__o21bai_2
*I *1850:A2 I *D sky130_fd_sc_hd__o22ai_2
*I *1846:X O *D sky130_fd_sc_hd__and2_2
*CAP
1 *1861:A1 0.00026263
2 *1850:A2 0.000155167
3 *1846:X 0.000622002
4 *234:6 0.0010398
5 *1850:A2 *1850:A1 2.05056e-05
6 *1850:A2 *1852:B1 4.82919e-05
7 *1850:A2 *2065:A0 4.9968e-05
8 *1850:A2 *248:8 4.9968e-05
9 *1850:A2 *454:14 1.35054e-05
10 *1861:A1 *1848:A2 0
11 *1861:A1 *1852:B1 8.57821e-05
12 *1861:A1 *1861:A2 5.53249e-06
13 *1861:A1 *1862:A2 0
14 *1861:A1 *248:8 0.000120249
15 *1861:A1 *458:22 0
16 *1861:A1 *493:20 4.18603e-06
17 *1861:A1 *535:36 0
18 *234:6 *1846:B 6.41532e-05
19 *234:6 *454:8 0.000647501
20 *234:6 *454:14 3.7712e-05
21 *1850:B1 *1850:A2 0.000128956
*RES
1 *1846:X *234:6 9.985 
2 *234:6 *1850:A2 8.15 
3 *234:6 *1861:A1 10.295 
*END

*D_NET *235 0.00173739
*CONN
*I *1861:A2 I *D sky130_fd_sc_hd__o21bai_2
*I *1847:Y O *D sky130_fd_sc_hd__nor2_2
*CAP
1 *1861:A2 0.000479839
2 *1847:Y 0.000479839
3 *1861:A2 *1803:A 0.000195865
4 *1861:A2 *2323:A 0.000265917
5 *1861:A2 *248:8 0.000249935
6 *1861:A2 *493:20 0
7 *1861:A2 *566:8 1.47256e-05
8 *1861:A1 *1861:A2 5.53249e-06
9 *193:14 *1861:A2 4.57347e-05
*RES
1 *1847:Y *1861:A2 16.725 
*END

*D_NET *236 0.00159995
*CONN
*I *1849:B1 I *D sky130_fd_sc_hd__a21oi_2
*I *1862:A2 I *D sky130_fd_sc_hd__o211ai_2
*I *1850:A1 I *D sky130_fd_sc_hd__o22ai_2
*I *1848:Y O *D sky130_fd_sc_hd__o21ai_4
*CAP
1 *1849:B1 0.000120222
2 *1862:A2 8.20158e-05
3 *1850:A1 2.07591e-05
4 *1848:Y 0.000156689
5 *236:22 0.000338168
6 *1849:B1 *1849:A1 0.000197826
7 *1849:B1 *559:10 4.89295e-05
8 *1850:A1 *1852:B1 4.66108e-05
9 *1850:A1 *454:14 2.30292e-05
10 *1862:A2 *1847:B 3.09164e-05
11 *1862:A2 *1849:A1 1.70935e-05
12 *1862:A2 *493:20 4.18603e-06
13 *1862:A2 *535:36 0.000162332
14 *1862:A2 *535:60 0
15 *236:22 *1848:A2 0.00011686
16 *236:22 *1849:A1 7.71016e-05
17 *236:22 *454:8 5.41594e-05
18 *236:22 *454:14 7.00889e-06
19 *236:22 *458:22 5.83121e-06
20 *236:22 *535:36 2.14129e-05
21 *1850:A2 *1850:A1 2.05056e-05
22 *1850:B1 *1850:A1 4.82919e-05
23 *1861:A1 *1862:A2 0
*RES
1 *1848:Y *1850:A1 3.995 
2 *1848:Y *236:22 6.72 
3 *236:22 *1862:A2 5.745 
4 *236:22 *1849:B1 6.12 
*END

*D_NET *237 0.000286017
*CONN
*I *1851:B I *D sky130_fd_sc_hd__nand2_2
*I *1849:Y O *D sky130_fd_sc_hd__a21oi_2
*CAP
1 *1851:B 0.000106652
2 *1849:Y 0.000106652
3 *1851:B *1849:A1 1.14169e-05
4 *1851:B *1849:A2 4.40028e-05
5 *1851:B *559:10 1.72945e-05
*RES
1 *1849:Y *1851:B 5.06 
*END

*D_NET *238 0.00259207
*CONN
*I *1852:B1 I *D sky130_fd_sc_hd__a22oi_2
*I *1850:Y O *D sky130_fd_sc_hd__o22ai_2
*CAP
1 *1852:B1 0.000341249
2 *1850:Y 0.000341249
3 *1852:B1 *248:8 3.60111e-05
4 *1852:B1 *454:14 0.000198051
5 *1852:B1 *458:22 0
6 *1852:B1 *459:55 0.000161529
7 *1852:B1 *524:16 0.000512456
8 *1850:A1 *1852:B1 4.66108e-05
9 *1850:A2 *1852:B1 4.82919e-05
10 *1850:B1 *1852:B1 0.000191167
11 *1851:A *1852:B1 7.66965e-05
12 *1861:A1 *1852:B1 8.57821e-05
13 *2193:A *1852:B1 0.000231508
14 *231:29 *1852:B1 0.000272848
15 *232:19 *1852:B1 9.50342e-06
16 *233:10 *1852:B1 3.91132e-05
*RES
1 *1850:Y *1852:B1 19.125 
*END

*D_NET *239 0.0017207
*CONN
*I *1853:C1 I *D sky130_fd_sc_hd__o211ai_4
*I *2329:A I *D sky130_fd_sc_hd__buf_2
*I *1851:Y O *D sky130_fd_sc_hd__nand2_2
*CAP
1 *1853:C1 4.2183e-05
2 *2329:A 0.000161656
3 *1851:Y 0.000368146
4 *239:10 0.000571985
5 *1853:C1 *2067:B1 4.66108e-05
6 *1853:C1 *251:12 0.000122331
7 *2329:A *2067:A2 0.000133094
8 *2329:A *2067:B1 0.000116158
9 *2329:A *2326:A 3.7837e-05
10 *2329:A *562:10 6.25091e-05
11 *239:10 *2067:B1 6.94735e-06
12 *239:10 *535:60 0
13 *1851:A *239:10 5.12462e-05
14 *2314:A *2329:A 0
*RES
1 *1851:Y *239:10 9.09 
2 *239:10 *2329:A 7.425 
3 *239:10 *1853:C1 4.74 
*END

*D_NET *240 0.00204818
*CONN
*I *1859:B2 I *D sky130_fd_sc_hd__o22ai_2
*I *1852:Y O *D sky130_fd_sc_hd__a22oi_2
*CAP
1 *1859:B2 0.000623536
2 *1852:Y 0.000623536
3 *1859:B2 *1859:B1 5.46217e-05
4 *1859:B2 *524:29 0.000238137
5 *1851:A *1859:B2 2.92283e-05
6 *1852:A1 *1859:B2 6.06805e-05
7 *225:12 *1859:B2 2.75145e-05
8 *233:10 *1859:B2 0.000390926
*RES
1 *1852:Y *1859:B2 15.395 
*END

*D_NET *241 0.0021986
*CONN
*I *1858:B2 I *D sky130_fd_sc_hd__a22oi_4
*I *2069:B1 I *D sky130_fd_sc_hd__o22a_2
*I *1853:Y O *D sky130_fd_sc_hd__o211ai_4
*CAP
1 *1858:B2 0.00010537
2 *2069:B1 4.01888e-06
3 *1853:Y 0.000239047
4 *241:24 0.000348436
5 *1858:B2 *251:25 0.000602808
6 *1858:B2 *562:10 0.000308371
7 *2069:B1 *251:25 6.9114e-05
8 *241:24 *2069:A1 0.000162325
9 *241:24 *2070:B 0
10 *241:24 *251:12 0.000122542
11 *241:24 *251:25 6.03171e-05
12 *241:24 *562:10 0.00015698
13 *1853:A2 *241:24 1.22676e-05
14 *2069:A2 *241:24 7.00889e-06
*RES
1 *1853:Y *241:24 11.8325 
2 *241:24 *2069:B1 2.2225 
3 *241:24 *1858:B2 7.0525 
*END

*D_NET *242 0.000436803
*CONN
*I *1864:B1 I *D sky130_fd_sc_hd__o21ai_2
*I *1854:Y O *D sky130_fd_sc_hd__nand3b_2
*CAP
1 *1864:B1 5.32327e-05
2 *1854:Y 5.32327e-05
3 *1864:B1 *1854:A_N 0.000143266
4 *1834:B *1864:B1 0.000143266
5 *220:8 *1864:B1 4.38051e-05
6 *221:10 *1864:B1 0
*RES
1 *1854:Y *1864:B1 9.345 
*END

*D_NET *243 0.00248013
*CONN
*I *1857:B1 I *D sky130_fd_sc_hd__o21ai_2
*I *1856:B1 I *D sky130_fd_sc_hd__o21a_2
*I *1865:B1 I *D sky130_fd_sc_hd__o21ai_2
*I *1855:Y O *D sky130_fd_sc_hd__o21bai_2
*CAP
1 *1857:B1 3.40801e-05
2 *1856:B1 0.000273536
3 *1865:B1 0
4 *1855:Y 0.000152102
5 *243:21 0.000536592
6 *243:12 0.000381078
7 *1856:B1 *2070:A 0.000275548
8 *1856:B1 *461:25 0.000103588
9 *1856:B1 *562:10 0.000208484
10 *1857:B1 *461:25 6.55406e-05
11 *1857:B1 *562:10 0.000109995
12 *243:12 *1866:B 3.00381e-05
13 *243:12 *2068:A 7.00889e-06
14 *243:21 *1866:B 0.000269957
15 *224:16 *243:12 0
16 *225:12 *243:12 3.25831e-05
*RES
1 *1855:Y *243:12 7.94 
2 *243:12 *1865:B1 1.6 
3 *243:12 *243:21 6.245 
4 *243:21 *1856:B1 9.9 
5 *243:21 *1857:B1 4.98 
*END

*D_NET *244 0.000188875
*CONN
*I *1858:B1 I *D sky130_fd_sc_hd__a22oi_4
*I *1856:X O *D sky130_fd_sc_hd__o21a_2
*CAP
1 *1858:B1 7.135e-05
2 *1856:X 7.135e-05
3 *1858:B1 *461:25 0
4 *1858:B1 *527:10 4.18603e-06
5 *1858:B1 *527:19 4.19884e-05
*RES
1 *1856:X *1858:B1 8.58 
*END

*D_NET *245 0.000834782
*CONN
*I *1859:B1 I *D sky130_fd_sc_hd__o22ai_2
*I *1857:Y O *D sky130_fd_sc_hd__o21ai_2
*CAP
1 *1859:B1 0.000174364
2 *1857:Y 0.000174364
3 *1859:B1 *461:19 0.000155176
4 *1859:B1 *461:25 0.000120186
5 *1859:B1 *562:10 7.89689e-05
6 *1859:B1 *562:23 7.71016e-05
7 *1859:B2 *1859:B1 5.46217e-05
*RES
1 *1857:Y *1859:B1 11.865 
*END

*D_NET *246 0.00427966
*CONN
*I *1870:A2 I *D sky130_fd_sc_hd__o21bai_4
*I *2327:A I *D sky130_fd_sc_hd__buf_2
*I *2328:A I *D sky130_fd_sc_hd__buf_6
*I *1858:Y O *D sky130_fd_sc_hd__a22oi_4
*CAP
1 *1870:A2 0.00098499
2 *2327:A 0
3 *2328:A 0.000108845
4 *1858:Y 0.000360831
5 *246:23 0.00100987
6 *246:10 0.000494553
7 *1870:A2 *2073:A2 9.50342e-06
8 *1870:A2 *255:12 0.000112486
9 *2328:A *2073:A1 7.53115e-05
10 *2328:A *2073:A2 0.000315146
11 *246:10 *251:25 0.000102718
12 *246:23 *2073:A2 5.16418e-05
13 *1816:A1 *2328:A 0.00015997
14 *1827:B *2328:A 2.75229e-05
15 *1858:A2 *246:10 3.00381e-05
16 *204:12 *2328:A 0
17 *204:12 *246:10 0.000391354
18 *205:10 *1870:A2 1.98869e-05
19 *217:10 *2328:A 2.49909e-05
*RES
1 *1858:Y *246:10 10.275 
2 *246:10 *2328:A 7.725 
3 *246:10 *246:23 0.615 
4 *246:23 *2327:A 3.6 
5 *246:23 *1870:A2 15.015 
*END

*D_NET *247 0.00179323
*CONN
*I *1869:A I *D sky130_fd_sc_hd__nand3_2
*I *1859:Y O *D sky130_fd_sc_hd__o22ai_2
*CAP
1 *1869:A 0.000869701
2 *1859:Y 0.000869701
3 *1869:A *1874:C 0
4 *1859:A1 *1869:A 4.82919e-05
5 *1869:B *1869:A 5.53249e-06
*RES
1 *1859:Y *1869:A 20.37 
*END

*D_NET *248 0.00574585
*CONN
*I *1863:B I *D sky130_fd_sc_hd__nor2_4
*I *2323:A I *D sky130_fd_sc_hd__buf_2
*I *1860:Y O *D sky130_fd_sc_hd__o21ai_4
*CAP
1 *1863:B 0.000624188
2 *2323:A 0.000442712
3 *1860:Y 0.000332305
4 *248:8 0.0013992
5 *1863:B *2067:A1 0.000197017
6 *1863:B *2067:B1 2.86792e-05
7 *1863:B *2068:B 0.000415534
8 *2323:A *1798:A1 0
9 *2323:A *456:12 0.000113797
10 *2323:A *493:20 0
11 *2323:A *508:14 6.89569e-05
12 *248:8 *1845:A2 5.16348e-05
13 *248:8 *2065:A0 0.000111351
14 *248:8 *456:12 0.000371826
15 *248:8 *547:18 0.000114492
16 *1808:A *2323:A 0.000185398
17 *1808:B *2323:A 0.000127269
18 *1843:B *248:8 1.01661e-05
19 *1850:A2 *248:8 4.9968e-05
20 *1850:B1 *248:8 0.00013178
21 *1850:B2 *248:8 0
22 *1852:B1 *248:8 3.60111e-05
23 *1861:A1 *248:8 0.000120249
24 *1861:A2 *2323:A 0.000265917
25 *1861:A2 *248:8 0.000249935
26 *2211:A *2323:A 0.000101778
27 *2247:A *2323:A 2.28346e-05
28 *232:19 *248:8 0.000172845
*RES
1 *1860:Y *248:8 14.415 
2 *248:8 *2323:A 14.145 
3 *248:8 *1863:B 11.91 
*END

*D_NET *249 0.000245924
*CONN
*I *1862:C1 I *D sky130_fd_sc_hd__o211ai_2
*I *1861:Y O *D sky130_fd_sc_hd__o21bai_2
*CAP
1 *1862:C1 9.15903e-05
2 *1861:Y 9.15903e-05
3 *1862:C1 *493:16 6.27438e-05
*RES
1 *1861:Y *1862:C1 4.685 
*END

*D_NET *250 0.00161029
*CONN
*I *1863:A I *D sky130_fd_sc_hd__nor2_4
*I *2326:A I *D sky130_fd_sc_hd__buf_2
*I *1862:Y O *D sky130_fd_sc_hd__o211ai_2
*CAP
1 *1863:A 0
2 *2326:A 0.000200597
3 *1862:Y 0.000392633
4 *250:14 0.00059323
5 *2326:A *1807:A1 4.43871e-06
6 *2326:A *1847:B 0
7 *2326:A *2067:A2 3.7451e-05
8 *2326:A *2067:C1 3.18964e-05
9 *2326:A *2068:B 2.97802e-05
10 *2326:A *562:10 0.000123955
11 *250:14 *2067:C1 9.09788e-06
12 *250:14 *2068:B 5.00612e-05
13 *250:14 *2282:A 4.94994e-05
14 *250:14 *535:36 2.65814e-06
15 *250:14 *535:49 1.58462e-05
16 *250:14 *535:60 3.13099e-05
17 *2329:A *2326:A 3.7837e-05
*RES
1 *1862:Y *250:14 8.91 
2 *250:14 *2326:A 7.245 
3 *250:14 *1863:A 3.6 
*END

*D_NET *251 0.00497827
*CONN
*I *1868:C I *D sky130_fd_sc_hd__nand4_4
*I *1867:A I *D sky130_fd_sc_hd__nand2_4
*I *2069:B2 I *D sky130_fd_sc_hd__o22a_2
*I *1863:Y O *D sky130_fd_sc_hd__nor2_4
*CAP
1 *1868:C 0.00014678
2 *1867:A 0
3 *2069:B2 0
4 *1863:Y 0.000413546
5 *251:25 0.00106482
6 *251:12 0.00133159
7 *1868:C *1867:B 0
8 *251:12 *2067:B1 2.16833e-05
9 *251:12 *2069:A1 1.01661e-05
10 *251:12 *2070:B 3.68682e-05
11 *251:25 *255:12 0.000139245
12 *1853:A2 *251:12 4.82863e-05
13 *1853:C1 *251:12 0.000122331
14 *1858:A2 *251:25 4.82919e-05
15 *1858:B2 *251:25 0.000602808
16 *1868:B *1868:C 3.70488e-05
17 *2069:B1 *251:25 6.9114e-05
18 *204:12 *251:25 0.000273114
19 *217:21 *1868:C 0.000187759
20 *217:21 *251:25 0.000139245
21 *241:24 *251:12 0.000122542
22 *241:24 *251:25 6.03171e-05
23 *246:10 *251:25 0.000102718
*RES
1 *1863:Y *251:12 12.17 
2 *251:12 *2069:B2 1.6 
3 *251:12 *251:25 19.28 
4 *251:25 *1867:A 3.6 
5 *251:25 *1868:C 6.9 
*END

*D_NET *252 0.00146144
*CONN
*I *1866:A I *D sky130_fd_sc_hd__nor2_2
*I *2070:A I *D sky130_fd_sc_hd__xnor2_2
*I *1864:Y O *D sky130_fd_sc_hd__o21ai_2
*CAP
1 *1866:A 0
2 *2070:A 0.000315531
3 *1864:Y 0.000191682
4 *252:8 0.000507213
5 *2070:A *2285:A 4.80285e-05
6 *2070:A *461:25 1.91902e-05
7 *2070:A *527:36 0
8 *252:8 *1835:B1 4.7043e-05
9 *252:8 *1854:A_N 5.72091e-05
10 *252:8 *461:25 0
11 *252:8 *527:36 0
12 *1856:B1 *2070:A 0.000275548
*RES
1 *1864:Y *252:8 7.275 
2 *252:8 *2070:A 9.555 
3 *252:8 *1866:A 3.6 
*END

*D_NET *253 0.00229159
*CONN
*I *1866:B I *D sky130_fd_sc_hd__nor2_2
*I *2068:A I *D sky130_fd_sc_hd__xor2_2
*I *1865:Y O *D sky130_fd_sc_hd__o21ai_2
*CAP
1 *1866:B 0.000426334
2 *2068:A 0.000435678
3 *1865:Y 0
4 *253:4 0.000862013
5 *1865:A1 *2068:A 4.82919e-05
6 *224:16 *2068:A 1.33285e-05
7 *227:12 *2068:A 0.000198939
8 *243:12 *1866:B 3.00381e-05
9 *243:12 *2068:A 7.00889e-06
10 *243:21 *1866:B 0.000269957
*RES
1 *1865:Y *253:4 1.6 
2 *253:4 *2068:A 8.605 
3 *253:4 *1866:B 9.31 
*END

*D_NET *254 0.000805557
*CONN
*I *1867:B I *D sky130_fd_sc_hd__nand2_4
*I *1868:D I *D sky130_fd_sc_hd__nand4_4
*I *1866:Y O *D sky130_fd_sc_hd__nor2_2
*CAP
1 *1867:B 0.000200751
2 *1868:D 0
3 *1866:Y 0.000202028
4 *254:6 0.000402779
5 *1867:B *255:12 0
6 *1858:A2 *1867:B 0
7 *1868:C *1867:B 0
8 *217:21 *1867:B 0
9 *222:10 *1867:B 0
*RES
1 *1866:Y *254:6 4.465 
2 *254:6 *1868:D 1.6 
3 *254:6 *1867:B 8.795 
*END

*D_NET *255 0.00184199
*CONN
*I *2071:A I *D sky130_fd_sc_hd__nand2_4
*I *2073:A2 I *D sky130_fd_sc_hd__a31o_4
*I *1867:Y O *D sky130_fd_sc_hd__nand2_4
*CAP
1 *2071:A 0
2 *2073:A2 0.000253368
3 *1867:Y 0.000110185
4 *255:12 0.000363553
5 *2073:A2 *2071:B 0
6 *2073:A2 *2072:B 0
7 *2073:A2 *440:10 8.65961e-05
8 *1816:A1 *2073:A2 9.61052e-05
9 *1830:C *2073:A2 3.1835e-05
10 *1867:B *255:12 0
11 *1870:A2 *2073:A2 9.50342e-06
12 *1870:A2 *255:12 0.000112486
13 *2328:A *2073:A2 0.000315146
14 *177:23 *2073:A2 3.05373e-05
15 *217:10 *2073:A2 0.000116165
16 *217:21 *2073:A2 0.000112971
17 *217:21 *255:12 1.26548e-05
18 *246:23 *2073:A2 5.16418e-05
19 *251:25 *255:12 0.000139245
*RES
1 *1867:Y *255:12 6.39 
2 *255:12 *2073:A2 11.13 
3 *255:12 *2071:A 3.6 
*END

*D_NET *256 0.00100011
*CONN
*I *1874:C I *D sky130_fd_sc_hd__nand3_4
*I *1871:D I *D sky130_fd_sc_hd__nand4_2
*I *1868:Y O *D sky130_fd_sc_hd__nand4_4
*CAP
1 *1874:C 0.000246351
2 *1871:D 3.63983e-05
3 *1868:Y 0.000113915
4 *256:8 0.000396664
5 *1871:D *1871:B 8.65961e-05
6 *1869:A *1874:C 0
7 *1869:B *256:8 0
8 *1869:C *256:8 0.000120186
9 *1871:C *256:8 0
10 *217:21 *256:8 0
*RES
1 *1868:Y *256:8 5.745 
2 *256:8 *1871:D 4.395 
3 *256:8 *1874:C 7.485 
*END

*D_NET *257 0.000537982
*CONN
*I *1871:B I *D sky130_fd_sc_hd__nand4_2
*I *1869:Y O *D sky130_fd_sc_hd__nand3_2
*CAP
1 *1871:B 0.000225693
2 *1869:Y 0.000225693
3 *1871:D *1871:B 8.65961e-05
*RES
1 *1869:Y *1871:B 6.77 
*END

*D_NET *258 0.00683724
*CONN
*I *1966:A2 I *D sky130_fd_sc_hd__o211ai_4
*I *2024:A1 I *D sky130_fd_sc_hd__o211ai_4
*I *1875:A2 I *D sky130_fd_sc_hd__o21bai_4
*I *1870:Y O *D sky130_fd_sc_hd__o21bai_4
*CAP
1 *1966:A2 0.000566071
2 *2024:A1 3.63983e-05
3 *1875:A2 3.17377e-05
4 *1870:Y 0.00135043
5 *258:23 0.000876138
6 *258:12 0.00165583
7 *1966:A2 *1966:A1 0.00039677
8 *1966:A2 *1966:C1 0
9 *1966:A2 *2023:A 0
10 *1966:A2 *262:21 2.97004e-06
11 *1966:A2 *346:8 0
12 *2024:A1 *1966:A1 8.65961e-05
13 *258:12 *1875:A1 1.83847e-05
14 *258:12 *2089:A 0
15 *258:12 *2090:B 0.000105849
16 *258:12 *2263:A 0
17 *258:12 *259:22 0
18 *258:12 *262:8 0
19 *258:12 *262:21 0
20 *258:12 *449:10 0.000134716
21 *258:12 *607:35 0
22 *258:12 *607:41 0
23 *258:23 *261:12 0.000495826
24 *258:23 *262:21 0.000367015
25 *2089:B *258:12 0.000138277
26 *2090:A *258:12 8.14111e-05
27 *2095:B1 *258:12 1.26548e-05
28 *2096:A *258:12 0
29 *2127:C *258:12 0.00018305
30 *2134:A *258:12 0
31 *2135:D *258:12 0.000153841
32 *125:14 *258:12 0.000137571
33 *133:10 *258:12 0
34 *134:14 *258:12 5.70461e-06
35 *205:10 *258:12 0
*RES
1 *1870:Y *258:12 31.355 
2 *258:12 *1875:A2 2.05 
3 *258:12 *258:23 12.05 
4 *258:23 *2024:A1 4.395 
5 *258:23 *1966:A2 11.865 
*END

*D_NET *259 0.00195901
*CONN
*I *2089:A I *D sky130_fd_sc_hd__nand2_2
*I *2091:B1 I *D sky130_fd_sc_hd__a32o_2
*I *2090:B I *D sky130_fd_sc_hd__xor2_2
*I *1871:Y O *D sky130_fd_sc_hd__nand4_2
*CAP
1 *2089:A 0.00016524
2 *2091:B1 1.05161e-05
3 *2090:B 0.000556758
4 *1871:Y 0.000336769
5 *259:22 0.000395745
6 *2089:A *2091:A1 5.07376e-05
7 *2089:A *2123:A1 5.05437e-05
8 *2089:A *607:35 0
9 *2091:B1 *2092:B 9.37159e-06
10 *259:22 *2091:A1 0.000181383
11 *259:22 *607:41 0
12 *1871:A *2090:B 8.65905e-05
13 *1874:A *2090:B 0
14 *2090:A *2090:B 9.50342e-06
15 *258:12 *2089:A 0
16 *258:12 *2090:B 0.000105849
17 *258:12 *259:22 0
*RES
1 *1871:Y *2090:B 11.645 
2 *2090:B *259:22 5.93 
3 *259:22 *2091:B1 3.76875 
4 *259:22 *2089:A 6.54 
*END

*D_NET *260 0.000492417
*CONN
*I *1875:B1_N I *D sky130_fd_sc_hd__o21bai_4
*I *1872:X O *D sky130_fd_sc_hd__o2bb2a_2
*CAP
1 *1875:B1_N 0.000152553
2 *1872:X 0.000152553
3 *1875:B1_N *2109:B 0.000143266
4 *1875:B1_N *261:12 0
5 *1875:B1_N *607:33 4.40446e-05
*RES
1 *1872:X *1875:B1_N 9.975 
*END

*D_NET *261 0.00298096
*CONN
*I *2024:B1 I *D sky130_fd_sc_hd__o211ai_4
*I *1966:C1 I *D sky130_fd_sc_hd__o211ai_4
*I *1873:X O *D sky130_fd_sc_hd__a2bb2o_2
*CAP
1 *2024:B1 1.85597e-05
2 *1966:C1 0.000220998
3 *1873:X 0.000676861
4 *261:12 0.000916419
5 *1966:C1 *1966:A1 0.000199532
6 *2024:B1 *1966:A1 4.82919e-05
7 *261:12 *2024:C1 0.000116165
8 *261:12 *2109:B 0
9 *261:12 *262:8 0
10 *261:12 *262:21 0
11 *1872:A2_N *261:12 7.06865e-05
12 *1872:B2 *261:12 0.000157595
13 *1873:B1 *261:12 1.17309e-05
14 *1875:B1_N *261:12 0
15 *1966:A2 *1966:C1 0
16 *113:34 *261:12 0
17 *129:10 *261:12 4.82919e-05
18 *258:23 *261:12 0.000495826
*RES
1 *1873:X *261:12 20.015 
2 *261:12 *1966:C1 5.53 
3 *261:12 *2024:B1 2.05 
*END

*D_NET *262 0.00541188
*CONN
*I *1966:A1 I *D sky130_fd_sc_hd__o211ai_4
*I *2024:A2 I *D sky130_fd_sc_hd__o211ai_4
*I *1875:A1 I *D sky130_fd_sc_hd__o21bai_4
*I *1874:Y O *D sky130_fd_sc_hd__nand3_4
*CAP
1 *1966:A1 0.000236921
2 *2024:A2 0
3 *1875:A1 3.72196e-05
4 *1874:Y 0.000747155
5 *262:21 0.000692358
6 *262:8 0.00123981
7 *1966:A1 *400:10 8.8266e-05
8 *262:21 *2023:A 0.000164686
9 *1872:B1 *262:8 0.000179015
10 *1872:B2 *262:8 0
11 *1874:B *262:8 0
12 *1966:A2 *1966:A1 0.00039677
13 *1966:A2 *262:21 2.97004e-06
14 *1966:C1 *1966:A1 0.000199532
15 *2024:A1 *1966:A1 8.65961e-05
16 *2024:B1 *1966:A1 4.82919e-05
17 *2090:A *262:8 0.000112291
18 *2134:A *262:8 0.000115464
19 *2135:A *262:8 0
20 *2135:C *262:8 0.000541205
21 *133:29 *262:8 0.000132842
22 *134:14 *262:8 5.08304e-06
23 *258:12 *1875:A1 1.83847e-05
24 *258:12 *262:8 0
25 *258:12 *262:21 0
26 *258:23 *262:21 0.000367015
27 *261:12 *262:8 0
28 *261:12 *262:21 0
*RES
1 *1874:Y *262:8 19.005 
2 *262:8 *1875:A1 4.05 
3 *262:8 *262:21 12.815 
4 *262:21 *2024:A2 1.6 
5 *262:21 *1966:A1 8.965 
*END

*D_NET *263 0.00610958
*CONN
*I *1920:B1 I *D sky130_fd_sc_hd__o22ai_4
*I *2325:A I *D sky130_fd_sc_hd__buf_2
*I *2324:A I *D sky130_fd_sc_hd__buf_2
*I *2322:A I *D sky130_fd_sc_hd__buf_4
*I *1883:A2 I *D sky130_fd_sc_hd__a21bo_2
*I *1875:Y O *D sky130_fd_sc_hd__o21bai_4
*CAP
1 *1920:B1 0
2 *2325:A 0.000264633
3 *2324:A 0
4 *2322:A 3.55506e-05
5 *1883:A2 0
6 *1875:Y 0.00123993
7 *263:45 0.000640979
8 *263:32 0.000441811
9 *263:21 0.000546995
10 *263:12 0.00168591
11 *2322:A *269:22 0
12 *2325:A *1920:B2 0.000207184
13 *2325:A *2294:A 1.85674e-05
14 *2325:A *2305:A 4.82919e-05
15 *263:12 *2108:A 0.000107704
16 *263:21 *269:22 0.000140921
17 *263:21 *278:6 3.0807e-05
18 *263:32 *1885:B 0.00013994
19 *263:32 *1887:A 1.26626e-05
20 *263:32 *1895:A2 5.39718e-05
21 *263:32 *1919:A1 0
22 *263:45 *1887:A 0.00012476
23 *263:45 *1919:A1 0
24 *263:45 *1919:A2 0
25 *263:45 *2305:A 0
26 *263:45 *299:8 0
27 *1892:A *263:21 8.65905e-05
28 *1892:C_N *263:21 2.30292e-05
29 *1915:D *263:21 2.72642e-05
30 *106:37 *263:12 0.000143266
31 *106:50 *263:12 9.50342e-06
32 *108:27 *2322:A 0
33 *108:27 *263:21 7.93102e-05
*RES
1 *1875:Y *263:12 23.9 
2 *263:12 *1883:A2 1.6 
3 *263:12 *263:21 7.275 
4 *263:21 *2322:A 2.215 
5 *263:21 *263:32 3.89 
6 *263:32 *2324:A 3.6 
7 *263:32 *263:45 8.42 
8 *263:45 *2325:A 6.22 
9 *263:45 *1920:B1 1.6 
*END

*D_NET *264 8.83926e-05
*CONN
*I *1879:A I *D sky130_fd_sc_hd__nand3_2
*I *1877:X O *D sky130_fd_sc_hd__or2_4
*CAP
1 *1879:A 1.03797e-05
2 *1877:X 1.03797e-05
3 *1879:A *459:14 1.87038e-05
4 *1879:A *597:6 4.89295e-05
*RES
1 *1877:X *1879:A 3.65 
*END

*D_NET *265 0.000398344
*CONN
*I *1879:B I *D sky130_fd_sc_hd__nand3_2
*I *1878:Y O *D sky130_fd_sc_hd__nand2_2
*CAP
1 *1879:B 0.000117616
2 *1878:Y 0.000117616
3 *1879:B *1842:A 4.7003e-05
4 *1879:B *1878:A 6.98693e-05
5 *1879:B *1879:C 3.56417e-05
6 *1879:B *575:10 1.05984e-05
*RES
1 *1878:Y *1879:B 5.75 
*END

*D_NET *266 0.0028959
*CONN
*I *1917:A I *D sky130_fd_sc_hd__nand3_2
*I *1894:A2 I *D sky130_fd_sc_hd__a21bo_2
*I *1882:A I *D sky130_fd_sc_hd__nand2_2
*I *1879:Y O *D sky130_fd_sc_hd__nand3_2
*CAP
1 *1917:A 0.000210339
2 *1894:A2 2.95241e-05
3 *1882:A 0
4 *1879:Y 0.000175166
5 *266:29 0.00044137
6 *266:14 0.000376673
7 *1894:A2 *462:16 1.91597e-05
8 *1894:A2 *545:21 3.1835e-05
9 *1917:A *1888:B 0.000303873
10 *1917:A *1895:A2 3.39095e-05
11 *1917:A *1917:B 3.51748e-05
12 *1917:A *1917:C 6.14054e-05
13 *1917:A *1919:A1 4.9968e-05
14 *266:14 *1880:B1 5.39961e-05
15 *266:14 *1882:B 5.12969e-06
16 *266:14 *1887:B 8.50369e-06
17 *266:14 *2098:A 4.36369e-05
18 *266:14 *268:6 4.60123e-05
19 *266:14 *268:19 3.73067e-05
20 *266:14 *460:52 0.00011632
21 *266:29 *1887:B 3.91776e-05
22 *266:29 *1894:B1_N 0.000191736
23 *266:29 *1895:A2 3.57846e-05
24 *266:29 *268:19 9.19236e-05
25 *266:29 *586:16 0.000154298
26 *1894:A1 *1917:A 0.000117825
27 *105:24 *1894:A2 4.66108e-05
28 *105:24 *266:29 0.000139245
*RES
1 *1879:Y *266:14 9.335 
2 *266:14 *1882:A 1.6 
3 *266:14 *266:29 7.88 
4 *266:29 *1894:A2 4.395 
5 *266:29 *1917:A 8.97 
*END

*D_NET *267 0.00166424
*CONN
*I *1881:B1 I *D sky130_fd_sc_hd__o21ai_2
*I *1880:Y O *D sky130_fd_sc_hd__a21oi_2
*CAP
1 *1881:B1 0.000373529
2 *1880:Y 0.000373529
3 *1881:B1 *1880:B1 4.89295e-05
4 *1881:B1 *2101:A 7.67378e-05
5 *1881:B1 *458:16 6.17693e-05
6 *1881:B1 *458:22 7.02068e-05
7 *1881:B1 *459:39 0.000161778
8 *1881:B1 *459:55 0.000122337
9 *1881:B1 *544:12 7.89689e-05
10 *1881:B1 *547:8 0.000157602
11 *1881:B1 *547:12 0.000117174
12 *231:29 *1881:B1 2.16833e-05
*RES
1 *1880:Y *1881:B1 16.215 
*END

*D_NET *268 0.00252218
*CONN
*I *1894:B1_N I *D sky130_fd_sc_hd__a21bo_2
*I *1893:A I *D sky130_fd_sc_hd__nand3_2
*I *1882:B I *D sky130_fd_sc_hd__nand2_2
*I *1881:Y O *D sky130_fd_sc_hd__o21ai_2
*CAP
1 *1894:B1_N 0.000166608
2 *1893:A 1.71666e-05
3 *1882:B 1.92299e-05
4 *1881:Y 0.000118954
5 *268:19 0.00030764
6 *268:6 0.00026205
7 *1893:A *1895:A1 2.56752e-06
8 *1894:B1_N *1917:C 0.000134373
9 *1894:B1_N *462:16 3.21357e-05
10 *1894:B1_N *545:21 2.01474e-05
11 *268:6 *1881:A1 0.000173998
12 *268:6 *459:8 0.000198344
13 *268:6 *586:16 0.000574059
14 *268:19 *586:16 0.000122797
15 *266:14 *1882:B 5.12969e-06
16 *266:14 *268:6 4.60123e-05
17 *266:14 *268:19 3.73067e-05
18 *266:29 *1894:B1_N 0.000191736
19 *266:29 *268:19 9.19236e-05
*RES
1 *1881:Y *268:6 6.88 
2 *268:6 *1882:B 1.96 
3 *268:6 *268:19 4.9025 
4 *268:19 *1893:A 4.0875 
5 *268:19 *1894:B1_N 7.245 
*END

*D_NET *269 0.00439125
*CONN
*I *1892:B I *D sky130_fd_sc_hd__or3b_4
*I *1915:A_N I *D sky130_fd_sc_hd__nand4b_4
*I *1884:A I *D sky130_fd_sc_hd__xor2_2
*I *1882:Y O *D sky130_fd_sc_hd__nand2_2
*CAP
1 *1892:B 0
2 *1915:A_N 0.000172976
3 *1884:A 0.000255198
4 *1882:Y 0.000880833
5 *269:22 0.00056973
6 *269:12 0.00102239
7 *1884:A *2268:A 5.05521e-05
8 *1915:A_N *1884:B 0
9 *1915:A_N *1887:A 9.766e-05
10 *1915:A_N *1915:B 0.000158965
11 *269:12 *1887:A 3.67009e-05
12 *269:12 *1888:B 2.75145e-05
13 *269:12 *2104:A 0
14 *269:12 *462:16 0.000138961
15 *269:12 *586:16 0.000270888
16 *269:12 *586:27 0
17 *269:22 *1884:B 0
18 *269:22 *1887:A 9.16315e-05
19 *1892:A *269:12 0.000116158
20 *1892:A *269:22 4.82863e-05
21 *1892:C_N *269:22 8.65905e-05
22 *2322:A *269:22 0
23 *106:37 *269:12 0
24 *108:12 *269:12 0.000114483
25 *108:27 *269:22 0.000110808
26 *263:21 *269:22 0.000140921
*RES
1 *1882:Y *269:12 19.415 
2 *269:12 *269:22 6.185 
3 *269:22 *1884:A 7.5 
4 *269:22 *1915:A_N 7.23 
5 *269:12 *1892:B 1.6 
*END

*D_NET *270 0.000236979
*CONN
*I *1884:B I *D sky130_fd_sc_hd__xor2_2
*I *1883:X O *D sky130_fd_sc_hd__a21bo_2
*CAP
1 *1884:B 7.93917e-05
2 *1883:X 7.93917e-05
3 *1915:A_N *1884:B 0
4 *1915:D *1884:B 7.81954e-05
5 *269:22 *1884:B 0
*RES
1 *1883:X *1884:B 7.235 
*END

*D_NET *271 0.00347592
*CONN
*I *1889:A1 I *D sky130_fd_sc_hd__o21ba_2
*I *1890:A1 I *D sky130_fd_sc_hd__o21bai_2
*I *1888:A_N I *D sky130_fd_sc_hd__nand3b_4
*I *1885:Y O *D sky130_fd_sc_hd__nor2_4
*CAP
1 *1889:A1 0
2 *1890:A1 0
3 *1888:A_N 0.000322957
4 *1885:Y 0.000547213
5 *271:18 0.000385653
6 *271:14 0.000609909
7 *1888:A_N *1886:A 0.000234674
8 *1888:A_N *1888:B 3.99879e-05
9 *1888:A_N *1889:A2 5.53249e-06
10 *1888:A_N *272:10 6.55328e-05
11 *1888:A_N *570:18 4.70343e-05
12 *271:14 *1885:A 0.000280604
13 *271:14 *1906:A 0.000203178
14 *271:14 *2268:A 0.000104181
15 *271:14 *2270:A 2.11084e-05
16 *271:14 *275:22 4.80182e-05
17 *271:14 *277:10 0.000386215
18 *271:18 *1889:A2 9.9535e-05
19 *271:18 *570:18 7.45881e-05
*RES
1 *1885:Y *271:14 12.985 
2 *271:14 *271:18 4.145 
3 *271:18 *1888:A_N 8.805 
4 *271:18 *1890:A1 3.6 
5 *271:14 *1889:A1 1.6 
*END

*D_NET *272 0.00103151
*CONN
*I *1889:A2 I *D sky130_fd_sc_hd__o21ba_2
*I *1890:A2 I *D sky130_fd_sc_hd__o21bai_2
*I *1886:X O *D sky130_fd_sc_hd__and2_2
*CAP
1 *1889:A2 6.7825e-05
2 *1890:A2 0
3 *1886:X 0.000176415
4 *272:10 0.00024424
5 *1889:A2 *1889:B1_N 9.9535e-05
6 *1889:A2 *570:18 4.18603e-06
7 *272:10 *1886:A 0.000200615
8 *272:10 *1889:B1_N 4.43871e-06
9 *272:10 *455:19 6.36578e-05
10 S[17] *1889:A2 0
11 *1888:A_N *1889:A2 5.53249e-06
12 *1888:A_N *272:10 6.55328e-05
13 *271:18 *1889:A2 9.9535e-05
*RES
1 *1886:X *272:10 6.81 
2 *272:10 *1890:A2 3.6 
3 *272:10 *1889:A2 6 
*END

*D_NET *273 0.0035686
*CONN
*I *1888:B I *D sky130_fd_sc_hd__nand3b_4
*I *1887:Y O *D sky130_fd_sc_hd__nand2_2
*CAP
1 *1888:B 0.000878504
2 *1887:Y 0.000878504
3 *1888:B *1885:B 8.5242e-05
4 *1888:B *1886:A 5.0751e-05
5 *1888:B *1887:A 4.99619e-05
6 *1888:B *1887:B 0.000402743
7 *1888:B *1895:A2 6.63335e-05
8 *1888:B *1896:A 0.000158434
9 *1888:B *1917:B 5.54914e-05
10 *1888:B *1919:A1 0.000232403
11 *1888:B *2269:A 1.83756e-05
12 *1888:B *586:16 0.000125865
13 *1888:A_N *1888:B 3.99879e-05
14 *1917:A *1888:B 0.000303873
15 *2104:B *1888:B 0.000183738
16 *106:26 *1888:B 1.08758e-05
17 *269:12 *1888:B 2.75145e-05
*RES
1 *1887:Y *1888:B 25.815 
*END

*D_NET *274 0.0048701
*CONN
*I *1904:B1 I *D sky130_fd_sc_hd__o21a_2
*I *1916:C1 I *D sky130_fd_sc_hd__o211a_2
*I *1917:B I *D sky130_fd_sc_hd__nand3_2
*I *1914:D I *D sky130_fd_sc_hd__and4_2
*I *1891:A I *D sky130_fd_sc_hd__nand2_2
*I *1888:Y O *D sky130_fd_sc_hd__nand3b_4
*CAP
1 *1904:B1 0.00023979
2 *1916:C1 0.000158097
3 *1917:B 0.000534771
4 *1914:D 0
5 *1891:A 0
6 *1888:Y 0.000166645
7 *274:28 0.000692869
8 *274:26 0.000498645
9 *274:19 0.000297629
10 *274:8 0.000205418
11 *1904:B1 *1915:B 8.85683e-05
12 *1904:B1 *2268:A 0.000157378
13 *1916:C1 *1885:A 5.16418e-05
14 *1916:C1 *1906:A 0
15 *1916:C1 *285:37 4.66108e-05
16 *1916:C1 *463:20 0.00019189
17 *1917:B *1885:A 0.000139933
18 *1917:B *1896:A 0.000162827
19 *1917:B *1906:A 0
20 *1917:B *1906:B 0
21 *1917:B *2330:A 9.37731e-05
22 *1917:B *277:10 8.68724e-05
23 *1917:B *280:21 0
24 *274:8 *1886:A 0.000337524
25 *274:8 *1906:A 0
26 *274:8 *2103:B 0
27 *274:8 *2269:A 5.63318e-05
28 *274:8 *277:10 0
29 *274:8 *570:18 0
30 *274:19 *1886:A 0.000110683
31 *274:19 *1906:A 0
32 *274:19 *2270:A 7.23533e-05
33 *274:26 *2268:A 0.000386221
34 S[18] *274:8 2.96556e-06
35 *1888:B *1917:B 5.54914e-05
36 *1917:A *1917:B 3.51748e-05
*RES
1 *1888:Y *274:8 8.04 
2 *274:8 *1891:A 3.6 
3 *274:8 *274:19 3.38 
4 *274:19 *1914:D 1.6 
5 *274:19 *274:26 3.555 
6 *274:26 *274:28 2 
7 *274:28 *1917:B 12.72 
8 *274:28 *1916:C1 6.96 
9 *274:26 *1904:B1 5.185 
*END

*D_NET *275 0.00340046
*CONN
*I *1918:A I *D sky130_fd_sc_hd__nor2_2
*I *1916:A1 I *D sky130_fd_sc_hd__o211a_2
*I *1904:A1 I *D sky130_fd_sc_hd__o21a_2
*I *1889:X O *D sky130_fd_sc_hd__o21ba_2
*CAP
1 *1918:A 8.52426e-05
2 *1916:A1 3.20439e-05
3 *1904:A1 3.71119e-05
4 *1889:X 0.000480605
5 *275:35 0.000296163
6 *275:22 0.000696593
7 *1904:A1 *280:21 1.42155e-05
8 *1916:A1 *1916:A2 7.14211e-05
9 *1918:A *1919:A2 0
10 *1918:A *1920:A2 7.53115e-05
11 *1918:A *286:12 9.50342e-06
12 *275:22 *1886:A 1.32017e-05
13 *275:22 *1887:A 0.000220644
14 *275:22 *1889:B1_N 1.83756e-05
15 *275:22 *1899:A 0.000438494
16 *275:22 *1914:B 3.86607e-05
17 *275:22 *1914:C 5.21433e-05
18 *275:22 *1915:B 0.000497867
19 *275:22 *2268:A 9.555e-05
20 *275:22 *570:18 4.40899e-05
21 *275:35 *1916:A2 0.000126679
22 *275:35 *280:21 8.53113e-06
23 *271:14 *275:22 4.80182e-05
*RES
1 *1889:X *275:22 19.33 
2 *275:22 *1904:A1 4.215 
3 *275:22 *275:35 2.685 
4 *275:35 *1916:A1 4.2675 
5 *275:35 *1918:A 5.49 
*END

*D_NET *276 0.00105104
*CONN
*I *1914:B I *D sky130_fd_sc_hd__and4_2
*I *1891:B I *D sky130_fd_sc_hd__nand2_2
*I *1890:Y O *D sky130_fd_sc_hd__o21bai_2
*CAP
1 *1914:B 4.13968e-05
2 *1891:B 0
3 *1890:Y 0.000279834
4 *276:10 0.000321231
5 *1914:B *1886:A 0.000120186
6 *1914:B *570:18 0
7 *276:10 *1886:A 0.00015997
8 *276:10 *570:18 8.97642e-05
9 *275:22 *1914:B 3.86607e-05
*RES
1 *1890:Y *276:10 8.355 
2 *276:10 *1891:B 3.6 
3 *276:10 *1914:B 4.98 
*END

*D_NET *277 0.00174279
*CONN
*I *1896:A I *D sky130_fd_sc_hd__xor2_2
*I *1905:A1 I *D sky130_fd_sc_hd__o31ai_4
*I *1891:Y O *D sky130_fd_sc_hd__nand2_2
*CAP
1 *1896:A 0.000171048
2 *1905:A1 0
3 *1891:Y 0.000277042
4 *277:10 0.00044809
5 *1896:A *1896:B 3.09233e-05
6 *1896:A *2103:B 0
7 *1896:A *2269:A 0
8 *1896:A *2330:A 2.13396e-05
9 *1888:B *1896:A 0.000158434
10 *1917:B *1896:A 0.000162827
11 *1917:B *277:10 8.68724e-05
12 *271:14 *277:10 0.000386215
13 *274:8 *277:10 0
*RES
1 *1891:Y *277:10 9.045 
2 *277:10 *1905:A1 3.6 
3 *277:10 *1896:A 7.68 
*END

*D_NET *278 0.00268412
*CONN
*I *1895:A1 I *D sky130_fd_sc_hd__o21a_2
*I *1905:A3 I *D sky130_fd_sc_hd__o31ai_4
*I *1892:X O *D sky130_fd_sc_hd__or3b_4
*CAP
1 *1895:A1 0.000328167
2 *1905:A3 0.000125811
3 *1892:X 0.000461677
4 *278:6 0.000915654
5 *1895:A1 *1895:B1 0.000201848
6 *1895:A1 *280:21 0.00026425
7 *1895:A1 *460:52 6.70324e-06
8 *1905:A3 *1905:A2 2.47065e-05
9 *1905:A3 *1906:B 4.66742e-05
10 *278:6 *1905:A2 8.7881e-05
11 *278:6 *1906:B 4.78613e-05
12 *1892:C_N *278:6 5.30673e-05
13 *1893:A *1895:A1 2.56752e-06
14 *105:9 *1895:A1 8.64421e-05
15 *263:21 *278:6 3.0807e-05
*RES
1 *1892:X *278:6 7.225 
2 *278:6 *1905:A3 3.355 
3 *278:6 *1895:A1 12.41 
*END

*D_NET *279 0.000660698
*CONN
*I *1917:C I *D sky130_fd_sc_hd__nand3_2
*I *1893:Y O *D sky130_fd_sc_hd__nand3_2
*CAP
1 *1917:C 0.000197392
2 *1893:Y 0.000197392
3 *1917:C *1919:A1 7.01359e-05
4 *1894:B1_N *1917:C 0.000134373
5 *1917:A *1917:C 6.14054e-05
*RES
1 *1893:Y *1917:C 11.13 
*END

*D_NET *280 0.00324071
*CONN
*I *1916:A2 I *D sky130_fd_sc_hd__o211a_2
*I *1904:A2 I *D sky130_fd_sc_hd__o21a_2
*I *1895:B1 I *D sky130_fd_sc_hd__o21a_2
*I *1894:X O *D sky130_fd_sc_hd__a21bo_2
*CAP
1 *1916:A2 0.000149325
2 *1904:A2 1.77542e-05
3 *1895:B1 0.000115626
4 *1894:X 3.90938e-05
5 *280:21 0.000685512
6 *280:8 0.000673153
7 *1895:B1 *460:52 9.4147e-05
8 *1904:A2 *1887:A 8.35068e-05
9 *1904:A2 *1915:B 8.6076e-05
10 *1916:A2 *1916:B1 3.13354e-05
11 *1916:A2 *1919:A1 0
12 *1916:A2 *1919:B1_N 0.000167672
13 *1916:A2 *1920:A2 5.83121e-06
14 *280:8 *462:16 3.21652e-05
15 *280:8 *545:21 0.000121023
16 *280:21 *1905:B1 0
17 *280:21 *1906:B 0.000202095
18 *280:21 *1919:A1 0
19 *1895:A1 *1895:B1 0.000201848
20 *1895:A1 *280:21 0.00026425
21 *1904:A1 *280:21 1.42155e-05
22 *1916:A1 *1916:A2 7.14211e-05
23 *1917:B *280:21 0
24 *105:9 *1895:B1 4.94457e-05
25 *275:35 *1916:A2 0.000126679
26 *275:35 *280:21 8.53113e-06
*RES
1 *1894:X *280:8 4.74 
2 *280:8 *1895:B1 6.45 
3 *280:8 *280:21 8.265 
4 *280:21 *1904:A2 4.395 
5 *280:21 *1916:A2 7.08 
*END

*D_NET *281 0.0011654
*CONN
*I *1896:B I *D sky130_fd_sc_hd__xor2_2
*I *1895:X O *D sky130_fd_sc_hd__o21a_2
*CAP
1 *1896:B 0.000366707
2 *1895:X 0.000366707
3 *1896:B *2103:B 0
4 *1896:B *2330:A 0.000309729
5 *1896:A *1896:B 3.09233e-05
6 *105:9 *1896:B 9.13295e-05
*RES
1 *1895:X *1896:B 11.795 
*END

*D_NET *282 0.000889002
*CONN
*I *1901:A1 I *D sky130_fd_sc_hd__o21ba_2
*I *1902:A1 I *D sky130_fd_sc_hd__o21bai_2
*I *1900:A_N I *D sky130_fd_sc_hd__nand3b_2
*I *1897:Y O *D sky130_fd_sc_hd__nor2_2
*CAP
1 *1901:A1 0
2 *1902:A1 0
3 *1900:A_N 0.00015472
4 *1897:Y 3.37585e-05
5 *282:10 0.000222493
6 *282:6 0.000101532
7 *1900:A_N *1899:B 5.36526e-05
8 *1900:A_N *1901:A2 5.53249e-06
9 *1900:A_N *2270:A 8.8266e-05
10 *1900:A_N *570:18 2.53191e-06
11 *282:10 *1897:B 5.72091e-05
12 *282:10 *1899:B 1.82476e-05
13 *282:10 *1901:A2 0.000100536
14 *2192:A *1900:A_N 5.05227e-05
*RES
1 *1897:Y *282:6 2.05 
2 *282:6 *282:10 4.145 
3 *282:10 *1900:A_N 6.84 
4 *282:10 *1902:A1 3.6 
5 *282:6 *1901:A1 1.6 
*END

*D_NET *283 0.000800956
*CONN
*I *1902:A2 I *D sky130_fd_sc_hd__o21bai_2
*I *1901:A2 I *D sky130_fd_sc_hd__o21ba_2
*I *1898:X O *D sky130_fd_sc_hd__and2_2
*CAP
1 *1902:A2 0
2 *1901:A2 7.37467e-05
3 *1898:X 5.67462e-05
4 *283:8 0.000130493
5 *1901:A2 *1897:B 0
6 *283:8 *1886:A 6.54766e-05
7 *283:8 *1898:B 0
8 *283:8 *546:6 0.000160635
9 *1900:A_N *1901:A2 5.53249e-06
10 *2192:A *1901:A2 0.00020779
11 *282:10 *1901:A2 0.000100536
*RES
1 *1898:X *283:8 3.445 
2 *283:8 *1901:A2 8 
3 *283:8 *1902:A2 1.6 
*END

*D_NET *284 0.000438878
*CONN
*I *1900:B I *D sky130_fd_sc_hd__nand3b_2
*I *1899:Y O *D sky130_fd_sc_hd__nand2_2
*CAP
1 *1900:B 8.02891e-05
2 *1899:Y 8.02891e-05
3 *1900:B *1900:C 9.50342e-06
4 *1900:B *1914:A 0.000159964
5 *1900:B *1914:C 9.29751e-06
6 *1900:B *570:18 9.9535e-05
*RES
1 *1899:Y *1900:B 9.345 
*END

*D_NET *285 0.00185063
*CONN
*I *1916:B1 I *D sky130_fd_sc_hd__o211a_2
*I *1919:B1_N I *D sky130_fd_sc_hd__a21boi_2
*I *1903:A I *D sky130_fd_sc_hd__nand2_2
*I *1914:C I *D sky130_fd_sc_hd__and4_2
*I *1900:Y O *D sky130_fd_sc_hd__nand3b_2
*CAP
1 *1916:B1 3.20211e-06
2 *1919:B1_N 0.00015684
3 *1903:A 0
4 *1914:C 6.82669e-05
5 *1900:Y 0.000181246
6 *285:37 0.000412581
7 *285:26 0.000365517
8 *1914:C *1886:A 0.000159964
9 *1914:C *1914:A 6.47516e-05
10 *1914:C *2268:A 4.82863e-05
11 *1914:C *570:18 0
12 *1919:B1_N *1920:A2 1.41165e-05
13 *285:26 *1903:B 4.82919e-05
14 *285:26 *2270:A 2.05056e-05
15 *1900:B *1914:C 9.29751e-06
16 *1916:A2 *1916:B1 3.13354e-05
17 *1916:A2 *1919:B1_N 0.000167672
18 *1916:C1 *285:37 4.66108e-05
19 *275:22 *1914:C 5.21433e-05
*RES
1 *1900:Y *1914:C 9.54 
2 *1900:Y *285:26 3.445 
3 *285:26 *1903:A 1.6 
4 *285:26 *285:37 4.02 
5 *285:37 *1919:B1_N 4.495 
6 *285:37 *1916:B1 1.96 
*END

*D_NET *286 0.00284677
*CONN
*I *1920:A1 I *D sky130_fd_sc_hd__o22ai_4
*I *1918:B I *D sky130_fd_sc_hd__nor2_2
*I *1901:X O *D sky130_fd_sc_hd__o21ba_2
*CAP
1 *1920:A1 0.000112115
2 *1918:B 0
3 *1901:X 0.000806403
4 *286:12 0.000918518
5 *1920:A1 *1920:A2 0.000160314
6 *286:12 *1920:A2 9.50342e-06
7 *286:12 *1947:A 2.61042e-05
8 *286:12 *2274:A 0.000804313
9 *286:12 *304:10 0
10 *1918:A *286:12 9.50342e-06
*RES
1 *1901:X *286:12 16.895 
2 *286:12 *1918:B 1.6 
3 *286:12 *1920:A1 3.79 
*END

*D_NET *287 0.00111533
*CONN
*I *1903:B I *D sky130_fd_sc_hd__nand2_2
*I *1914:A I *D sky130_fd_sc_hd__and4_2
*I *1902:Y O *D sky130_fd_sc_hd__o21bai_2
*CAP
1 *1903:B 5.79991e-05
2 *1914:A 5.56912e-05
3 *1902:Y 8.54097e-05
4 *287:10 0.0001991
5 *1903:B *2270:A 0.000160641
6 *1914:A *1886:A 1.52945e-05
7 *287:10 *1886:A 0.000121596
8 *287:10 *1900:C 6.66974e-05
9 *287:10 *1902:B1_N 4.82863e-05
10 *287:10 *546:6 1.34594e-05
11 *1900:B *1914:A 0.000159964
12 *1914:C *1914:A 6.47516e-05
13 *2227:A *287:10 1.81522e-05
14 *285:26 *1903:B 4.82919e-05
*RES
1 *1902:Y *287:10 6.03 
2 *287:10 *1914:A 5.49 
3 *287:10 *1903:B 5.085 
*END

*D_NET *288 0.00090656
*CONN
*I *1906:A I *D sky130_fd_sc_hd__xnor2_2
*I *1903:Y O *D sky130_fd_sc_hd__nand2_2
*CAP
1 *1906:A 0.000298883
2 *1903:Y 0.000298883
3 *1906:A *2270:A 0.000105615
4 *1916:C1 *1906:A 0
5 *1917:B *1906:A 0
6 *271:14 *1906:A 0.000203178
7 *274:8 *1906:A 0
8 *274:19 *1906:A 0
*RES
1 *1903:Y *1906:A 12.96 
*END

*D_NET *289 0.000969406
*CONN
*I *1905:B1 I *D sky130_fd_sc_hd__o31ai_4
*I *1904:X O *D sky130_fd_sc_hd__o21a_2
*CAP
1 *1905:B1 0.000302942
2 *1904:X 0.000302942
3 *1905:B1 *1915:B 6.04318e-05
4 *1905:B1 *1919:A1 0.000303091
5 *280:21 *1905:B1 0
*RES
1 *1904:X *1905:B1 12.36 
*END

*D_NET *290 0.00108436
*CONN
*I *1906:B I *D sky130_fd_sc_hd__xnor2_2
*I *1905:Y O *D sky130_fd_sc_hd__o31ai_4
*CAP
1 *1906:B 0.000199019
2 *1905:Y 0.000199019
3 *1906:B *1885:A 0.00016031
4 *1906:B *1905:A2 0.000158536
5 *1906:B *2268:A 7.08493e-05
6 *1905:A3 *1906:B 4.66742e-05
7 *1917:B *1906:B 0
8 *278:6 *1906:B 4.78613e-05
9 *280:21 *1906:B 0.000202095
*RES
1 *1905:Y *1906:B 12.57 
*END

*D_NET *291 0.000383775
*CONN
*I *1910:A_N I *D sky130_fd_sc_hd__nand3b_4
*I *1911:A1 I *D sky130_fd_sc_hd__o21bai_4
*I *1907:Y O *D sky130_fd_sc_hd__nor2_2
*CAP
1 *1910:A_N 8.09751e-05
2 *1911:A1 0.000100601
3 *1907:Y 1.96262e-05
4 *1910:A_N *1907:B 0
5 *1910:A_N *1911:A2 0.000116158
6 *1910:A_N *295:8 2.68721e-05
7 *1910:A_N *548:14 9.50342e-06
8 *1911:A1 *463:63 3.00381e-05
*RES
1 *1907:Y *1911:A1 3.65 
2 *1911:A1 *1910:A_N 9.09 
*END

*D_NET *292 0.000611933
*CONN
*I *1911:A2 I *D sky130_fd_sc_hd__o21bai_4
*I *1908:X O *D sky130_fd_sc_hd__and2_2
*CAP
1 *1911:A2 0.0001529
2 *1908:X 0.0001529
3 *1911:A2 *295:8 0.000117832
4 *1911:A2 *304:42 1.90762e-05
5 *1911:A2 *548:14 5.30673e-05
6 *1910:A_N *1911:A2 0.000116158
*RES
1 *1908:X *1911:A2 10.065 
*END

*D_NET *293 0.000564522
*CONN
*I *1910:B I *D sky130_fd_sc_hd__nand3b_4
*I *1909:Y O *D sky130_fd_sc_hd__nand2_2
*CAP
1 *1910:B 0.000145792
2 *1909:Y 0.000145792
3 *1910:B *1911:B1_N 9.50342e-06
4 *1910:B *487:10 0.00013777
5 *1910:B *570:18 0
6 S[20] *1910:B 6.97034e-05
7 *2229:A *1910:B 5.59619e-05
*RES
1 *1909:Y *1910:B 9.975 
*END

*D_NET *294 0.00555656
*CONN
*I *1937:B1 I *D sky130_fd_sc_hd__o21ai_2
*I *2306:A I *D sky130_fd_sc_hd__buf_2
*I *1936:B1 I *D sky130_fd_sc_hd__o21a_2
*I *1934:B1 I *D sky130_fd_sc_hd__o2111a_4
*I *1910:Y O *D sky130_fd_sc_hd__nand3b_4
*CAP
1 *1937:B1 0.000104074
2 *2306:A 0.00022168
3 *1936:B1 0
4 *1934:B1 0
5 *1910:Y 0.000340615
6 *294:34 0.000420075
7 *294:23 0.000266299
8 *294:12 0.000512594
9 *1937:B1 *1937:A1 0.000114326
10 *1937:B1 *307:25 4.03557e-05
11 *1937:B1 *311:12 0.000154488
12 *1937:B1 *311:18 2.92496e-05
13 *1937:B1 *466:22 2.10152e-05
14 *1937:B1 *490:16 0.000121783
15 *2306:A *1912:A 0
16 *2306:A *1929:A2 0.000233372
17 *2306:A *1930:A2 8.35068e-05
18 *2306:A *1930:B1 8.52883e-05
19 *2306:A *1931:A1 7.35729e-05
20 *2306:A *307:23 0.000247826
21 *2306:A *549:20 0.000202952
22 *294:12 *1948:A 4.65643e-05
23 *294:12 *304:42 0.000390466
24 *294:12 *311:30 5.39961e-05
25 *294:12 *548:14 0
26 *294:23 *1934:A2 0.000420151
27 *294:23 *1934:D1 0.000110665
28 *294:23 *311:20 0.000455886
29 *294:23 *311:30 0.000110989
30 *294:34 *1934:A2 0.000123955
31 *294:34 *307:25 2.97746e-05
32 *294:34 *307:29 0.000154433
33 *294:34 *311:18 0.00029143
34 *294:34 *311:20 7.50252e-05
35 *294:34 *316:10 2.01504e-05
*RES
1 *1910:Y *294:12 10.79 
2 *294:12 *1934:B1 1.6 
3 *294:12 *294:23 6.435 
4 *294:23 *1936:B1 1.6 
5 *294:23 *294:34 5.885 
6 *294:34 *2306:A 10.62 
7 *294:34 *1937:B1 6.885 
*END

*D_NET *295 0.00265014
*CONN
*I *1922:A2 I *D sky130_fd_sc_hd__a21o_2
*I *1912:B I *D sky130_fd_sc_hd__nand2_2
*I *1934:C1 I *D sky130_fd_sc_hd__o2111a_4
*I *1911:Y O *D sky130_fd_sc_hd__o21bai_4
*CAP
1 *1922:A2 0.000232007
2 *1912:B 0.000105291
3 *1934:C1 0.000147931
4 *1911:Y 0.000110691
5 *295:19 0.000398794
6 *295:8 0.000320118
7 *1922:A2 *1922:A1 0.00010607
8 *1922:A2 *1922:B1 4.00541e-06
9 *1922:A2 *1929:A2 0
10 *1922:A2 *305:10 4.82919e-05
11 *1922:A2 *311:30 0
12 *1922:A2 *489:12 0
13 *1922:A2 *570:18 0.000156842
14 *1934:C1 *1909:B 0.000123225
15 *1934:C1 *1934:D1 8.8266e-05
16 *295:8 *548:14 7.76064e-05
17 *295:8 *570:18 0.000387719
18 *295:19 *311:30 0
19 *295:19 *548:8 3.39069e-05
20 *295:19 *548:14 1.0183e-05
21 *295:19 *570:18 0.000154488
22 *1910:A_N *295:8 2.68721e-05
23 *1911:A2 *295:8 0.000117832
*RES
1 *1911:Y *295:8 8.04 
2 *295:8 *1934:C1 6.465 
3 *295:8 *295:19 1.89 
4 *295:19 *1912:B 5.085 
5 *295:19 *1922:A2 8.385 
*END

*D_NET *296 0.000684949
*CONN
*I *1913:A I *D sky130_fd_sc_hd__inv_2
*I *1912:Y O *D sky130_fd_sc_hd__nand2_2
*CAP
1 *1913:A 0.000112565
2 *1912:Y 0.000112565
3 *1913:A *1931:A2 3.25831e-05
4 *1913:A *1948:A 0.000183043
5 *1913:A *311:30 0.000157602
6 *1913:A *489:6 8.65905e-05
*RES
1 *1912:Y *1913:A 10.485 
*END

*D_NET *297 0.00300387
*CONN
*I *1948:A I *D sky130_fd_sc_hd__and3_2
*I *1921:A I *D sky130_fd_sc_hd__nand2_4
*I *1913:Y O *D sky130_fd_sc_hd__inv_2
*CAP
1 *1948:A 0.000652397
2 *1921:A 0.000142353
3 *1913:Y 0
4 *297:4 0.00079475
5 *1921:A *1922:A1 8.65905e-05
6 *1921:A *1929:A1 0.00010445
7 *1921:A *1929:A2 0.000318717
8 *1948:A *1908:A 2.45182e-05
9 *1948:A *1929:A2 0.000139238
10 *1948:A *1931:A1 3.68784e-05
11 *1948:A *1934:A1 2.03578e-05
12 *1948:A *1945:C1 0.000154977
13 *1948:A *304:42 8.1873e-05
14 *1948:A *311:30 0.00020843
15 *1948:A *463:14 0
16 *1948:A *484:8 8.73389e-06
17 *1948:A *548:14 0
18 *1913:A *1948:A 0.000183043
19 *294:12 *1948:A 4.65643e-05
*RES
1 *1913:Y *297:4 1.6 
2 *297:4 *1921:A 6.145 
3 *297:4 *1948:A 17.195 
*END

*D_NET *298 0.00230308
*CONN
*I *1915:B I *D sky130_fd_sc_hd__nand4b_4
*I *1914:X O *D sky130_fd_sc_hd__and4_2
*CAP
1 *1915:B 0.000412498
2 *1914:X 0.000412498
3 *1915:B *1887:A 0.000318986
4 *1915:B *2268:A 0.000267191
5 *1904:A2 *1915:B 8.6076e-05
6 *1904:B1 *1915:B 8.85683e-05
7 *1905:B1 *1915:B 6.04318e-05
8 *1915:A_N *1915:B 0.000158965
9 *1915:C *1915:B 0
10 *275:22 *1915:B 0.000497867
*RES
1 *1914:X *1915:B 15.395 
*END

*D_NET *299 0.00457699
*CONN
*I *2305:A I *D sky130_fd_sc_hd__buf_2
*I *2023:C I *D sky130_fd_sc_hd__nor3_4
*I *1965:B I *D sky130_fd_sc_hd__nor2_4
*I *1915:Y O *D sky130_fd_sc_hd__nand4b_4
*CAP
1 *2305:A 0.000122387
2 *2023:C 0.000134043
3 *1965:B 0
4 *1915:Y 0.000165447
5 *299:14 0.00138582
6 *299:8 0.00153962
7 *2023:C *2023:B 0.000246673
8 *299:8 *1887:A 0
9 *299:14 *1965:A 5.4155e-06
10 *299:14 *2023:B 2.66586e-05
11 *299:14 *303:14 0.000506266
12 *299:14 *341:16 0.000396363
13 *2325:A *2305:A 4.82919e-05
14 *263:45 *2305:A 0
15 *263:45 *299:8 0
*RES
1 *1915:Y *299:8 6.255 
2 *299:8 *299:14 18.935 
3 *299:14 *1965:B 1.6 
4 *299:14 *2023:C 4.465 
5 *299:8 *2305:A 5.43 
*END

*D_NET *300 0.000799691
*CONN
*I *1920:A2 I *D sky130_fd_sc_hd__o22ai_4
*I *1916:X O *D sky130_fd_sc_hd__o211a_2
*CAP
1 *1920:A2 0.000167558
2 *1916:X 0.000167558
3 *1920:A2 *1919:A2 0.000199498
4 *1916:A2 *1920:A2 5.83121e-06
5 *1918:A *1920:A2 7.53115e-05
6 *1919:B1_N *1920:A2 1.41165e-05
7 *1920:A1 *1920:A2 0.000160314
8 *286:12 *1920:A2 9.50342e-06
*RES
1 *1916:X *1920:A2 11.46 
*END

*D_NET *301 0.00200505
*CONN
*I *1919:A1 I *D sky130_fd_sc_hd__a21boi_2
*I *1917:Y O *D sky130_fd_sc_hd__nand3_2
*CAP
1 *1919:A1 0.000596548
2 *1917:Y 0.000596548
3 *1919:A1 *1895:A2 0.000123773
4 *1919:A1 *1919:A2 3.25831e-05
5 *1888:B *1919:A1 0.000232403
6 *1905:B1 *1919:A1 0.000303091
7 *1916:A2 *1919:A1 0
8 *1917:A *1919:A1 4.9968e-05
9 *1917:C *1919:A1 7.01359e-05
10 *263:32 *1919:A1 0
11 *263:45 *1919:A1 0
12 *280:21 *1919:A1 0
*RES
1 *1917:Y *1919:A1 18.405 
*END

*D_NET *302 0.000741579
*CONN
*I *1919:A2 I *D sky130_fd_sc_hd__a21boi_2
*I *1918:Y O *D sky130_fd_sc_hd__nor2_2
*CAP
1 *1919:A2 0.000254749
2 *1918:Y 0.000254749
3 *1918:A *1919:A2 0
4 *1919:A1 *1919:A2 3.25831e-05
5 *1920:A2 *1919:A2 0.000199498
6 *263:45 *1919:A2 0
*RES
1 *1918:Y *1919:A2 11.265 
*END

*D_NET *303 0.0032155
*CONN
*I *1964:B2 I *D sky130_fd_sc_hd__o22ai_2
*I *1963:B2 I *D sky130_fd_sc_hd__o221a_4
*I *1919:Y O *D sky130_fd_sc_hd__a21boi_2
*CAP
1 *1964:B2 0
2 *1963:B2 0.000247837
3 *1919:Y 0.000850674
4 *303:14 0.00109851
5 *1963:B2 *1956:A 0
6 *1963:B2 *1964:A2 0
7 *1963:B2 *2025:A1 0.000115003
8 *1963:B2 *336:21 0
9 *1963:B2 *341:10 0.000100536
10 *1963:B2 *341:16 1.71013e-05
11 *303:14 *1964:A2 4.18603e-06
12 *303:14 *341:16 0.000275383
13 *299:14 *303:14 0.000506266
*RES
1 *1919:Y *303:14 21.44 
2 *303:14 *1963:B2 10.1 
3 *303:14 *1964:B2 1.6 
*END

*D_NET *304 0.00635018
*CONN
*I *1949:B I *D sky130_fd_sc_hd__nand2_4
*I *1922:B1 I *D sky130_fd_sc_hd__a21o_2
*I *1921:B I *D sky130_fd_sc_hd__nand2_4
*I *1935:A I *D sky130_fd_sc_hd__nand2_2
*I *1938:A1_N I *D sky130_fd_sc_hd__o2bb2ai_2
*I *1920:Y O *D sky130_fd_sc_hd__o22ai_4
*CAP
1 *1949:B 0.000264054
2 *1922:B1 0.000248703
3 *1921:B 0
4 *1935:A 0
5 *1938:A1_N 6.2321e-05
6 *1920:Y 0.000330507
7 *304:42 0.000807637
8 *304:29 0.000651439
9 *304:12 0.000461598
10 *304:10 0.000901332
11 *1922:B1 *1922:A1 0.000198939
12 *1922:B1 *2272:A 1.52945e-05
13 *1922:B1 *570:18 5.16348e-05
14 *1938:A1_N *1938:A2_N 1.14169e-05
15 *1938:A1_N *1946:A 3.04704e-05
16 *1949:B *1959:A 0
17 *1949:B *1961:A 0.000180025
18 *1949:B *316:10 8.77073e-05
19 *1949:B *325:20 1.46828e-05
20 *304:10 *1945:B1 0.000162332
21 *304:10 *1948:C 3.09164e-05
22 *304:10 *1961:A 3.09164e-05
23 *304:12 *1938:A2_N 7.20899e-05
24 *304:12 *1938:B1 3.48332e-05
25 *304:12 *1938:B2 0.000121023
26 *304:12 *325:20 2.49909e-05
27 *304:29 *1938:B1 0.00011178
28 *304:29 *463:14 0
29 *304:42 *1907:B 2.75145e-05
30 *304:42 *1945:C1 1.77595e-05
31 *304:42 *2272:A 8.26527e-05
32 *304:42 *484:8 3.00454e-05
33 *304:42 *548:14 9.66106e-05
34 *304:42 *570:18 0.000517467
35 *1911:A2 *304:42 1.90762e-05
36 *1922:A2 *1922:B1 4.00541e-06
37 *1948:A *304:42 8.1873e-05
38 *2229:A *304:42 0.000176068
39 *286:12 *304:10 0
40 *294:12 *304:42 0.000390466
*RES
1 *1920:Y *304:10 11.825 
2 *304:10 *304:12 4.59 
3 *304:12 *1938:A1_N 2.755 
4 *304:12 *304:29 5.74 
5 *304:29 *1935:A 1.6 
6 *304:29 *304:42 16.28 
7 *304:42 *1921:B 3.6 
8 *304:42 *1922:B1 7.35 
9 *304:10 *1949:B 11.015 
*END

*D_NET *305 0.00145555
*CONN
*I *1932:A2_N I *D sky130_fd_sc_hd__o2bb2ai_4
*I *1923:A I *D sky130_fd_sc_hd__and2_4
*I *1931:D1 I *D sky130_fd_sc_hd__o2111ai_2
*I *1921:Y O *D sky130_fd_sc_hd__nand2_4
*CAP
1 *1932:A2_N 0
2 *1923:A 0.0002209
3 *1931:D1 2.2266e-05
4 *1921:Y 0.000110487
5 *305:25 0.000426034
6 *305:10 0.000337886
7 *1931:D1 *570:52 4.82919e-05
8 *305:10 *1922:A1 4.66108e-05
9 *305:10 *2272:A 0
10 *305:10 *489:23 0
11 *305:10 *570:18 0.000137578
12 *305:25 *1923:B 0
13 *305:25 *1932:A1_N 0
14 *305:25 *1933:A 5.72004e-05
15 *305:25 *2272:A 0
16 *1922:A2 *305:10 4.82919e-05
*RES
1 *1921:Y *305:10 5.94 
2 *305:10 *1931:D1 4.05 
3 *305:10 *305:25 5.54 
4 *305:25 *1923:A 4.93 
5 *305:25 *1932:A2_N 1.6 
*END

*D_NET *306 0.00056557
*CONN
*I *1923:B I *D sky130_fd_sc_hd__and2_4
*I *1922:X O *D sky130_fd_sc_hd__a21o_2
*CAP
1 *1923:B 0.000282785
2 *1922:X 0.000282785
3 *1923:B *2272:A 0
4 *305:25 *1923:B 0
*RES
1 *1922:X *1923:B 11.58 
*END

*D_NET *307 0.00470973
*CONN
*I *1927:A2 I *D sky130_fd_sc_hd__o21bai_4
*I *1926:A1 I *D sky130_fd_sc_hd__o21ba_2
*I *1937:A1 I *D sky130_fd_sc_hd__o21ai_2
*I *1930:A1 I *D sky130_fd_sc_hd__o21a_2
*I *1936:A1 I *D sky130_fd_sc_hd__o21a_2
*I *1934:A2 I *D sky130_fd_sc_hd__o2111a_4
*I *1931:A1 I *D sky130_fd_sc_hd__o2111ai_2
*I *1924:X O *D sky130_fd_sc_hd__and2_4
*CAP
1 *1927:A2 0.000129468
2 *1926:A1 0
3 *1937:A1 0.000141725
4 *1930:A1 0
5 *1936:A1 0
6 *1934:A2 9.72839e-05
7 *1931:A1 0.000229573
8 *1924:X 0
9 *307:68 0.000217691
10 *307:29 0.00018867
11 *307:25 0.000130985
12 *307:23 0.000446902
13 *307:4 0.000583374
14 *1927:A2 *1927:A1 6.81237e-05
15 *1927:A2 *549:8 0
16 *1927:A2 *549:12 4.18603e-06
17 *1931:A1 *1929:A2 7.23533e-05
18 *1931:A1 *1931:A2 0
19 *1931:A1 *1931:B1 8.65905e-05
20 *1931:A1 *2182:A 8.65905e-05
21 *1931:A1 *463:10 5.30144e-05
22 *1931:A1 *464:27 0.000159964
23 *1934:A2 *1934:D1 0.000108162
24 *1934:A2 *316:10 0.000345122
25 *1937:A1 *490:16 2.97802e-05
26 *307:23 *1930:A2 4.77719e-05
27 *307:29 *1934:D1 0
28 *307:68 *1927:A1 5.53249e-06
29 *307:68 *308:10 6.02202e-05
30 *307:68 *311:10 1.73877e-05
31 *307:68 *311:12 4.18603e-06
32 *307:68 *319:8 4.99619e-05
33 *307:68 *490:16 4.82863e-05
34 *307:68 *549:12 5.2584e-05
35 *307:68 *549:20 2.97004e-06
36 *1937:B1 *1937:A1 0.000114326
37 *1937:B1 *307:25 4.03557e-05
38 *1948:A *1931:A1 3.68784e-05
39 *2306:A *1931:A1 7.35729e-05
40 *2306:A *307:23 0.000247826
41 *294:23 *1934:A2 0.000420151
42 *294:34 *1934:A2 0.000123955
43 *294:34 *307:25 2.97746e-05
44 *294:34 *307:29 0.000154433
*RES
1 *1924:X *307:4 1.6 
2 *307:4 *1931:A1 10.955 
3 *307:4 *307:23 6.59 
4 *307:23 *307:25 0.87 
5 *307:25 *307:29 3.89 
6 *307:29 *1934:A2 6.535 
7 *307:29 *1936:A1 1.6 
8 *307:25 *1930:A1 3.6 
9 *307:23 *1937:A1 4.98 
10 *1937:A1 *307:68 5.94 
11 *307:68 *1926:A1 3.6 
12 *307:68 *1927:A2 6 
*END

*D_NET *308 0.0013528
*CONN
*I *1927:A1 I *D sky130_fd_sc_hd__o21bai_4
*I *1926:A2 I *D sky130_fd_sc_hd__o21ba_2
*I *1925:Y O *D sky130_fd_sc_hd__nor2_2
*CAP
1 *1927:A1 0.000322726
2 *1926:A2 0
3 *1925:Y 0.000159045
4 *308:10 0.000481771
5 *1927:A1 *310:10 0
6 *308:10 *311:10 9.30717e-05
7 *308:10 *490:16 0.000162311
8 *1927:A2 *1927:A1 6.81237e-05
9 *307:68 *1927:A1 5.53249e-06
10 *307:68 *308:10 6.02202e-05
*RES
1 *1925:Y *308:10 6.465 
2 *308:10 *1926:A2 3.6 
3 *308:10 *1927:A1 7.755 
*END

*D_NET *309 0.00410615
*CONN
*I *1945:A1 I *D sky130_fd_sc_hd__o211ai_2
*I *1932:B1 I *D sky130_fd_sc_hd__o2bb2ai_4
*I *1938:B1 I *D sky130_fd_sc_hd__o2bb2ai_2
*I *1926:X O *D sky130_fd_sc_hd__o21ba_2
*CAP
1 *1945:A1 0.000123647
2 *1932:B1 0.000272585
3 *1938:B1 0.000700004
4 *1926:X 0.000199975
5 *309:8 0.00104892
6 *1932:B1 *310:10 0.000183043
7 *1932:B1 *498:6 0.000197822
8 *1932:B1 *498:21 0
9 *1938:B1 *1934:D1 0.000314452
10 *1938:B1 *1938:A2_N 0.000200416
11 *1938:B1 *1938:B2 8.51862e-05
12 *1938:B1 *1945:C1 1.01155e-05
13 *1938:B1 *1946:A 0.000122701
14 *1938:B1 *1948:B 5.02411e-05
15 *1938:B1 *310:10 0.000106655
16 *1938:B1 *318:10 0.000115807
17 *1938:B1 *463:14 0
18 *1938:B1 *463:20 0
19 *1945:A1 *1945:B1 2.37223e-05
20 *1945:A1 *1946:B 3.6227e-05
21 *309:8 *1928:B1 1.95256e-05
22 *309:8 *1931:B1 8.23457e-05
23 *309:8 *2188:A 6.61497e-05
24 *304:12 *1938:B1 3.48332e-05
25 *304:29 *1938:B1 0.00011178
*RES
1 *1926:X *309:8 6.12 
2 *309:8 *1938:B1 16.125 
3 *309:8 *1932:B1 8.685 
4 *1938:B1 *1945:A1 9.345 
*END

*D_NET *310 0.00322695
*CONN
*I *2307:A I *D sky130_fd_sc_hd__buf_2
*I *1934:D1 I *D sky130_fd_sc_hd__o2111a_4
*I *1927:Y O *D sky130_fd_sc_hd__o21bai_4
*CAP
1 *2307:A 0
2 *1934:D1 0.000608849
3 *1927:Y 0.000232715
4 *310:10 0.000841563
5 *1934:D1 *1930:B1 0.00020779
6 *1934:D1 *1948:B 7.23602e-05
7 *1934:D1 *316:10 0.000122701
8 *310:10 *1930:B1 5.33085e-05
9 *310:10 *1931:B1 8.35683e-05
10 *310:10 *498:6 4.8854e-05
11 *310:10 *498:21 4.40028e-05
12 *1927:A1 *310:10 0
13 *1932:B1 *310:10 0.000183043
14 *1934:A2 *1934:D1 0.000108162
15 *1934:C1 *1934:D1 8.8266e-05
16 *1938:B1 *1934:D1 0.000314452
17 *1938:B1 *310:10 0.000106655
18 *294:23 *1934:D1 0.000110665
19 *307:29 *1934:D1 0
*RES
1 *1927:Y *310:10 8.505 
2 *310:10 *1934:D1 14.565 
3 *310:10 *2307:A 3.6 
*END

*D_NET *311 0.00477769
*CONN
*I *1937:A2 I *D sky130_fd_sc_hd__o21ai_2
*I *1930:A2 I *D sky130_fd_sc_hd__o21a_2
*I *1936:A2 I *D sky130_fd_sc_hd__o21a_2
*I *1934:A1 I *D sky130_fd_sc_hd__o2111a_4
*I *1931:A2 I *D sky130_fd_sc_hd__o2111ai_2
*I *1929:B1 I *D sky130_fd_sc_hd__a21oi_2
*I *1928:Y O *D sky130_fd_sc_hd__o21ai_2
*CAP
1 *1937:A2 0
2 *1930:A2 5.83224e-05
3 *1936:A2 0
4 *1934:A1 2.55576e-05
5 *1931:A2 0.000103093
6 *1929:B1 0
7 *1928:Y 0.000108969
8 *311:30 0.000410827
9 *311:20 0.000591425
10 *311:18 0.000433561
11 *311:12 0.00032608
12 *311:10 0.000201298
13 *1930:A2 *549:20 1.19928e-05
14 *1931:A2 *1932:B2 0.000117832
15 *1931:A2 *489:12 0
16 *1931:A2 *489:23 0
17 *1934:A1 *463:14 5.16418e-05
18 *311:10 *1928:B1 8.88799e-05
19 *311:10 *2188:A 1.33293e-05
20 *311:10 *466:22 0.000267062
21 *311:10 *490:16 6.23541e-06
22 *311:12 *549:20 0
23 *311:18 *1949:A 5.4003e-05
24 *311:18 *316:10 2.50113e-05
25 *311:18 *549:20 0
26 *311:20 *318:10 4.66108e-05
27 *311:30 *489:12 0
28 *311:30 *548:8 0
29 *1913:A *1931:A2 3.25831e-05
30 *1913:A *311:30 0.000157602
31 *1922:A2 *311:30 0
32 *1931:A1 *1931:A2 0
33 *1937:B1 *311:12 0.000154488
34 *1937:B1 *311:18 2.92496e-05
35 *1948:A *1934:A1 2.03578e-05
36 *1948:A *311:30 0.00020843
37 *2306:A *1930:A2 8.35068e-05
38 *294:12 *311:30 5.39961e-05
39 *294:23 *311:20 0.000455886
40 *294:23 *311:30 0.000110989
41 *294:34 *311:18 0.00029143
42 *294:34 *311:20 7.50252e-05
43 *295:19 *311:30 0
44 *307:23 *1930:A2 4.77719e-05
45 *307:68 *311:10 1.73877e-05
46 *307:68 *311:12 4.18603e-06
47 *308:10 *311:10 9.30717e-05
*RES
1 *1928:Y *311:10 7.065 
2 *311:10 *311:12 1.89 
3 *311:12 *311:18 6.05 
4 *311:18 *311:20 4.935 
5 *311:20 *311:30 8.48 
6 *311:30 *1929:B1 3.6 
7 *311:30 *1931:A2 5.745 
8 *311:20 *1934:A1 6.215 
9 *311:18 *1936:A2 1.6 
10 *311:12 *1930:A2 4.74 
11 *311:10 *1937:A2 3.6 
*END

*D_NET *312 0.000643697
*CONN
*I *1932:B2 I *D sky130_fd_sc_hd__o2bb2ai_4
*I *1929:Y O *D sky130_fd_sc_hd__a21oi_2
*CAP
1 *1932:B2 0.000204293
2 *1929:Y 0.000204293
3 *1932:B2 *1932:A1_N 0
4 *1932:B2 *1933:B 2.75229e-05
5 *1932:B2 *2182:A 8.97564e-05
6 *1932:B2 *463:10 0
7 *1932:B2 *464:27 0
8 *1932:B2 *489:23 0
9 *1931:A2 *1932:B2 0.000117832
*RES
1 *1929:Y *1932:B2 11.325 
*END

*D_NET *313 0.000613927
*CONN
*I *1948:B I *D sky130_fd_sc_hd__and3_2
*I *1930:X O *D sky130_fd_sc_hd__o21a_2
*CAP
1 *1948:B 0.000185022
2 *1930:X 0.000185022
3 *1948:B *318:10 7.23533e-05
4 *1948:B *484:8 4.89295e-05
5 *1934:D1 *1948:B 7.23602e-05
6 *1938:B1 *1948:B 5.02411e-05
*RES
1 *1930:X *1948:B 10.56 
*END

*D_NET *314 0.000769377
*CONN
*I *1933:A I *D sky130_fd_sc_hd__nand2_4
*I *1931:Y O *D sky130_fd_sc_hd__o2111ai_2
*CAP
1 *1933:A 0.000176799
2 *1931:Y 0.000176799
3 *1933:A *1932:A1_N 4.65643e-05
4 *1933:A *1933:B 0.000233691
5 *1933:A *2273:A 4.82863e-05
6 *1933:A *570:52 3.00381e-05
7 *305:25 *1933:A 5.72004e-05
*RES
1 *1931:Y *1933:A 11.52 
*END

*D_NET *315 0.00130054
*CONN
*I *1933:B I *D sky130_fd_sc_hd__nand2_4
*I *1932:Y O *D sky130_fd_sc_hd__o2bb2ai_4
*CAP
1 *1933:B 0.000436877
2 *1932:Y 0.000436877
3 *1933:B *1932:A1_N 7.73272e-05
4 *1933:B *2182:A 0
5 *1933:B *2273:A 8.82473e-05
6 *1932:B2 *1933:B 2.75229e-05
7 *1933:A *1933:B 0.000233691
*RES
1 *1932:Y *1933:B 14.745 
*END

*D_NET *316 0.0023585
*CONN
*I *2302:A I *D sky130_fd_sc_hd__buf_2
*I *1961:A I *D sky130_fd_sc_hd__nand4_4
*I *1934:X O *D sky130_fd_sc_hd__o2111a_4
*CAP
1 *2302:A 3.15766e-05
2 *1961:A 0.000162491
3 *1934:X 0.000324169
4 *316:10 0.000518237
5 *1961:A *1948:C 4.5783e-05
6 *1961:A *318:10 0
7 *1961:A *325:20 0.000318091
8 *2302:A *1949:A 4.9253e-06
9 *316:10 *1949:A 0.000141599
10 *316:10 *318:10 0
11 *1934:A2 *316:10 0.000345122
12 *1934:D1 *316:10 0.000122701
13 *1949:B *1961:A 0.000180025
14 *1949:B *316:10 8.77073e-05
15 *294:34 *316:10 2.01504e-05
16 *304:10 *1961:A 3.09164e-05
17 *311:18 *316:10 2.50113e-05
*RES
1 *1934:X *316:10 10.845 
2 *316:10 *1961:A 8.355 
3 *316:10 *2302:A 4.05 
*END

*D_NET *317 0.00110258
*CONN
*I *1945:C1 I *D sky130_fd_sc_hd__o211ai_2
*I *1935:Y O *D sky130_fd_sc_hd__nand2_2
*CAP
1 *1945:C1 0.00023242
2 *1935:Y 0.00023242
3 *1945:C1 *1938:A2_N 0.000131168
4 *1945:C1 *1945:A2 7.89112e-05
5 *1945:C1 *1945:B1 7.00889e-06
6 *1945:C1 *1946:B 8.52845e-05
7 *1945:C1 *318:10 0.000136877
8 *1945:C1 *463:20 0
9 *1945:C1 *484:8 1.56428e-05
10 *1938:B1 *1945:C1 1.01155e-05
11 *1948:A *1945:C1 0.000154977
12 *304:42 *1945:C1 1.77595e-05
*RES
1 *1935:Y *1945:C1 12.9 
*END

*D_NET *318 0.00157318
*CONN
*I *1945:A2 I *D sky130_fd_sc_hd__o211ai_2
*I *1938:B2 I *D sky130_fd_sc_hd__o2bb2ai_2
*I *1936:X O *D sky130_fd_sc_hd__o21a_2
*CAP
1 *1945:A2 0.00019849
2 *1938:B2 3.24709e-05
3 *1936:X 0.000188158
4 *318:10 0.000419119
5 *1945:A2 *1945:B1 6.63432e-05
6 *318:10 *1938:A2_N 1.18308e-05
7 *318:10 *1948:C 0
8 *1938:B1 *1938:B2 8.51862e-05
9 *1938:B1 *318:10 0.000115807
10 *1945:C1 *1945:A2 7.89112e-05
11 *1945:C1 *318:10 0.000136877
12 *1948:B *318:10 7.23533e-05
13 *1961:A *318:10 0
14 *304:12 *1938:B2 0.000121023
15 *311:20 *318:10 4.66108e-05
16 *316:10 *318:10 0
*RES
1 *1936:X *318:10 7.47 
2 *318:10 *1938:B2 4.74 
3 *318:10 *1945:A2 7.005 
*END

*D_NET *319 0.00149107
*CONN
*I *1962:A2 I *D sky130_fd_sc_hd__a311oi_2
*I *1950:A2 I *D sky130_fd_sc_hd__a31oi_2
*I *1937:Y O *D sky130_fd_sc_hd__o21ai_2
*CAP
1 *1962:A2 4.33523e-05
2 *1950:A2 3.71581e-05
3 *1937:Y 0.000295762
4 *319:8 0.000376273
5 *1950:A2 *1950:A3 0.000164679
6 *1950:A2 *325:14 0.000164679
7 *1962:A2 *1962:B1 0
8 *1962:A2 *490:16 3.04064e-05
9 *319:8 *490:16 0.000328799
10 *307:68 *319:8 4.99619e-05
*RES
1 *1937:Y *319:8 7.585 
2 *319:8 *1950:A2 7.49 
3 *319:8 *1962:A2 2.41 
*END

*D_NET *320 0.000896009
*CONN
*I *1946:A I *D sky130_fd_sc_hd__nand2_2
*I *1938:Y O *D sky130_fd_sc_hd__o2bb2ai_2
*CAP
1 *1946:A 0.000271994
2 *1938:Y 0.000271994
3 *1946:A *1938:A2_N 2.20014e-05
4 *1946:A *1946:B 1.75875e-05
5 *1946:A *1947:B 1.5996e-05
6 *1946:A *463:20 0.000143266
7 *1938:A1_N *1946:A 3.04704e-05
8 *1938:B1 *1946:A 0.000122701
*RES
1 *1938:Y *1946:A 12.165 
*END

*D_NET *321 0.000897802
*CONN
*I *1941:A I *D sky130_fd_sc_hd__nor3b_2
*I *1942:A1 I *D sky130_fd_sc_hd__o21bai_2
*I *1939:X O *D sky130_fd_sc_hd__and2_4
*CAP
1 *1941:A 4.61042e-05
2 *1942:A1 0.000119256
3 *1939:X 0.000123175
4 *321:10 0.000288536
5 *1942:A1 *1941:B 8.53099e-05
6 *1942:A1 *1951:B 0
7 *1942:A1 *333:10 0
8 *1942:A1 *466:68 5.39961e-05
9 *321:10 *1939:B 0
10 *321:10 *323:8 1.01661e-05
11 *321:10 *507:10 4.99619e-05
12 *2231:A *1941:A 2.75229e-05
13 *2231:A *321:10 9.37731e-05
*RES
1 *1939:X *321:10 6.03 
2 *321:10 *1942:A1 6 
3 *321:10 *1941:A 4.395 
*END

*D_NET *322 0.00126057
*CONN
*I *1941:B I *D sky130_fd_sc_hd__nor3b_2
*I *1942:A2 I *D sky130_fd_sc_hd__o21bai_2
*I *1940:Y O *D sky130_fd_sc_hd__nor2_2
*CAP
1 *1941:B 5.95765e-05
2 *1942:A2 0
3 *1940:Y 7.49088e-05
4 *322:8 0.000134485
5 *1941:B *323:8 0.000183036
6 *1941:B *323:10 2.14129e-05
7 *1941:B *466:68 5.39961e-05
8 *322:8 *1950:B1 0.000162325
9 *322:8 *323:10 0.000164686
10 *322:8 *466:68 0.000179922
11 *322:8 *466:74 0.000140912
12 *1942:A1 *1941:B 8.53099e-05
*RES
1 *1940:Y *322:8 7.275 
2 *322:8 *1942:A2 3.6 
3 *322:8 *1941:B 6 
*END

*D_NET *323 0.00219201
*CONN
*I *1943:A_N I *D sky130_fd_sc_hd__and2b_4
*I *1962:C1 I *D sky130_fd_sc_hd__a311oi_2
*I *1950:B1 I *D sky130_fd_sc_hd__a31oi_2
*I *1941:Y O *D sky130_fd_sc_hd__nor3b_2
*CAP
1 *1943:A_N 6.8601e-05
2 *1962:C1 2.93474e-05
3 *1950:B1 0.000146049
4 *1941:Y 6.61332e-05
5 *323:10 0.000226678
6 *323:8 0.000186015
7 *1943:A_N *1942:B1_N 8.65905e-05
8 *1943:A_N *324:10 6.6564e-05
9 *1943:A_N *466:51 8.8266e-05
10 *1943:A_N *466:64 0.000184712
11 *1950:B1 *1940:B 0.000110125
12 *1950:B1 *1958:B1 0.00013994
13 *1950:B1 *466:74 1.15688e-05
14 *1962:C1 *1962:B1 5.83121e-06
15 *1962:C1 *335:6 2.49909e-05
16 *323:8 *1939:B 5.74095e-05
17 *323:8 *1940:B 5.38986e-05
18 *323:10 *1940:B 9.766e-05
19 *1941:B *323:8 0.000183036
20 *1941:B *323:10 2.14129e-05
21 *321:10 *323:8 1.01661e-05
22 *322:8 *1950:B1 0.000162325
23 *322:8 *323:10 0.000164686
*RES
1 *1941:Y *323:8 6 
2 *323:8 *323:10 2.145 
3 *323:10 *1950:B1 7.23 
4 *323:10 *1962:C1 4.05 
5 *323:8 *1943:A_N 6.12 
*END

*D_NET *324 0.00146028
*CONN
*I *1943:B I *D sky130_fd_sc_hd__and2b_4
*I *1962:A3 I *D sky130_fd_sc_hd__a311oi_2
*I *1950:A3 I *D sky130_fd_sc_hd__a31oi_2
*I *1942:Y O *D sky130_fd_sc_hd__o21bai_2
*CAP
1 *1943:B 0
2 *1962:A3 0
3 *1950:A3 4.26642e-05
4 *1942:Y 0.000196687
5 *324:16 0.000114033
6 *324:10 0.000268056
7 *1950:A3 *2275:A 0.000187071
8 *1950:A3 *325:14 1.26626e-05
9 *324:10 *1942:B1_N 8.8266e-05
10 *324:10 *466:51 8.58459e-05
11 *324:16 *1940:B 0
12 *324:16 *2275:A 0.000154488
13 *324:16 *325:14 6.47594e-05
14 *324:16 *466:51 1.45064e-05
15 *1943:A_N *324:10 6.6564e-05
16 *1950:A2 *1950:A3 0.000164679
*RES
1 *1942:Y *324:10 5.47 
2 *324:10 *324:16 4.145 
3 *324:16 *1950:A3 5.745 
4 *324:16 *1962:A3 3.6 
5 *324:10 *1943:B 1.6 
*END

*D_NET *325 0.00440422
*CONN
*I *1961:B I *D sky130_fd_sc_hd__nand4_4
*I *1944:A I *D sky130_fd_sc_hd__inv_2
*I *1948:C I *D sky130_fd_sc_hd__and3_2
*I *1945:B1 I *D sky130_fd_sc_hd__o211ai_2
*I *1943:X O *D sky130_fd_sc_hd__and2b_4
*CAP
1 *1961:B 0
2 *1944:A 0
3 *1948:C 0.000249085
4 *1945:B1 0.000246936
5 *1943:X 0.000398046
6 *325:22 0.000496021
7 *325:20 0.000338222
8 *325:14 0.000736268
9 *1945:B1 *1946:B 0.000355115
10 *1948:C *1949:A 3.81908e-06
11 *1948:C *484:8 5.98195e-05
12 *325:14 *1940:B 0
13 *325:14 *1950:A1 0.000105068
14 *325:14 *1958:B2 0
15 *325:14 *1959:A 5.71917e-05
16 *325:14 *1960:B 0.000140912
17 *325:14 *1963:A1 0.000120186
18 *325:14 *1964:A2 0
19 *325:14 *2275:A 6.97103e-05
20 *325:14 *331:10 6.55385e-05
21 *325:14 *331:14 2.63122e-05
22 *325:20 *1961:C 0
23 *1945:A1 *1945:B1 2.37223e-05
24 *1945:A2 *1945:B1 6.63432e-05
25 *1945:C1 *1945:B1 7.00889e-06
26 *1949:B *325:20 1.46828e-05
27 *1950:A2 *325:14 0.000164679
28 *1950:A3 *325:14 1.26626e-05
29 *1961:A *1948:C 4.5783e-05
30 *1961:A *325:20 0.000318091
31 *304:10 *1945:B1 0.000162332
32 *304:10 *1948:C 3.09164e-05
33 *304:12 *325:20 2.49909e-05
34 *318:10 *1948:C 0
35 *324:16 *325:14 6.47594e-05
*RES
1 *1943:X *325:14 15.695 
2 *325:14 *325:20 6.345 
3 *325:20 *325:22 2 
4 *325:22 *1945:B1 9.42 
5 *325:22 *1948:C 7.155 
6 *325:20 *1944:A 1.6 
7 *325:14 *1961:B 1.6 
*END

*D_NET *326 0.00123072
*CONN
*I *1946:B I *D sky130_fd_sc_hd__nand2_2
*I *1944:Y O *D sky130_fd_sc_hd__inv_2
*CAP
1 *1946:B 0.000368254
2 *1944:Y 0.000368254
3 *1945:A1 *1946:B 3.6227e-05
4 *1945:B1 *1946:B 0.000355115
5 *1945:C1 *1946:B 8.52845e-05
6 *1946:A *1946:B 1.75875e-05
*RES
1 *1944:Y *1946:B 12.84 
*END

*D_NET *327 0.000237471
*CONN
*I *1947:A I *D sky130_fd_sc_hd__nand2_2
*I *1945:Y O *D sky130_fd_sc_hd__o211ai_2
*CAP
1 *1947:A 8.2691e-05
2 *1945:Y 8.2691e-05
3 *1947:A *1947:B 4.59847e-05
4 *286:12 *1947:A 2.61042e-05
*RES
1 *1945:Y *1947:A 8.835 
*END

*D_NET *328 0.000379618
*CONN
*I *1947:B I *D sky130_fd_sc_hd__nand2_2
*I *1946:Y O *D sky130_fd_sc_hd__nand2_2
*CAP
1 *1947:B 0.000114763
2 *1946:Y 0.000114763
3 *1947:B *463:20 8.81106e-05
4 *1946:A *1947:B 1.5996e-05
5 *1947:A *1947:B 4.59847e-05
*RES
1 *1946:Y *1947:B 9.6 
*END

*D_NET *329 0.000736663
*CONN
*I *1949:A I *D sky130_fd_sc_hd__nand2_4
*I *1948:X O *D sky130_fd_sc_hd__and3_2
*CAP
1 *1949:A 0.000203922
2 *1948:X 0.000203922
3 *1949:A *484:8 0.000124473
4 *1948:C *1949:A 3.81908e-06
5 *2302:A *1949:A 4.9253e-06
6 *311:18 *1949:A 5.4003e-05
7 *316:10 *1949:A 0.000141599
*RES
1 *1948:X *1949:A 10.665 
*END

*D_NET *330 0.000980236
*CONN
*I *1958:A1_N I *D sky130_fd_sc_hd__o2bb2ai_2
*I *1959:A I *D sky130_fd_sc_hd__nand4_2
*I *1949:Y O *D sky130_fd_sc_hd__nand2_4
*CAP
1 *1958:A1_N 0.000133641
2 *1959:A 8.05705e-05
3 *1949:Y 0.000198109
4 *330:6 0.00041232
5 *1958:A1_N *1960:A 6.83659e-05
6 *1958:A1_N *2275:A 3.00381e-05
7 *1949:B *1959:A 0
8 *325:14 *1959:A 5.71917e-05
*RES
1 *1949:Y *330:6 3.775 
2 *330:6 *1959:A 7.235 
3 *330:6 *1958:A1_N 4.045 
*END

*D_NET *331 0.00242116
*CONN
*I *1958:A2_N I *D sky130_fd_sc_hd__o2bb2ai_2
*I *1959:B I *D sky130_fd_sc_hd__nand4_2
*I *1963:A1 I *D sky130_fd_sc_hd__o221a_4
*I *1950:Y O *D sky130_fd_sc_hd__a31oi_2
*CAP
1 *1958:A2_N 2.11983e-05
2 *1959:B 0
3 *1963:A1 0.000579679
4 *1950:Y 0.000138849
5 *331:14 0.000688767
6 *331:10 0.000269135
7 *1958:A2_N *1960:A 4.82919e-05
8 *1963:A1 *1958:B2 0
9 *1963:A1 *1961:C 0.000194694
10 *1963:A1 *1963:A2 9.53428e-06
11 *1963:A1 *337:10 6.04726e-05
12 *1963:A1 *341:6 2.96334e-05
13 *331:10 *1958:B2 2.97004e-06
14 *331:10 *1964:A2 0
15 *331:14 *1958:B2 8.76986e-05
16 *331:14 *1960:B 7.81954e-05
17 *325:14 *1963:A1 0.000120186
18 *325:14 *331:10 6.55385e-05
19 *325:14 *331:14 2.63122e-05
*RES
1 *1950:Y *331:10 6.03 
2 *331:10 *331:14 3.195 
3 *331:14 *1963:A1 11.565 
4 *331:14 *1959:B 3.6 
5 *331:10 *1958:A2_N 4.05 
*END

*D_NET *332 0.000788662
*CONN
*I *1954:A_N I *D sky130_fd_sc_hd__and3b_2
*I *1953:A I *D sky130_fd_sc_hd__nor2b_2
*I *1951:Y O *D sky130_fd_sc_hd__nor2_2
*CAP
1 *1954:A_N 0.000140938
2 *1953:A 0
3 *1951:Y 0.000152418
4 *332:6 0.000293356
5 *1954:A_N *2267:A 0.000110315
6 *1954:A_N *2277:A 0
7 *1954:A_N *334:10 2.30292e-05
8 *332:6 *1953:B_N 5.30673e-05
9 *332:6 *334:10 7.00889e-06
10 *2197:A *1954:A_N 8.53113e-06
*RES
1 *1951:Y *332:6 4.12 
2 *332:6 *1953:A 1.6 
3 *332:6 *1954:A_N 8.45 
*END

*D_NET *333 0.00113792
*CONN
*I *1954:B I *D sky130_fd_sc_hd__and3b_2
*I *1953:B_N I *D sky130_fd_sc_hd__nor2b_2
*I *1952:Y O *D sky130_fd_sc_hd__nand2_2
*CAP
1 *1954:B 0
2 *1953:B_N 9.63179e-05
3 *1952:Y 0.000181428
4 *333:10 0.000277746
5 *1953:B_N *1951:B 0
6 *1953:B_N *2267:A 5.21046e-05
7 *333:10 *1951:B 2.75229e-05
8 *333:10 *2188:A 0.000201503
9 *333:10 *2267:A 0.000151632
10 *333:10 *551:6 9.66021e-05
11 *1942:A1 *333:10 0
12 *332:6 *1953:B_N 5.30673e-05
*RES
1 *1952:Y *333:10 8.595 
2 *333:10 *1953:B_N 5.52 
3 *333:10 *1954:B 3.6 
*END

*D_NET *334 0.00151132
*CONN
*I *1955:B I *D sky130_fd_sc_hd__nand2_2
*I *1957:B I *D sky130_fd_sc_hd__or2_2
*I *1956:B I *D sky130_fd_sc_hd__nor2_2
*I *1953:Y O *D sky130_fd_sc_hd__nor2b_2
*CAP
1 *1955:B 0.000106428
2 *1957:B 0
3 *1956:B 8.01962e-05
4 *1953:Y 0.000245968
5 *334:23 0.000192739
6 *334:10 0.000412475
7 *1955:B *338:8 8.8266e-05
8 *1955:B *509:16 0.000163199
9 *1956:B *2267:A 5.51245e-05
10 *334:10 *2267:A 0.000136883
11 *1954:A_N *334:10 2.30292e-05
12 *332:6 *334:10 7.00889e-06
*RES
1 *1953:Y *334:10 8.325 
2 *334:10 *1956:B 5.235 
3 *334:10 *334:23 3.14 
4 *334:23 *1957:B 1.6 
5 *334:23 *1955:B 4.135 
*END

*D_NET *335 0.00182921
*CONN
*I *1958:B1 I *D sky130_fd_sc_hd__o2bb2ai_2
*I *1962:B1 I *D sky130_fd_sc_hd__a311oi_2
*I *1954:X O *D sky130_fd_sc_hd__and3b_2
*CAP
1 *1958:B1 0.000140987
2 *1962:B1 0.000131157
3 *1954:X 0.000249907
4 *335:6 0.000522051
5 *1958:B1 *1940:B 0.000160658
6 *1958:B1 *1964:A2 9.68787e-05
7 *1958:B1 *466:74 7.21296e-06
8 *1958:B1 *509:12 0
9 *1962:B1 *490:16 0
10 *335:6 *1968:A 0.000349592
11 *1950:B1 *1958:B1 0.00013994
12 *1962:A2 *1962:B1 0
13 *1962:C1 *1962:B1 5.83121e-06
14 *1962:C1 *335:6 2.49909e-05
*RES
1 *1954:X *335:6 5.845 
2 *335:6 *1962:B1 3.355 
3 *335:6 *1958:B1 9.53 
*END

*D_NET *336 0.00150511
*CONN
*I *1961:C I *D sky130_fd_sc_hd__nand4_4
*I *1963:C1 I *D sky130_fd_sc_hd__o221a_4
*I *1959:C I *D sky130_fd_sc_hd__nand4_2
*I *1955:Y O *D sky130_fd_sc_hd__nand2_2
*CAP
1 *1961:C 7.9852e-05
2 *1963:C1 0
3 *1959:C 0.000184016
4 *1955:Y 9.35372e-05
5 *336:21 0.000176624
6 *336:6 0.000374325
7 *1959:C *1961:D 4.66108e-05
8 *1959:C *338:8 8.98017e-05
9 *1961:C *337:10 4.16445e-05
10 *1961:C *341:6 5.30673e-05
11 *336:6 *338:8 0.00011964
12 *336:21 *1964:A2 5.12942e-05
13 *1963:A1 *1961:C 0.000194694
14 *1963:B2 *336:21 0
15 *325:20 *1961:C 0
*RES
1 *1955:Y *336:6 3.43 
2 *336:6 *1959:C 4.48 
3 *336:6 *336:21 5.635 
4 *336:21 *1963:C1 1.6 
5 *336:21 *1961:C 4.15 
*END

*D_NET *337 0.00293286
*CONN
*I *1963:A2 I *D sky130_fd_sc_hd__o221a_4
*I *1958:B2 I *D sky130_fd_sc_hd__o2bb2ai_2
*I *1964:A1 I *D sky130_fd_sc_hd__o22ai_2
*I *1956:Y O *D sky130_fd_sc_hd__nor2_2
*CAP
1 *1963:A2 3.33099e-05
2 *1958:B2 0.000313853
3 *1964:A1 8.33204e-05
4 *1956:Y 0.000232484
5 *337:10 0.000670936
6 *337:6 0.000539556
7 *1958:B2 *1960:A 8.49205e-05
8 *1958:B2 *1961:D 0.000157595
9 *1958:B2 *1964:A2 0.00013532
10 *1964:A1 *1964:A2 9.24049e-05
11 *337:6 *1956:A 2.30292e-05
12 *337:6 *343:6 0.000200615
13 *337:10 *341:6 0.000163199
14 *1961:C *337:10 4.16445e-05
15 *1963:A1 *1958:B2 0
16 *1963:A1 *1963:A2 9.53428e-06
17 *1963:A1 *337:10 6.04726e-05
18 *325:14 *1958:B2 0
19 *331:10 *1958:B2 2.97004e-06
20 *331:14 *1958:B2 8.76986e-05
*RES
1 *1956:Y *337:6 5.5 
2 *337:6 *337:10 6.59 
3 *337:10 *1964:A1 5.49 
4 *337:10 *1958:B2 10.125 
5 *337:6 *1963:A2 2.215 
*END

*D_NET *338 0.00141636
*CONN
*I *1961:D I *D sky130_fd_sc_hd__nand4_4
*I *1959:D I *D sky130_fd_sc_hd__nand4_2
*I *1957:X O *D sky130_fd_sc_hd__or2_2
*CAP
1 *1961:D 6.07595e-05
2 *1959:D 0
3 *1957:X 0.000294638
4 *338:8 0.000355397
5 *1961:D *1964:A2 0.000157595
6 *338:8 *509:16 4.60584e-05
7 *1955:B *338:8 8.8266e-05
8 *1958:B2 *1961:D 0.000157595
9 *1959:C *1961:D 4.66108e-05
10 *1959:C *338:8 8.98017e-05
11 *336:6 *338:8 0.00011964
*RES
1 *1957:X *338:8 7.585 
2 *338:8 *1959:D 1.6 
3 *338:8 *1961:D 7.94 
*END

*D_NET *339 0.000647574
*CONN
*I *1960:A I *D sky130_fd_sc_hd__nand2_2
*I *1958:Y O *D sky130_fd_sc_hd__o2bb2ai_2
*CAP
1 *1960:A 0.000222998
2 *1958:Y 0.000222998
3 *1958:A1_N *1960:A 6.83659e-05
4 *1958:A2_N *1960:A 4.82919e-05
5 *1958:B2 *1960:A 8.49205e-05
*RES
1 *1958:Y *1960:A 6.77 
*END

*D_NET *340 0.00030154
*CONN
*I *1960:B I *D sky130_fd_sc_hd__nand2_2
*I *1959:Y O *D sky130_fd_sc_hd__nand4_2
*CAP
1 *1960:B 4.12163e-05
2 *1959:Y 4.12163e-05
3 *325:14 *1960:B 0.000140912
4 *331:14 *1960:B 7.81954e-05
*RES
1 *1959:Y *1960:B 8.835 
*END

*D_NET *341 0.00374011
*CONN
*I *1963:B1 I *D sky130_fd_sc_hd__o221a_4
*I *1964:B1 I *D sky130_fd_sc_hd__o22ai_2
*I *2023:B I *D sky130_fd_sc_hd__nor3_4
*I *1965:A I *D sky130_fd_sc_hd__nor2_4
*I *1961:Y O *D sky130_fd_sc_hd__nand4_4
*CAP
1 *1963:B1 0
2 *1964:B1 0
3 *2023:B 0.000161851
4 *1965:A 3.36214e-05
5 *1961:Y 2.96657e-05
6 *341:16 0.00104664
7 *341:10 0.000947603
8 *341:6 0.000126096
9 *341:10 *1964:A2 0
10 *341:16 *1876:B 5.00612e-05
11 *1876:A *341:16 3.05373e-05
12 *1961:C *341:6 5.30673e-05
13 *1963:A1 *341:6 2.96334e-05
14 *1963:B2 *341:10 0.000100536
15 *1963:B2 *341:16 1.71013e-05
16 *2023:C *2023:B 0.000246673
17 *299:14 *1965:A 5.4155e-06
18 *299:14 *2023:B 2.66586e-05
19 *299:14 *341:16 0.000396363
20 *303:14 *341:16 0.000275383
21 *337:10 *341:6 0.000163199
*RES
1 *1961:Y *341:6 3.085 
2 *341:6 *341:10 4.145 
3 *341:10 *341:16 18.935 
4 *341:16 *1965:A 2.215 
5 *341:16 *2023:B 5.275 
6 *341:10 *1964:B1 3.6 
7 *341:6 *1963:B1 1.6 
*END

*D_NET *342 0.00160747
*CONN
*I *1964:A2 I *D sky130_fd_sc_hd__o22ai_2
*I *1962:Y O *D sky130_fd_sc_hd__a311oi_2
*CAP
1 *1964:A2 0.000442535
2 *1962:Y 0.000442535
3 *1964:A2 *1940:B 0.000184717
4 *1964:A2 *1950:A1 0
5 *1964:A2 *509:12 0
6 *1958:B1 *1964:A2 9.68787e-05
7 *1958:B2 *1964:A2 0.00013532
8 *1961:D *1964:A2 0.000157595
9 *1963:B2 *1964:A2 0
10 *1964:A1 *1964:A2 9.24049e-05
11 *303:14 *1964:A2 4.18603e-06
12 *325:14 *1964:A2 0
13 *331:10 *1964:A2 0
14 *336:21 *1964:A2 5.12942e-05
15 *341:10 *1964:A2 0
*RES
1 *1962:Y *1964:A2 17.505 
*END

*D_NET *343 0.0014898
*CONN
*I *1967:A I *D sky130_fd_sc_hd__nand2_4
*I *1975:A2 I *D sky130_fd_sc_hd__a21oi_2
*I *1963:X O *D sky130_fd_sc_hd__o221a_4
*CAP
1 *1967:A 0.000155893
2 *1975:A2 0
3 *1963:X 0.000330542
4 *343:6 0.000486435
5 *1967:A *1975:A1 0.000230609
6 *343:6 *1956:A 8.57024e-05
7 *337:6 *343:6 0.000200615
*RES
1 *1963:X *343:6 7.57 
2 *343:6 *1975:A2 1.6 
3 *343:6 *1967:A 4.93 
*END

*D_NET *344 0.00392672
*CONN
*I *2025:A1 I *D sky130_fd_sc_hd__a21oi_4
*I *1964:Y O *D sky130_fd_sc_hd__o22ai_2
*CAP
1 *2025:A1 0.00160289
2 *1964:Y 0.00160289
3 *2025:A1 *2012:A 1.71013e-05
4 *2025:A1 *2013:B 0
5 *2025:A1 *2020:A 3.58573e-05
6 *2025:A1 *2020:B 4.82919e-05
7 *2025:A1 *2020:D 0.000201503
8 *2025:A1 *2025:A2 0.000229763
9 *2025:A1 *379:10 7.34286e-05
10 *2025:A1 *504:8 0
11 *1963:B2 *2025:A1 0.000115003
*RES
1 *1964:Y *2025:A1 34.005 
*END

*D_NET *345 0.000283266
*CONN
*I *1966:B1 I *D sky130_fd_sc_hd__o211ai_4
*I *1965:Y O *D sky130_fd_sc_hd__nor2_4
*CAP
1 *1966:B1 0.000103296
2 *1965:Y 0.000103296
3 *1966:B1 *2109:B 7.66727e-05
*RES
1 *1965:Y *1966:B1 9.345 
*END

*D_NET *346 0.00164914
*CONN
*I *2301:A I *D sky130_fd_sc_hd__buf_6
*I *1967:B I *D sky130_fd_sc_hd__nand2_4
*I *1966:Y O *D sky130_fd_sc_hd__o211ai_4
*CAP
1 *2301:A 0.000162562
2 *1967:B 4.76177e-05
3 *1966:Y 0.00027726
4 *346:8 0.00048744
5 *1967:B *1975:A1 0.0001249
6 *2301:A *1975:A1 0
7 *2301:A *1976:A1 3.09164e-05
8 *2301:A *1976:A2 4.82863e-05
9 *2301:A *1976:B1 0.000196376
10 *2301:A *2109:B 6.1452e-05
11 *346:8 *2109:B 0.000212331
12 *1966:A2 *346:8 0
*RES
1 *1966:Y *346:8 9.57 
2 *346:8 *1967:B 4.74 
3 *346:8 *2301:A 7.32 
*END

*D_NET *347 0.00326161
*CONN
*I *2002:A I *D sky130_fd_sc_hd__nand3_4
*I *2321:A I *D sky130_fd_sc_hd__buf_2
*I *1986:A1 I *D sky130_fd_sc_hd__a211oi_2
*I *1999:A1 I *D sky130_fd_sc_hd__a211o_2
*I *1976:B1 I *D sky130_fd_sc_hd__a21o_2
*I *1967:Y O *D sky130_fd_sc_hd__nand2_4
*CAP
1 *2002:A 0
2 *2321:A 0
3 *1986:A1 0.000198583
4 *1999:A1 0.000146105
5 *1976:B1 0.000298007
6 *1967:Y 0.000178181
7 *347:48 0.000502382
8 *347:27 0.000565749
9 *347:14 0.000502853
10 *347:10 0.000267182
11 *1976:B1 *2276:A 7.00889e-06
12 *1986:A1 *1988:A 0
13 *347:10 *1975:A1 0.000109572
14 *347:14 *1975:A1 4.7043e-05
15 *347:14 *1994:A 0
16 *347:14 *2021:B 6.73751e-05
17 *347:27 *1976:A2 0
18 *347:27 *1994:A 0
19 *347:48 *1994:A 0
20 *347:48 *1998:A2_N 9.15345e-05
21 *347:48 *1999:A2 0
22 *347:48 *2000:A 3.85692e-05
23 *347:48 *2000:B 1.08758e-05
24 *347:48 *2001:A 3.42142e-05
25 *347:48 *352:10 0
26 *2301:A *1976:B1 0.000196376
*RES
1 *1967:Y *347:10 4.84 
2 *347:10 *347:14 4.145 
3 *347:14 *1976:B1 8.55 
4 *347:14 *347:27 1.89 
5 *347:27 *1999:A1 5.79 
6 *347:27 *347:48 7.22 
7 *347:48 *1986:A1 4.495 
8 *347:48 *2321:A 1.6 
9 *347:10 *2002:A 1.6 
*END

*D_NET *348 0.00295328
*CONN
*I *1973:A1 I *D sky130_fd_sc_hd__o21bai_4
*I *1972:A_N I *D sky130_fd_sc_hd__nand3b_4
*I *1971:A_N I *D sky130_fd_sc_hd__and3b_2
*I *1968:Y O *D sky130_fd_sc_hd__nor2_4
*CAP
1 *1973:A1 0.000382472
2 *1972:A_N 0.000311183
3 *1971:A_N 0
4 *1968:Y 9.64129e-05
5 *348:19 0.000711395
6 *348:10 0.000114153
7 *1972:A_N *1971:B 6.26945e-05
8 *1972:A_N *1972:C 0.000145559
9 *1972:A_N *2188:A 0.000502814
10 *1972:A_N *360:8 0
11 *1972:A_N *364:10 0.000122726
12 *1972:A_N *512:16 6.4336e-05
13 *1973:A1 *1973:B1_N 5.83121e-06
14 *1973:A1 *2277:A 5.21714e-05
15 *1973:A1 *353:6 0.000236355
16 *1973:A1 *512:16 5.21545e-05
17 *348:10 *1968:A 7.00889e-06
18 *348:10 *2277:A 3.39151e-05
19 *348:10 *512:16 1.22762e-05
20 *348:19 *2277:A 2.24336e-05
21 *348:19 *512:16 1.73877e-05
22 *2197:A *348:10 0
*RES
1 *1968:Y *348:10 5.175 
2 *348:10 *1971:A_N 3.6 
3 *348:10 *348:19 0.615 
4 *348:19 *1972:A_N 11.655 
5 *348:19 *1973:A1 10.17 
*END

*D_NET *349 0.000601055
*CONN
*I *1973:A2 I *D sky130_fd_sc_hd__o21bai_4
*I *1969:X O *D sky130_fd_sc_hd__and2_2
*CAP
1 *1973:A2 0.000209962
2 *1969:X 0.000209962
3 *1973:A2 *2188:A 5.34525e-05
4 *1973:A2 *2277:A 0
5 *1973:A2 *351:8 4.61658e-05
6 *1973:A2 *353:6 4.82863e-05
7 *1973:A2 *364:10 2.87867e-05
8 *1973:A2 *473:12 0
9 *2233:A *1973:A2 4.43871e-06
*RES
1 *1969:X *1973:A2 11.325 
*END

*D_NET *350 0.00174356
*CONN
*I *1971:B I *D sky130_fd_sc_hd__and3b_2
*I *1972:B I *D sky130_fd_sc_hd__nand3b_4
*I *1970:Y O *D sky130_fd_sc_hd__nand2_2
*CAP
1 *1971:B 0.000329967
2 *1972:B 0
3 *1970:Y 5.61733e-05
4 *350:10 0.00038614
5 *1971:B *2188:A 0.000352156
6 *1971:B *2276:A 7.47215e-05
7 *1971:B *473:12 6.52181e-05
8 *350:10 *1970:A 4.82863e-05
9 *350:10 *2276:A 0.000159964
10 *350:10 *473:12 0.00016163
11 *350:10 *552:23 4.66108e-05
12 *1972:A_N *1971:B 6.26945e-05
*RES
1 *1970:Y *350:10 5.94 
2 *350:10 *1972:B 3.6 
3 *350:10 *1971:B 8.715 
*END

*D_NET *351 0.00138748
*CONN
*I *1986:C1 I *D sky130_fd_sc_hd__a211oi_2
*I *1987:A1 I *D sky130_fd_sc_hd__o21a_2
*I *1971:X O *D sky130_fd_sc_hd__and3b_2
*CAP
1 *1986:C1 6.08521e-05
2 *1987:A1 0.000229443
3 *1971:X 0.000220331
4 *351:8 0.000510626
5 *1986:C1 *1988:A 3.00381e-05
6 *1986:C1 *1988:B 4.66108e-05
7 *1987:A1 *1987:B1 0.000124895
8 *1987:A1 *1988:B 0.00011852
9 *1987:A1 *2277:A 0
10 *351:8 *2277:A 0
11 *351:8 *364:10 0
12 *1973:A2 *351:8 4.61658e-05
*RES
1 *1971:X *351:8 7.53 
2 *351:8 *1987:A1 7.92 
3 *351:8 *1986:C1 4.74 
*END

*D_NET *352 0.00365316
*CONN
*I *1996:A I *D sky130_fd_sc_hd__and2_2
*I *1995:C I *D sky130_fd_sc_hd__and4_4
*I *1997:A1 I *D sky130_fd_sc_hd__o21ai_2
*I *1974:A I *D sky130_fd_sc_hd__nand2_2
*I *1976:A1 I *D sky130_fd_sc_hd__a21o_2
*I *1972:Y O *D sky130_fd_sc_hd__nand3b_4
*CAP
1 *1996:A 1.96262e-05
2 *1995:C 0.00023776
3 *1997:A1 0.000398456
4 *1974:A 2.70126e-05
5 *1976:A1 0.00012946
6 *1972:Y 0
7 *352:10 0.000328782
8 *352:8 0.000629599
9 *352:6 0.000316219
10 *1974:A *1974:B 3.74161e-05
11 *1974:A *1975:B1 4.82863e-05
12 *1974:A *353:16 4.66108e-05
13 *1976:A1 *1976:A2 0.000121102
14 *1976:A1 *2109:B 0
15 *1976:A1 *2276:A 7.63204e-05
16 *1995:C *1995:A 2.05056e-05
17 *1995:C *1995:B 0.000316421
18 *1995:C *2276:A 1.94723e-05
19 *1995:C *353:10 5.7344e-05
20 *1995:C *552:12 7.4027e-05
21 *1996:A *1997:B1 3.00381e-05
22 *1997:A1 *1997:B1 5.30673e-05
23 *1997:A1 *1999:B1 2.75145e-05
24 *1997:A1 *552:23 2.75229e-05
25 *352:8 *2001:B 0
26 *352:8 *353:10 0.000133765
27 *352:8 *552:12 0.000228515
28 *352:10 *1976:A2 2.92496e-05
29 *352:10 *2000:A 0
30 *352:10 *2001:B 0
31 *352:10 *2276:A 5.98004e-06
32 *352:10 *353:10 0.000105841
33 *352:10 *353:16 7.63282e-05
34 *2301:A *1976:A1 3.09164e-05
35 *347:48 *352:10 0
*RES
1 *1972:Y *352:6 3.6 
2 *352:6 *352:8 2.91 
3 *352:8 *352:10 3.93 
4 *352:10 *1976:A1 6.705 
5 *352:10 *1974:A 4.395 
6 *352:8 *1997:A1 9.57 
7 *352:6 *1995:C 8.7 
8 *1997:A1 *1996:A 3.65 
*END

*D_NET *353 0.0040467
*CONN
*I *1995:B I *D sky130_fd_sc_hd__and4_4
*I *1986:A2 I *D sky130_fd_sc_hd__a211oi_2
*I *1974:B I *D sky130_fd_sc_hd__nand2_2
*I *1976:A2 I *D sky130_fd_sc_hd__a21o_2
*I *1973:Y O *D sky130_fd_sc_hd__o21bai_4
*CAP
1 *1995:B 0.000101929
2 *1986:A2 0
3 *1974:B 9.44168e-05
4 *1976:A2 0.000164504
5 *1973:Y 0.000118334
6 *353:16 0.000373459
7 *353:10 0.000291788
8 *353:6 0.000397513
9 *1995:B *1983:A1 0.000172026
10 *1995:B *1995:A 8.8266e-05
11 *353:6 *1983:A1 0.000120655
12 *353:10 *2276:A 0.000523946
13 *353:16 *1975:B1 4.21973e-05
14 *353:16 *2276:A 0.000140912
15 *1973:A1 *353:6 0.000236355
16 *1973:A2 *353:6 4.82863e-05
17 *1974:A *1974:B 3.74161e-05
18 *1974:A *353:16 4.66108e-05
19 *1976:A1 *1976:A2 0.000121102
20 *1995:C *1995:B 0.000316421
21 *1995:C *353:10 5.7344e-05
22 *2233:A *353:6 0.000159747
23 *2301:A *1976:A2 4.82863e-05
24 *347:27 *1976:A2 0
25 *352:8 *353:10 0.000133765
26 *352:10 *1976:A2 2.92496e-05
27 *352:10 *353:10 0.000105841
28 *352:10 *353:16 7.63282e-05
*RES
1 *1973:Y *353:6 5.155 
2 *353:6 *353:10 8.225 
3 *353:10 *353:16 4.775 
4 *353:16 *1976:A2 8.96 
5 *353:16 *1974:B 3.1 
6 *353:10 *1986:A2 3.6 
7 *353:6 *1995:B 5.515 
*END

*D_NET *354 0.00123036
*CONN
*I *1975:B1 I *D sky130_fd_sc_hd__a21oi_2
*I *1974:Y O *D sky130_fd_sc_hd__nand2_2
*CAP
1 *1975:B1 0.000302749
2 *1974:Y 0.000302749
3 *1975:B1 *1987:A2 6.81237e-05
4 *1975:B1 *1987:B1 3.09164e-05
5 *1975:B1 *2109:B 0.000358243
6 *1975:B1 *355:10 7.70938e-05
7 *1974:A *1975:B1 4.82863e-05
8 *353:16 *1975:B1 4.21973e-05
*RES
1 *1974:Y *1975:B1 13.905 
*END

*D_NET *355 0.000866593
*CONN
*I *1987:A2 I *D sky130_fd_sc_hd__o21a_2
*I *1977:A_N I *D sky130_fd_sc_hd__and2b_2
*I *1975:Y O *D sky130_fd_sc_hd__a21oi_2
*CAP
1 *1987:A2 8.43817e-05
2 *1977:A_N 0.000112761
3 *1975:Y 0.000109669
4 *355:10 0.000306812
5 *1977:A_N *1977:B 4.82863e-05
6 *1987:A2 *1987:B1 9.50342e-06
7 *355:10 *1975:A1 4.99619e-05
8 *1975:B1 *1987:A2 6.81237e-05
9 *1975:B1 *355:10 7.70938e-05
*RES
1 *1975:Y *355:10 5.685 
2 *355:10 *1977:A_N 5.43 
3 *355:10 *1987:A2 5.235 
*END

*D_NET *356 0.000313169
*CONN
*I *1977:B I *D sky130_fd_sc_hd__and2b_2
*I *1976:X O *D sky130_fd_sc_hd__a21o_2
*CAP
1 *1977:B 7.21138e-05
2 *1976:X 7.21138e-05
3 *1977:B *2276:A 0.000120655
4 *1977:A_N *1977:B 4.82863e-05
*RES
1 *1976:X *1977:B 4.685 
*END

*D_NET *357 0.000892261
*CONN
*I *1980:A1 I *D sky130_fd_sc_hd__o21ba_2
*I *1981:A1 I *D sky130_fd_sc_hd__o21bai_2
*I *1978:Y O *D sky130_fd_sc_hd__nor2_2
*CAP
1 *1980:A1 0
2 *1981:A1 0.000120697
3 *1978:Y 0.000125667
4 *357:10 0.000246364
5 *1981:A1 *1981:A2 9.24127e-05
6 *1981:A1 *358:6 4.82919e-05
7 *1981:A1 *359:10 0
8 *1981:A1 *472:14 0
9 *357:10 *1979:B 0.000122271
10 *357:10 *358:6 8.8266e-05
11 *357:10 *472:81 4.82919e-05
*RES
1 *1978:Y *357:10 4.585 
2 *357:10 *1981:A1 8.195 
3 *357:10 *1980:A1 1.6 
*END

*D_NET *358 0.000709496
*CONN
*I *1980:A2 I *D sky130_fd_sc_hd__o21ba_2
*I *1981:A2 I *D sky130_fd_sc_hd__o21bai_2
*I *1979:X O *D sky130_fd_sc_hd__and2_2
*CAP
1 *1980:A2 0
2 *1981:A2 7.24703e-05
3 *1979:X 7.28294e-05
4 *358:6 0.0001453
5 *1981:A2 *1980:B1_N 0.000163019
6 *1981:A2 *374:12 1.83756e-05
7 *1981:A2 *513:10 8.53113e-06
8 *1981:A1 *1981:A2 9.24127e-05
9 *1981:A1 *358:6 4.82919e-05
10 *357:10 *358:6 8.8266e-05
*RES
1 *1979:X *358:6 3.085 
2 *358:6 *1981:A2 7.94 
3 *358:6 *1980:A2 1.6 
*END

*D_NET *359 0.00166429
*CONN
*I *1997:A2 I *D sky130_fd_sc_hd__o21ai_2
*I *2003:A1 I *D sky130_fd_sc_hd__o21ai_2
*I *1998:B1 I *D sky130_fd_sc_hd__o2bb2ai_2
*I *1980:X O *D sky130_fd_sc_hd__o21ba_2
*CAP
1 *1997:A2 6.78097e-05
2 *2003:A1 3.55952e-05
3 *1998:B1 0.000188136
4 *1980:X 7.95754e-05
5 *359:10 0.000235497
6 *1997:A2 *1999:B1 6.28765e-05
7 *1997:A2 *2001:A 0
8 *1997:A2 *373:10 0.000187071
9 *1998:B1 *1998:B2 0.000180373
10 *1998:B1 *2319:A 8.8266e-05
11 *1998:B1 *503:8 0.000164874
12 *2003:A1 *1998:B2 4.60584e-05
13 *359:10 *1980:B1_N 5.4003e-05
14 *359:10 *2279:A 0.00022921
15 *359:10 *374:12 4.49498e-05
16 *1981:A1 *359:10 0
*RES
1 *1980:X *359:10 8.255 
2 *359:10 *1998:B1 5.155 
3 *359:10 *2003:A1 2.395 
4 *1998:B1 *1997:A2 9.345 
*END

*D_NET *360 0.00211609
*CONN
*I *1984:A I *D sky130_fd_sc_hd__nand2_2
*I *1995:A I *D sky130_fd_sc_hd__and4_4
*I *1981:Y O *D sky130_fd_sc_hd__o21bai_2
*CAP
1 *1984:A 0
2 *1995:A 0.000122796
3 *1981:Y 0.000470842
4 *360:8 0.000593638
5 *1995:A *1983:A1 0.000124895
6 *1995:A *2278:A 0.000103185
7 *1995:A *552:12 0
8 *360:8 *1981:B1_N 0.000124895
9 *360:8 *1984:B 0.000467068
10 *1972:A_N *360:8 0
11 *1995:B *1995:A 8.8266e-05
12 *1995:C *1995:A 2.05056e-05
*RES
1 *1981:Y *360:8 9.655 
2 *360:8 *1995:A 8.885 
3 *360:8 *1984:A 1.6 
*END

*D_NET *361 0.000310304
*CONN
*I *1983:B1 I *D sky130_fd_sc_hd__o21ai_2
*I *1982:Y O *D sky130_fd_sc_hd__a21boi_2
*CAP
1 *1983:B1 9.81603e-05
2 *1982:Y 9.81603e-05
3 *1983:B1 *473:65 0.000113983
*RES
1 *1982:Y *1983:B1 4.7 
*END

*D_NET *362 0.00275021
*CONN
*I *1995:D I *D sky130_fd_sc_hd__and4_4
*I *1984:B I *D sky130_fd_sc_hd__nand2_2
*I *1997:B1 I *D sky130_fd_sc_hd__o21ai_2
*I *1996:B I *D sky130_fd_sc_hd__and2_2
*I *1983:Y O *D sky130_fd_sc_hd__o21ai_2
*CAP
1 *1995:D 0.000268231
2 *1984:B 0.00017261
3 *1997:B1 0.000238552
4 *1996:B 0
5 *1983:Y 0.000366802
6 *362:12 0.000379226
7 *362:8 0.000411856
8 *1995:D *1983:A1 6.05513e-05
9 *1995:D *1983:A2 3.23663e-05
10 *1995:D *373:10 0.000239807
11 *1995:D *473:65 3.00381e-05
12 *362:8 *2279:A 0
13 *362:8 *373:10 0
14 *362:12 *2279:A 0
15 *362:12 *373:10 0
16 *1996:A *1997:B1 3.00381e-05
17 *1997:A1 *1997:B1 5.30673e-05
18 *360:8 *1984:B 0.000467068
*RES
1 *1983:Y *362:8 5.235 
2 *362:8 *362:12 3.89 
3 *362:12 *1996:B 1.6 
4 *362:12 *1997:B1 5.17 
5 *362:8 *1984:B 7.845 
6 *1983:Y *1995:D 8.135 
*END

*D_NET *363 0.000105481
*CONN
*I *1985:A I *D sky130_fd_sc_hd__inv_2
*I *1984:Y O *D sky130_fd_sc_hd__nand2_2
*CAP
1 *1985:A 5.27404e-05
2 *1984:Y 5.27404e-05
*RES
1 *1984:Y *1985:A 3.995 
*END

*D_NET *364 0.00206231
*CONN
*I *1986:B1 I *D sky130_fd_sc_hd__a211oi_2
*I *1987:B1 I *D sky130_fd_sc_hd__o21a_2
*I *1985:Y O *D sky130_fd_sc_hd__inv_2
*CAP
1 *1986:B1 0
2 *1987:B1 0.000194243
3 *1985:Y 0.000539873
4 *364:10 0.000734116
5 *1987:B1 *1988:B 0
6 *1987:B1 *2109:B 9.87538e-05
7 *364:10 *2109:B 0.000107716
8 *364:10 *473:12 7.07801e-05
9 *1972:A_N *364:10 0.000122726
10 *1973:A2 *364:10 2.87867e-05
11 *1975:B1 *1987:B1 3.09164e-05
12 *1987:A1 *1987:B1 0.000124895
13 *1987:A2 *1987:B1 9.50342e-06
14 *351:8 *364:10 0
*RES
1 *1985:Y *364:10 11.52 
2 *364:10 *1987:B1 7.5 
3 *364:10 *1986:B1 3.6 
*END

*D_NET *365 0.000167789
*CONN
*I *1988:A I *D sky130_fd_sc_hd__nor2_4
*I *1986:Y O *D sky130_fd_sc_hd__a211oi_2
*CAP
1 *1988:A 6.88756e-05
2 *1986:Y 6.88756e-05
3 *1986:A1 *1988:A 0
4 *1986:C1 *1988:A 3.00381e-05
*RES
1 *1986:Y *1988:A 4.355 
*END

*D_NET *366 0.000502963
*CONN
*I *1988:B I *D sky130_fd_sc_hd__nor2_4
*I *1987:X O *D sky130_fd_sc_hd__o21a_2
*CAP
1 *1988:B 0.000168916
2 *1987:X 0.000168916
3 *1986:C1 *1988:B 4.66108e-05
4 *1987:A1 *1988:B 0.00011852
5 *1987:B1 *1988:B 0
*RES
1 *1987:X *1988:B 10.065 
*END

*D_NET *367 0.00165453
*CONN
*I *1992:A1 I *D sky130_fd_sc_hd__o21ai_2
*I *1991:B I *D sky130_fd_sc_hd__or3_4
*I *1989:Y O *D sky130_fd_sc_hd__nor2_2
*CAP
1 *1992:A1 0.000400785
2 *1991:B 0
3 *1989:Y 0.000170584
4 *367:12 0.00057137
5 *1992:A1 *1991:C 5.30673e-05
6 *1992:A1 *1992:A2 0.000240459
7 *1992:A1 *368:12 5.4155e-06
8 *367:12 *1989:A 7.49327e-05
9 *367:12 *2102:A 0
10 *367:12 *368:12 5.13155e-05
11 *367:12 *472:106 8.65961e-05
12 *367:12 *554:14 0
*RES
1 *1989:Y *367:12 8.465 
2 *367:12 *1991:B 1.6 
3 *367:12 *1992:A1 7.165 
*END

*D_NET *368 0.00108832
*CONN
*I *1991:C I *D sky130_fd_sc_hd__or3_4
*I *1992:A2 I *D sky130_fd_sc_hd__o21ai_2
*I *1990:X O *D sky130_fd_sc_hd__and2_2
*CAP
1 *1991:C 4.46339e-05
2 *1992:A2 0.000135156
3 *1990:X 7.8527e-05
4 *368:12 0.000258317
5 *368:12 *554:14 0
6 *1991:A *1991:C 4.00541e-06
7 *1992:A1 *1991:C 5.30673e-05
8 *1992:A1 *1992:A2 0.000240459
9 *1992:A1 *368:12 5.4155e-06
10 *1992:B1 *1992:A2 0.000141323
11 *104:6 *1991:C 6.90876e-05
12 *104:6 *1992:A2 7.00889e-06
13 *367:12 *368:12 5.13155e-05
*RES
1 *1990:X *368:12 7.085 
2 *368:12 *1992:A2 5.515 
3 *368:12 *1991:C 3.1 
*END

*D_NET *369 0.00102689
*CONN
*I *1993:A I *D sky130_fd_sc_hd__nand2_2
*I *2003:B1 I *D sky130_fd_sc_hd__o21ai_2
*I *1991:X O *D sky130_fd_sc_hd__or3_4
*CAP
1 *1993:A 0
2 *2003:B1 6.46139e-05
3 *1991:X 0.000315329
4 *369:14 0.000379943
5 *2003:B1 *371:8 3.00381e-05
6 *369:14 *1993:B 4.82863e-05
7 *369:14 *370:8 0.000178512
8 *369:14 *554:14 1.01661e-05
*RES
1 *1991:X *369:14 11.72 
2 *369:14 *2003:B1 2.74 
3 *369:14 *1993:A 1.6 
*END

*D_NET *370 0.00206705
*CONN
*I *1993:B I *D sky130_fd_sc_hd__nand2_2
*I *2004:A I *D sky130_fd_sc_hd__nand2_2
*I *2022:A1 I *D sky130_fd_sc_hd__a31o_2
*I *1992:Y O *D sky130_fd_sc_hd__o21ai_2
*CAP
1 *1993:B 2.22788e-05
2 *2004:A 0
3 *2022:A1 0.000129159
4 *1992:Y 0.000118371
5 *370:14 0.000491107
6 *370:8 0.000502598
7 *2022:A1 *2013:A 9.71067e-05
8 *2022:A1 *2022:A2 9.54399e-05
9 *2022:A1 *381:10 1.56428e-05
10 *370:8 *472:14 7.21296e-06
11 *370:8 *472:18 6.95335e-05
12 *370:8 *554:14 0.000140912
13 *370:14 *472:18 0.000150888
14 *369:14 *1993:B 4.82863e-05
15 *369:14 *370:8 0.000178512
*RES
1 *1992:Y *370:8 7.53 
2 *370:8 *370:14 8.705 
3 *370:14 *2022:A1 8.225 
4 *370:14 *2004:A 1.6 
5 *370:8 *1993:B 4.05 
*END

*D_NET *371 0.00372349
*CONN
*I *1999:C1 I *D sky130_fd_sc_hd__a211o_2
*I *1994:A I *D sky130_fd_sc_hd__inv_2
*I *2000:A I *D sky130_fd_sc_hd__nand2_2
*I *1993:Y O *D sky130_fd_sc_hd__nand2_2
*CAP
1 *1999:C1 0
2 *1994:A 0.000169518
3 *2000:A 0.00030991
4 *1993:Y 0.000600793
5 *371:31 0.000204546
6 *371:8 0.000945731
7 *1994:A *1999:B1 9.50342e-06
8 *1994:A *372:10 4.99619e-05
9 *1994:A *373:18 0.000142965
10 *2000:A *1998:A2_N 4.82863e-05
11 *2000:A *2000:B 0.000233004
12 *2000:A *2001:A 4.37084e-05
13 *2000:A *503:8 8.73389e-06
14 *371:8 *1998:B2 0.000581986
15 *371:8 *2003:A2 2.30292e-05
16 *371:8 *380:10 8.65961e-05
17 *371:8 *503:8 2.20732e-05
18 *371:31 *1999:B1 0.000109009
19 *371:31 *373:18 6.5525e-05
20 *2003:B1 *371:8 3.00381e-05
21 *347:14 *1994:A 0
22 *347:27 *1994:A 0
23 *347:48 *1994:A 0
24 *347:48 *2000:A 3.85692e-05
25 *352:10 *2000:A 0
*RES
1 *1993:Y *371:8 10 
2 *371:8 *2000:A 10.085 
3 *371:8 *371:31 3.38 
4 *371:31 *1994:A 6.795 
5 *371:31 *1999:C1 3.6 
*END

*D_NET *372 0.00201746
*CONN
*I *2002:B I *D sky130_fd_sc_hd__nand3_4
*I *2020:A I *D sky130_fd_sc_hd__and4_2
*I *2021:A I *D sky130_fd_sc_hd__nand4_2
*I *1994:Y O *D sky130_fd_sc_hd__inv_2
*CAP
1 *2002:B 0
2 *2020:A 5.2909e-05
3 *2021:A 0.00022106
4 *1994:Y 0.000133349
5 *372:12 0.000309499
6 *372:10 0.000168879
7 *2020:A *2020:B 5.83121e-06
8 *2021:A *2020:B 5.23362e-05
9 *2021:A *2020:C 9.54469e-05
10 *2021:A *2021:B 0.000181383
11 *2021:A *384:18 0
12 *372:10 *2020:B 9.50342e-06
13 *372:10 *2021:B 0.000258663
14 *372:10 *373:18 1.12578e-05
15 *372:10 *504:8 0.000110683
16 *372:12 *2020:B 0.000164686
17 *372:12 *2021:B 0.000156155
18 *1994:A *372:10 4.99619e-05
19 *2025:A1 *2020:A 3.58573e-05
*RES
1 *1994:Y *372:10 7.065 
2 *372:10 *372:12 1.89 
3 *372:12 *2021:A 7.935 
4 *372:12 *2020:A 4.395 
5 *372:10 *2002:B 3.6 
*END

*D_NET *373 0.00380332
*CONN
*I *2319:A I *D sky130_fd_sc_hd__buf_2
*I *2320:A I *D sky130_fd_sc_hd__buf_2
*I *2021:B I *D sky130_fd_sc_hd__nand4_2
*I *1995:X O *D sky130_fd_sc_hd__and4_4
*CAP
1 *2319:A 6.70863e-05
2 *2320:A 0
3 *2021:B 0.000313845
4 *1995:X 0.000398447
5 *373:18 0.000582601
6 *373:10 0.00073429
7 *2021:B *2020:C 1.26548e-05
8 *2021:B *2023:A 4.18603e-06
9 *2319:A *1998:B2 0.00012657
10 *2319:A *503:8 2.0514e-05
11 *373:10 *1983:A1 0.000122155
12 *373:10 *1999:B1 1.10631e-05
13 *373:10 *2278:A 0
14 *373:18 *1999:B1 1.14361e-05
15 *1994:A *373:18 0.000142965
16 *1995:D *373:10 0.000239807
17 *1997:A2 *373:10 0.000187071
18 *1998:B1 *2319:A 8.8266e-05
19 *2021:A *2021:B 0.000181383
20 *347:14 *2021:B 6.73751e-05
21 *362:8 *373:10 0
22 *362:12 *373:10 0
23 *371:31 *373:18 6.5525e-05
24 *372:10 *2021:B 0.000258663
25 *372:10 *373:18 1.12578e-05
26 *372:12 *2021:B 0.000156155
*RES
1 *1995:X *373:10 12.3825 
2 *373:10 *373:18 7.3025 
3 *373:18 *2021:B 13.055 
4 *373:18 *2320:A 1.6 
5 *373:10 *2319:A 5.4225 
*END

*D_NET *374 0.00214493
*CONN
*I *2003:A2 I *D sky130_fd_sc_hd__o21ai_2
*I *1998:B2 I *D sky130_fd_sc_hd__o2bb2ai_2
*I *1996:X O *D sky130_fd_sc_hd__and2_2
*CAP
1 *2003:A2 1.94807e-05
2 *1998:B2 0.000142413
3 *1996:X 0.000377982
4 *374:12 0.000539875
5 *1998:B2 *1998:A2_N 0
6 *1998:B2 *503:8 1.34594e-05
7 *374:12 *1980:B1_N 3.03775e-05
8 *374:12 *2279:A 0
9 *374:12 *472:18 0
10 *1981:A2 *374:12 1.83756e-05
11 *1998:B1 *1998:B2 0.000180373
12 *2003:A1 *1998:B2 4.60584e-05
13 *2319:A *1998:B2 0.00012657
14 *359:10 *374:12 4.49498e-05
15 *371:8 *1998:B2 0.000581986
16 *371:8 *2003:A2 2.30292e-05
*RES
1 *1996:X *374:12 10.445 
2 *374:12 *1998:B2 7.6 
3 *374:12 *2003:A2 2.05 
*END

*D_NET *375 0.000630711
*CONN
*I *1999:B1 I *D sky130_fd_sc_hd__a211o_2
*I *1997:Y O *D sky130_fd_sc_hd__o21ai_2
*CAP
1 *1999:B1 0.000162799
2 *1997:Y 0.000162799
3 *1999:B1 *1999:A2 7.37109e-05
4 *1999:B1 *2001:A 0
5 *1994:A *1999:B1 9.50342e-06
6 *1997:A1 *1999:B1 2.75145e-05
7 *1997:A2 *1999:B1 6.28765e-05
8 *371:31 *1999:B1 0.000109009
9 *373:10 *1999:B1 1.10631e-05
10 *373:18 *1999:B1 1.14361e-05
*RES
1 *1997:Y *1999:B1 11.07 
*END

*D_NET *376 0.00057244
*CONN
*I *2000:B I *D sky130_fd_sc_hd__nand2_2
*I *1998:Y O *D sky130_fd_sc_hd__o2bb2ai_2
*CAP
1 *2000:B 0.000104379
2 *1998:Y 0.000104379
3 *2000:B *1998:A2_N 7.1784e-05
4 *2000:B *503:8 4.80182e-05
5 *2000:A *2000:B 0.000233004
6 *347:48 *2000:B 1.08758e-05
*RES
1 *1998:Y *2000:B 6.08 
*END

*D_NET *377 0.000574753
*CONN
*I *2001:A I *D sky130_fd_sc_hd__nand2_2
*I *1999:X O *D sky130_fd_sc_hd__a211o_2
*CAP
1 *2001:A 0.000161651
2 *1999:X 0.000161651
3 *2001:A *1999:A2 7.36562e-05
4 *2001:A *2001:B 4.65643e-05
5 *2001:A *2278:A 5.33085e-05
6 *1997:A2 *2001:A 0
7 *1999:B1 *2001:A 0
8 *2000:A *2001:A 4.37084e-05
9 *347:48 *2001:A 3.42142e-05
*RES
1 *1999:X *2001:A 10.875 
*END

*D_NET *378 0.000354748
*CONN
*I *2001:B I *D sky130_fd_sc_hd__nand2_2
*I *2000:Y O *D sky130_fd_sc_hd__nand2_2
*CAP
1 *2001:B 0.000112419
2 *2000:Y 0.000112419
3 *2001:B *1998:A2_N 3.00381e-05
4 *2001:B *2278:A 5.33085e-05
5 *2001:B *552:12 0
6 *2001:A *2001:B 4.65643e-05
7 *352:8 *2001:B 0
8 *352:10 *2001:B 0
*RES
1 *2000:Y *2001:B 9.285 
*END

*D_NET *379 0.00140719
*CONN
*I *2011:A2_N I *D sky130_fd_sc_hd__o2bb2ai_2
*I *2012:A I *D sky130_fd_sc_hd__nand4_2
*I *2002:Y O *D sky130_fd_sc_hd__nand3_4
*CAP
1 *2011:A2_N 0.000154157
2 *2012:A 0.00010089
3 *2002:Y 0.000321192
4 *379:10 0.000576239
5 *2012:A *2013:B 8.70923e-05
6 *2012:A *2020:C 0
7 *2012:A *2020:D 0
8 *379:10 *2013:B 7.70938e-05
9 *2025:A1 *2012:A 1.71013e-05
10 *2025:A1 *379:10 7.34286e-05
*RES
1 *2002:Y *379:10 8.1 
2 *379:10 *2012:A 5.49 
3 *379:10 *2011:A2_N 5.775 
*END

*D_NET *380 0.0010803
*CONN
*I *2004:B I *D sky130_fd_sc_hd__nand2_2
*I *2022:A2 I *D sky130_fd_sc_hd__a31o_2
*I *2003:Y O *D sky130_fd_sc_hd__o21ai_2
*CAP
1 *2004:B 0
2 *2022:A2 0.000137002
3 *2003:Y 0.000279813
4 *380:10 0.000416815
5 *2022:A2 *2013:A 1.1561e-05
6 *2022:A2 *2022:B1 1.08758e-05
7 *2022:A2 *401:8 4.21973e-05
8 *2022:A2 *472:18 0
9 *380:10 *2279:A 0
10 *380:10 *381:10 0
11 *380:10 *472:18 0
12 *2022:A1 *2022:A2 9.54399e-05
13 *371:8 *380:10 8.65961e-05
*RES
1 *2003:Y *380:10 8.325 
2 *380:10 *2022:A2 6.495 
3 *380:10 *2004:B 3.6 
*END

*D_NET *381 0.00162257
*CONN
*I *2011:A1_N I *D sky130_fd_sc_hd__o2bb2ai_2
*I *2012:B I *D sky130_fd_sc_hd__nand4_2
*I *2004:Y O *D sky130_fd_sc_hd__nand2_2
*CAP
1 *2011:A1_N 0
2 *2012:B 0.000124319
3 *2004:Y 0.000316859
4 *381:10 0.000441178
5 *2012:B *2012:C 5.4155e-06
6 *2012:B *2013:B 0
7 *2012:B *2022:A3 0.000133068
8 *2012:B *384:14 2.75145e-05
9 *2012:B *384:18 5.30673e-05
10 *2012:B *387:23 2.92496e-05
11 *2012:B *387:31 0.000124895
12 *381:10 *2013:A 0.000133378
13 *381:10 *2013:B 0
14 *381:10 *2022:A3 0.000185398
15 *381:10 *2279:A 3.25831e-05
16 *2022:A1 *381:10 1.56428e-05
17 *380:10 *381:10 0
*RES
1 *2004:Y *381:10 9.87 
2 *381:10 *2012:B 6.99 
3 *381:10 *2011:A1_N 3.6 
*END

*D_NET *382 0.00160349
*CONN
*I *2010:A1 I *D sky130_fd_sc_hd__o21bai_2
*I *2009:A1 I *D sky130_fd_sc_hd__o21ba_2
*I *2007:A I *D sky130_fd_sc_hd__or3b_4
*I *2005:Y O *D sky130_fd_sc_hd__nor2_2
*CAP
1 *2010:A1 0
2 *2009:A1 5.60166e-05
3 *2007:A 0.000158819
4 *2005:Y 0.000109567
5 *382:10 0.000214835
6 *382:8 0.000109567
7 *2007:A *2007:B 8.65961e-05
8 *2007:A *2007:C_N 0.000158066
9 *2007:A *384:10 0.000178321
10 *2007:A *387:14 5.16418e-05
11 *2009:A1 *384:10 0.000163985
12 *2009:A1 *387:14 0.00015212
13 *382:8 *2005:B 0.000163961
*RES
1 *2005:Y *382:8 3.355 
2 *382:8 *382:10 2 
3 *382:10 *2007:A 7.23 
4 *382:10 *2009:A1 5.49 
5 *382:8 *2010:A1 1.6 
*END

*D_NET *383 0.00151792
*CONN
*I *2010:A2 I *D sky130_fd_sc_hd__o21bai_2
*I *2009:A2 I *D sky130_fd_sc_hd__o21ba_2
*I *2007:B I *D sky130_fd_sc_hd__or3b_4
*I *2006:X O *D sky130_fd_sc_hd__and2_2
*CAP
1 *2010:A2 0
2 *2009:A2 6.69841e-05
3 *2007:B 0.000172333
4 *2006:X 6.86084e-05
5 *383:10 0.000239317
6 *383:8 6.86084e-05
7 *2007:B *2007:C_N 2.30292e-05
8 *2007:B *384:10 0.000200706
9 *2009:A2 *2007:C_N 0
10 *2009:A2 *2009:B1_N 0
11 *2009:A2 *2011:B2 2.45182e-05
12 *2009:A2 *384:10 0.000154488
13 *383:8 *2005:A 0.000156006
14 *383:8 *2005:B 0.000120945
15 *383:8 *387:14 1.08758e-05
16 *383:8 *517:10 7.66083e-05
17 *383:8 *517:14 4.82919e-05
18 *2007:A *2007:B 8.65961e-05
*RES
1 *2006:X *383:8 4.48 
2 *383:8 *383:10 2 
3 *383:10 *2007:B 7.14 
4 *383:10 *2009:A2 5.49 
5 *383:8 *2010:A2 1.6 
*END

*D_NET *384 0.00274939
*CONN
*I *2008:A I *D sky130_fd_sc_hd__inv_2
*I *2012:C I *D sky130_fd_sc_hd__nand4_2
*I *2021:C I *D sky130_fd_sc_hd__nand4_2
*I *2020:C I *D sky130_fd_sc_hd__and4_2
*I *2007:X O *D sky130_fd_sc_hd__or3b_4
*CAP
1 *2008:A 3.02564e-05
2 *2012:C 1.30122e-05
3 *2021:C 0
4 *2020:C 9.1802e-05
5 *2007:X 0.000260005
6 *384:18 0.000356462
7 *384:14 0.000354838
8 *384:10 0.000367427
9 *2020:C *2020:D 0
10 *384:10 *2011:B2 0
11 *384:10 *387:14 0.000129053
12 *384:10 *387:23 9.50342e-06
13 *384:14 *387:31 1.19928e-05
14 *384:18 *2021:D 8.1512e-05
15 *384:18 *387:31 0.000151924
16 *2007:A *384:10 0.000178321
17 *2007:B *384:10 0.000200706
18 *2009:A1 *384:10 0.000163985
19 *2009:A2 *384:10 0.000154488
20 *2012:A *2020:C 0
21 *2012:B *2012:C 5.4155e-06
22 *2012:B *384:14 2.75145e-05
23 *2012:B *384:18 5.30673e-05
24 *2021:A *2020:C 9.54469e-05
25 *2021:A *384:18 0
26 *2021:B *2020:C 1.26548e-05
*RES
1 *2007:X *384:10 12.59 
2 *384:10 *384:14 1.5 
3 *384:14 *384:18 5.64 
4 *384:18 *2020:C 7.43 
5 *384:18 *2021:C 1.6 
6 *384:14 *2012:C 1.96 
7 *384:10 *2008:A 2.05 
*END

*D_NET *385 0.000741852
*CONN
*I *2022:B1 I *D sky130_fd_sc_hd__a31o_2
*I *2011:B1 I *D sky130_fd_sc_hd__o2bb2ai_2
*I *2008:Y O *D sky130_fd_sc_hd__inv_2
*CAP
1 *2022:B1 0.000116996
2 *2011:B1 0
3 *2008:Y 0.000119271
4 *385:10 0.000236267
5 *2022:B1 *2013:A 9.16315e-05
6 *2022:B1 *2022:A3 0
7 *2022:B1 *401:8 4.82919e-05
8 *2022:B1 *472:18 0
9 *385:10 *2011:B2 0.00011852
10 *385:10 *2022:A3 0
11 *385:10 *472:18 0
12 *2022:A2 *2022:B1 1.08758e-05
*RES
1 *2008:Y *385:10 5.685 
2 *385:10 *2011:B1 3.6 
3 *385:10 *2022:B1 6.195 
*END

*D_NET *386 0.000669356
*CONN
*I *2011:B2 I *D sky130_fd_sc_hd__o2bb2ai_2
*I *2009:X O *D sky130_fd_sc_hd__o21ba_2
*CAP
1 *2011:B2 0.000235328
2 *2009:X 0.000235328
3 *2011:B2 *2009:B1_N 5.56629e-05
4 *2011:B2 *387:23 0
5 *2011:B2 *472:18 0
6 *2009:A2 *2011:B2 2.45182e-05
7 *384:10 *2011:B2 0
8 *385:10 *2011:B2 0.00011852
*RES
1 *2009:X *2011:B2 11.895 
*END

*D_NET *387 0.00377101
*CONN
*I *2022:A3 I *D sky130_fd_sc_hd__a31o_2
*I *2020:D I *D sky130_fd_sc_hd__and4_2
*I *2021:D I *D sky130_fd_sc_hd__nand4_2
*I *2012:D I *D sky130_fd_sc_hd__nand4_2
*I *2010:Y O *D sky130_fd_sc_hd__o21bai_2
*CAP
1 *2022:A3 0.000143484
2 *2020:D 0.000202629
3 *2021:D 7.92201e-05
4 *2012:D 0
5 *2010:Y 0.000315204
6 *387:31 0.000590183
7 *387:23 0.000477843
8 *387:14 0.000341229
9 *2022:A3 *2013:A 8.97486e-05
10 *2022:A3 *401:8 4.82919e-05
11 *387:14 *2005:A 0.000119756
12 *387:14 *2005:B 9.06885e-05
13 *387:14 *2013:B 0
14 *387:23 *2013:B 0
15 *2007:A *387:14 5.16418e-05
16 *2009:A1 *387:14 0.00015212
17 *2011:B2 *387:23 0
18 *2012:A *2020:D 0
19 *2012:B *2022:A3 0.000133068
20 *2012:B *387:23 2.92496e-05
21 *2012:B *387:31 0.000124895
22 *2020:C *2020:D 0
23 *2022:B1 *2022:A3 0
24 *2025:A1 *2020:D 0.000201503
25 *381:10 *2022:A3 0.000185398
26 *383:8 *387:14 1.08758e-05
27 *384:10 *387:14 0.000129053
28 *384:10 *387:23 9.50342e-06
29 *384:14 *387:31 1.19928e-05
30 *384:18 *2021:D 8.1512e-05
31 *384:18 *387:31 0.000151924
32 *385:10 *2022:A3 0
*RES
1 *2010:Y *387:14 9.99 
2 *387:14 *2012:D 3.6 
3 *387:14 *387:23 0.615 
4 *387:23 *387:31 6.71 
5 *387:31 *2021:D 3.1 
6 *387:31 *2020:D 8.555 
7 *387:23 *2022:A3 7.725 
*END

*D_NET *388 0.000893401
*CONN
*I *2013:A I *D sky130_fd_sc_hd__nand2_2
*I *2011:Y O *D sky130_fd_sc_hd__o2bb2ai_2
*CAP
1 *2013:A 0.000234987
2 *2011:Y 0.000234987
3 *2013:A *472:18 0
4 *2022:A1 *2013:A 9.71067e-05
5 *2022:A2 *2013:A 1.1561e-05
6 *2022:A3 *2013:A 8.97486e-05
7 *2022:B1 *2013:A 9.16315e-05
8 *381:10 *2013:A 0.000133378
*RES
1 *2011:Y *2013:A 12.705 
*END

*D_NET *389 0.000810701
*CONN
*I *2013:B I *D sky130_fd_sc_hd__nand2_2
*I *2012:Y O *D sky130_fd_sc_hd__nand4_2
*CAP
1 *2013:B 0.000323257
2 *2012:Y 0.000323257
3 *2012:A *2013:B 8.70923e-05
4 *2012:B *2013:B 0
5 *2025:A1 *2013:B 0
6 *379:10 *2013:B 7.70938e-05
7 *381:10 *2013:B 0
8 *387:14 *2013:B 0
9 *387:23 *2013:B 0
*RES
1 *2012:Y *2013:B 13.17 
*END

*D_NET *390 0.000390747
*CONN
*I *2016:A1 I *D sky130_fd_sc_hd__o21bai_2
*I *2017:A I *D sky130_fd_sc_hd__or3b_4
*I *2014:Y O *D sky130_fd_sc_hd__nor2_2
*CAP
1 *2016:A1 9.71884e-06
2 *2017:A 0.000137363
3 *2014:Y 0
4 *390:4 0.000147081
5 *2016:A1 *2014:B 4.82919e-05
6 *2016:A1 *2015:A 4.82919e-05
7 *2017:A *2017:B 0
8 *2017:A *473:89 0
*RES
1 *2014:Y *390:4 1.6 
2 *390:4 *2017:A 7.745 
3 *390:4 *2016:A1 2.05 
*END

*D_NET *391 0.00141927
*CONN
*I *2016:A2 I *D sky130_fd_sc_hd__o21bai_2
*I *2017:B I *D sky130_fd_sc_hd__or3b_4
*I *2015:X O *D sky130_fd_sc_hd__and2_2
*CAP
1 *2016:A2 0
2 *2017:B 0.000200071
3 *2015:X 0.00027882
4 *391:10 0.000478891
5 *2017:B *2016:B1_N 0
6 *2017:B *2017:C_N 0.000164874
7 *391:10 *2014:B 0.000123225
8 *391:10 *2015:B 0.000163204
9 *391:10 *2016:B1_N 0
10 *391:10 *557:10 1.0183e-05
11 *2017:A *2017:B 0
*RES
1 *2015:X *391:10 7.425 
2 *391:10 *2017:B 7.23 
3 *391:10 *2016:A2 3.6 
*END

*D_NET *392 0.00137562
*CONN
*I *2018:A I *D sky130_fd_sc_hd__nand2_2
*I *2028:A1 I *D sky130_fd_sc_hd__a21o_2
*I *2016:Y O *D sky130_fd_sc_hd__o21bai_2
*CAP
1 *2018:A 0
2 *2028:A1 6.85576e-05
3 *2016:Y 0.000313605
4 *392:12 0.000382163
5 *2028:A1 *2028:A2 0.00012657
6 *392:12 *2015:A 0.000277968
7 *392:12 *2028:B1 0
8 *392:12 *394:16 5.4003e-05
9 *392:12 *472:88 9.27495e-05
10 *392:12 *473:89 6.00003e-05
*RES
1 *2016:Y *392:12 11.735 
2 *392:12 *2028:A1 3.085 
3 *392:12 *2018:A 1.6 
*END

*D_NET *393 0.00309931
*CONN
*I *2018:B I *D sky130_fd_sc_hd__nand2_2
*I *2028:A2 I *D sky130_fd_sc_hd__a21o_2
*I *2037:A1_N I *D sky130_fd_sc_hd__o2bb2ai_2
*I *2036:A I *D sky130_fd_sc_hd__nand4_2
*I *2059:A2 I *D sky130_fd_sc_hd__o211a_2
*I *2048:A2 I *D sky130_fd_sc_hd__o21a_2
*I *2017:X O *D sky130_fd_sc_hd__or3b_4
*CAP
1 *2018:B 1.88809e-05
2 *2028:A2 0.000115078
3 *2037:A1_N 8.94138e-05
4 *2036:A 0
5 *2059:A2 2.56867e-05
6 *2048:A2 3.82274e-05
7 *2017:X 3.4422e-05
8 *393:54 0.000194355
9 *393:18 0.000316869
10 *393:12 0.000320365
11 *393:10 0.000272218
12 *393:6 0.000210213
13 *2048:A2 *2048:B1 0.000122155
14 *2048:A2 *2059:A1 0.000150718
15 *2048:A2 *409:16 5.98073e-06
16 *2048:A2 *422:10 3.64998e-06
17 *2059:A2 *2048:B1 3.00381e-05
18 *2059:A2 *409:16 1.61831e-05
19 *393:6 *2017:C_N 2.16917e-05
20 *393:10 *2037:B1 4.43871e-06
21 *393:10 *2038:A 5.12017e-06
22 *393:10 *2038:B 0.000166346
23 *393:10 *473:89 0.000160637
24 *393:12 *2037:B1 7.89689e-05
25 *393:12 *2037:B2 0
26 *393:12 *2038:A 8.09021e-06
27 *393:12 *473:89 9.9535e-05
28 *393:18 *2037:B2 0
29 *393:18 *2048:B1 0
30 *393:18 *2059:B1 1.22676e-05
31 *393:18 *407:8 9.62187e-05
32 *393:18 *407:36 9.07255e-05
33 *393:18 *473:89 0.000214281
34 *393:54 *2017:C_N 4.99619e-05
35 *2028:A1 *2028:A2 0.00012657
*RES
1 *2017:X *393:6 2.05 
2 *393:6 *393:10 5.42 
3 *393:10 *393:12 2.145 
4 *393:12 *393:18 8.33 
5 *393:18 *2048:A2 3.43 
6 *393:18 *2059:A2 2.41 
7 *393:12 *2036:A 3.6 
8 *393:10 *2037:A1_N 4.74 
9 *393:6 *393:54 1.155 
10 *393:54 *2028:A2 3.43 
11 *393:54 *2018:B 1.96 
*END

*D_NET *394 0.00254006
*CONN
*I *2019:A I *D sky130_fd_sc_hd__inv_2
*I *2027:B1 I *D sky130_fd_sc_hd__a21o_2
*I *2018:Y O *D sky130_fd_sc_hd__nand2_2
*CAP
1 *2019:A 0
2 *2027:B1 0.000112666
3 *2018:Y 0.000443646
4 *394:16 0.000556313
5 *2027:B1 *403:6 0.000161529
6 *394:16 *2028:B1 0
7 *394:16 *2029:A 4.19797e-05
8 *394:16 *2036:C 4.54848e-05
9 *394:16 *2045:B 0.000183738
10 *394:16 *403:6 5.75645e-05
11 *394:16 *410:16 0.000257346
12 *394:16 *473:89 0.000625789
13 *392:12 *394:16 5.4003e-05
*RES
1 *2018:Y *394:16 16.34 
2 *394:16 *2027:B1 3.775 
3 *394:16 *2019:A 1.6 
*END

*D_NET *395 0.000202116
*CONN
*I *2045:A I *D sky130_fd_sc_hd__and3_2
*I *2019:Y O *D sky130_fd_sc_hd__inv_2
*CAP
1 *2045:A 4.03387e-05
2 *2019:Y 4.03387e-05
3 *2045:A *2028:B1 9.47454e-05
4 *2045:A *419:12 2.66935e-05
*RES
1 *2019:Y *2045:A 8.325 
*END

*D_NET *396 0.000512364
*CONN
*I *2025:A2 I *D sky130_fd_sc_hd__a21oi_4
*I *2020:X O *D sky130_fd_sc_hd__and4_2
*CAP
1 *2025:A2 0.000141301
2 *2020:X 0.000141301
3 *2025:A2 *2020:B 0
4 *2025:A1 *2025:A2 0.000229763
*RES
1 *2020:X *2025:A2 10.485 
*END

*D_NET *397 0.000750237
*CONN
*I *2023:A I *D sky130_fd_sc_hd__nor3_4
*I *2021:Y O *D sky130_fd_sc_hd__nand4_2
*CAP
1 *2023:A 0.000290682
2 *2021:Y 0.000290682
3 *1966:A2 *2023:A 0
4 *2021:B *2023:A 4.18603e-06
5 *262:21 *2023:A 0.000164686
*RES
1 *2021:Y *2023:A 12.18 
*END

*D_NET *398 9.2844e-05
*CONN
*I *2025:B1 I *D sky130_fd_sc_hd__a21oi_4
*I *2022:X O *D sky130_fd_sc_hd__a31o_2
*CAP
1 *2025:B1 2.22788e-05
2 *2022:X 2.22788e-05
3 *2025:B1 *401:8 4.82863e-05
*RES
1 *2022:X *2025:B1 3.65 
*END

*D_NET *399 0.000398001
*CONN
*I *2024:C1 I *D sky130_fd_sc_hd__o211ai_4
*I *2023:Y O *D sky130_fd_sc_hd__nor3_4
*CAP
1 *2024:C1 0.000140918
2 *2023:Y 0.000140918
3 *2024:C1 *2109:B 0
4 *261:12 *2024:C1 0.000116165
*RES
1 *2023:Y *2024:C1 9.375 
*END

*D_NET *400 0.0036529
*CONN
*I *2027:A1 I *D sky130_fd_sc_hd__a21o_2
*I *2046:A2 I *D sky130_fd_sc_hd__a21boi_2
*I *2026:A I *D sky130_fd_sc_hd__nand2_2
*I *2024:Y O *D sky130_fd_sc_hd__o211ai_4
*CAP
1 *2027:A1 9.17884e-05
2 *2046:A2 8.55084e-05
3 *2026:A 3.76639e-05
4 *2024:Y 0.00124859
5 *400:21 0.000229715
6 *400:10 0.00133868
7 *2027:A1 *401:12 8.6099e-05
8 *2027:A1 *419:12 0
9 *2027:A1 *421:12 1.71013e-05
10 *2027:A1 *472:18 0
11 *400:10 *2026:B 4.43871e-06
12 *400:10 *420:8 0.000163019
13 *400:10 *472:18 0
14 *400:21 *2026:B 8.7974e-05
15 *400:21 *401:12 1.70935e-05
16 *400:21 *420:8 0.000118527
17 *400:21 *421:12 3.84331e-05
18 *1966:A1 *400:10 8.8266e-05
*RES
1 *2024:Y *400:10 21.465 
2 *400:10 *2026:A 4.05 
3 *400:10 *400:21 2.145 
4 *400:21 *2046:A2 4.74 
5 *400:21 *2027:A1 5.745 
*END

*D_NET *401 0.00188165
*CONN
*I *2027:A2 I *D sky130_fd_sc_hd__a21o_2
*I *2046:A1 I *D sky130_fd_sc_hd__a21boi_2
*I *2026:B I *D sky130_fd_sc_hd__nand2_2
*I *2025:Y O *D sky130_fd_sc_hd__a21oi_4
*CAP
1 *2027:A2 5.00528e-05
2 *2046:A1 0
3 *2026:B 0.000113429
4 *2025:Y 0.000493261
5 *401:12 0.000206174
6 *401:8 0.000636059
7 *2026:B *472:18 0
8 *401:12 *472:18 0
9 *2022:A2 *401:8 4.21973e-05
10 *2022:A3 *401:8 4.82919e-05
11 *2022:B1 *401:8 4.82919e-05
12 *2025:B1 *401:8 4.82863e-05
13 *2027:A1 *401:12 8.6099e-05
14 *400:10 *2026:B 4.43871e-06
15 *400:21 *2026:B 8.7974e-05
16 *400:21 *401:12 1.70935e-05
*RES
1 *2025:Y *401:8 9.31 
2 *401:8 *401:12 4.145 
3 *401:12 *2026:B 5.94 
4 *401:12 *2046:A1 3.6 
5 *401:8 *2027:A2 2.41 
*END

*D_NET *402 0.00159419
*CONN
*I *2028:B1 I *D sky130_fd_sc_hd__a21o_2
*I *2047:A I *D sky130_fd_sc_hd__nand2_2
*I *2026:Y O *D sky130_fd_sc_hd__nand2_2
*CAP
1 *2028:B1 0.000445595
2 *2047:A 0
3 *2026:Y 0.00023414
4 *402:10 0.000679735
5 *2028:B1 *2029:A 0
6 *2028:B1 *2029:B 7.89767e-05
7 *2028:B1 *2045:C 6.10014e-05
8 *2028:B1 *403:10 0
9 *2028:B1 *419:12 0
10 *2028:B1 *421:12 0
11 *2028:B1 *473:89 0
12 *402:10 *421:12 0
13 *402:10 *473:89 0
14 *2045:A *2028:B1 9.47454e-05
15 *392:12 *2028:B1 0
16 *394:16 *2028:B1 0
*RES
1 *2026:Y *402:10 7.065 
2 *402:10 *2047:A 3.6 
3 *402:10 *2028:B1 11.865 
*END

*D_NET *403 0.00165533
*CONN
*I *2036:B I *D sky130_fd_sc_hd__nand4_2
*I *2037:A2_N I *D sky130_fd_sc_hd__o2bb2ai_2
*I *2029:A I *D sky130_fd_sc_hd__and2_4
*I *2027:X O *D sky130_fd_sc_hd__a21o_2
*CAP
1 *2036:B 5.79041e-05
2 *2037:A2_N 5.93256e-05
3 *2029:A 0.000168967
4 *2027:X 0.00015752
5 *403:10 0.000281271
6 *403:6 0.000268402
7 *2029:A *2029:B 4.99619e-05
8 *2029:A *2045:B 3.84331e-05
9 *2036:B *2036:C 3.66286e-05
10 *2036:B *407:48 4.15462e-05
11 *2036:B *410:16 1.61831e-05
12 *2037:A2_N *2036:C 0
13 *2037:A2_N *2045:B 3.50193e-05
14 *403:6 *2036:C 4.99619e-05
15 *403:6 *410:16 1.61831e-05
16 *403:10 *2036:C 1.71013e-05
17 *403:10 *2045:B 4.96249e-05
18 *403:10 *2045:C 5.02217e-05
19 *2027:B1 *403:6 0.000161529
20 *2028:B1 *2029:A 0
21 *2028:B1 *403:10 0
22 *394:16 *2029:A 4.19797e-05
23 *394:16 *403:6 5.75645e-05
*RES
1 *2027:X *403:6 4.465 
2 *403:6 *403:10 3.5075 
3 *403:10 *2029:A 7.0125 
4 *403:10 *2037:A2_N 4.7325 
5 *403:6 *2036:B 2.755 
*END

*D_NET *404 0.000466833
*CONN
*I *2029:B I *D sky130_fd_sc_hd__and2_4
*I *2028:X O *D sky130_fd_sc_hd__a21o_2
*CAP
1 *2029:B 0.000168947
2 *2028:X 0.000168947
3 *2028:B1 *2029:B 7.89767e-05
4 *2029:A *2029:B 4.99619e-05
*RES
1 *2028:X *2029:B 10.32 
*END

*D_NET *405 0.00118365
*CONN
*I *2035:A1 I *D sky130_fd_sc_hd__o21bai_2
*I *2032:A I *D sky130_fd_sc_hd__or3b_2
*I *2034:A1 I *D sky130_fd_sc_hd__o21ba_2
*I *2030:Y O *D sky130_fd_sc_hd__nor2_2
*CAP
1 *2035:A1 0
2 *2032:A 3.84011e-05
3 *2034:A1 3.48174e-05
4 *2030:Y 5.74715e-05
5 *405:25 0.000215977
6 *405:8 0.000269865
7 *2032:A *2032:C_N 8.43946e-05
8 *2032:A *2035:A2 0.000158965
9 *2034:A1 *558:12 1.94805e-05
10 *405:8 *2031:B 8.65961e-05
11 *405:25 *2032:C_N 1.08758e-05
12 *405:25 *2035:A2 7.4179e-05
13 *405:25 *2035:B1_N 8.65905e-05
14 *405:25 *410:16 1.12578e-05
15 *405:25 *558:12 3.47837e-05
*RES
1 *2030:Y *405:8 4.395 
2 *405:8 *2034:A1 4.215 
3 *405:8 *405:25 5.315 
4 *405:25 *2032:A 3.085 
5 *405:25 *2035:A1 1.6 
*END

*D_NET *406 0.00163245
*CONN
*I *2032:B I *D sky130_fd_sc_hd__or3b_2
*I *2035:A2 I *D sky130_fd_sc_hd__o21bai_2
*I *2034:A2 I *D sky130_fd_sc_hd__o21ba_2
*I *2031:X O *D sky130_fd_sc_hd__and2_2
*CAP
1 *2032:B 0
2 *2035:A2 0.000107347
3 *2034:A2 5.02536e-05
4 *2031:X 0.000160305
5 *406:22 0.000217398
6 *2034:A2 *2030:A 0.000134314
7 *2034:A2 *2031:B 0.000274659
8 *2034:A2 *2034:B1_N 4.82863e-05
9 *2035:A2 *410:16 0.000182776
10 *406:22 *2037:B2 7.52538e-05
11 *406:22 *407:8 4.05358e-05
12 *406:22 *407:36 7.00642e-05
13 *406:22 *409:16 5.53249e-06
14 *406:22 *410:16 3.25831e-05
15 *2032:A *2035:A2 0.000158965
16 *405:25 *2035:A2 7.4179e-05
*RES
1 *2031:X *2034:A2 5.72 
2 *2031:X *406:22 7.745 
3 *406:22 *2035:A2 4.855 
4 *406:22 *2032:B 1.6 
*END

*D_NET *407 0.00385132
*CONN
*I *2033:A I *D sky130_fd_sc_hd__inv_2
*I *2045:B I *D sky130_fd_sc_hd__and3_2
*I *2036:C I *D sky130_fd_sc_hd__nand4_2
*I *2048:B1 I *D sky130_fd_sc_hd__o21a_2
*I *2059:B1 I *D sky130_fd_sc_hd__o211a_2
*I *2032:X O *D sky130_fd_sc_hd__or3b_2
*CAP
1 *2033:A 1.15106e-05
2 *2045:B 0.000350519
3 *2036:C 8.07788e-05
4 *2048:B1 0.000304517
5 *2059:B1 6.45407e-05
6 *2032:X 0
7 *407:48 0.00056096
8 *407:36 0.000242042
9 *407:8 0.000512689
10 *407:6 0.000244501
11 *2033:A *2038:A 5.4155e-06
12 *2036:C *2045:C 8.66107e-06
13 *2036:C *410:16 5.30673e-05
14 *2045:B *2045:C 2.18002e-05
15 *2048:B1 *409:16 3.52139e-06
16 *2048:B1 *422:10 9.46111e-06
17 *2059:B1 *2059:C1 8.53113e-06
18 *2059:B1 *409:16 3.00381e-05
19 *407:8 *409:16 0
20 *407:36 *2038:A 5.05437e-05
21 *407:36 *410:16 0.000107615
22 *407:48 *2038:A 7.18924e-05
23 *407:48 *410:16 0.00014917
24 *2029:A *2045:B 3.84331e-05
25 *2036:B *2036:C 3.66286e-05
26 *2036:B *407:48 4.15462e-05
27 *2037:A2_N *2036:C 0
28 *2037:A2_N *2045:B 3.50193e-05
29 *2048:A2 *2048:B1 0.000122155
30 *2059:A2 *2048:B1 3.00381e-05
31 *393:18 *2048:B1 0
32 *393:18 *2059:B1 1.22676e-05
33 *393:18 *407:8 9.62187e-05
34 *393:18 *407:36 9.07255e-05
35 *394:16 *2036:C 4.54848e-05
36 *394:16 *2045:B 0.000183738
37 *403:6 *2036:C 4.99619e-05
38 *403:10 *2036:C 1.71013e-05
39 *403:10 *2045:B 4.96249e-05
40 *406:22 *407:8 4.05358e-05
41 *406:22 *407:36 7.00642e-05
*RES
1 *2032:X *407:6 3.6 
2 *407:6 *407:8 2.91 
3 *407:8 *2059:B1 4.92 
4 *407:8 *2048:B1 7.77 
5 *407:6 *407:36 5.45 
6 *407:36 *407:48 5.015 
7 *407:48 *2036:C 5.565 
8 *407:48 *2045:B 8.955 
9 *407:36 *2033:A 1.96 
*END

*D_NET *408 0.000307275
*CONN
*I *2037:B1 I *D sky130_fd_sc_hd__o2bb2ai_2
*I *2033:Y O *D sky130_fd_sc_hd__inv_2
*CAP
1 *2037:B1 4.03005e-05
2 *2033:Y 4.03005e-05
3 *2037:B1 *2038:A 0.000143266
4 *393:10 *2037:B1 4.43871e-06
5 *393:12 *2037:B1 7.89689e-05
*RES
1 *2033:Y *2037:B1 8.835 
*END

*D_NET *409 0.00278346
*CONN
*I *2037:B2 I *D sky130_fd_sc_hd__o2bb2ai_2
*I *2059:A1 I *D sky130_fd_sc_hd__o211a_2
*I *2048:A1 I *D sky130_fd_sc_hd__o21a_2
*I *2034:X O *D sky130_fd_sc_hd__o21ba_2
*CAP
1 *2037:B2 0.000334696
2 *2059:A1 1.49122e-05
3 *2048:A1 0
4 *2034:X 6.05552e-05
5 *409:16 0.000564116
6 *409:8 0.000944456
7 *2037:B2 *2034:B1_N 3.67779e-05
8 *2037:B2 *2281:A 7.89689e-05
9 *2037:B2 *410:16 0.00011686
10 *2037:B2 *523:10 8.17375e-05
11 *2037:B2 *558:12 0
12 *2059:A1 *2061:B 4.82863e-05
13 *409:8 *2031:B 8.49205e-05
14 *409:16 *2034:B1_N 3.86529e-05
15 *409:16 *2059:C1 2.24423e-05
16 *409:16 *2061:B 4.82863e-05
17 S[28] *2037:B2 0
18 S[29] *2037:B2 2.05641e-05
19 *2048:A2 *2059:A1 0.000150718
20 *2048:A2 *409:16 5.98073e-06
21 *2048:B1 *409:16 3.52139e-06
22 *2059:A2 *409:16 1.61831e-05
23 *2059:B1 *409:16 3.00381e-05
24 *393:12 *2037:B2 0
25 *393:18 *2037:B2 0
26 *406:22 *2037:B2 7.52538e-05
27 *406:22 *409:16 5.53249e-06
28 *407:8 *409:16 0
*RES
1 *2034:X *409:8 4.395 
2 *409:8 *409:16 9.935 
3 *409:16 *2048:A1 1.6 
4 *409:16 *2059:A1 2.9575 
5 *409:8 *2037:B2 10.545 
*END

*D_NET *410 0.00237476
*CONN
*I *2036:D I *D sky130_fd_sc_hd__nand4_2
*I *2045:C I *D sky130_fd_sc_hd__and3_2
*I *2035:Y O *D sky130_fd_sc_hd__o21bai_2
*CAP
1 *2036:D 0
2 *2045:C 0.000222531
3 *2035:Y 0.000419568
4 *410:16 0.000642099
5 *410:16 *2035:B1_N 5.83121e-06
6 *2028:B1 *2045:C 6.10014e-05
7 *2035:A2 *410:16 0.000182776
8 *2036:B *410:16 1.61831e-05
9 *2036:C *2045:C 8.66107e-06
10 *2036:C *410:16 5.30673e-05
11 *2037:B2 *410:16 0.00011686
12 *2045:B *2045:C 2.18002e-05
13 *394:16 *410:16 0.000257346
14 *403:6 *410:16 1.61831e-05
15 *403:10 *2045:C 5.02217e-05
16 *405:25 *410:16 1.12578e-05
17 *406:22 *410:16 3.25831e-05
18 *407:36 *410:16 0.000107615
19 *407:48 *410:16 0.00014917
*RES
1 *2035:Y *410:16 14.705 
2 *410:16 *2045:C 8.81 
3 *410:16 *2036:D 1.6 
*END

*D_NET *411 0.0009642
*CONN
*I *2038:A I *D sky130_fd_sc_hd__nand2_2
*I *2036:Y O *D sky130_fd_sc_hd__nand4_2
*CAP
1 *2038:A 0.00020354
2 *2036:Y 0.00020354
3 *2038:A *2038:B 9.428e-05
4 *2038:A *2281:A 0.000178512
5 *2033:A *2038:A 5.4155e-06
6 *2037:B1 *2038:A 0.000143266
7 *393:10 *2038:A 5.12017e-06
8 *393:12 *2038:A 8.09021e-06
9 *407:36 *2038:A 5.05437e-05
10 *407:48 *2038:A 7.18924e-05
*RES
1 *2036:Y *2038:A 12.975 
*END

*D_NET *412 0.000340555
*CONN
*I *2038:B I *D sky130_fd_sc_hd__nand2_2
*I *2037:Y O *D sky130_fd_sc_hd__o2bb2ai_2
*CAP
1 *2038:B 3.99645e-05
2 *2037:Y 3.99645e-05
3 *2038:A *2038:B 9.428e-05
4 *393:10 *2038:B 0.000166346
*RES
1 *2037:Y *2038:B 9.09 
*END

*D_NET *413 0.000698763
*CONN
*I *2043:A1 I *D sky130_fd_sc_hd__o21ba_2
*I *2041:A I *D sky130_fd_sc_hd__or3b_2
*I *2039:Y O *D sky130_fd_sc_hd__nor2_2
*CAP
1 *2043:A1 5.137e-05
2 *2041:A 0
3 *2039:Y 2.58152e-05
4 *413:6 7.71851e-05
5 *2043:A1 *2039:A 0
6 *2043:A1 *2041:C_N 4.99619e-05
7 *2043:A1 *2043:A2 0.000201508
8 *2043:A1 *417:14 8.37704e-05
9 *2043:A1 *417:22 0
10 *413:6 *2039:B 4.99619e-05
11 *413:6 *415:8 2.59835e-05
12 *413:6 *417:14 8.49205e-05
13 *413:6 *417:22 4.82863e-05
*RES
1 *2039:Y *413:6 2.74 
2 *413:6 *2041:A 1.6 
3 *413:6 *2043:A1 3.79 
*END

*D_NET *414 0.000984879
*CONN
*I *2043:A2 I *D sky130_fd_sc_hd__o21ba_2
*I *2041:B I *D sky130_fd_sc_hd__or3b_2
*I *2040:X O *D sky130_fd_sc_hd__and2_2
*CAP
1 *2043:A2 0.000112056
2 *2041:B 7.56239e-05
3 *2040:X 3.92939e-05
4 *414:8 0.000226974
5 *2041:B *2039:B 1.71013e-05
6 *2041:B *417:46 1.70935e-05
7 *2041:B *525:10 0
8 *2043:A2 *2041:C_N 4.21973e-05
9 *2043:A2 *415:6 3.83041e-05
10 *2043:A2 *415:8 4.82919e-05
11 *2043:A2 *417:14 4.82919e-05
12 *414:8 *2039:B 4.5783e-05
13 *414:8 *2059:C1 7.23602e-05
14 *2043:A1 *2043:A2 0.000201508
*RES
1 *2040:X *414:8 4.725 
2 *414:8 *2041:B 4.725 
3 *414:8 *2043:A2 6.48 
*END

*D_NET *415 0.00308936
*CONN
*I *2059:C1 I *D sky130_fd_sc_hd__o211a_2
*I *2042:A I *D sky130_fd_sc_hd__inv_2
*I *2060:C1 I *D sky130_fd_sc_hd__o221a_2
*I *2041:X O *D sky130_fd_sc_hd__or3b_2
*CAP
1 *2059:C1 0.000343907
2 *2042:A 3.96357e-05
3 *2060:C1 0.000322508
4 *2041:X 3.12327e-05
5 *415:8 0.000534469
6 *415:6 0.000547465
7 *2042:A *2060:B2 8.32911e-05
8 *2042:A *422:10 4.18603e-06
9 *2042:A *434:10 0.000116165
10 *2059:C1 *2039:B 1.52945e-05
11 *2059:C1 *2061:B 0
12 *2059:C1 *2283:A 0
13 *2059:C1 *422:10 0
14 *2059:C1 *434:10 0
15 *2060:C1 *2039:A 4.82919e-05
16 *2060:C1 *2050:A1 0
17 *2060:C1 *2052:B1 0
18 *2060:C1 *2053:A 0
19 *2060:C1 *2060:B1 3.9379e-05
20 *2060:C1 *2060:B2 0.000405111
21 *2060:C1 *2062:A 8.53113e-06
22 *2060:C1 *2062:B 0.000185411
23 *2060:C1 *2063:A1 1.71207e-05
24 *2060:C1 *417:22 1.19928e-05
25 *2060:C1 *540:6 2.65881e-05
26 *415:8 *2039:A 7.23635e-05
27 *415:8 *2039:B 2.05056e-05
28 *2043:A2 *415:6 3.83041e-05
29 *2043:A2 *415:8 4.82919e-05
30 *2059:B1 *2059:C1 8.53113e-06
31 *2202:A *2059:C1 0
32 *409:16 *2059:C1 2.24423e-05
33 *413:6 *415:8 2.59835e-05
34 *414:8 *2059:C1 7.23602e-05
*RES
1 *2041:X *415:6 2.05 
2 *415:6 *415:8 2.175 
3 *415:8 *2060:C1 13.01 
4 *415:8 *2042:A 6.98 
5 *415:6 *2059:C1 11.06 
*END

*D_NET *416 0.00115226
*CONN
*I *2044:A I *D sky130_fd_sc_hd__nor2_2
*I *2050:A1 I *D sky130_fd_sc_hd__o22ai_2
*I *2042:Y O *D sky130_fd_sc_hd__inv_2
*CAP
1 *2044:A 7.62319e-05
2 *2050:A1 0.000125011
3 *2042:Y 0.000156616
4 *416:8 0.000357859
5 *2044:A *2044:B 7.26629e-05
6 *2044:A *422:10 0
7 *2050:A1 *2044:B 0.000126627
8 *2050:A1 *2060:B2 0
9 *2050:A1 *422:10 0
10 *416:8 *2283:A 0.000237249
11 *2060:C1 *2050:A1 0
*RES
1 *2042:Y *416:8 5.775 
2 *416:8 *2050:A1 6.255 
3 *416:8 *2044:A 5.235 
*END

*D_NET *417 0.00480843
*CONN
*I *2060:B1 I *D sky130_fd_sc_hd__o221a_2
*I *2062:A I *D sky130_fd_sc_hd__nor2_2
*I *2050:A2 I *D sky130_fd_sc_hd__o22ai_2
*I *2044:B I *D sky130_fd_sc_hd__nor2_2
*I *2043:X O *D sky130_fd_sc_hd__o21ba_2
*CAP
1 *2060:B1 4.51929e-05
2 *2062:A 0.000207049
3 *2050:A2 0
4 *2044:B 0.000126287
5 *2043:X 0.000354409
6 *417:46 0.000534614
7 *417:22 0.000439579
8 *417:14 0.000950072
9 *2044:B *2052:B1 0.000162318
10 *2044:B *2053:A 9.50036e-05
11 *2044:B *420:8 0
12 *2044:B *421:12 0
13 *2060:B1 *540:6 3.2956e-05
14 *2062:A *2062:B 0.000132553
15 *2062:A *2063:A1 0.000159964
16 *2062:A *2063:B1 2.75145e-05
17 *2062:A *2063:B2 7.22613e-05
18 *2062:A *2097:A1 1.15688e-05
19 *2062:A *2097:A2 0.000201503
20 *2062:A *2284:A 6.35048e-05
21 *2062:A *564:10 7.68414e-06
22 *417:14 *2041:C_N 0.000116224
23 *417:14 *2043:B1_N 1.83847e-05
24 *417:14 *525:10 1.0183e-05
25 *417:22 *2039:A 4.21973e-05
26 *417:22 *2039:B 2.55587e-05
27 *417:46 *2058:A 0.000157595
28 *417:46 *2058:B 0
29 *417:46 *2060:A2 0.000118081
30 *417:46 *2063:A2 8.53113e-06
31 *417:46 *429:21 5.16418e-05
32 *417:46 *434:10 8.6099e-05
33 *417:46 *540:6 8.34281e-06
34 *2041:B *417:46 1.70935e-05
35 *2043:A1 *417:14 8.37704e-05
36 *2043:A1 *417:22 0
37 *2043:A2 *417:14 4.82919e-05
38 *2044:A *2044:B 7.26629e-05
39 *2050:A1 *2044:B 0.000126627
40 *2060:C1 *2060:B1 3.9379e-05
41 *2060:C1 *2062:A 8.53113e-06
42 *2060:C1 *417:22 1.19928e-05
43 *2241:A *417:14 0
44 *413:6 *417:14 8.49205e-05
45 *413:6 *417:22 4.82863e-05
*RES
1 *2043:X *417:14 11.075 
2 *417:14 *417:22 5.07 
3 *417:22 *2044:B 9.785 
4 *417:22 *2050:A2 1.6 
5 *417:14 *417:46 9.67 
6 *417:46 *2062:A 11.315 
7 *417:46 *2060:B1 2.87875 
*END

*D_NET *418 0.00115977
*CONN
*I *2053:A I *D sky130_fd_sc_hd__nand2_2
*I *2051:B I *D sky130_fd_sc_hd__nand2_2
*I *2044:Y O *D sky130_fd_sc_hd__nor2_2
*CAP
1 *2053:A 0.000244354
2 *2051:B 3.06342e-05
3 *2044:Y 0
4 *418:4 0.000274989
5 *2051:B *2061:A 3.293e-05
6 *2051:B *517:10 4.82863e-05
7 *2053:A *2050:B2 0.000185405
8 *2053:A *2052:A2 6.11019e-05
9 *2053:A *2052:B1 0.000187071
10 *2053:A *2053:B 0
11 *2053:A *420:8 0
12 *2044:B *2053:A 9.50036e-05
13 *2060:C1 *2053:A 0
*RES
1 *2044:Y *418:4 1.6 
2 *418:4 *2051:B 2.41 
3 *418:4 *2053:A 11.825 
*END

*D_NET *419 0.000670947
*CONN
*I *2047:B I *D sky130_fd_sc_hd__nand2_2
*I *2046:B1_N I *D sky130_fd_sc_hd__a21boi_2
*I *2045:X O *D sky130_fd_sc_hd__and3_2
*CAP
1 *2047:B 3.99944e-05
2 *2046:B1_N 0
3 *2045:X 0.00024944
4 *419:12 0.000289434
5 *2047:B *421:12 4.82919e-05
6 *419:12 *421:12 1.70935e-05
7 *2027:A1 *419:12 0
8 *2028:B1 *419:12 0
9 *2045:A *419:12 2.66935e-05
*RES
1 *2045:X *419:12 9.47 
2 *419:12 *2046:B1_N 1.6 
3 *419:12 *2047:B 2.41 
*END

*D_NET *420 0.00198069
*CONN
*I *2050:B1 I *D sky130_fd_sc_hd__o22ai_2
*I *2053:B I *D sky130_fd_sc_hd__nand2_2
*I *2046:Y O *D sky130_fd_sc_hd__a21boi_2
*CAP
1 *2050:B1 0
2 *2053:B 0.000174626
3 *2046:Y 0.000364938
4 *420:8 0.000539564
5 *2053:B *2050:B2 4.18603e-06
6 *420:8 *2006:A 0
7 *420:8 *2050:B2 6.23206e-05
8 *420:8 *2052:A2 7.81954e-05
9 *420:8 *421:12 0.000475315
10 *420:8 *472:37 0
11 *2044:B *420:8 0
12 *2053:A *2053:B 0
13 *2053:A *420:8 0
14 *400:10 *420:8 0.000163019
15 *400:21 *420:8 0.000118527
*RES
1 *2046:Y *420:8 13.14 
2 *420:8 *2053:B 6.45 
3 *420:8 *2050:B1 3.6 
*END

*D_NET *421 0.00229591
*CONN
*I *2061:A I *D sky130_fd_sc_hd__nand2_2
*I *2051:A I *D sky130_fd_sc_hd__nand2_2
*I *2047:Y O *D sky130_fd_sc_hd__nand2_2
*CAP
1 *2061:A 0.000137531
2 *2051:A 0
3 *2047:Y 0.000380292
4 *421:12 0.000517823
5 *2061:A *517:10 0.000164022
6 *2061:A *556:14 0.000467074
7 *2027:A1 *421:12 1.71013e-05
8 *2028:B1 *421:12 0
9 *2044:B *421:12 0
10 *2047:B *421:12 4.82919e-05
11 *2051:B *2061:A 3.293e-05
12 *400:21 *421:12 3.84331e-05
13 *402:10 *421:12 0
14 *419:12 *421:12 1.70935e-05
15 *420:8 *421:12 0.000475315
*RES
1 *2047:Y *421:12 13.565 
2 *421:12 *2051:A 1.6 
3 *421:12 *2061:A 6.565 
*END

*D_NET *422 0.00214032
*CONN
*I *2049:A I *D sky130_fd_sc_hd__inv_2
*I *2060:B2 I *D sky130_fd_sc_hd__o221a_2
*I *2048:X O *D sky130_fd_sc_hd__o21a_2
*CAP
1 *2049:A 0
2 *2060:B2 0.000269518
3 *2048:X 0.000377377
4 *422:10 0.000646896
5 *2060:B2 *2063:A1 0.000183043
6 *2060:B2 *434:10 0.000116664
7 *422:10 *2061:B 4.11194e-05
8 *422:10 *434:10 0
9 *2042:A *2060:B2 8.32911e-05
10 *2042:A *422:10 4.18603e-06
11 *2044:A *422:10 0
12 *2048:A2 *422:10 3.64998e-06
13 *2048:B1 *422:10 9.46111e-06
14 *2050:A1 *2060:B2 0
15 *2050:A1 *422:10 0
16 *2059:C1 *422:10 0
17 *2060:C1 *2060:B2 0.000405111
*RES
1 *2048:X *422:10 8.76 
2 *422:10 *2060:B2 10.47 
3 *422:10 *2049:A 3.6 
*END

*D_NET *423 0.00121677
*CONN
*I *2050:B2 I *D sky130_fd_sc_hd__o22ai_2
*I *2052:A1 I *D sky130_fd_sc_hd__o21ai_4
*I *2049:Y O *D sky130_fd_sc_hd__inv_2
*CAP
1 *2050:B2 5.67208e-05
2 *2052:A1 7.94815e-05
3 *2049:Y 0.00010872
4 *423:6 0.000244922
5 *2050:B2 *2052:A2 3.09164e-05
6 *2052:A1 *472:37 9.2741e-05
7 *423:6 *2052:B1 4.66108e-05
8 *423:6 *2283:A 0.000162311
9 *423:6 *472:37 0.000142436
10 *2053:A *2050:B2 0.000185405
11 *2053:B *2050:B2 4.18603e-06
12 *420:8 *2050:B2 6.23206e-05
*RES
1 *2049:Y *423:6 4.465 
2 *423:6 *2052:A1 3.085 
3 *423:6 *2050:B2 7.745 
*END

*D_NET *424 0.00058537
*CONN
*I *2052:B1 I *D sky130_fd_sc_hd__o21ai_4
*I *2050:Y O *D sky130_fd_sc_hd__o22ai_2
*CAP
1 *2052:B1 7.13795e-05
2 *2050:Y 7.13795e-05
3 *2052:B1 *472:37 4.66108e-05
4 *2044:B *2052:B1 0.000162318
5 *2053:A *2052:B1 0.000187071
6 *2060:C1 *2052:B1 0
7 *423:6 *2052:B1 4.66108e-05
*RES
1 *2050:Y *2052:B1 9.795 
*END

*D_NET *425 0.000262165
*CONN
*I *2052:A2 I *D sky130_fd_sc_hd__o21ai_4
*I *2051:Y O *D sky130_fd_sc_hd__nand2_2
*CAP
1 *2052:A2 4.59756e-05
2 *2051:Y 4.59756e-05
3 *2050:B2 *2052:A2 3.09164e-05
4 *2053:A *2052:A2 6.11019e-05
5 *420:8 *2052:A2 7.81954e-05
*RES
1 *2051:Y *2052:A2 8.835 
*END

*D_NET *426 0.00149785
*CONN
*I *2063:A1 I *D sky130_fd_sc_hd__a22oi_4
*I *2053:Y O *D sky130_fd_sc_hd__nand2_2
*CAP
1 *2063:A1 0.000357251
2 *2053:Y 0.000357251
3 *2063:A1 *2058:A 4.66108e-05
4 *2063:A1 *2097:A1 3.09164e-05
5 *2063:A1 *434:10 0.000345698
6 *2060:B2 *2063:A1 0.000183043
7 *2060:C1 *2063:A1 1.71207e-05
8 *2062:A *2063:A1 0.000159964
*RES
1 *2053:Y *2063:A1 15.195 
*END

*D_NET *427 0.00171433
*CONN
*I *2056:A I *D sky130_fd_sc_hd__nor3b_2
*I *2057:A1 I *D sky130_fd_sc_hd__o21ba_2
*I *2054:Y O *D sky130_fd_sc_hd__nor2_2
*CAP
1 *2056:A 1.70954e-05
2 *2057:A1 0.00010564
3 *2054:Y 0.000144121
4 *427:16 0.000266857
5 *2056:A *2266:A 2.49909e-05
6 *2056:A *429:8 1.91597e-05
7 *2057:A1 *430:12 0.000177896
8 *427:16 *2054:B 0.000163199
9 *427:16 *2097:A1 1.61831e-05
10 *427:16 *2097:B1 0.000164874
11 *427:16 *2266:A 0.00038554
12 *427:16 *2284:A 5.14739e-05
13 *427:16 *429:8 0.000171146
14 S[14] *2057:A1 6.15576e-06
*RES
1 *2054:Y *427:16 8.395 
2 *427:16 *2057:A1 7.745 
3 *427:16 *2056:A 2.05 
*END

*D_NET *428 0.0013341
*CONN
*I *2056:B I *D sky130_fd_sc_hd__nor3b_2
*I *2057:A2 I *D sky130_fd_sc_hd__o21ba_2
*I *2055:X O *D sky130_fd_sc_hd__and2_2
*CAP
1 *2056:B 0.000102885
2 *2057:A2 4.6436e-05
3 *2055:X 0.000338304
4 *428:6 0.000487625
5 *2056:B *2266:A 5.61852e-05
6 *2056:B *2292:A 9.28053e-05
7 *2056:B *430:12 0.000157329
8 *2057:A2 *430:12 4.82919e-05
9 carryOut *2056:B 4.24292e-06
*RES
1 *2055:X *428:6 6.19 
2 *428:6 *2057:A2 2.665 
3 *428:6 *2056:B 8.39 
*END

*D_NET *429 0.00258728
*CONN
*I *2058:A I *D sky130_fd_sc_hd__or2_2
*I *2060:A1 I *D sky130_fd_sc_hd__o221a_2
*I *2097:B1 I *D sky130_fd_sc_hd__a21o_2
*I *2056:Y O *D sky130_fd_sc_hd__nor3b_2
*CAP
1 *2058:A 0.000118993
2 *2060:A1 0
3 *2097:B1 7.75508e-05
4 *2056:Y 0.000265453
5 *429:21 0.000237873
6 *429:8 0.000461885
7 *2058:A *2058:B 4.66108e-05
8 *2058:A *434:10 0.00015046
9 *2097:B1 *2097:A1 8.53113e-06
10 *2097:B1 *2284:A 0.000163199
11 *429:8 *2284:A 4.82919e-05
12 *429:21 *2063:A2 8.53099e-05
13 *429:21 *2097:A1 0.000131401
14 *429:21 *430:12 0
15 *429:21 *434:10 0.000180689
16 S[31] *429:21 0
17 *2056:A *429:8 1.91597e-05
18 *2063:A1 *2058:A 4.66108e-05
19 *417:46 *2058:A 0.000157595
20 *417:46 *429:21 5.16418e-05
21 *427:16 *2097:B1 0.000164874
22 *427:16 *429:8 0.000171146
*RES
1 *2056:Y *429:8 7.155 
2 *429:8 *2097:B1 5.7 
3 *429:8 *429:21 3.675 
4 *429:21 *2060:A1 3.6 
5 *429:21 *2058:A 6.63 
*END

*D_NET *430 0.00325484
*CONN
*I *2058:B I *D sky130_fd_sc_hd__or2_2
*I *2060:A2 I *D sky130_fd_sc_hd__o221a_2
*I *2057:X O *D sky130_fd_sc_hd__o21ba_2
*CAP
1 *2058:B 0.000251078
2 *2060:A2 0.00023254
3 *2057:X 0.000419318
4 *430:12 0.000902936
5 *2058:B *526:10 0.000388784
6 *2060:A2 *540:6 0.00013106
7 *430:12 *2063:A2 0
8 *430:12 *2265:A 0
9 *430:12 *2266:A 9.98804e-05
10 *430:12 *2292:A 3.20032e-05
11 S[31] *430:12 2.81572e-05
12 *2056:B *430:12 0.000157329
13 *2057:A1 *430:12 0.000177896
14 *2057:A2 *430:12 4.82919e-05
15 *2058:A *2058:B 4.66108e-05
16 *2207:A *2058:B 0.000124895
17 *2221:A *2058:B 3.09233e-05
18 *2221:A *430:12 6.50568e-05
19 *417:46 *2058:B 0
20 *417:46 *2060:A2 0.000118081
21 *429:21 *430:12 0
*RES
1 *2057:X *430:12 11.925 
2 *430:12 *2060:A2 7.845 
3 *430:12 *2058:B 9.39 
*END

*D_NET *431 0.0013909
*CONN
*I *2062:B I *D sky130_fd_sc_hd__nor2_2
*I *2058:X O *D sky130_fd_sc_hd__or2_2
*CAP
1 *2062:B 0.00025695
2 *2058:X 0.00025695
3 *2062:B *2063:B2 0.000120955
4 *2062:B *2284:A 2.75145e-05
5 *2062:B *564:10 0.000410563
6 *2060:C1 *2062:B 0.000185411
7 *2062:A *2062:B 0.000132553
*RES
1 *2058:X *2062:B 14.445 
*END

*D_NET *432 0.000355616
*CONN
*I *2061:B I *D sky130_fd_sc_hd__nand2_2
*I *2059:X O *D sky130_fd_sc_hd__o211a_2
*CAP
1 *2061:B 0.000108962
2 *2059:X 0.000108962
3 *2059:A1 *2061:B 4.82863e-05
4 *2059:C1 *2061:B 0
5 *409:16 *2061:B 4.82863e-05
6 *422:10 *2061:B 4.11194e-05
*RES
1 *2059:X *2061:B 9.285 
*END

*D_NET *433 0.000266727
*CONN
*I *2063:A2 I *D sky130_fd_sc_hd__a22oi_4
*I *2060:X O *D sky130_fd_sc_hd__o221a_2
*CAP
1 *2063:A2 8.6443e-05
2 *2060:X 8.6443e-05
3 *417:46 *2063:A2 8.53113e-06
4 *429:21 *2063:A2 8.53099e-05
5 *430:12 *2063:A2 0
*RES
1 *2060:X *2063:A2 9.09 
*END

*D_NET *434 0.00291575
*CONN
*I *2063:B1 I *D sky130_fd_sc_hd__a22oi_4
*I *2097:A1 I *D sky130_fd_sc_hd__a21o_2
*I *2061:Y O *D sky130_fd_sc_hd__nand2_2
*CAP
1 *2063:B1 6.67933e-05
2 *2097:A1 0.000193371
3 *2061:Y 0.000369853
4 *434:10 0.000630017
5 *2063:B1 *2284:A 1.85674e-05
6 *2063:B1 *564:10 6.58339e-05
7 *2097:A1 *2284:A 0.000163204
8 *434:10 *2039:A 0.000114492
9 *434:10 *2039:B 2.34423e-05
10 *434:10 *517:10 4.82863e-05
11 *2042:A *434:10 0.000116165
12 *2058:A *434:10 0.00015046
13 *2059:C1 *434:10 0
14 *2060:B2 *434:10 0.000116664
15 *2062:A *2063:B1 2.75145e-05
16 *2062:A *2097:A1 1.15688e-05
17 *2063:A1 *2097:A1 3.09164e-05
18 *2063:A1 *434:10 0.000345698
19 *2097:B1 *2097:A1 8.53113e-06
20 *417:46 *434:10 8.6099e-05
21 *422:10 *434:10 0
22 *427:16 *2097:A1 1.61831e-05
23 *429:21 *2097:A1 0.000131401
24 *429:21 *434:10 0.000180689
*RES
1 *2061:Y *434:10 13.59 
2 *434:10 *2097:A1 7.065 
3 *434:10 *2063:B1 5.1 
*END

*D_NET *435 0.00096597
*CONN
*I *2097:A2 I *D sky130_fd_sc_hd__a21o_2
*I *2063:B2 I *D sky130_fd_sc_hd__a22oi_4
*I *2062:Y O *D sky130_fd_sc_hd__nor2_2
*CAP
1 *2097:A2 0.00020891
2 *2063:B2 5.06707e-05
3 *2062:Y 0
4 *435:4 0.000259581
5 *2063:B2 *2284:A 0
6 *2097:A2 *2284:A 5.2089e-05
7 *2062:A *2063:B2 7.22613e-05
8 *2062:A *2097:A2 0.000201503
9 *2062:B *2063:B2 0.000120955
*RES
1 *2062:Y *435:4 1.6 
2 *435:4 *2063:B2 3.625 
3 *435:4 *2097:A2 8.9 
*END

*D_NET *436 0.00104794
*CONN
*I *2066:B I *D sky130_fd_sc_hd__xnor2_2
*I *2065:X O *D sky130_fd_sc_hd__mux2_1
*CAP
1 *2066:B 0.000299103
2 *2065:X 0.000299103
3 *2066:B *2260:A 0.000183738
4 *2066:B *460:18 0
5 S[0] *2066:B 0.000219383
6 S[1] *2066:B 4.66108e-05
7 *2240:A *2066:B 0
8 *2243:A *2066:B 0
*RES
1 *2065:X *2066:B 13.62 
*END

*D_NET *437 0.00125915
*CONN
*I *2068:B I *D sky130_fd_sc_hd__xor2_2
*I *2067:X O *D sky130_fd_sc_hd__o211a_2
*CAP
1 *2068:B 0.000262131
2 *2067:X 0.000262131
3 *2068:B *1847:B 0
4 *2068:B *2067:A1 0.000108335
5 *2068:B *2067:B1 0.000131181
6 *1863:B *2068:B 0.000415534
7 *2326:A *2068:B 2.97802e-05
8 *250:14 *2068:B 5.00612e-05
*RES
1 *2067:X *2068:B 12.155 
*END

*D_NET *438 0.000530237
*CONN
*I *2070:B I *D sky130_fd_sc_hd__xnor2_2
*I *2069:X O *D sky130_fd_sc_hd__o22a_2
*CAP
1 *2070:B 0.000241933
2 *2069:X 0.000241933
3 *1853:A1 *2070:B 9.50342e-06
4 *241:24 *2070:B 0
5 *251:12 *2070:B 3.68682e-05
*RES
1 *2069:X *2070:B 11.1 
*END

*D_NET *439 0.000811044
*CONN
*I *2079:B1 I *D sky130_fd_sc_hd__a22oi_4
*I *2072:B I *D sky130_fd_sc_hd__xnor2_2
*I *2071:Y O *D sky130_fd_sc_hd__nand2_4
*CAP
1 *2079:B1 0
2 *2072:B 0.000178388
3 *2071:Y 5.99736e-05
4 *439:8 0.000238361
5 *2072:B *2071:B 7.63282e-05
6 *439:8 *2071:B 7.53115e-05
7 *1817:B *2072:B 4.18603e-06
8 *1817:B *439:8 5.63405e-05
9 *1827:B *2072:B 0.000122155
10 *2073:A2 *2072:B 0
*RES
1 *2071:Y *439:8 5.235 
2 *439:8 *2072:B 7.32 
3 *439:8 *2079:B1 3.6 
*END

*D_NET *440 0.0063239
*CONN
*I *2077:B1 I *D sky130_fd_sc_hd__o2bb2a_2
*I *2075:A2_N I *D sky130_fd_sc_hd__o2bb2a_2
*I *2074:B I *D sky130_fd_sc_hd__xor2_2
*I *2073:X O *D sky130_fd_sc_hd__a31o_4
*CAP
1 *2077:B1 0.000205673
2 *2075:A2_N 0.000605221
3 *2074:B 6.47223e-05
4 *2073:X 0.00106905
5 *440:12 0.000861828
6 *440:10 0.00146661
7 *2074:B *2288:A 6.5525e-05
8 *2074:B *2289:A 0
9 *2075:A2_N *2076:B 3.52139e-06
10 *2075:A2_N *565:33 5.34747e-05
11 *2077:B1 *2288:A 5.55616e-05
12 *2077:B1 *2289:A 0
13 *440:12 *2288:A 0.000200945
14 *440:12 *2289:A 0
15 *1800:B2 *2075:A2_N 0.000160641
16 *1815:B1 *2077:B1 8.47542e-05
17 *1826:A1 *440:10 6.27029e-05
18 *1826:A2 *440:10 0.000313857
19 *1826:B1 *440:10 8.65905e-05
20 *1830:C *440:10 0.00020432
21 *2073:A2 *440:10 8.65961e-05
22 *2073:B1 *440:10 0.000124895
23 *2075:B2 *2075:A2_N 1.17309e-05
24 *2077:A1_N *2077:B1 0
25 *2077:A2_N *2077:B1 3.39069e-05
26 *193:33 *440:10 0.000163204
27 *199:12 *2077:B1 0.000294421
28 *199:21 *2077:B1 2.49909e-05
29 *201:27 *440:10 1.91597e-05
*RES
1 *2073:X *440:10 17.865 
2 *440:10 *440:12 4.185 
3 *440:12 *2074:B 3.38 
4 *440:12 *2075:A2_N 10.605 
5 *440:10 *2077:B1 9.09 
*END

*D_NET *441 0.00158228
*CONN
*I *2076:B I *D sky130_fd_sc_hd__xnor2_2
*I *2075:X O *D sky130_fd_sc_hd__o2bb2a_2
*CAP
1 *2076:B 0.000561578
2 *2075:X 0.000561578
3 *2076:B *2288:A 0
4 *2076:B *565:21 7.17811e-05
5 *2076:B *565:33 0.000119631
6 *1800:B2 *2076:B 1.17409e-05
7 *1809:A1 *2076:B 0
8 *1809:A2 *2076:B 0
9 *1810:A *2076:B 5.12859e-05
10 *2075:A2_N *2076:B 3.52139e-06
11 *2075:B2 *2076:B 0.00012657
12 *2076:A *2076:B 7.45881e-05
13 *191:10 *2076:B 0
*RES
1 *2075:X *2076:B 16.47 
*END

*D_NET *442 0.000454207
*CONN
*I *2078:B I *D sky130_fd_sc_hd__xor2_2
*I *2077:X O *D sky130_fd_sc_hd__o2bb2a_2
*CAP
1 *2078:B 0.000147323
2 *2077:X 0.000147323
3 *2078:B *2285:A 0.000118513
4 *2077:A1_N *2078:B 0
5 *199:21 *2078:B 4.10476e-05
*RES
1 *2077:X *2078:B 8.12 
*END

*D_NET *443 0.00594821
*CONN
*I *2085:A2 I *D sky130_fd_sc_hd__o21ai_2
*I *2080:B1 I *D sky130_fd_sc_hd__a21oi_2
*I *2083:B2 I *D sky130_fd_sc_hd__o22a_2
*I *2081:A I *D sky130_fd_sc_hd__and3_2
*I *2079:Y O *D sky130_fd_sc_hd__a22oi_4
*CAP
1 *2085:A2 0
2 *2080:B1 0
3 *2083:B2 0.000450995
4 *2081:A 0
5 *2079:Y 0.00113666
6 *443:35 0.000857627
7 *443:22 0.000704126
8 *443:14 0.00143415
9 *2083:B2 *2159:A1 4.99619e-05
10 *2083:B2 *2162:B1_N 2.97004e-06
11 *2083:B2 *470:24 0
12 *2083:B2 *470:26 0
13 *2083:B2 *470:28 0
14 *2083:B2 *502:12 4.43871e-06
15 *443:35 *2081:C 0.000165907
16 *443:35 *2082:A 4.82863e-05
17 *443:35 *2082:B 3.52139e-06
18 *443:35 *470:24 0
19 *443:35 *502:12 7.47673e-05
20 *1830:B *443:14 0.000425307
21 *1830:D *443:14 7.35729e-05
22 *2083:A2 *2083:B2 4.82863e-05
23 *2083:B1 *2083:B2 5.53249e-06
24 *2085:A1 *443:14 0.000296684
25 *2160:B1 *2083:B2 0
26 *2163:A1 *443:22 0
27 *2163:C1 *443:22 5.02217e-05
28 *162:12 *2083:B2 0
29 *162:18 *443:14 3.31958e-05
30 *164:12 *2083:B2 0
31 *171:36 *443:14 6.54766e-05
32 *206:8 *443:22 7.21296e-06
33 *206:21 *443:22 9.3062e-06
*RES
1 *2079:Y *443:14 19.27 
2 *443:14 *443:22 8.155 
3 *443:22 *2081:A 1.6 
4 *443:22 *443:35 7.565 
5 *443:35 *2083:B2 10.53 
6 *443:35 *2080:B1 3.6 
7 *443:14 *2085:A2 1.6 
*END

*D_NET *444 0.00024515
*CONN
*I *2082:A I *D sky130_fd_sc_hd__or2_2
*I *2080:Y O *D sky130_fd_sc_hd__a21oi_2
*CAP
1 *2082:A 8.53667e-05
2 *2080:Y 8.53667e-05
3 *2082:A *2082:B 2.61299e-05
4 *443:35 *2082:A 4.82863e-05
*RES
1 *2080:Y *2082:A 4.685 
*END

*D_NET *445 0.00087351
*CONN
*I *2082:B I *D sky130_fd_sc_hd__or2_2
*I *2081:X O *D sky130_fd_sc_hd__and3_2
*CAP
1 *2082:B 0.00033077
2 *2081:X 0.00033077
3 *2082:B *2081:B 0.000123225
4 *2082:B *2081:C 2.67275e-05
5 *2082:B *502:12 3.23663e-05
6 *2082:A *2082:B 2.61299e-05
7 *443:35 *2082:B 3.52139e-06
*RES
1 *2081:X *2082:B 7.625 
*END

*D_NET *446 0.000959346
*CONN
*I *2084:B I *D sky130_fd_sc_hd__xor2_2
*I *2083:X O *D sky130_fd_sc_hd__o22a_2
*CAP
1 *2084:B 0.000296013
2 *2083:X 0.000296013
3 *2084:B *2159:A1 0.000239807
4 *2084:B *2159:A2 9.49308e-05
5 *2084:B *2291:A 3.25831e-05
6 *160:8 *2084:B 0
*RES
1 *2083:X *2084:B 10.19 
*END

*D_NET *447 0.00286579
*CONN
*I *2087:B2 I *D sky130_fd_sc_hd__a2bb2oi_2
*I *2086:B I *D sky130_fd_sc_hd__xor2_2
*I *2085:Y O *D sky130_fd_sc_hd__o21ai_2
*CAP
1 *2087:B2 0.000297534
2 *2086:B 0.00069933
3 *2085:Y 0.000401797
4 *2086:B *470:16 0.000316415
5 *2087:B2 *2136:B 6.07412e-05
6 *2087:B2 *2139:A2 0
7 *2087:B2 *2261:A 0.000200615
8 S[10] *2087:B2 5.2126e-05
9 *2087:B1 *2087:B2 2.75229e-05
10 *2217:A *2087:B2 0
11 *2298:A *2087:B2 4.82919e-05
12 *2318:A *2086:B 4.82919e-05
13 *138:8 *2086:B 0.00020655
14 *138:8 *2087:B2 4.11729e-05
15 *162:18 *2086:B 0.000465398
*RES
1 *2085:Y *2086:B 11.3275 
2 *2086:B *2087:B2 11.6075 
*END

*D_NET *448 0.000606112
*CONN
*I *2088:B I *D sky130_fd_sc_hd__xor2_2
*I *2087:Y O *D sky130_fd_sc_hd__a2bb2oi_2
*CAP
1 *2088:B 0.000249475
2 *2087:Y 0.000249475
3 *2088:B *2148:A1 0
4 *2088:B *2148:B1 0
5 *2088:A *2088:B 5.72004e-05
6 *2298:A *2088:B 4.99619e-05
7 *147:12 *2088:B 0
*RES
1 *2087:Y *2088:B 9.725 
*END

*D_NET *449 0.00289737
*CONN
*I *2093:B2 I *D sky130_fd_sc_hd__o2bb2ai_2
*I *2095:A2 I *D sky130_fd_sc_hd__o211a_2
*I *2089:Y O *D sky130_fd_sc_hd__nand2_2
*CAP
1 *2093:B2 0.000772763
2 *2095:A2 1.83332e-05
3 *2089:Y 0.000113533
4 *449:10 0.000904629
5 *2093:B2 *2094:B 8.65905e-05
6 *449:10 *607:35 0
7 *2093:A1_N *2093:B2 4.99619e-05
8 *2095:A1 *2093:B2 4.787e-05
9 *2095:C1 *2095:A2 8.58302e-07
10 *2126:B1 *2093:B2 7.88676e-05
11 *127:12 *2093:B2 8.65905e-05
12 *128:8 *2093:B2 0.000439351
13 *128:8 *2095:A2 9.02865e-06
14 *133:10 *449:10 0.00015428
15 *258:12 *449:10 0.000134716
*RES
1 *2089:Y *449:10 9.275 
2 *449:10 *2095:A2 1.98625 
3 *449:10 *2093:B2 14.935 
*END

*D_NET *450 0.00347934
*CONN
*I *2092:B I *D sky130_fd_sc_hd__xnor2_2
*I *2091:X O *D sky130_fd_sc_hd__a32o_2
*CAP
1 *2092:B 0.00134355
2 *2091:X 0.00134355
3 *2092:B *2091:A1 4.93654e-06
4 *2092:B *2258:A 0.000184387
5 *2092:B *467:6 0.000180997
6 *2091:B1 *2092:B 9.37159e-06
7 *2091:B2 *2092:B 4.05674e-06
8 *2121:B *2092:B 1.56428e-05
9 *2131:A1 *2092:B 1.52776e-05
10 *2131:A2 *2092:B 0
11 *101:12 *2092:B 5.83589e-05
12 *119:22 *2092:B 1.94892e-05
13 *121:31 *2092:B 3.43327e-05
14 *123:6 *2092:B 2.75229e-05
15 *126:16 *2092:B 0.000161529
16 *132:10 *2092:B 7.63282e-05
*RES
1 *2091:X *2092:B 24.795 
*END

*D_NET *451 0.000386328
*CONN
*I *2094:B I *D sky130_fd_sc_hd__xnor2_2
*I *2093:Y O *D sky130_fd_sc_hd__o2bb2ai_2
*CAP
1 *2094:B 0.000149869
2 *2093:Y 0.000149869
3 *2093:B1 *2094:B 0
4 *2093:B2 *2094:B 8.65905e-05
5 *127:12 *2094:B 0
*RES
1 *2093:Y *2094:B 9.63 
*END

*D_NET *452 0.000278599
*CONN
*I *2096:B I *D sky130_fd_sc_hd__xor2_2
*I *2095:X O *D sky130_fd_sc_hd__o211a_2
*CAP
1 *2096:B 8.91752e-05
2 *2095:X 8.91752e-05
3 *2096:B *607:35 9.16237e-05
4 *2096:A *2096:B 4.18603e-06
5 *2127:B *2096:B 0
6 *2127:C *2096:B 0
7 *133:29 *2096:B 4.43871e-06
*RES
1 *2095:X *2096:B 7.49 
*END

*D_NET *453 0.0193839
*CONN
*I *2189:A I *D sky130_fd_sc_hd__buf_8
*I *2123:A1 I *D sky130_fd_sc_hd__o21ai_2
*I *1832:A I *D sky130_fd_sc_hd__nand2_2
*I *1880:A1 I *D sky130_fd_sc_hd__a21oi_2
*I *1797:A1 I *D sky130_fd_sc_hd__o21ai_4
*I *1792:B I *D sky130_fd_sc_hd__nor2_2
*I *1794:A I *D sky130_fd_sc_hd__nand2_2
*I *1881:A1 I *D sky130_fd_sc_hd__o21ai_2
*I *2098:Y O *D sky130_fd_sc_hd__inv_6
*CAP
1 *2189:A 0.000337052
2 *2123:A1 0.00147828
3 *1832:A 0
4 *1880:A1 0
5 *1797:A1 0.000123977
6 *1792:B 0.000505276
7 *1794:A 0.000281466
8 *1881:A1 0.000554102
9 *2098:Y 0.000602314
10 *453:109 0.00197215
11 *453:102 0.000530519
12 *453:43 0.00120475
13 *453:39 0.00302156
14 *453:29 0.00254412
15 *453:6 0.000847259
16 *1792:B *529:14 6.59214e-05
17 *1794:A *565:41 1.17036e-05
18 *1794:A *565:47 5.53249e-06
19 *1881:A1 *1842:B 0.000305651
20 *1881:A1 *458:16 5.95952e-05
21 *1881:A1 *458:22 0.000135532
22 *1881:A1 *459:14 0.000198741
23 *1881:A1 *586:16 2.30292e-05
24 *2123:A1 *541:12 1.61831e-05
25 *2123:A1 *607:35 4.21006e-05
26 *2123:A1 *607:41 7.16781e-05
27 *2189:A *2108:A 4.18603e-06
28 *2189:A *2108:B 0
29 *2189:A *2110:B1_N 2.03578e-05
30 *2189:A *2111:A_N 0
31 *2189:A *2315:A 0
32 *2189:A *541:12 0.000319862
33 *2189:A *575:10 0.000104309
34 *453:6 *1842:B 1.08758e-05
35 *453:6 *2098:A 3.30434e-05
36 *453:6 *541:12 6.55939e-05
37 *453:29 *1880:A2 0
38 *453:29 *459:18 0.000106538
39 *453:39 *1848:A1 1.7635e-05
40 *453:39 *2186:A 7.60474e-05
41 *453:39 *459:18 2.85364e-05
42 *453:102 *2180:A 0.000736091
43 *453:102 *2186:A 0.000131502
44 *453:102 *494:10 1.83847e-05
45 *453:102 *541:12 0.00150296
46 *453:109 *541:12 0.000227769
47 *2089:A *2123:A1 5.05437e-05
48 *2123:A2 *2123:A1 0.000182071
49 *2210:A *1792:B 8.7152e-06
50 *101:12 *2123:A1 0
51 *110:12 *2189:A 0.000141599
52 *111:10 *2189:A 6.20952e-05
53 *133:10 *2123:A1 3.383e-05
54 *180:12 *1792:B 3.00381e-05
55 *183:10 *1797:A1 6.63219e-06
56 *186:12 *1792:B 0.000352156
57 *268:6 *1881:A1 0.000173998
*RES
1 *2098:Y *453:6 4.465 
2 *453:6 *1881:A1 15.89 
3 *453:6 *453:29 3.38 
4 *453:29 *453:39 5.09623 
5 *453:39 *453:43 1.14093 
6 *453:43 *1794:A 4.69097 
7 *453:43 *1792:B 9.0525 
8 *453:39 *1797:A1 5.01617 
9 *453:29 *1880:A1 3.6 
10 *2098:Y *453:102 15.52 
11 *453:102 *1832:A 1.6 
12 *453:102 *453:109 3.555 
13 *453:109 *2123:A1 25.82 
14 *453:109 *2189:A 13.865 
*END

*D_NET *454 0.00344526
*CONN
*I *1848:B1 I *D sky130_fd_sc_hd__o21ai_4
*I *1861:B1_N I *D sky130_fd_sc_hd__o21bai_2
*I *2064:A I *D sky130_fd_sc_hd__xor2_2
*I *2065:A1 I *D sky130_fd_sc_hd__mux2_1
*I *2190:X O *D sky130_fd_sc_hd__clkdlybuf4s25_1
*CAP
1 *1848:B1 0
2 *1861:B1_N 5.46187e-05
3 *2064:A 0
4 *2065:A1 0.000140657
5 *2190:X 0.000140478
6 *454:29 0.000224374
7 *454:14 0.000573117
8 *454:8 0.000403183
9 *2065:A1 *2065:A0 2.81489e-05
10 *2065:A1 *2065:S 8.40213e-05
11 *454:8 *1846:A 0.000165612
12 *454:8 *1846:B 0.000196048
13 *454:8 *458:22 8.49205e-05
14 *454:29 *2064:B 0.000206123
15 *454:29 *2065:A0 0
16 *454:29 *2065:S 0.000113517
17 *454:29 *493:16 0
18 *1850:A1 *454:14 2.30292e-05
19 *1850:A2 *454:14 1.35054e-05
20 *1850:B1 *2065:A1 3.64998e-06
21 *1850:B1 *454:14 4.58257e-05
22 *1852:B1 *454:14 0.000198051
23 *2216:A *454:29 0
24 *234:6 *454:8 0.000647501
25 *234:6 *454:14 3.7712e-05
26 *236:22 *454:8 5.41594e-05
27 *236:22 *454:14 7.00889e-06
*RES
1 *2190:X *454:8 7.93 
2 *454:8 *454:14 4.965 
3 *454:14 *2065:A1 3.79 
4 *454:14 *454:29 7.675 
5 *454:29 *2064:A 1.6 
6 *454:29 *1861:B1_N 2.395 
7 *454:8 *1848:B1 1.6 
*END

*D_NET *455 0.00150408
*CONN
*I *1889:B1_N I *D sky130_fd_sc_hd__o21ba_2
*I *1890:B1_N I *D sky130_fd_sc_hd__o21bai_2
*I *1888:C I *D sky130_fd_sc_hd__nand3b_4
*I *2191:X O *D sky130_fd_sc_hd__clkdlybuf4s25_1
*CAP
1 *1889:B1_N 0.000145165
2 *1890:B1_N 0.00010242
3 *1888:C 2.11983e-05
4 *2191:X 0.000220697
5 *455:19 0.000353898
6 *455:8 0.000348208
7 *1888:C *1886:A 4.82919e-05
8 *455:8 *1886:B 0
9 *455:8 *460:10 7.81954e-05
10 *455:8 *570:18 0
11 *455:19 *570:18 0
12 S[17] *1889:B1_N 0
13 *1889:A2 *1889:B1_N 9.9535e-05
14 *272:10 *1889:B1_N 4.43871e-06
15 *272:10 *455:19 6.36578e-05
16 *275:22 *1889:B1_N 1.83756e-05
*RES
1 *2191:X *455:8 7.275 
2 *455:8 *1888:C 4.05 
3 *455:8 *455:19 1.89 
4 *455:19 *1890:B1_N 5.085 
5 *455:19 *1889:B1_N 6.54 
*END

*D_NET *456 0.00215714
*CONN
*I *2255:A I *D sky130_fd_sc_hd__buf_8
*I *2313:A I *D sky130_fd_sc_hd__buf_2
*I *2177:X O *D sky130_fd_sc_hd__buf_6
*CAP
1 *2255:A 6.048e-05
2 *2313:A 0
3 *2177:X 0.00020165
4 *456:12 0.00026213
5 *2255:A *2282:A 0.000271303
6 *2255:A *562:10 0.000157959
7 *456:12 *2065:A0 0.000446555
8 *456:12 *493:16 8.65905e-05
9 *456:12 *508:14 2.42236e-05
10 *2240:A *456:12 0.00016063
11 *2323:A *456:12 0.000113797
12 *248:8 *456:12 0.000371826
*RES
1 *2177:X *456:12 12.8 
2 *456:12 *2313:A 1.6 
3 *456:12 *2255:A 4.12 
*END

*D_NET *457 0.00547495
*CONN
*I *2304:A I *D sky130_fd_sc_hd__buf_2
*I *1795:A2 I *D sky130_fd_sc_hd__o21a_4
*I *1802:A_N I *D sky130_fd_sc_hd__nand2b_4
*I *2312:A I *D sky130_fd_sc_hd__buf_2
*I *2303:A I *D sky130_fd_sc_hd__buf_2
*I *1806:A1 I *D sky130_fd_sc_hd__o21a_4
*I *1807:A1 I *D sky130_fd_sc_hd__o21ai_2
*I *2255:X O *D sky130_fd_sc_hd__buf_8
*CAP
1 *2304:A 0
2 *1795:A2 0.000349549
3 *1802:A_N 0
4 *2312:A 7.40185e-05
5 *2303:A 3.18738e-05
6 *1806:A1 7.14125e-05
7 *1807:A1 0.00032374
8 *2255:X 0.000285665
9 *457:76 0.000630771
10 *457:51 0.000199675
11 *457:47 0.000256197
12 *457:36 0.000618094
13 *457:28 0.000703564
14 *1795:A2 *1793:B 0.000168376
15 *1795:A2 *1798:A1 1.15688e-05
16 *1795:A2 *2100:A 1.62913e-05
17 *1795:A2 *486:8 6.55406e-05
18 *1795:A2 *565:41 0.000108329
19 *1795:A2 *565:47 0.000207103
20 *1806:A1 *1806:A2 1.83756e-05
21 *1807:A1 *1847:B 0
22 *1807:A1 *2067:A2 4.88478e-05
23 *1807:A1 *562:10 8.52845e-05
24 *457:28 *1807:A2 4.89295e-05
25 *457:28 *1807:B1 5.83121e-06
26 *457:28 *566:27 9.47972e-06
27 *457:36 *1806:A2 2.8185e-05
28 *457:36 *1806:B1 4.82919e-05
29 *457:36 *1807:B1 9.80032e-06
30 *457:36 *530:10 0.000189311
31 *457:47 *1801:B 0.000163992
32 *457:47 *566:42 0.000100308
33 *457:51 *1801:B 0.000140912
34 *457:51 *1804:A 4.70343e-05
35 *457:76 *1798:A1 0
36 *1797:A2 *1795:A2 0.000233724
37 *1797:A2 *457:76 9.50342e-06
38 *1805:B *457:47 0
39 *1805:C *457:47 0
40 *1805:C *457:51 0
41 *1808:A *457:36 4.66108e-05
42 *1812:A2_N *457:76 0
43 *2326:A *1807:A1 4.43871e-06
44 *102:12 *1795:A2 0
45 *193:14 *1807:A1 0.00011432
46 *193:14 *457:76 0
*RES
1 *2255:X *1807:A1 12.48 
2 *1807:A1 *457:28 2.395 
3 *457:28 *457:36 6.795 
4 *457:36 *1806:A1 2.74 
5 *457:36 *457:47 5.93 
6 *457:47 *457:51 4.4 
7 *457:51 *2303:A 2.05 
8 *457:51 *2312:A 2.74 
9 *457:47 *1802:A_N 3.6 
10 *457:28 *457:76 5.93 
11 *457:76 *1795:A2 12.045 
12 *457:76 *2304:A 3.6 
*END

*D_NET *458 0.00499026
*CONN
*I *2256:A I *D sky130_fd_sc_hd__buf_8
*I *1877:A I *D sky130_fd_sc_hd__or2_4
*I *1846:A I *D sky130_fd_sc_hd__and2_2
*I *1849:A1 I *D sky130_fd_sc_hd__a21oi_2
*I *2178:X O *D sky130_fd_sc_hd__clkbuf_2
*CAP
1 *2256:A 0
2 *1877:A 2.11983e-05
3 *1846:A 0.000154955
4 *1849:A1 0.000279695
5 *2178:X 0.000506608
6 *458:22 0.000869003
7 *458:16 0.000582155
8 *458:10 0.000633212
9 *1846:A *1846:B 0.000233561
10 *1846:A *1848:A1 0.000227186
11 *1849:A1 *1848:A2 1.52862e-05
12 *1849:A1 *1849:A2 0.000122801
13 *1849:A1 *559:10 1.43191e-05
14 *1877:A *597:6 4.82919e-05
15 *458:10 *2101:A 0
16 *458:10 *2330:A 4.85649e-05
17 *458:10 *459:14 0
18 *458:16 *2101:A 0
19 *458:16 *459:14 0
20 *458:22 *1848:A1 0
21 *458:22 *1848:A2 9.50342e-06
22 *458:22 *1880:B1 0
23 *458:22 *459:18 0
24 *458:22 *459:55 0.000101881
25 *458:22 *544:12 0.000139933
26 *1849:B1 *1849:A1 0.000197826
27 *1851:B *1849:A1 1.14169e-05
28 *1852:B1 *458:22 0
29 *1861:A1 *458:22 0
30 *1862:A2 *1849:A1 1.70935e-05
31 *1881:A1 *458:16 5.95952e-05
32 *1881:A1 *458:22 0.000135532
33 *1881:B1 *458:16 6.17693e-05
34 *1881:B1 *458:22 7.02068e-05
35 *2190:A *458:22 0
36 *231:29 *458:22 9.52078e-05
37 *236:22 *1849:A1 7.71016e-05
38 *236:22 *458:22 5.83121e-06
39 *454:8 *1846:A 0.000165612
40 *454:8 *458:22 8.49205e-05
*RES
1 *2178:X *458:10 10.77 
2 *458:10 *458:16 2.445 
3 *458:16 *458:22 11.06 
4 *458:22 *1849:A1 11.21 
5 *458:22 *1846:A 6.31 
6 *458:16 *1877:A 4.05 
7 *458:10 *2256:A 3.6 
*END

*D_NET *459 0.00953822
*CONN
*I *2330:A I *D sky130_fd_sc_hd__buf_2
*I *1842:A I *D sky130_fd_sc_hd__and2_2
*I *1840:A_N I *D sky130_fd_sc_hd__nand2b_2
*I *1844:A2 I *D sky130_fd_sc_hd__o21ai_4
*I *1845:A1 I *D sky130_fd_sc_hd__a21o_4
*I *1841:B I *D sky130_fd_sc_hd__nand2b_2
*I *1848:A1 I *D sky130_fd_sc_hd__o21ai_4
*I *2256:X O *D sky130_fd_sc_hd__buf_8
*CAP
1 *2330:A 0.000626233
2 *1842:A 0.00015699
3 *1840:A_N 9.93569e-05
4 *1844:A2 0
5 *1845:A1 0
6 *1841:B 0.000261132
7 *1848:A1 0.000448805
8 *2256:X 8.14664e-05
9 *459:55 0.000566947
10 *459:39 0.000383261
11 *459:33 0.000176803
12 *459:18 0.000575425
13 *459:14 0.000603783
14 *459:8 0.00102787
15 *1840:A_N *1840:B 8.97178e-05
16 *1840:A_N *1880:A2 8.64421e-05
17 *1841:B *460:18 0.000183043
18 *1841:B *524:16 6.52265e-05
19 *1842:A *1878:B 3.03465e-05
20 *1842:A *1879:C 8.73389e-06
21 *1842:A *1880:A2 3.62197e-05
22 *1842:A *2098:A 6.39171e-05
23 *1848:A1 *1846:B 4.9968e-05
24 *1848:A1 *524:16 2.06083e-05
25 *2330:A *2101:A 0
26 *2330:A *2103:B 0
27 *459:14 *1879:C 8.73389e-06
28 *459:14 *597:6 4.07475e-05
29 *459:18 *1880:A2 0
30 *459:18 *1880:B1 0.000282024
31 *459:18 *2098:A 0.000108968
32 *459:39 *1840:B 0.000219824
33 *459:39 *1844:A1 9.13949e-06
34 *459:39 *1880:B1 8.64421e-05
35 *459:39 *547:44 2.10214e-05
36 *459:55 *476:10 2.88519e-05
37 *459:55 *524:16 0.000348693
38 *459:55 *547:12 2.62115e-05
39 *1843:C *1841:B 0.000111901
40 *1846:A *1848:A1 0.000227186
41 *1852:B1 *459:55 0.000161529
42 *1879:A *459:14 1.87038e-05
43 *1879:B *1842:A 4.7003e-05
44 *1881:A1 *459:14 0.000198741
45 *1881:B1 *459:39 0.000161778
46 *1881:B1 *459:55 0.000122337
47 *1896:A *2330:A 2.13396e-05
48 *1896:B *2330:A 0.000309729
49 *1917:B *2330:A 9.37731e-05
50 *2190:A *1848:A1 2.73701e-05
51 *2193:A *1841:B 0.000272984
52 *2193:A *459:55 9.90522e-05
53 *2243:A *1841:B 0.000181376
54 *231:29 *459:39 3.66286e-05
55 *231:29 *459:55 0.000122337
56 *232:19 *459:55 0
57 *268:6 *459:8 0.000198344
58 *453:29 *459:18 0.000106538
59 *453:39 *1848:A1 1.7635e-05
60 *453:39 *459:18 2.85364e-05
61 *458:10 *2330:A 4.85649e-05
62 *458:10 *459:14 0
63 *458:16 *459:14 0
64 *458:22 *1848:A1 0
65 *458:22 *459:18 0
66 *458:22 *459:55 0.000101881
*RES
1 *2256:X *459:8 5.43 
2 *459:8 *459:14 6.83 
3 *459:14 *459:18 5.675 
4 *459:18 *1848:A1 10.575 
5 *459:18 *459:33 2 
6 *459:33 *459:39 3.33 
7 *459:39 *459:55 11.92 
8 *459:55 *1841:B 12.44 
9 *459:55 *1845:A1 1.6 
10 *459:39 *1844:A2 1.6 
11 *459:33 *1840:A_N 3.895 
12 *459:14 *1842:A 8.375 
13 *459:8 *2330:A 14.355 
*END

*D_NET *460 0.00665099
*CONN
*I *1878:A I *D sky130_fd_sc_hd__nand2_2
*I *2098:A I *D sky130_fd_sc_hd__inv_6
*I *2178:A I *D sky130_fd_sc_hd__clkbuf_2
*I *2177:A I *D sky130_fd_sc_hd__buf_6
*I *2310:A I *D sky130_fd_sc_hd__buf_2
*I *2179:X O *D sky130_fd_sc_hd__buf_8
*CAP
1 *1878:A 0.000143047
2 *2098:A 0.000170704
3 *2178:A 0
4 *2177:A 0
5 *2310:A 1.43332e-05
6 *2179:X 0.000709606
7 *460:52 0.000756395
8 *460:18 0.000869088
9 *460:10 0.00112172
10 *1878:A *1879:C 0
11 *1878:A *575:10 0.000160831
12 *2098:A *1842:B 3.50152e-06
13 *2098:A *1880:B1 2.05661e-05
14 *2098:A *541:12 8.35106e-05
15 *2310:A *493:16 5.30673e-05
16 *460:10 *2101:A 0.00022557
17 *460:10 *2186:A 0
18 *460:10 *462:6 0.000310772
19 *460:10 *545:21 0.00028578
20 *460:10 *570:18 0
21 *460:18 *1841:A_N 8.97642e-05
22 *460:18 *2186:A 0
23 *460:52 *462:6 4.77719e-05
24 *460:52 *545:21 2.68464e-05
25 *1841:B *460:18 0.000183043
26 *1842:A *2098:A 6.39171e-05
27 *1843:A *460:10 0.000312182
28 *1843:C *460:18 0.000139252
29 *1879:B *1878:A 6.98693e-05
30 *1895:A1 *460:52 6.70324e-06
31 *1895:B1 *460:52 9.4147e-05
32 *2066:B *460:18 0
33 *2193:A *460:18 0
34 *2225:A *460:18 0
35 *2240:A *2310:A 8.65905e-05
36 *2243:A *460:18 0.000222247
37 *266:14 *2098:A 4.36369e-05
38 *266:14 *460:52 0.00011632
39 *453:6 *2098:A 3.30434e-05
40 *455:8 *460:10 7.81954e-05
41 *459:18 *2098:A 0.000108968
*RES
1 *2179:X *460:10 12.84 
2 *460:10 *460:18 17.795 
3 *460:18 *2310:A 2.395 
4 *460:18 *2177:A 1.6 
5 *460:10 *2178:A 3.6 
6 *2179:X *460:52 11.3925 
7 *460:52 *2098:A 7.5825 
8 *460:52 *1878:A 6.4725 
*END

*D_NET *461 0.00816709
*CONN
*I *1831:B I *D sky130_fd_sc_hd__nand2b_2
*I *1835:A1 I *D sky130_fd_sc_hd__o21ai_2
*I *1814:A1 I *D sky130_fd_sc_hd__a21o_2
*I *2168:A I *D sky130_fd_sc_hd__and2_2
*I *1813:A1 I *D sky130_fd_sc_hd__o21ai_2
*I *2166:B I *D sky130_fd_sc_hd__nand2b_2
*I *2167:A_N I *D sky130_fd_sc_hd__nand2b_2
*I *2176:A I *D sky130_fd_sc_hd__and2_2
*I *1796:A1 I *D sky130_fd_sc_hd__o21ai_2
*I *1833:A I *D sky130_fd_sc_hd__and2_2
*I *2180:X O *D sky130_fd_sc_hd__clkbuf_2
*CAP
1 *1831:B 0.000183749
2 *1835:A1 0
3 *1814:A1 8.10783e-05
4 *2168:A 0.000173872
5 *1813:A1 0.000150848
6 *2166:B 2.67725e-05
7 *2167:A_N 0
8 *2176:A 0
9 *1796:A1 2.51743e-05
10 *1833:A 0.000124181
11 *2180:X 0
12 *461:58 0.000240411
13 *461:56 0.000303744
14 *461:35 0.000431991
15 *461:31 0.000466469
16 *461:27 0.00015681
17 *461:25 0.000874016
18 *461:19 0.000872881
19 *461:6 0.000287803
20 *461:4 0.000237351
21 *1796:A1 *565:23 0.000162311
22 *1813:A1 *1813:A2 3.09088e-05
23 *1813:A1 *1813:B1 0.00023585
24 *1831:B *1831:A_N 0.000151541
25 *1831:B *562:30 8.8266e-05
26 *1833:A *562:30 7.10578e-05
27 *2168:A *2168:B 0.000234106
28 *2168:A *567:52 2.0514e-05
29 *461:6 *562:30 8.96017e-05
30 *461:19 *1835:B1 1.89685e-05
31 *461:19 *1854:A_N 0
32 *461:19 *562:23 6.95422e-05
33 *461:25 *1835:B1 8.08439e-05
34 *461:25 *2285:A 0.000423276
35 *461:25 *527:10 0
36 *461:25 *527:19 0
37 *461:25 *527:36 0
38 *461:25 *562:10 3.64783e-05
39 *461:27 *2285:A 2.7881e-05
40 *461:31 *2167:B 6.00111e-05
41 *461:35 *2167:B 1.48813e-05
42 *461:35 *2168:B 0
43 *461:35 *2176:B 3.57349e-05
44 *461:35 *565:23 4.82863e-05
45 *461:56 *2285:A 1.44177e-05
46 *461:56 *527:10 0
47 *461:58 *2285:A 8.08153e-06
48 *461:58 *527:10 0
49 *1800:A1 *461:35 2.75145e-05
50 *1800:A2 *1796:A1 0.000162311
51 *1800:A2 *461:35 0.000108098
52 *1814:B1 *1814:A1 0.0001249
53 *1814:B1 *461:31 0.000120655
54 *1856:B1 *461:25 0.000103588
55 *1857:B1 *461:25 6.55406e-05
56 *1858:B1 *461:25 0
57 *1859:A2 *461:19 0.000143266
58 *1859:B1 *461:19 0.000155176
59 *1859:B1 *461:25 0.000120186
60 *2070:A *461:25 1.91902e-05
61 *2169:C *2166:B 5.16348e-05
62 *2169:C *461:58 8.69157e-05
63 *2208:A *2166:B 5.53249e-06
64 *201:10 *1813:A1 0.000119756
65 *221:10 *1833:A 4.82863e-05
66 *221:10 *461:6 7.40446e-05
67 *221:10 *461:19 7.07801e-05
68 *252:8 *461:25 0
*RES
1 *2180:X *461:4 1.6 
2 *461:4 *461:6 1.485 
3 *461:6 *1833:A 3.79 
4 *461:6 *461:19 5.93 
5 *461:19 *461:25 16.56 
6 *461:25 *461:27 0.615 
7 *461:27 *461:31 3.485 
8 *461:31 *461:35 6.675 
9 *461:35 *1796:A1 3.085 
10 *461:35 *2176:A 1.6 
11 *461:31 *2167:A_N 1.6 
12 *461:27 *461:56 1.065 
13 *461:56 *461:58 1.38 
14 *461:58 *2166:B 4.215 
15 *461:58 *1813:A1 6.825 
16 *461:56 *2168:A 6.825 
17 *461:25 *1814:A1 4.74 
18 *461:19 *1835:A1 3.6 
19 *461:4 *1831:B 5.17 
*END

*D_NET *462 0.00522868
*CONN
*I *2179:A I *D sky130_fd_sc_hd__buf_8
*I *2180:A I *D sky130_fd_sc_hd__clkbuf_2
*I *2311:A I *D sky130_fd_sc_hd__buf_2
*I *2181:X O *D sky130_fd_sc_hd__buf_8
*CAP
1 *2179:A 0
2 *2180:A 0.000383309
3 *2311:A 0
4 *2181:X 0.000215862
5 *462:16 0.00160556
6 *462:6 0.00143811
7 *2180:A *1832:B 0
8 *462:6 *545:21 5.58036e-05
9 *462:16 *1887:A 0
10 *462:16 *545:21 1.42452e-05
11 *1894:A2 *462:16 1.91597e-05
12 *1894:B1_N *462:16 3.21357e-05
13 *2106:B *462:16 0.000108098
14 *105:24 *462:16 8.40269e-05
15 *108:12 *462:16 6.60261e-06
16 *269:12 *462:16 0.000138961
17 *280:8 *462:16 3.21652e-05
18 *453:102 *2180:A 0.000736091
19 *460:10 *462:6 0.000310772
20 *460:52 *462:6 4.77719e-05
*RES
1 *2181:X *462:6 6.19 
2 *462:6 *462:16 20.755 
3 *462:16 *2311:A 1.6 
4 *462:16 *2180:A 13.895 
5 *462:6 *2179:A 1.6 
*END

*D_NET *463 0.0122623
*CONN
*I *1924:A I *D sky130_fd_sc_hd__and2_4
*I *1907:A I *D sky130_fd_sc_hd__nor2_2
*I *2308:A I *D sky130_fd_sc_hd__buf_2
*I *1897:A I *D sky130_fd_sc_hd__nor2_2
*I *1898:A I *D sky130_fd_sc_hd__and2_2
*I *1886:A I *D sky130_fd_sc_hd__and2_2
*I *1908:A I *D sky130_fd_sc_hd__and2_2
*I *2309:A I *D sky130_fd_sc_hd__buf_2
*I *1885:A I *D sky130_fd_sc_hd__nor2_4
*I *2182:X O *D sky130_fd_sc_hd__buf_6
*CAP
1 *1924:A 9.44223e-05
2 *1907:A 0
3 *2308:A 0
4 *1897:A 0
5 *1898:A 0
6 *1886:A 0.00103901
7 *1908:A 6.87226e-05
8 *2309:A 0
9 *1885:A 0.000173452
10 *2182:X 0.000651768
11 *463:75 0.00114159
12 *463:71 0.000415618
13 *463:63 0.00088541
14 *463:46 0.000692014
15 *463:44 0.000172878
16 *463:20 0.000766179
17 *463:14 0.00108854
18 *463:10 0.00112004
19 *1885:A *1885:B 0
20 *1885:A *2268:A 4.34279e-05
21 *1886:A *1898:B 2.39233e-05
22 *1886:A *1902:B1_N 2.16917e-05
23 *1886:A *2270:A 0.000116563
24 *1886:A *546:6 5.18922e-05
25 *1886:A *570:18 2.54436e-05
26 *1908:A *1907:B 0.000162325
27 *463:10 *1929:A2 0
28 *463:10 *2182:A 0
29 *463:10 *2273:A 0.000276159
30 *463:10 *464:27 0.000100544
31 *463:14 *1929:A2 2.97004e-06
32 *463:63 *1911:B1_N 4.82863e-05
33 *463:71 *1897:B 5.53249e-06
34 *463:71 *1911:B1_N 0
35 *463:71 *570:18 0
36 *463:75 *1897:B 8.87475e-05
37 *463:75 *1899:B 3.24046e-05
38 S[18] *1886:A 6.14445e-05
39 S[21] *463:10 2.05056e-05
40 S[22] *463:71 0
41 *1888:A_N *1886:A 0.000234674
42 *1888:B *1886:A 5.0751e-05
43 *1888:C *1886:A 4.82919e-05
44 *1906:B *1885:A 0.00016031
45 *1911:A1 *463:63 3.00381e-05
46 *1914:A *1886:A 1.52945e-05
47 *1914:B *1886:A 0.000120186
48 *1914:C *1886:A 0.000159964
49 *1916:C1 *1885:A 5.16418e-05
50 *1916:C1 *463:20 0.00019189
51 *1917:B *1885:A 0.000139933
52 *1931:A1 *463:10 5.30144e-05
53 *1932:B2 *463:10 0
54 *1934:A1 *463:14 5.16418e-05
55 *1938:B1 *463:14 0
56 *1938:B1 *463:20 0
57 *1945:C1 *463:20 0
58 *1946:A *463:20 0.000143266
59 *1947:B *463:20 8.81106e-05
60 *1948:A *1908:A 2.45182e-05
61 *1948:A *463:14 0
62 *2192:A *463:71 0
63 *2227:A *1886:A 1.7635e-05
64 *271:14 *1885:A 0.000280604
65 *272:10 *1886:A 0.000200615
66 *274:8 *1886:A 0.000337524
67 *274:19 *1886:A 0.000110683
68 *275:22 *1886:A 1.32017e-05
69 *276:10 *1886:A 0.00015997
70 *283:8 *1886:A 6.54766e-05
71 *287:10 *1886:A 0.000121596
72 *304:29 *463:14 0
*RES
1 *2182:X *463:10 15.165 
2 *463:10 *463:14 6.42 
3 *463:14 *463:20 11.115 
4 *463:20 *1885:A 8.625 
5 *463:20 *2309:A 3.6 
6 *463:14 *463:44 3.83 
7 *463:44 *463:46 0.795 
8 *463:46 *1908:A 7.49 
9 *463:46 *463:63 8.07 
10 *463:63 *463:71 7.085 
11 *463:71 *463:75 4.4 
12 *463:75 *1886:A 26.765 
13 *463:75 *1898:A 1.6 
14 *463:71 *1897:A 3.6 
15 *463:63 *2308:A 1.6 
16 *463:44 *1907:A 1.6 
17 *463:10 *1924:A 4.74 
*END

*D_NET *464 0.00220125
*CONN
*I *1929:A1 I *D sky130_fd_sc_hd__a21oi_2
*I *2257:A I *D sky130_fd_sc_hd__buf_6
*I *2182:A I *D sky130_fd_sc_hd__buf_6
*I *2183:X O *D sky130_fd_sc_hd__dlymetal6s2s_1
*CAP
1 *1929:A1 0.000252264
2 *2257:A 0
3 *2182:A 0.00025921
4 *2183:X 3.62396e-05
5 *464:27 0.000330198
6 *464:6 0.000373384
7 *1929:A1 *1929:A2 8.73389e-06
8 *2182:A *1931:B1 4.21889e-05
9 *2182:A *570:52 0.000129291
10 *464:6 *1931:B1 1.46828e-05
11 *464:6 *2183:A 0.000122699
12 *464:6 *570:52 9.10513e-05
13 *1921:A *1929:A1 0.00010445
14 *1931:A1 *2182:A 8.65905e-05
15 *1931:A1 *464:27 0.000159964
16 *1932:B2 *2182:A 8.97564e-05
17 *1932:B2 *464:27 0
18 *1933:B *2182:A 0
19 *463:10 *2182:A 0
20 *463:10 *464:27 0.000100544
*RES
1 *2183:X *464:6 3.085 
2 *464:6 *2182:A 11.12 
3 *464:6 *464:27 6.145 
4 *464:27 *2257:A 1.6 
5 *464:27 *1929:A1 5.53 
*END

*D_NET *465 0.00188237
*CONN
*I *1901:B1_N I *D sky130_fd_sc_hd__o21ba_2
*I *1902:B1_N I *D sky130_fd_sc_hd__o21bai_2
*I *1900:C I *D sky130_fd_sc_hd__nand3b_2
*I *2192:X O *D sky130_fd_sc_hd__clkdlybuf4s25_1
*CAP
1 *1901:B1_N 0
2 *1902:B1_N 1.9506e-05
3 *1900:C 9.6905e-05
4 *2192:X 0.000345463
5 *465:12 0.000219249
6 *465:10 0.000448302
7 *1900:C *570:18 0.00015642
8 *1902:B1_N *546:6 5.05521e-05
9 *465:10 *2274:A 9.30717e-05
10 *465:10 *570:18 6.18754e-05
11 *465:12 *570:18 0.000112971
12 *1886:A *1902:B1_N 2.16917e-05
13 *1900:B *1900:C 9.50342e-06
14 *2192:A *465:10 0.000122331
15 *2227:A *1900:C 6.57653e-06
16 *2227:A *465:12 2.97004e-06
17 *287:10 *1900:C 6.66974e-05
18 *287:10 *1902:B1_N 4.82863e-05
*RES
1 *2192:X *465:10 8.535 
2 *465:10 *465:12 2.4 
3 *465:12 *1900:C 6.045 
4 *465:12 *1902:B1_N 4.395 
5 *465:10 *1901:B1_N 3.6 
*END

*D_NET *466 0.00678987
*CONN
*I *1952:A I *D sky130_fd_sc_hd__nand2_2
*I *1968:A I *D sky130_fd_sc_hd__nor2_4
*I *1951:A I *D sky130_fd_sc_hd__nor2_2
*I *1940:A I *D sky130_fd_sc_hd__nor2_2
*I *1939:A I *D sky130_fd_sc_hd__and2_4
*I *1925:A I *D sky130_fd_sc_hd__nor2_2
*I *1928:A1 I *D sky130_fd_sc_hd__o21ai_2
*I *2257:X O *D sky130_fd_sc_hd__buf_6
*CAP
1 *1952:A 0.000100141
2 *1968:A 0.000334851
3 *1951:A 2.62298e-05
4 *1940:A 0
5 *1939:A 0.000168205
6 *1925:A 0.000103441
7 *1928:A1 0.000171763
8 *2257:X 0.000557903
9 *466:74 0.000178206
10 *466:68 0.000580786
11 *466:64 0.000272716
12 *466:51 0.000382941
13 *466:22 0.000696988
14 *1925:A *2188:A 4.11678e-06
15 *1925:A *2275:A 0
16 *1925:A *549:12 0.000116158
17 *1925:A *549:20 9.50342e-06
18 *1928:A1 *1928:B1 5.4155e-06
19 *1939:A *1939:B 2.03321e-05
20 *1939:A *1942:B1_N 8.70923e-05
21 *1939:A *2275:A 0
22 *1939:A *507:10 6.18754e-05
23 *1952:A *2188:A 0.000116393
24 *1968:A *1954:C 3.38425e-05
25 *1968:A *509:6 0.000117116
26 *466:22 *1928:B1 1.19928e-05
27 *466:22 *2188:A 3.81908e-06
28 *466:22 *490:16 0.000122633
29 *466:22 *490:41 3.18973e-05
30 *466:51 *1928:B1 0
31 *466:51 *2188:A 0.000467068
32 *466:64 *2188:A 0.00026617
33 *466:68 *1951:B 0
34 *466:68 *509:12 0
35 *466:74 *509:12 0
36 *1937:B1 *466:22 2.10152e-05
37 *1941:B *466:68 5.39961e-05
38 *1942:A1 *466:68 5.39961e-05
39 *1943:A_N *466:51 8.8266e-05
40 *1943:A_N *466:64 0.000184712
41 *1950:B1 *466:74 1.15688e-05
42 *1958:B1 *466:74 7.21296e-06
43 *2197:A *1968:A 0.000274659
44 *311:10 *466:22 0.000267062
45 *322:8 *466:68 0.000179922
46 *322:8 *466:74 0.000140912
47 *324:10 *466:51 8.58459e-05
48 *324:16 *466:51 1.45064e-05
49 *335:6 *1968:A 0.000349592
50 *348:10 *1968:A 7.00889e-06
*RES
1 *2257:X *466:22 13.73 
2 *466:22 *1928:A1 2.215 
3 *466:22 *1925:A 7.43 
4 *1928:A1 *466:51 6.205 
5 *466:51 *1939:A 9.275 
6 *466:51 *466:64 2.52 
7 *466:64 *466:68 4.655 
8 *466:68 *466:74 4.94 
9 *466:74 *1940:A 1.6 
10 *466:74 *1951:A 2.05 
11 *466:68 *1968:A 11.415 
12 *466:64 *1952:A 3.805 
*END

*D_NET *467 0.00272351
*CONN
*I *2258:A I *D sky130_fd_sc_hd__buf_8
*I *2122:A1 I *D sky130_fd_sc_hd__o21a_2
*I *2120:A I *D sky130_fd_sc_hd__nand2_2
*I *2184:X O *D sky130_fd_sc_hd__buf_6
*CAP
1 *2258:A 0.000138477
2 *2122:A1 2.12116e-05
3 *2120:A 0.000135724
4 *2184:X 8.40759e-05
5 *467:10 0.000310455
6 *467:6 0.000376073
7 *2120:A *2296:A 7.34364e-05
8 *2120:A *538:20 2.84447e-05
9 *2120:A *538:28 0.000122737
10 *2122:A1 *2184:A 4.82863e-05
11 *467:6 *2184:A 0.000122331
12 *467:10 *2184:A 0.00016866
13 *467:10 *2296:A 4.43871e-06
14 *467:10 *471:8 0.000177657
15 *1821:B1 *2120:A 5.4003e-05
16 *2092:B *2258:A 0.000184387
17 *2092:B *467:6 0.000180997
18 *101:12 *467:6 8.8266e-05
19 *121:31 *2258:A 0.000353831
20 *122:12 *2120:A 4.49022e-05
21 *122:12 *467:10 5.12017e-06
*RES
1 *2184:X *467:6 4.465 
2 *467:6 *467:10 5.93 
3 *467:10 *2120:A 7.245 
4 *467:10 *2122:A1 4.05 
5 *467:6 *2258:A 6.205 
*END

*D_NET *468 0.00397731
*CONN
*I *2317:A I *D sky130_fd_sc_hd__buf_2
*I *2124:A1 I *D sky130_fd_sc_hd__o21ai_4
*I *2117:A I *D sky130_fd_sc_hd__and2_4
*I *2146:A2 I *D sky130_fd_sc_hd__o21ai_4
*I *2143:A I *D sky130_fd_sc_hd__and2_4
*I *2118:A I *D sky130_fd_sc_hd__nor2_2
*I *2142:A I *D sky130_fd_sc_hd__nor2_2
*I *2258:X O *D sky130_fd_sc_hd__buf_8
*CAP
1 *2317:A 0.0002101
2 *2124:A1 2.89424e-05
3 *2117:A 0
4 *2146:A2 4.68916e-05
5 *2143:A 0
6 *2118:A 4.55626e-05
7 *2142:A 0.000131324
8 *2258:X 4.2366e-05
9 *468:58 9.05307e-05
10 *468:40 4.68916e-05
11 *468:16 0.000266505
12 *468:14 0.000162948
13 *468:12 0.000252133
14 *468:10 0.000369681
15 *2118:A *538:20 0.000124895
16 *2124:A1 *2124:A2 3.83041e-05
17 *2124:A1 *539:16 4.99619e-05
18 *2142:A *2142:B 0.000201503
19 *2142:A *2147:A1 8.16598e-05
20 *2142:A *470:16 0
21 *2142:A *537:42 5.83373e-05
22 *2146:A2 *2143:B 8.49205e-05
23 *2146:A2 *542:12 0.00011964
24 *2317:A *539:12 0.000116559
25 *2317:A *561:10 0
26 *468:12 *2118:B 2.14129e-05
27 *468:12 *539:12 2.4592e-05
28 *468:14 *2118:B 0.000131401
29 *468:16 *2118:B 0.000203067
30 *468:16 *470:16 0
31 *468:16 *537:42 0.000106784
32 *468:58 *2118:B 4.82919e-05
33 *468:58 *2124:A2 0
34 *468:58 *539:16 2.55546e-05
35 *1819:A1 *2118:A 4.70919e-05
36 *2093:B1 *2317:A 0.000208025
37 *2119:A1 *2118:A 5.83121e-06
38 *2119:A1 *468:12 0
39 *2119:A1 *468:14 0
40 *2125:B1 *468:12 0
41 *2130:A1 *468:10 4.66108e-05
42 *2130:A2 *468:10 0
43 *2130:B1 *468:10 0
44 *2131:A1 *2317:A 0.000126679
45 *2131:A1 *468:12 2.92496e-05
46 *2148:A2 *2142:A 2.97004e-06
47 *2299:A *2146:A2 4.82919e-05
48 *119:22 *468:12 0.000116158
49 *126:12 *468:12 6.55328e-05
50 *126:16 *468:10 2.16833e-05
51 *132:10 *2317:A 1.26626e-05
52 *132:10 *468:10 8.40213e-05
53 *145:8 *2146:A2 8.34281e-06
54 *148:10 *2146:A2 1.91597e-05
55 *148:12 *2142:A 4.24292e-06
*RES
1 *2258:X *468:10 4.755 
2 *468:10 *468:12 2.655 
3 *468:12 *468:14 1.635 
4 *468:14 *468:16 2.655 
5 *468:16 *2142:A 7.065 
6 *468:16 *2118:A 5.1 
7 *468:14 *468:40 2 
8 *468:40 *2143:A 1.6 
9 *468:40 *2146:A2 3.43 
10 *468:12 *468:58 3.155 
11 *468:58 *2117:A 1.6 
12 *468:58 *2124:A1 2.395 
13 *468:10 *2317:A 9.57 
*END

*D_NET *469 0.00182349
*CONN
*I *2259:A I *D sky130_fd_sc_hd__buf_4
*I *2184:A I *D sky130_fd_sc_hd__buf_6
*I *2185:X O *D sky130_fd_sc_hd__buf_6
*CAP
1 *2259:A 9.69038e-05
2 *2184:A 0.000279474
3 *2185:X 0
4 *469:4 0.000376378
5 *2184:A *2099:A 0.000134094
6 *2184:A *2185:A 4.82863e-05
7 *2184:A *2186:A 7.9642e-06
8 *2184:A *542:12 0.000271314
9 *2259:A *2296:A 8.26696e-05
10 *2259:A *471:8 1.0183e-05
11 *2122:A1 *2184:A 4.82863e-05
12 *2293:A *2259:A 8.38769e-05
13 *122:12 *2184:A 9.30717e-05
14 *467:6 *2184:A 0.000122331
15 *467:10 *2184:A 0.00016866
*RES
1 *2185:X *469:4 1.6 
2 *469:4 *2184:A 13.19 
3 *469:4 *2259:A 8.255 
*END

*D_NET *470 0.00837661
*CONN
*I *2139:A1 I *D sky130_fd_sc_hd__a21o_4
*I *2136:A I *D sky130_fd_sc_hd__and2_4
*I *2138:A1 I *D sky130_fd_sc_hd__o21ai_2
*I *2137:A I *D sky130_fd_sc_hd__nor2_2
*I *2160:A1 I *D sky130_fd_sc_hd__a21o_4
*I *2159:A1 I *D sky130_fd_sc_hd__a21oi_2
*I *2156:A I *D sky130_fd_sc_hd__and2_4
*I *2157:A I *D sky130_fd_sc_hd__nor2_2
*I *2158:A1 I *D sky130_fd_sc_hd__o21ai_4
*I *2259:X O *D sky130_fd_sc_hd__buf_4
*CAP
1 *2139:A1 0.000164265
2 *2136:A 0
3 *2138:A1 0.000148182
4 *2137:A 0.000226313
5 *2160:A1 9.34464e-05
6 *2159:A1 0.000321788
7 *2156:A 0
8 *2157:A 5.7374e-05
9 *2158:A1 0
10 *2259:X 0.000629156
11 *470:76 0.000319759
12 *470:44 0.000265491
13 *470:34 0.000339897
14 *470:28 0.000591694
15 *470:26 0.000241831
16 *470:24 0.000519597
17 *470:18 0.000304578
18 *470:16 0.000830289
19 *2137:A *2160:A2 0.000150653
20 *2157:A *568:17 7.45031e-05
21 *2157:A *568:30 4.99619e-05
22 *2160:A1 *2160:A2 0.000160635
23 *470:16 *1820:B2 7.21296e-06
24 *470:16 *1820:C1 0
25 *470:16 *2118:B 0
26 *470:16 *478:10 4.66108e-05
27 *470:16 *478:16 0
28 *470:16 *538:20 9.4368e-05
29 *470:24 *2136:B 3.67337e-05
30 *470:24 *502:12 0
31 *470:28 *2160:A2 0
32 *470:28 *2162:B1_N 0
33 *470:34 *2162:B1_N 0
34 *470:44 *568:30 0.000137578
35 *1819:A2 *470:16 5.83121e-06
36 *1819:B1 *470:16 0.000123225
37 *1819:B2 *470:16 6.28765e-05
38 *1821:B1 *470:16 6.77501e-05
39 *2083:A1 *2159:A1 0.000138799
40 *2083:A2 *2159:A1 7.99094e-05
41 *2083:B2 *2159:A1 4.99619e-05
42 *2083:B2 *470:24 0
43 *2083:B2 *470:26 0
44 *2083:B2 *470:28 0
45 *2084:B *2159:A1 0.000239807
46 *2086:A *470:18 0
47 *2086:A *470:24 3.81296e-05
48 *2086:B *470:16 0.000316415
49 *2087:B1 *2139:A1 1.16578e-05
50 *2139:B1 *2139:A1 0.000104541
51 *2142:A *470:16 0
52 *2148:A2 *470:16 0
53 *2149:A *2139:A1 3.23663e-05
54 *2149:B *2139:A1 0.000157343
55 *2149:B *470:16 0.000226834
56 *2155:B1 *2159:A1 0
57 *2159:B1 *2159:A1 8.65905e-05
58 *2161:A2 *470:34 0.000120655
59 *2295:A *470:16 1.07797e-05
60 *140:8 *470:24 0
61 *140:19 *2139:A1 0
62 *140:19 *470:24 0
63 *141:10 *470:16 0
64 *142:14 *2139:A1 0
65 *142:14 *470:24 0
66 *146:10 *470:16 0.000163193
67 *149:8 *470:16 8.53177e-05
68 *158:10 *470:34 2.05056e-05
69 *158:23 *470:28 1.71013e-05
70 *158:23 *470:34 0.000122732
71 *158:23 *470:44 2.92496e-05
72 *159:10 *2157:A 8.65905e-05
73 *159:10 *470:44 4.99619e-05
74 *164:12 *470:26 6.23206e-05
75 *164:12 *470:28 5.42473e-05
76 *443:35 *470:24 0
77 *468:16 *470:16 0
*RES
1 *2259:X *470:16 21.685 
2 *470:16 *470:18 0.615 
3 *470:18 *470:24 4.485 
4 *470:24 *470:26 2.145 
5 *470:26 *470:28 2.655 
6 *470:28 *470:34 4.775 
7 *470:34 *470:44 7.735 
8 *470:44 *2158:A1 1.6 
9 *470:44 *2157:A 3.79 
10 *470:34 *2156:A 1.6 
11 *470:28 *2159:A1 10.275 
12 *470:26 *470:76 2 
13 *470:76 *2160:A1 3.43 
14 *470:76 *2137:A 5.5 
15 *470:24 *2138:A1 5.775 
16 *470:18 *2136:A 3.6 
17 *470:16 *2139:A1 8.115 
*END

*D_NET *471 0.00112815
*CONN
*I *2185:A I *D sky130_fd_sc_hd__buf_6
*I *2296:A I *D sky130_fd_sc_hd__buf_2
*I *2186:X O *D sky130_fd_sc_hd__buf_6
*CAP
1 *2185:A 2.12116e-05
2 *2296:A 8.98087e-05
3 *2186:X 0.000185042
4 *471:8 0.000296062
5 *2296:A *538:20 4.82919e-05
6 *1821:B1 *2296:A 9.10587e-05
7 *2120:A *2296:A 7.34364e-05
8 *2184:A *2185:A 4.82863e-05
9 *2259:A *2296:A 8.26696e-05
10 *2259:A *471:8 1.0183e-05
11 *127:12 *471:8 0
12 *467:10 *2296:A 4.43871e-06
13 *467:10 *471:8 0.000177657
*RES
1 *2186:X *471:8 7.53 
2 *471:8 *2296:A 6.45 
3 *471:8 *2185:A 4.05 
*END

*D_NET *472 0.0114415
*CONN
*I *1989:A I *D sky130_fd_sc_hd__nor2_2
*I *1990:A I *D sky130_fd_sc_hd__and2_2
*I *2015:A I *D sky130_fd_sc_hd__and2_2
*I *2014:A I *D sky130_fd_sc_hd__nor2_2
*I *1978:A I *D sky130_fd_sc_hd__nor2_2
*I *1979:A I *D sky130_fd_sc_hd__and2_2
*I *2006:A I *D sky130_fd_sc_hd__and2_2
*I *2040:A I *D sky130_fd_sc_hd__and2_2
*I *2039:A I *D sky130_fd_sc_hd__nor2_2
*I *2005:A I *D sky130_fd_sc_hd__nor2_2
*I *2187:X O *D sky130_fd_sc_hd__buf_4
*CAP
1 *1989:A 6.68896e-05
2 *1990:A 0
3 *2015:A 0.000200187
4 *2014:A 0
5 *1978:A 0
6 *1979:A 0
7 *2006:A 2.47916e-05
8 *2040:A 0.000140821
9 *2039:A 8.84795e-05
10 *2005:A 0.000363989
11 *2187:X 2.20496e-05
12 *472:106 0.000255811
13 *472:88 0.000736342
14 *472:81 0.000641434
15 *472:72 0.000105279
16 *472:37 0.000917617
17 *472:31 0.000789644
18 *472:18 0.00145519
19 *472:14 0.00131523
20 *472:6 0.00051154
21 *1989:A *1989:B 8.65905e-05
22 *1989:A *473:89 4.47209e-05
23 *2005:A *2005:B 5.14337e-05
24 *2005:A *517:10 2.06762e-05
25 *2015:A *2014:B 0.000188561
26 *2015:A *2015:B 4.21973e-05
27 *2039:A *2039:B 0.000162784
28 *2040:A *2039:B 0.000160641
29 *2040:A *2283:A 1.19928e-05
30 *2040:A *560:8 3.25635e-05
31 *472:6 *473:89 2.30292e-05
32 *472:6 *554:34 0.000164874
33 *472:14 *513:10 0
34 *472:14 *554:10 8.99634e-06
35 *472:14 *554:14 0.000171324
36 *472:18 *2007:C_N 0
37 *472:18 *2009:B1_N 0
38 *472:31 *517:10 0.000123225
39 *472:37 *2007:C_N 0
40 *472:37 *2283:A 8.18041e-05
41 *472:81 *1979:B 2.84447e-05
42 *472:106 *1989:B 7.66083e-05
43 *472:106 *473:89 0.000148997
44 *472:106 *554:34 0.000110673
45 *472:106 *555:6 0.000203178
46 *1981:A1 *472:14 0
47 *2011:B2 *472:18 0
48 *2013:A *472:18 0
49 *2016:A1 *2015:A 4.82919e-05
50 *2022:A2 *472:18 0
51 *2022:B1 *472:18 0
52 *2026:B *472:18 0
53 *2027:A1 *472:18 0
54 *2043:A1 *2039:A 0
55 *2052:A1 *472:37 9.2741e-05
56 *2052:B1 *472:37 4.66108e-05
57 *2060:C1 *2039:A 4.82919e-05
58 *2236:A *472:6 0.000124895
59 *2236:A *472:106 4.66108e-05
60 *357:10 *472:81 4.82919e-05
61 *367:12 *1989:A 7.49327e-05
62 *367:12 *472:106 8.65961e-05
63 *370:8 *472:14 7.21296e-06
64 *370:8 *472:18 6.95335e-05
65 *370:14 *472:18 0.000150888
66 *374:12 *472:18 0
67 *380:10 *472:18 0
68 *383:8 *2005:A 0.000156006
69 *385:10 *472:18 0
70 *387:14 *2005:A 0.000119756
71 *392:12 *2015:A 0.000277968
72 *392:12 *472:88 9.27495e-05
73 *400:10 *472:18 0
74 *401:12 *472:18 0
75 *415:8 *2039:A 7.23635e-05
76 *417:22 *2039:A 4.21973e-05
77 *420:8 *2006:A 0
78 *420:8 *472:37 0
79 *423:6 *472:37 0.000142436
80 *434:10 *2039:A 0.000114492
*RES
1 *2187:X *472:6 3.085 
2 *472:6 *472:14 6.74 
3 *472:14 *472:18 18.935 
4 *472:18 *2005:A 6.715 
5 *472:18 *472:31 3.14 
6 *472:31 *472:37 12.62 
7 *472:37 *2039:A 8.48 
8 *472:37 *2040:A 4.135 
9 *472:31 *2006:A 4.215 
10 *472:14 *472:72 2 
11 *472:72 *1979:A 1.6 
12 *472:72 *472:81 1.845 
13 *472:81 *1978:A 1.6 
14 *472:81 *472:88 8.385 
15 *472:88 *2014:A 1.6 
16 *472:88 *2015:A 7 
17 *472:6 *472:106 5.28 
18 *472:106 *1990:A 1.6 
19 *472:106 *1989:A 3.445 
*END

*D_NET *473 0.0146706
*CONN
*I *2031:A I *D sky130_fd_sc_hd__and2_2
*I *2030:A I *D sky130_fd_sc_hd__nor2_2
*I *2187:A I *D sky130_fd_sc_hd__buf_4
*I *1982:A1 I *D sky130_fd_sc_hd__a21boi_2
*I *1983:A1 I *D sky130_fd_sc_hd__o21ai_2
*I *1970:A I *D sky130_fd_sc_hd__nand2_2
*I *1969:A I *D sky130_fd_sc_hd__and2_2
*I *2109:B I *D sky130_fd_sc_hd__nand2b_2
*I *2188:X O *D sky130_fd_sc_hd__buf_2
*CAP
1 *2031:A 0
2 *2030:A 0.000336254
3 *2187:A 0
4 *1982:A1 0
5 *1983:A1 0.00052795
6 *1970:A 7.87932e-05
7 *1969:A 2.43002e-05
8 *2109:B 0.0016712
9 *2188:X 0.000211876
10 *473:89 0.00184464
11 *473:72 0.00161415
12 *473:65 0.000177258
13 *473:25 0.000103093
14 *473:12 0.00180511
15 *473:10 0.000802259
16 *1969:A *552:23 2.75145e-05
17 *1970:A *552:23 4.36791e-05
18 *1983:A1 *1983:A2 1.85674e-05
19 *1983:A1 *552:12 8.65961e-05
20 *2030:A *2031:B 8.36075e-05
21 *2030:A *2034:B1_N 4.99619e-05
22 *2109:B *2111:A_N 0
23 *2109:B *2276:A 0.000265376
24 *2109:B *2315:A 0
25 *473:10 *2188:A 8.07785e-05
26 *473:10 *2276:A 8.52172e-05
27 *473:12 *2188:A 6.10014e-05
28 *473:12 *2276:A 5.73518e-05
29 *473:65 *1982:A2 9.53428e-06
30 *473:65 *1983:A2 0.000142753
31 *473:65 *554:34 1.61831e-05
32 *473:72 *1982:B1_N 4.82919e-05
33 *473:72 *554:34 0.000160491
34 *473:89 *1989:B 0.000163199
35 *473:89 *2102:A 0
36 *473:89 *554:34 4.36241e-05
37 *473:89 *555:6 0.000203178
38 S[24] *473:10 3.64998e-06
39 *1875:B1_N *2109:B 0.000143266
40 *1966:B1 *2109:B 7.66727e-05
41 *1971:B *473:12 6.52181e-05
42 *1973:A2 *473:12 0
43 *1975:B1 *2109:B 0.000358243
44 *1976:A1 *2109:B 0
45 *1983:B1 *473:65 0.000113983
46 *1987:B1 *2109:B 9.87538e-05
47 *1989:A *473:89 4.47209e-05
48 *1995:A *1983:A1 0.000124895
49 *1995:B *1983:A1 0.000172026
50 *1995:D *1983:A1 6.05513e-05
51 *1995:D *473:65 3.00381e-05
52 *2017:A *473:89 0
53 *2024:C1 *2109:B 0
54 *2028:B1 *473:89 0
55 *2034:A2 *2030:A 0.000134314
56 *2236:A *473:89 0.000163204
57 *2301:A *2109:B 6.1452e-05
58 *113:12 *2109:B 0
59 *113:34 *2109:B 0
60 *261:12 *2109:B 0
61 *346:8 *2109:B 0.000212331
62 *350:10 *1970:A 4.82863e-05
63 *350:10 *473:12 0.00016163
64 *353:6 *1983:A1 0.000120655
65 *364:10 *2109:B 0.000107716
66 *364:10 *473:12 7.07801e-05
67 *373:10 *1983:A1 0.000122155
68 *392:12 *473:89 6.00003e-05
69 *393:10 *473:89 0.000160637
70 *393:12 *473:89 9.9535e-05
71 *393:18 *473:89 0.000214281
72 *394:16 *473:89 0.000625789
73 *402:10 *473:89 0
74 *472:6 *473:89 2.30292e-05
75 *472:106 *473:89 0.000148997
*RES
1 *2188:X *473:10 6.975 
2 *473:10 *473:12 3.93 
3 *473:12 *2109:B 37.17 
4 *473:12 *473:25 2 
5 *473:25 *1969:A 2.05 
6 *473:25 *1970:A 3.1 
7 *473:10 *1983:A1 12.345 
8 *1983:A1 *473:65 4.51 
9 *473:65 *1982:A1 1.6 
10 *473:65 *473:72 2.52 
11 *473:72 *2187:A 1.6 
12 *473:72 *473:89 34.27 
13 *473:89 *2030:A 7.51 
14 *473:89 *2031:A 1.6 
*END

*D_NET *474 0.00127861
*CONN
*I *1820:B2 I *D sky130_fd_sc_hd__o221a_2
*I *2293:X O *D sky130_fd_sc_hd__buf_2
*CAP
1 *1820:B2 0.000250572
2 *2293:X 0.000250572
3 *1820:B2 *1820:C1 0.000188215
4 *1820:B2 *2118:B 0
5 *1820:B2 *2147:A1 6.3889e-05
6 *1820:B2 *478:10 0
7 *1819:B1 *1820:B2 5.64143e-05
8 *1819:B2 *1820:B2 0.00010596
9 *1820:A1 *1820:B2 3.361e-05
10 *1820:A2 *1820:B2 0.00019637
11 *1820:B1 *1820:B2 5.03783e-05
12 *2293:A *1820:B2 0
13 *146:10 *1820:B2 7.5416e-05
14 *470:16 *1820:B2 7.21296e-06
*RES
1 *2293:X *1820:B2 13.74 
*END

*D_NET *475 0.000516076
*CONN
*I *1876:B I *D sky130_fd_sc_hd__xor2_2
*I *2294:X O *D sky130_fd_sc_hd__buf_6
*CAP
1 *1876:B 0.000228256
2 *2294:X 0.000228256
3 *1876:B *2267:A 0
4 *1876:A *1876:B 9.50342e-06
5 *341:16 *1876:B 5.00612e-05
*RES
1 *2294:X *1876:B 9.065 
*END

*D_NET *476 0.00408992
*CONN
*I *2101:A I *D sky130_fd_sc_hd__inv_2
*I *1844:B1 I *D sky130_fd_sc_hd__o21ai_4
*I *2193:X O *D sky130_fd_sc_hd__clkdlybuf4s25_1
*CAP
1 *2101:A 0.000878451
2 *1844:B1 0
3 *2193:X 0.0003638
4 *476:10 0.00124225
5 *2101:A *1881:A2 0.000159957
6 *2101:A *2103:B 0.000118513
7 *2101:A *547:8 0.000105546
8 *2101:A *547:12 0.000140006
9 *476:10 *547:12 5.02905e-05
10 *1843:A *2101:A 5.41685e-05
11 *1881:B1 *2101:A 7.67378e-05
12 *2226:A *2101:A 3.95724e-05
13 *2330:A *2101:A 0
14 *231:10 *2101:A 0.000130698
15 *231:10 *476:10 7.9642e-06
16 *232:19 *476:10 4.7692e-05
17 *233:10 *476:10 0.000419852
18 *458:10 *2101:A 0
19 *458:16 *2101:A 0
20 *459:55 *476:10 2.88519e-05
21 *460:10 *2101:A 0.00022557
*RES
1 *2193:X *476:10 9.135 
2 *476:10 *1844:B1 3.6 
3 *476:10 *2101:A 20.49 
*END

*D_NET *477 0.00165644
*CONN
*I *1820:C1 I *D sky130_fd_sc_hd__o221a_2
*I *2295:X O *D sky130_fd_sc_hd__buf_2
*CAP
1 *1820:C1 0.000382071
2 *2295:X 0.000382071
3 *1819:B1 *1820:C1 2.59981e-05
4 *1820:A1 *1820:C1 9.02259e-05
5 *1820:B2 *1820:C1 0.000188215
6 *141:10 *1820:C1 0.000377797
7 *141:19 *1820:C1 8.70923e-05
8 *146:10 *1820:C1 0.00012297
9 *470:16 *1820:C1 0
*RES
1 *2295:X *1820:C1 15.225 
*END

*D_NET *478 0.0117274
*CONN
*I *2175:A1 I *D sky130_fd_sc_hd__a21o_2
*I *2173:B I *D sky130_fd_sc_hd__nand2b_2
*I *2170:A I *D sky130_fd_sc_hd__and2_2
*I *2174:A1 I *D sky130_fd_sc_hd__o21ai_2
*I *2171:A_N I *D sky130_fd_sc_hd__and2b_2
*I *2147:A1 I *D sky130_fd_sc_hd__a21o_4
*I *2152:A I *D sky130_fd_sc_hd__and2_2
*I *2153:A1 I *D sky130_fd_sc_hd__o21ai_2
*I *2150:B I *D sky130_fd_sc_hd__nand2b_2
*I *2296:X O *D sky130_fd_sc_hd__buf_2
*CAP
1 *2175:A1 4.80764e-05
2 *2173:B 0
3 *2170:A 0
4 *2174:A1 0.000216575
5 *2171:A_N 5.78083e-05
6 *2147:A1 0.00057445
7 *2152:A 0.000391777
8 *2153:A1 0.000366667
9 *2150:B 0.000481139
10 *2296:X 0.000164655
11 *478:79 0.00045529
12 *478:77 0.000280976
13 *478:75 0.000441623
14 *478:27 0.000836812
15 *478:16 0.00111711
16 *478:10 0.00168634
17 *2147:A1 *2142:B 3.13457e-05
18 *2147:A1 *537:27 5.77591e-05
19 *2152:A *2152:B 6.46363e-05
20 *2153:A1 *2153:B1 2.75145e-05
21 *2153:A1 *2154:A_N 0
22 *2153:A1 *534:6 0.000159867
23 *2171:A_N *2171:B 4.82863e-05
24 *2171:A_N *563:54 4.82863e-05
25 *2174:A1 *563:8 1.70935e-05
26 *2174:A1 *563:30 7.44453e-05
27 *2174:A1 *563:45 0.000103974
28 *2175:A1 *563:54 4.99619e-05
29 *478:10 *538:20 6.87705e-05
30 *478:16 *482:12 4.32126e-05
31 *478:75 *2150:A_N 0.000102616
32 *478:75 *2172:B 4.60584e-05
33 *478:75 *563:61 6.77501e-05
34 *478:75 *607:43 5.41594e-05
35 *478:75 *607:47 3.23663e-05
36 *478:77 *563:61 0.000122331
37 *478:79 *2171:B 7.40446e-05
38 *478:79 *563:54 0.000656031
39 *478:79 *563:61 7.40446e-05
40 *1818:B1 *478:16 8.78813e-05
41 *1819:B1 *478:10 0.000101564
42 *1820:A1 *2147:A1 3.81908e-06
43 *1820:A2 *2147:A1 8.49205e-05
44 *1820:B2 *2147:A1 6.3889e-05
45 *1820:B2 *478:10 0
46 *1821:B1 *478:10 0.000234674
47 *1824:B *478:75 0.000163204
48 *1825:A1 *478:79 2.75145e-05
49 *1825:B1 *478:79 9.66021e-05
50 *2073:B1 *2174:A1 0.000122103
51 *2084:A *2153:A1 0
52 *2142:A *2147:A1 8.16598e-05
53 *2147:B1 *2147:A1 3.45588e-05
54 *2154:C *478:75 0.000163199
55 *2155:A1 *2152:A 1.91597e-05
56 *2155:B1 *2152:A 4.66108e-05
57 *2175:B1 *2174:A1 0
58 *2215:A *2153:A1 0
59 *2293:A *478:10 0.000258775
60 *2293:A *478:16 7.23602e-05
61 *141:10 *478:16 8.08439e-05
62 *141:19 *478:10 1.52184e-05
63 *141:19 *478:16 7.07801e-05
64 *154:10 *2152:A 0.000482447
65 *155:12 *2153:A1 0
66 *155:16 *2153:A1 7.06865e-05
67 *155:16 *478:27 0.000154488
68 *162:12 *478:16 0
69 *164:20 *478:16 0
70 *206:8 *478:16 0
71 *206:21 *478:16 0
72 *470:16 *478:10 4.66108e-05
73 *470:16 *478:16 0
*RES
1 *2296:X *478:10 8.94 
2 *478:10 *478:16 18.17 
3 *478:16 *2150:B 2.74 
4 *478:16 *478:27 3.89 
5 *478:27 *2153:A1 10.155 
6 *478:27 *2152:A 10.74 
7 *478:10 *2147:A1 11.13 
8 *2150:B *478:75 9.325 
9 *478:75 *478:77 1.14 
10 *478:77 *478:79 6.66 
11 *478:79 *2171:A_N 2.05 
12 *478:79 *2174:A1 9.785 
13 *478:77 *2170:A 1.6 
14 *478:75 *2173:B 1.6 
15 *2171:A_N *2175:A1 3.995 
*END

*D_NET *479 0.00029944
*CONN
*I *2079:A2 I *D sky130_fd_sc_hd__a22oi_4
*I *2297:X O *D sky130_fd_sc_hd__buf_2
*CAP
1 *2079:A2 0.00014972
2 *2297:X 0.00014972
3 *1817:B *2079:A2 0
4 *1830:D *2079:A2 0
5 *1870:A1 *2079:A2 0
*RES
1 *2297:X *2079:A2 9.285 
*END

*D_NET *480 0.00178298
*CONN
*I *2148:B1 I *D sky130_fd_sc_hd__o21ai_2
*I *2298:X O *D sky130_fd_sc_hd__buf_2
*CAP
1 *2148:B1 0.00038731
2 *2298:X 0.00038731
3 *2148:B1 *2148:A1 0.000641401
4 *2088:B *2148:B1 0
5 *2144:A1 *2148:B1 3.00381e-05
6 *2217:A *2148:B1 9.54399e-05
7 *146:10 *2148:B1 0.000241483
*RES
1 *2298:X *2148:B1 16.02 
*END

*D_NET *481 0.00258469
*CONN
*I *2148:A1 I *D sky130_fd_sc_hd__o21ai_2
*I *2299:X O *D sky130_fd_sc_hd__buf_2
*CAP
1 *2148:A1 0.000565802
2 *2299:X 0.000565802
3 *2148:A1 *2144:B1_N 0.000162311
4 *2148:A1 *531:10 0
5 *2148:A1 *537:18 0.000282617
6 *2088:A *2148:A1 0.000157522
7 *2088:B *2148:A1 0
8 *2144:A1 *2148:A1 4.82863e-05
9 *2148:A2 *2148:A1 4.82863e-05
10 *2148:B1 *2148:A1 0.000641401
11 *2212:A *2148:A1 5.07229e-05
12 *2217:A *2148:A1 5.2126e-05
13 *146:10 *2148:A1 9.80943e-06
*RES
1 *2299:X *2148:A1 22.26 
*END

*D_NET *482 0.00101559
*CONN
*I *2080:A2 I *D sky130_fd_sc_hd__a21oi_2
*I *2081:B I *D sky130_fd_sc_hd__and3_2
*I *2300:X O *D sky130_fd_sc_hd__buf_2
*CAP
1 *2080:A2 0
2 *2081:B 0.00010371
3 *2300:X 0.000179686
4 *482:12 0.000283396
5 *2081:B *2081:C 0.00011577
6 *2082:B *2081:B 0.000123225
7 *162:12 *482:12 0.000113797
8 *164:20 *482:12 5.27885e-05
9 *478:16 *482:12 4.32126e-05
*RES
1 *2300:X *482:12 8.465 
2 *482:12 *2081:B 4.15 
3 *482:12 *2080:A2 1.6 
*END

*D_NET *483 0.00138831
*CONN
*I *1975:A1 I *D sky130_fd_sc_hd__a21oi_2
*I *2301:X O *D sky130_fd_sc_hd__buf_6
*CAP
1 *1975:A1 0.000413111
2 *2301:X 0.000413111
3 *1967:A *1975:A1 0.000230609
4 *1967:B *1975:A1 0.0001249
5 *2301:A *1975:A1 0
6 *347:10 *1975:A1 0.000109572
7 *347:14 *1975:A1 4.7043e-05
8 *355:10 *1975:A1 4.99619e-05
*RES
1 *2301:X *1975:A1 14.91 
*END

*D_NET *484 0.00126963
*CONN
*I *1935:B I *D sky130_fd_sc_hd__nand2_2
*I *1938:A2_N I *D sky130_fd_sc_hd__o2bb2ai_2
*I *2302:X O *D sky130_fd_sc_hd__buf_2
*CAP
1 *1935:B 0
2 *1938:A2_N 7.89594e-05
3 *2302:X 0.000187573
4 *484:8 0.000266533
5 *1938:A1_N *1938:A2_N 1.14169e-05
6 *1938:B1 *1938:A2_N 0.000200416
7 *1945:C1 *1938:A2_N 0.000131168
8 *1945:C1 *484:8 1.56428e-05
9 *1946:A *1938:A2_N 2.20014e-05
10 *1948:A *484:8 8.73389e-06
11 *1948:B *484:8 4.89295e-05
12 *1948:C *484:8 5.98195e-05
13 *1949:A *484:8 0.000124473
14 *304:12 *1938:A2_N 7.20899e-05
15 *304:42 *484:8 3.00454e-05
16 *318:10 *1938:A2_N 1.18308e-05
*RES
1 *2302:X *484:8 5.425 
2 *484:8 *1938:A2_N 8.285 
3 *484:8 *1935:B 1.6 
*END

*D_NET *485 0.00058321
*CONN
*I *1804:A I *D sky130_fd_sc_hd__nand2_2
*I *2303:X O *D sky130_fd_sc_hd__buf_2
*CAP
1 *1804:A 0.000207366
2 *2303:X 0.000207366
3 *1804:A *566:51 0.000121443
4 *1805:C *1804:A 0
5 *457:51 *1804:A 4.70343e-05
*RES
1 *2303:X *1804:A 11.115 
*END

*D_NET *486 0.00147155
*CONN
*I *1791:A I *D sky130_fd_sc_hd__nand2_2
*I *1793:B I *D sky130_fd_sc_hd__nand2_2
*I *2304:X O *D sky130_fd_sc_hd__buf_2
*CAP
1 *1791:A 0.000184791
2 *1793:B 5.67185e-05
3 *2304:X 3.79604e-05
4 *486:8 0.00027947
5 *1791:A *1799:A_N 0.000157409
6 *1791:A *565:41 0.000145377
7 *1793:B *1798:A1 0.000111273
8 *486:8 *1798:A1 6.18754e-05
9 *1795:A2 *1793:B 0.000168376
10 *1795:A2 *486:8 6.55406e-05
11 *1799:B *1791:A 0.000111668
12 *1811:A *1791:A 4.21579e-05
13 *1812:A1_N *1791:A 4.89295e-05
*RES
1 *2304:X *486:8 4.98 
2 *486:8 *1793:B 5.745 
3 *486:8 *1791:A 8.655 
*END

*D_NET *487 0.00106683
*CONN
*I *1910:C I *D sky130_fd_sc_hd__nand3b_4
*I *1911:B1_N I *D sky130_fd_sc_hd__o21bai_4
*I *2194:X O *D sky130_fd_sc_hd__clkdlybuf4s25_1
*CAP
1 *1910:C 0
2 *1911:B1_N 0.000115952
3 *2194:X 0.000213993
4 *487:10 0.000329945
5 *1911:B1_N *1909:A 4.91189e-05
6 *1911:B1_N *570:18 0
7 *487:10 *1909:A 7.68771e-05
8 *487:10 *2272:A 6.28765e-05
9 *1910:B *1911:B1_N 9.50342e-06
10 *1910:B *487:10 0.00013777
11 *2194:A *487:10 0
12 *2229:A *487:10 2.25079e-05
13 *463:63 *1911:B1_N 4.82863e-05
14 *463:71 *1911:B1_N 0
*RES
1 *2194:X *487:10 8.07 
2 *487:10 *1911:B1_N 5.94 
3 *487:10 *1910:C 3.6 
*END

*D_NET *488 0.000414999
*CONN
*I *1920:B2 I *D sky130_fd_sc_hd__o22ai_4
*I *2305:X O *D sky130_fd_sc_hd__buf_2
*CAP
1 *1920:B2 0.000103908
2 *2305:X 0.000103908
3 *2325:A *1920:B2 0.000207184
*RES
1 *2305:X *1920:B2 5.645 
*END

*D_NET *489 0.00239549
*CONN
*I *1912:A I *D sky130_fd_sc_hd__nand2_2
*I *1932:A1_N I *D sky130_fd_sc_hd__o2bb2ai_4
*I *1931:C1 I *D sky130_fd_sc_hd__o2111ai_2
*I *1922:A1 I *D sky130_fd_sc_hd__a21o_2
*I *2306:X O *D sky130_fd_sc_hd__buf_2
*CAP
1 *1912:A 3.55506e-05
2 *1932:A1_N 0.000180866
3 *1931:C1 2.22788e-05
4 *1922:A1 0.000204922
5 *2306:X 6.41422e-05
6 *489:23 0.000308778
7 *489:12 0.00054642
8 *489:6 0.000335557
9 *1931:C1 *570:52 4.82863e-05
10 *489:12 *570:18 0
11 *1913:A *489:6 8.65905e-05
12 *1921:A *1922:A1 8.65905e-05
13 *1922:A2 *1922:A1 0.00010607
14 *1922:A2 *489:12 0
15 *1922:B1 *1922:A1 0.000198939
16 *1931:A2 *489:12 0
17 *1931:A2 *489:23 0
18 *1932:B2 *1932:A1_N 0
19 *1932:B2 *489:23 0
20 *1933:A *1932:A1_N 4.65643e-05
21 *1933:B *1932:A1_N 7.73272e-05
22 *2306:A *1912:A 0
23 *305:10 *1922:A1 4.66108e-05
24 *305:10 *489:23 0
25 *305:25 *1932:A1_N 0
26 *311:30 *489:12 0
*RES
1 *2306:X *489:6 2.74 
2 *489:6 *489:12 4.94 
3 *489:12 *1922:A1 7.845 
4 *489:12 *489:23 1.635 
5 *489:23 *1931:C1 4.05 
6 *489:23 *1932:A1_N 6.795 
7 *489:6 *1912:A 2.215 
*END

*D_NET *490 0.00453344
*CONN
*I *1931:B1 I *D sky130_fd_sc_hd__o2111ai_2
*I *1930:B1 I *D sky130_fd_sc_hd__o21a_2
*I *1962:A1 I *D sky130_fd_sc_hd__a311oi_2
*I *1950:A1 I *D sky130_fd_sc_hd__a31oi_2
*I *2307:X O *D sky130_fd_sc_hd__buf_2
*CAP
1 *1931:B1 0.000414989
2 *1930:B1 0.000145906
3 *1962:A1 0
4 *1950:A1 9.4091e-05
5 *2307:X 0.000536806
6 *490:41 0.000596628
7 *490:16 0.000595164
8 *1930:B1 *549:20 8.64421e-05
9 *1931:B1 *2183:A 0.000160211
10 *1931:B1 *2188:A 0.00018285
11 *1931:B1 *570:52 7.73875e-05
12 *1950:A1 *1940:B 0
13 *1931:A1 *1931:B1 8.65905e-05
14 *1934:D1 *1930:B1 0.00020779
15 *1937:A1 *490:16 2.97802e-05
16 *1937:B1 *490:16 0.000121783
17 *1962:A2 *490:16 3.04064e-05
18 *1962:B1 *490:16 0
19 *1964:A2 *1950:A1 0
20 *2182:A *1931:B1 4.21889e-05
21 *2306:A *1930:B1 8.52883e-05
22 *307:68 *490:16 4.82863e-05
23 *308:10 *490:16 0.000162311
24 *309:8 *1931:B1 8.23457e-05
25 *310:10 *1930:B1 5.33085e-05
26 *310:10 *1931:B1 8.35683e-05
27 *311:10 *490:16 6.23541e-06
28 *319:8 *490:16 0.000328799
29 *325:14 *1950:A1 0.000105068
30 *464:6 *1931:B1 1.46828e-05
31 *466:22 *490:16 0.000122633
32 *466:22 *490:41 3.18973e-05
*RES
1 *2307:X *490:16 15.665 
2 *490:16 *1950:A1 7.745 
3 *490:16 *1962:A1 1.6 
4 *2307:X *490:41 4.05 
5 *490:41 *1930:B1 7.305 
6 *490:41 *1931:B1 11.4 
*END

*D_NET *491 0.000525093
*CONN
*I *1909:A I *D sky130_fd_sc_hd__nand2_2
*I *2308:X O *D sky130_fd_sc_hd__buf_2
*CAP
1 *1909:A 0.000127539
2 *2308:X 0.000127539
3 *1911:B1_N *1909:A 4.91189e-05
4 *2194:A *1909:A 0.000144018
5 *487:10 *1909:A 7.68771e-05
*RES
1 *2308:X *1909:A 10.875 
*END

*D_NET *492 0.00577162
*CONN
*I *1887:A I *D sky130_fd_sc_hd__nand2_2
*I *1899:A I *D sky130_fd_sc_hd__nand2_2
*I *2309:X O *D sky130_fd_sc_hd__buf_2
*CAP
1 *1887:A 0.00108309
2 *1899:A 0.000430248
3 *2309:X 0
4 *492:4 0.00151334
5 *1887:A *1885:B 0.000469627
6 *1887:A *1887:B 0.000550717
7 *1887:A *2104:A 0.000112971
8 *1887:A *586:16 7.00889e-06
9 *1887:A *586:27 8.71001e-05
10 *1899:A *1899:B 1.37328e-05
11 *1899:A *2268:A 2.87826e-05
12 *1888:B *1887:A 4.99619e-05
13 *1892:A *1887:A 0
14 *1904:A2 *1887:A 8.35068e-05
15 *1915:A_N *1887:A 9.766e-05
16 *1915:B *1887:A 0.000318986
17 *108:12 *1887:A 0
18 *263:32 *1887:A 1.26626e-05
19 *263:45 *1887:A 0.00012476
20 *269:12 *1887:A 3.67009e-05
21 *269:22 *1887:A 9.16315e-05
22 *275:22 *1887:A 0.000220644
23 *275:22 *1899:A 0.000438494
24 *299:8 *1887:A 0
25 *462:16 *1887:A 0
*RES
1 *2309:X *492:4 1.6 
2 *492:4 *1899:A 7.96 
3 *492:4 *1887:A 28.235 
*END

*D_NET *493 0.00530501
*CONN
*I *1862:B1 I *D sky130_fd_sc_hd__o211ai_2
*I *1803:A I *D sky130_fd_sc_hd__and2_2
*I *1798:A1 I *D sky130_fd_sc_hd__o21bai_2
*I *2310:X O *D sky130_fd_sc_hd__buf_2
*CAP
1 *1862:B1 0
2 *1803:A 0.00011819
3 *1798:A1 0.000764066
4 *2310:X 0.000628781
5 *493:20 0.00126554
6 *493:16 0.00101207
7 *1798:A1 *1798:B1_N 0
8 *1798:A1 *1807:A2 0
9 *1798:A1 *1847:A 1.70935e-05
10 *1798:A1 *508:14 0
11 *1798:A1 *566:12 0
12 *1803:A *1803:B 0.000196669
13 *1803:A *566:8 0.000111285
14 *493:16 *2065:A0 9.37731e-05
15 *493:20 *1847:A 6.10014e-05
16 *493:20 *1847:B 0
17 *1793:B *1798:A1 0.000111273
18 *1795:A2 *1798:A1 1.15688e-05
19 *1798:A2 *1798:A1 6.99759e-05
20 *1799:B *1798:A1 6.55328e-05
21 *1808:B *1798:A1 5.72091e-05
22 *1861:A1 *493:20 4.18603e-06
23 *1861:A2 *1803:A 0.000195865
24 *1861:A2 *493:20 0
25 *1862:A2 *493:20 4.18603e-06
26 *1862:C1 *493:16 6.27438e-05
27 *2211:A *1798:A1 0
28 *2240:A *493:16 0.00014717
29 *2310:A *493:16 5.30673e-05
30 *2323:A *1798:A1 0
31 *2323:A *493:20 0
32 *102:12 *1798:A1 1.70935e-05
33 *102:23 *1798:A1 8.82096e-05
34 *454:29 *493:16 0
35 *456:12 *493:16 8.65905e-05
36 *457:76 *1798:A1 0
37 *486:8 *1798:A1 6.18754e-05
*RES
1 *2310:X *493:16 14.54 
2 *493:16 *493:20 8.225 
3 *493:20 *1798:A1 17.94 
4 *493:20 *1803:A 7.155 
5 *493:16 *1862:B1 1.6 
*END

*D_NET *494 0.00144354
*CONN
*I *1837:A I *D sky130_fd_sc_hd__nor2_2
*I *1836:A I *D sky130_fd_sc_hd__and2_4
*I *1839:A1 I *D sky130_fd_sc_hd__o21ai_2
*I *2311:X O *D sky130_fd_sc_hd__buf_2
*CAP
1 *1837:A 0
2 *1836:A 3.64111e-05
3 *1839:A1 0.00012146
4 *2311:X 0.000268711
5 *494:12 0.000250396
6 *494:10 0.000361236
7 *1836:A *1837:B 3.66286e-05
8 *1836:A *559:18 4.99619e-05
9 *1839:A1 *1839:A2 5.4155e-06
10 *1839:A1 *1855:B1_N 2.11084e-05
11 *1839:A1 *559:18 0
12 *494:10 *1837:B 9.50342e-06
13 *494:12 *1837:B 0.000164686
14 *494:12 *559:18 0
15 *1852:A1 *494:12 0
16 *224:8 *1839:A1 9.54469e-05
17 *224:44 *1839:A1 0
18 *225:12 *1839:A1 0
19 *227:12 *1839:A1 4.18603e-06
20 *233:10 *494:10 0
21 *233:10 *494:12 0
22 *453:102 *494:10 1.83847e-05
*RES
1 *2311:X *494:10 7.725 
2 *494:10 *494:12 2.145 
3 *494:12 *1839:A1 6.045 
4 *494:12 *1836:A 4.395 
5 *494:10 *1837:A 3.6 
*END

*D_NET *495 0.000681208
*CONN
*I *1801:B I *D sky130_fd_sc_hd__nand2b_4
*I *2312:X O *D sky130_fd_sc_hd__buf_2
*CAP
1 *1801:B 9.74626e-05
2 *2312:X 9.74626e-05
3 *1801:B *508:14 1.73877e-05
4 *1801:B *566:42 0.000163992
5 *457:47 *1801:B 0.000163992
6 *457:51 *1801:B 0.000140912
*RES
1 *2312:X *1801:B 10.62 
*END

*D_NET *496 0.0036272
*CONN
*I *2065:A0 I *D sky130_fd_sc_hd__mux2_1
*I *1847:A I *D sky130_fd_sc_hd__nor2_2
*I *2313:X O *D sky130_fd_sc_hd__buf_2
*CAP
1 *2065:A0 0.000719196
2 *1847:A 0.000243175
3 *2313:X 0.000962371
4 *1847:A *1847:B 7.36562e-05
5 *1847:A *562:10 0.000273878
6 *2065:A0 *2065:S 3.03684e-05
7 *2065:A0 *2282:A 0.000119756
8 *2065:A0 *508:14 7.4027e-05
9 *1798:A1 *1847:A 1.70935e-05
10 *1850:A2 *2065:A0 4.9968e-05
11 *1850:B1 *2065:A0 0.000198939
12 *1850:B2 *2065:A0 1.94805e-05
13 *2065:A1 *2065:A0 2.81489e-05
14 *2216:A *2065:A0 0.000104464
15 *2243:A *2065:A0 0
16 *248:8 *2065:A0 0.000111351
17 *454:29 *2065:A0 0
18 *456:12 *2065:A0 0.000446555
19 *493:16 *2065:A0 9.37731e-05
20 *493:20 *1847:A 6.10014e-05
*RES
1 *2313:X *1847:A 11.355 
2 *2313:X *2065:A0 20.505 
*END

*D_NET *497 0.001071
*CONN
*I *2067:B1 I *D sky130_fd_sc_hd__o211a_2
*I *2314:X O *D sky130_fd_sc_hd__buf_2
*CAP
1 *2067:B1 0.000359871
2 *2314:X 0.000359871
3 *1853:C1 *2067:B1 4.66108e-05
4 *1863:B *2067:B1 2.86792e-05
5 *2068:B *2067:B1 0.000131181
6 *2314:A *2067:B1 0
7 *2329:A *2067:B1 0.000116158
8 *239:10 *2067:B1 6.94735e-06
9 *251:12 *2067:B1 2.16833e-05
*RES
1 *2314:X *2067:B1 13.785 
*END

*D_NET *498 0.00156753
*CONN
*I *1928:B1 I *D sky130_fd_sc_hd__o21ai_2
*I *1926:B1_N I *D sky130_fd_sc_hd__o21ba_2
*I *1927:B1_N I *D sky130_fd_sc_hd__o21bai_4
*I *2195:X O *D sky130_fd_sc_hd__clkdlybuf4s25_1
*CAP
1 *1928:B1 0.000102287
2 *1926:B1_N 0
3 *1927:B1_N 1.8855e-05
4 *2195:X 0.000140043
5 *498:21 0.000283801
6 *498:6 0.000340412
7 *1928:B1 *2188:A 0.00015695
8 *1928:A1 *1928:B1 5.4155e-06
9 *1932:B1 *498:6 0.000197822
10 *1932:B1 *498:21 0
11 *2195:A *1927:B1_N 9.13949e-06
12 *2195:A *498:6 2.86975e-05
13 *2195:A *498:21 7.08493e-05
14 *309:8 *1928:B1 1.95256e-05
15 *310:10 *498:6 4.8854e-05
16 *310:10 *498:21 4.40028e-05
17 *311:10 *1928:B1 8.88799e-05
18 *466:22 *1928:B1 1.19928e-05
19 *466:51 *1928:B1 0
*RES
1 *2195:X *498:6 4.465 
2 *498:6 *1927:B1_N 1.96 
3 *498:6 *498:21 7.03 
4 *498:21 *1926:B1_N 1.6 
5 *498:21 *1928:B1 4.48 
*END

*D_NET *499 0.000750867
*CONN
*I *2108:A I *D sky130_fd_sc_hd__nand2_2
*I *2315:X O *D sky130_fd_sc_hd__buf_2
*CAP
1 *2108:A 0.000316722
2 *2315:X 0.000316722
3 *2108:A *2108:B 5.53249e-06
4 *2108:A *2315:A 0
5 *2189:A *2108:A 4.18603e-06
6 *263:12 *2108:A 0.000107704
*RES
1 *2315:X *2108:A 11.7 
*END

*D_NET *500 0.00160046
*CONN
*I *1823:A1 I *D sky130_fd_sc_hd__a21oi_2
*I *2316:X O *D sky130_fd_sc_hd__buf_2
*CAP
1 *1823:A1 0.000492269
2 *2316:X 0.000492269
3 *1823:A1 *1822:A2 0.000135547
4 *1823:A1 *1823:A2 1.85674e-05
5 *1823:A1 *1824:A_N 7.58604e-05
6 *1823:A1 *2316:A 4.84393e-05
7 *1823:B1 *1823:A1 0.000119631
8 *1825:A1 *1823:A1 7.07801e-05
9 *1828:D *1823:A1 0.000147095
10 *213:10 *1823:A1 0
*RES
1 *2316:X *1823:A1 17.115 
*END

*D_NET *501 0.000570374
*CONN
*I *2055:A I *D sky130_fd_sc_hd__and2_2
*I *2054:A I *D sky130_fd_sc_hd__nor2_2
*I *2317:X O *D sky130_fd_sc_hd__buf_2
*CAP
1 *2055:A 0.000110924
2 *2054:A 0.000161462
3 *2317:X 0
4 *501:4 0.000272386
5 *2054:A *2054:B 0
6 *2093:B1 *2054:A 1.47256e-05
7 *2093:B1 *2055:A 1.08758e-05
*RES
1 *2317:X *501:4 1.6 
2 *501:4 *2054:A 7.685 
3 *501:4 *2055:A 3.355 
*END

*D_NET *502 0.000802974
*CONN
*I *2080:A1 I *D sky130_fd_sc_hd__a21oi_2
*I *2081:C I *D sky130_fd_sc_hd__and3_2
*I *2318:X O *D sky130_fd_sc_hd__buf_2
*CAP
1 *2080:A1 0
2 *2081:C 8.84223e-05
3 *2318:X 8.10315e-05
4 *502:12 0.000169454
5 *502:12 *2136:B 0
6 *2081:B *2081:C 0.00011577
7 *2082:B *2081:C 2.67275e-05
8 *2082:B *502:12 3.23663e-05
9 *2083:B2 *502:12 4.43871e-06
10 *162:12 *502:12 4.40899e-05
11 *443:35 *2081:C 0.000165907
12 *443:35 *502:12 7.47673e-05
13 *470:24 *502:12 0
*RES
1 *2318:X *502:12 7.775 
2 *502:12 *2081:C 4.48 
3 *502:12 *2080:A1 1.6 
*END

*D_NET *503 0.00115814
*CONN
*I *1998:A1_N I *D sky130_fd_sc_hd__o2bb2ai_2
*I *1999:A2 I *D sky130_fd_sc_hd__a211o_2
*I *2319:X O *D sky130_fd_sc_hd__buf_2
*CAP
1 *1998:A1_N 0
2 *1999:A2 9.04689e-05
3 *2319:X 0.000271312
4 *503:8 0.000361781
5 *503:8 *1998:A2_N 9.53428e-06
6 *1998:B1 *503:8 0.000164874
7 *1998:B2 *503:8 1.34594e-05
8 *1999:B1 *1999:A2 7.37109e-05
9 *2000:A *503:8 8.73389e-06
10 *2000:B *503:8 4.80182e-05
11 *2001:A *1999:A2 7.36562e-05
12 *2319:A *503:8 2.0514e-05
13 *347:48 *1999:A2 0
14 *371:8 *503:8 2.20732e-05
*RES
1 *2319:X *503:8 6.205 
2 *503:8 *1999:A2 7.745 
3 *503:8 *1998:A1_N 1.6 
*END

*D_NET *504 0.000742244
*CONN
*I *2002:C I *D sky130_fd_sc_hd__nand3_4
*I *2020:B I *D sky130_fd_sc_hd__and4_2
*I *2320:X O *D sky130_fd_sc_hd__buf_2
*CAP
1 *2002:C 0
2 *2020:B 0.000119964
3 *2320:X 5.54925e-05
4 *504:8 0.000175456
5 *2020:A *2020:B 5.83121e-06
6 *2021:A *2020:B 5.23362e-05
7 *2025:A1 *2020:B 4.82919e-05
8 *2025:A1 *504:8 0
9 *2025:A2 *2020:B 0
10 *372:10 *2020:B 9.50342e-06
11 *372:10 *504:8 0.000110683
12 *372:12 *2020:B 0.000164686
*RES
1 *2320:X *504:8 4.98 
2 *504:8 *2020:B 6.45 
3 *504:8 *2002:C 3.6 
*END

*D_NET *505 0.000621443
*CONN
*I *1998:A2_N I *D sky130_fd_sc_hd__o2bb2ai_2
*I *2321:X O *D sky130_fd_sc_hd__buf_2
*CAP
1 *1998:A2_N 0.000185133
2 *2321:X 0.000185133
3 *1998:B2 *1998:A2_N 0
4 *2000:A *1998:A2_N 4.82863e-05
5 *2000:B *1998:A2_N 7.1784e-05
6 *2001:B *1998:A2_N 3.00381e-05
7 *347:48 *1998:A2_N 9.15345e-05
8 *503:8 *1998:A2_N 9.53428e-06
*RES
1 *2321:X *1998:A2_N 7.235 
*END

*D_NET *506 0.00075371
*CONN
*I *1905:A2 I *D sky130_fd_sc_hd__o31ai_4
*I *2322:X O *D sky130_fd_sc_hd__buf_4
*CAP
1 *1905:A2 0.000241293
2 *2322:X 0.000241293
3 *1905:A3 *1905:A2 2.47065e-05
4 *1906:B *1905:A2 0.000158536
5 *278:6 *1905:A2 8.7881e-05
*RES
1 *2322:X *1905:A2 7.805 
*END

*D_NET *507 0.00132302
*CONN
*I *1941:C_N I *D sky130_fd_sc_hd__nor3b_2
*I *1942:B1_N I *D sky130_fd_sc_hd__o21bai_2
*I *2196:X O *D sky130_fd_sc_hd__clkdlybuf4s25_1
*CAP
1 *1941:C_N 0
2 *1942:B1_N 9.35832e-05
3 *2196:X 0.000209766
4 *507:10 0.000303349
5 *1942:B1_N *1939:B 6.85516e-05
6 *1942:B1_N *1940:B 0.000132842
7 *1942:B1_N *2275:A 0
8 *507:10 *1939:B 0.000141142
9 *1939:A *1942:B1_N 8.70923e-05
10 *1939:A *507:10 6.18754e-05
11 *1943:A_N *1942:B1_N 8.65905e-05
12 *321:10 *507:10 4.99619e-05
13 *324:10 *1942:B1_N 8.8266e-05
*RES
1 *2196:X *507:10 6.81 
2 *507:10 *1942:B1_N 6.795 
3 *507:10 *1941:C_N 3.6 
*END

*D_NET *508 0.0033624
*CONN
*I *2067:A1 I *D sky130_fd_sc_hd__o211a_2
*I *2066:A I *D sky130_fd_sc_hd__xnor2_2
*I *2323:X O *D sky130_fd_sc_hd__buf_2
*CAP
1 *2067:A1 0.000271671
2 *2066:A 0.000192436
3 *2323:X 0.00054867
4 *508:14 0.00101278
5 *2066:A *2271:A 8.8266e-05
6 *2067:A1 *2271:A 1.16578e-05
7 *508:14 *1805:A_N 0.000157221
8 *508:14 *566:42 0.000198281
9 S[1] *2066:A 0.000157343
10 S[1] *2067:A1 8.04449e-05
11 *1798:A1 *508:14 0
12 *1801:B *508:14 1.73877e-05
13 *1808:A *508:14 7.45794e-05
14 *1808:B *508:14 3.72916e-05
15 *1863:B *2067:A1 0.000197017
16 *2065:A0 *508:14 7.4027e-05
17 *2068:B *2067:A1 0.000108335
18 *2243:A *508:14 0
19 *2247:A *508:14 4.18147e-05
20 *2323:A *508:14 6.89569e-05
21 *456:12 *508:14 2.42236e-05
*RES
1 *2323:X *508:14 17.15 
2 *508:14 *2066:A 5.17 
3 *508:14 *2067:A1 7.2175 
*END

*D_NET *509 0.00261939
*CONN
*I *1954:C I *D sky130_fd_sc_hd__and3b_2
*I *1955:A I *D sky130_fd_sc_hd__nand2_2
*I *1957:A I *D sky130_fd_sc_hd__or2_2
*I *1956:A I *D sky130_fd_sc_hd__nor2_2
*I *2197:X O *D sky130_fd_sc_hd__clkdlybuf4s25_1
*CAP
1 *1954:C 0.000109306
2 *1955:A 0
3 *1957:A 0
4 *1956:A 0.000132176
5 *2197:X 0.000103027
6 *509:16 0.000264744
7 *509:12 0.000504892
8 *509:6 0.000584657
9 *1956:A *2267:A 7.71016e-05
10 *509:12 *1951:B 0.000229203
11 *509:12 *2267:A 0
12 *1955:B *509:16 0.000163199
13 *1958:B1 *509:12 0
14 *1963:B2 *1956:A 0
15 *1964:A2 *509:12 0
16 *1968:A *1954:C 3.38425e-05
17 *1968:A *509:6 0.000117116
18 *2197:A *1954:C 0.000145331
19 *337:6 *1956:A 2.30292e-05
20 *338:8 *509:16 4.60584e-05
21 *343:6 *1956:A 8.57024e-05
22 *466:68 *509:12 0
23 *466:74 *509:12 0
*RES
1 *2197:X *509:6 3.43 
2 *509:6 *509:12 10.735 
3 *509:12 *509:16 2.535 
4 *509:16 *1956:A 8.375 
5 *509:16 *1957:A 1.6 
6 *509:12 *1955:A 1.6 
7 *509:6 *1954:C 3.6025 
*END

*D_NET *510 0.00189154
*CONN
*I *1895:A2 I *D sky130_fd_sc_hd__o21a_2
*I *2324:X O *D sky130_fd_sc_hd__buf_2
*CAP
1 *1895:A2 0.000380323
2 *2324:X 0.000380323
3 *1895:A2 *1885:B 7.8458e-05
4 *1895:A2 *586:16 5.4003e-05
5 *1888:B *1895:A2 6.63335e-05
6 *1894:A1 *1895:A2 0.000117825
7 *1917:A *1895:A2 3.39095e-05
8 *1919:A1 *1895:A2 0.000123773
9 *2104:B *1895:A2 0.000226848
10 *105:9 *1895:A2 0.000160215
11 *105:24 *1895:A2 0.000179769
12 *263:32 *1895:A2 5.39718e-05
13 *266:29 *1895:A2 3.57846e-05
*RES
1 *2324:X *1895:A2 17.73 
*END

*D_NET *511 0.000227695
*CONN
*I *2294:A I *D sky130_fd_sc_hd__buf_6
*I *2325:X O *D sky130_fd_sc_hd__buf_2
*CAP
1 *2294:A 0.000104564
2 *2325:X 0.000104564
3 *2325:A *2294:A 1.85674e-05
*RES
1 *2325:X *2294:A 4.955 
*END

*D_NET *512 0.00248643
*CONN
*I *1973:B1_N I *D sky130_fd_sc_hd__o21bai_4
*I *1972:C I *D sky130_fd_sc_hd__nand3b_4
*I *1971:C I *D sky130_fd_sc_hd__and3b_2
*I *2198:X O *D sky130_fd_sc_hd__clkdlybuf4s25_1
*CAP
1 *1973:B1_N 6.68903e-05
2 *1972:C 0.000174294
3 *1971:C 0
4 *2198:X 0.000309571
5 *512:16 0.000471272
6 *512:10 0.00067344
7 *512:10 *2277:A 0
8 *512:16 *2188:A 7.67415e-06
9 *512:16 *2277:A 0
10 S[16] *1973:B1_N 4.99619e-05
11 S[16] *512:10 5.2089e-05
12 *1972:A_N *1972:C 0.000145559
13 *1972:A_N *512:16 6.4336e-05
14 *1973:A1 *1973:B1_N 5.83121e-06
15 *1973:A1 *512:16 5.21545e-05
16 *2197:A *512:16 0
17 *2198:A *512:10 1.56428e-05
18 *2232:A *512:10 0.000109009
19 *2232:A *512:16 0.000259043
20 *348:10 *512:16 1.22762e-05
21 *348:19 *512:16 1.73877e-05
*RES
1 *2198:X *512:10 7.845 
2 *512:10 *512:16 7.46375 
3 *512:16 *1971:C 1.6 
4 *512:16 *1972:C 4.46125 
5 *512:10 *1973:B1_N 4.74 
*END

*D_NET *513 0.00144934
*CONN
*I *1982:B1_N I *D sky130_fd_sc_hd__a21boi_2
*I *1981:B1_N I *D sky130_fd_sc_hd__o21bai_2
*I *1980:B1_N I *D sky130_fd_sc_hd__o21ba_2
*I *2199:X O *D sky130_fd_sc_hd__clkdlybuf4s25_1
*CAP
1 *1982:B1_N 2.54989e-05
2 *1981:B1_N 9.93809e-05
3 *1980:B1_N 9.95005e-05
4 *2199:X 5.23217e-05
5 *513:10 0.000317905
6 *513:8 0.000196844
7 *1980:B1_N *2279:A 5.7344e-05
8 *513:8 *2279:A 4.84393e-05
9 *513:10 *2279:A 0.000122985
10 *1981:A2 *1980:B1_N 0.000163019
11 *1981:A2 *513:10 8.53113e-06
12 *2236:A *513:8 0
13 *359:10 *1980:B1_N 5.4003e-05
14 *360:8 *1981:B1_N 0.000124895
15 *374:12 *1980:B1_N 3.03775e-05
16 *472:14 *513:10 0
17 *473:72 *1982:B1_N 4.82919e-05
*RES
1 *2199:X *513:8 4.725 
2 *513:8 *513:10 2.655 
3 *513:10 *1980:B1_N 6.285 
4 *513:10 *1981:B1_N 5.43 
5 *513:8 *1982:B1_N 4.05 
*END

*D_NET *514 0.00116208
*CONN
*I *2067:A2 I *D sky130_fd_sc_hd__o211a_2
*I *2326:X O *D sky130_fd_sc_hd__buf_2
*CAP
1 *2067:A2 0.000297503
2 *2326:X 0.000297503
3 *2067:A2 *2067:C1 0.000160038
4 *2067:A2 *2282:A 0.000132462
5 *2067:A2 *562:10 5.51854e-05
6 *1807:A1 *2067:A2 4.88478e-05
7 *2326:A *2067:A2 3.7451e-05
8 *2329:A *2067:A2 0.000133094
*RES
1 *2326:X *2067:A2 13.2 
*END

*D_NET *515 0.000482508
*CONN
*I *2102:A I *D sky130_fd_sc_hd__inv_2
*I *2200:X O *D sky130_fd_sc_hd__clkdlybuf4s25_1
*CAP
1 *2102:A 0.000241254
2 *2200:X 0.000241254
3 *367:12 *2102:A 0
4 *473:89 *2102:A 0
*RES
1 *2200:X *2102:A 10.875 
*END

*D_NET *516 0.00092342
*CONN
*I *2138:B1 I *D sky130_fd_sc_hd__o21ai_2
*I *2140:B1_N I *D sky130_fd_sc_hd__o21bai_4
*I *2201:X O *D sky130_fd_sc_hd__clkdlybuf4s25_1
*CAP
1 *2138:B1 0
2 *2140:B1_N 0.00011784
3 *2201:X 0.000128815
4 *516:6 0.000246655
5 *2140:B1_N *2290:A 8.65905e-05
6 *2140:B1_N *536:23 0.000204456
7 *516:6 *2138:A2 4.82863e-05
8 *2140:A2 *2140:B1_N 8.65905e-05
9 *138:12 *2140:B1_N 4.18603e-06
10 *140:8 *2140:B1_N 0
11 *140:19 *2140:B1_N 0
*RES
1 *2201:X *516:6 3.43 
2 *516:6 *2140:B1_N 8.795 
3 *516:6 *2138:B1 1.6 
*END

*D_NET *517 0.00330593
*CONN
*I *2010:B1_N I *D sky130_fd_sc_hd__o21bai_2
*I *2009:B1_N I *D sky130_fd_sc_hd__o21ba_2
*I *2007:C_N I *D sky130_fd_sc_hd__or3b_4
*I *2202:X O *D sky130_fd_sc_hd__clkdlybuf4s25_1
*CAP
1 *2010:B1_N 0
2 *2009:B1_N 0.000103667
3 *2007:C_N 0.000309888
4 *2202:X 0.000634537
5 *517:14 0.000423274
6 *517:10 0.000644256
7 *517:10 *2005:B 0.000139629
8 *517:10 *2006:B 9.53428e-06
9 *517:10 *556:14 0.0002267
10 *517:14 *2005:B 4.82919e-05
11 *2005:A *517:10 2.06762e-05
12 *2007:A *2007:C_N 0.000158066
13 *2007:B *2007:C_N 2.30292e-05
14 *2009:A2 *2007:C_N 0
15 *2009:A2 *2009:B1_N 0
16 *2011:B2 *2009:B1_N 5.56629e-05
17 *2051:B *517:10 4.82863e-05
18 *2061:A *517:10 0.000164022
19 *383:8 *517:10 7.66083e-05
20 *383:8 *517:14 4.82919e-05
21 *434:10 *517:10 4.82863e-05
22 *472:18 *2007:C_N 0
23 *472:18 *2009:B1_N 0
24 *472:31 *517:10 0.000123225
25 *472:37 *2007:C_N 0
*RES
1 *2202:X *517:10 14.155 
2 *517:10 *517:14 2.45 
3 *517:14 *2007:C_N 8.37 
4 *517:14 *2009:B1_N 5.49 
5 *517:10 *2010:B1_N 1.6 
*END

*D_NET *518 0.00103658
*CONN
*I *2073:A1 I *D sky130_fd_sc_hd__a31o_4
*I *2327:X O *D sky130_fd_sc_hd__buf_2
*CAP
1 *2073:A1 0.000196774
2 *2327:X 0.000196774
3 *1816:A1 *2073:A1 0.00032734
4 *1829:A *2073:A1 0.000207797
5 *1829:B *2073:A1 0
6 *2328:A *2073:A1 7.53115e-05
7 *177:23 *2073:A1 3.25831e-05
8 *204:12 *2073:A1 0
*RES
1 *2327:X *2073:A1 12.915 
*END

*D_NET *519 0.000638228
*CONN
*I *2071:B I *D sky130_fd_sc_hd__nand2_4
*I *2328:X O *D sky130_fd_sc_hd__buf_6
*CAP
1 *2071:B 0.000173859
2 *2328:X 0.000173859
3 *1817:A *2071:B 3.09233e-05
4 *1817:B *2071:B 0
5 *1827:B *2071:B 2.11084e-05
6 *2072:B *2071:B 7.63282e-05
7 *2073:A2 *2071:B 0
8 *217:10 *2071:B 0
9 *217:21 *2071:B 8.68387e-05
10 *439:8 *2071:B 7.53115e-05
*RES
1 *2328:X *2071:B 11.58 
*END

*D_NET *520 0.000501357
*CONN
*I *2067:C1 I *D sky130_fd_sc_hd__o211a_2
*I *2329:X O *D sky130_fd_sc_hd__buf_2
*CAP
1 *2067:C1 0.000150162
2 *2329:X 0.000150162
3 *2067:A2 *2067:C1 0.000160038
4 *2326:A *2067:C1 3.18964e-05
5 *250:14 *2067:C1 9.09788e-06
*RES
1 *2329:X *2067:C1 9.72 
*END

*D_NET *521 0.000824487
*CONN
*I *2103:B I *D sky130_fd_sc_hd__xor2_4
*I *2330:X O *D sky130_fd_sc_hd__buf_2
*CAP
1 *2103:B 0.000305264
2 *2330:X 0.000305264
3 *2103:B *2269:A 9.54469e-05
4 *2103:B *570:18 0
5 *1843:A *2103:B 0
6 *1896:A *2103:B 0
7 *1896:B *2103:B 0
8 *2101:A *2103:B 0.000118513
9 *2330:A *2103:B 0
10 *274:8 *2103:B 0
*RES
1 *2330:X *2103:B 12.66 
*END

*D_NET *522 0.00109405
*CONN
*I *2016:B1_N I *D sky130_fd_sc_hd__o21bai_2
*I *2017:C_N I *D sky130_fd_sc_hd__or3b_4
*I *2203:X O *D sky130_fd_sc_hd__clkdlybuf4s25_1
*CAP
1 *2016:B1_N 0.000181851
2 *2017:C_N 0.000246908
3 *2203:X 0
4 *522:4 0.00042876
5 *2017:B *2016:B1_N 0
6 *2017:B *2017:C_N 0.000164874
7 *391:10 *2016:B1_N 0
8 *393:6 *2017:C_N 2.16917e-05
9 *393:54 *2017:C_N 4.99619e-05
*RES
1 *2203:X *522:4 1.6 
2 *522:4 *2017:C_N 6.19 
3 *522:4 *2016:B1_N 8.45 
*END

*D_NET *523 0.00194193
*CONN
*I *2035:B1_N I *D sky130_fd_sc_hd__o21bai_2
*I *2032:C_N I *D sky130_fd_sc_hd__or3b_2
*I *2034:B1_N I *D sky130_fd_sc_hd__o21ba_2
*I *2204:X O *D sky130_fd_sc_hd__clkdlybuf4s25_1
*CAP
1 *2035:B1_N 0.000182199
2 *2032:C_N 0.000263326
3 *2034:B1_N 0.000101514
4 *2204:X 0
5 *523:10 0.000557777
6 *523:4 0.000375136
7 *2035:B1_N *558:12 0
8 S[29] *523:10 1.88656e-05
9 *2030:A *2034:B1_N 4.99619e-05
10 *2032:A *2032:C_N 8.43946e-05
11 *2034:A2 *2034:B1_N 4.82863e-05
12 *2037:B2 *2034:B1_N 3.67779e-05
13 *2037:B2 *523:10 8.17375e-05
14 *405:25 *2032:C_N 1.08758e-05
15 *405:25 *2035:B1_N 8.65905e-05
16 *409:16 *2034:B1_N 3.86529e-05
17 *410:16 *2035:B1_N 5.83121e-06
*RES
1 *2204:X *523:4 1.6 
2 *523:4 *523:10 5.285 
3 *523:10 *2034:B1_N 5.685 
4 *523:10 *2032:C_N 7.185 
5 *523:4 *2035:B1_N 9.065 
*END

*D_NET *524 0.00566197
*CONN
*I *1839:B1 I *D sky130_fd_sc_hd__o21ai_2
*I *1855:B1_N I *D sky130_fd_sc_hd__o21bai_2
*I *2069:A1 I *D sky130_fd_sc_hd__o22a_2
*I *1852:A2 I *D sky130_fd_sc_hd__a22oi_2
*I *2205:X O *D sky130_fd_sc_hd__clkdlybuf4s25_1
*CAP
1 *1839:B1 0
2 *1855:B1_N 3.46393e-05
3 *2069:A1 0.000196039
4 *1852:A2 0
5 *2205:X 0.000922469
6 *524:33 0.000336751
7 *524:29 0.000319668
8 *524:16 0.00113606
9 *1855:B1_N *1839:A2 4.00541e-06
10 *524:33 *1839:A2 2.05056e-05
11 *524:33 *559:10 6.83659e-05
12 *1838:B *1855:B1_N 0
13 *1839:A1 *1855:B1_N 2.11084e-05
14 *1841:B *524:16 6.52265e-05
15 *1848:A1 *524:16 2.06083e-05
16 *1851:A *524:29 0
17 *1852:A1 *524:29 0.000239807
18 *1852:B1 *524:16 0.000512456
19 *1853:A2 *2069:A1 0
20 *1859:B2 *524:29 0.000238137
21 *2069:A2 *2069:A1 0.000263947
22 *224:16 *2069:A1 4.40725e-05
23 *226:8 *1855:B1_N 7.57202e-05
24 *226:8 *524:33 0.000120655
25 *227:12 *2069:A1 0.000137571
26 *233:10 *524:29 0.000362965
27 *241:24 *2069:A1 0.000162325
28 *251:12 *2069:A1 1.01661e-05
29 *459:55 *524:16 0.000348693
*RES
1 *2205:X *524:16 17.225 
2 *524:16 *1852:A2 1.6 
3 *524:16 *524:29 10.36 
4 *524:29 *524:33 2.19 
5 *524:33 *2069:A1 11.315 
6 *524:33 *1855:B1_N 2.755 
7 *524:29 *1839:B1 1.6 
*END

*D_NET *525 0.00063537
*CONN
*I *2043:B1_N I *D sky130_fd_sc_hd__o21ba_2
*I *2041:C_N I *D sky130_fd_sc_hd__or3b_2
*I *2206:X O *D sky130_fd_sc_hd__clkdlybuf4s25_1
*CAP
1 *2043:B1_N 4.40054e-05
2 *2041:C_N 6.90271e-05
3 *2206:X 8.6177e-05
4 *525:10 0.000199209
5 *2041:B *525:10 0
6 *2043:A1 *2041:C_N 4.99619e-05
7 *2043:A2 *2041:C_N 4.21973e-05
8 *2206:A *525:10 0
9 *417:14 *2041:C_N 0.000116224
10 *417:14 *2043:B1_N 1.83847e-05
11 *417:14 *525:10 1.0183e-05
*RES
1 *2206:X *525:10 6.98 
2 *525:10 *2041:C_N 3.43 
3 *525:10 *2043:B1_N 2.395 
*END

*D_NET *526 0.00256333
*CONN
*I *2056:C_N I *D sky130_fd_sc_hd__nor3b_2
*I *2057:B1_N I *D sky130_fd_sc_hd__o21ba_2
*I *2207:X O *D sky130_fd_sc_hd__clkdlybuf4s25_1
*CAP
1 *2056:C_N 8.07968e-05
2 *2057:B1_N 9.01368e-05
3 *2207:X 0.000605718
4 *526:10 0.000776652
5 *526:10 *2266:A 0.000188785
6 S[15] *526:10 4.66991e-05
7 carryOut *2057:B1_N 0.000184815
8 carryOut *526:10 1.05827e-05
9 *2058:B *526:10 0.000388784
10 *2207:A *526:10 0.000190358
11 *2245:A *526:10 0
*RES
1 *2207:X *526:10 14.34 
2 *526:10 *2057:B1_N 5.745 
3 *526:10 *2056:C_N 4.845 
*END

*D_NET *527 0.00437333
*CONN
*I *1854:A_N I *D sky130_fd_sc_hd__nand3b_2
*I *1835:B1 I *D sky130_fd_sc_hd__o21ai_2
*I *1857:A1 I *D sky130_fd_sc_hd__o21ai_2
*I *1856:A1 I *D sky130_fd_sc_hd__o21a_2
*I *1858:A1 I *D sky130_fd_sc_hd__a22oi_4
*I *2208:X O *D sky130_fd_sc_hd__clkdlybuf4s25_1
*CAP
1 *1854:A_N 0.000148576
2 *1835:B1 0.000125533
3 *1857:A1 0
4 *1856:A1 8.76486e-05
5 *1858:A1 0
6 *2208:X 0.000650938
7 *527:38 0.000191186
8 *527:36 0.000445961
9 *527:19 0.000369942
10 *527:10 0.0007015
11 *527:10 *1813:B1 7.60965e-05
12 *1816:B1 *527:10 0.000126415
13 *1834:B *1854:A_N 1.34361e-05
14 *1857:A2 *1835:B1 4.60584e-05
15 *1857:A2 *527:36 7.49327e-05
16 *1857:A2 *527:38 0.000162311
17 *1858:A2 *527:10 9.50342e-06
18 *1858:A2 *527:19 0.000139245
19 *1858:A2 *527:36 3.09233e-05
20 *1858:B1 *527:10 4.18603e-06
21 *1858:B1 *527:19 4.19884e-05
22 *1859:A2 *1854:A_N 0
23 *1864:A1 *1854:A_N 0
24 *1864:B1 *1854:A_N 0.000143266
25 *2070:A *527:36 0
26 *171:19 *527:10 0
27 *171:36 *527:10 0
28 *204:12 *527:10 6.35622e-05
29 *214:10 *527:10 9.54399e-05
30 *222:8 *1854:A_N 4.4073e-05
31 *222:8 *527:36 2.07184e-05
32 *222:10 *527:36 0.000355823
33 *252:8 *1835:B1 4.7043e-05
34 *252:8 *1854:A_N 5.72091e-05
35 *252:8 *527:36 0
36 *461:19 *1835:B1 1.89685e-05
37 *461:19 *1854:A_N 0
38 *461:25 *1835:B1 8.08439e-05
39 *461:25 *527:10 0
40 *461:25 *527:19 0
41 *461:25 *527:36 0
42 *461:56 *527:10 0
43 *461:58 *527:10 0
*RES
1 *2208:X *527:10 14.535 
2 *527:10 *1858:A1 3.6 
3 *527:10 *527:19 1.635 
4 *527:19 *1856:A1 4.755 
5 *527:19 *527:36 7.49 
6 *527:36 *527:38 1.485 
7 *527:38 *1857:A1 1.6 
8 *527:38 *1835:B1 8.645 
9 *527:36 *1854:A_N 9.53 
*END

*D_NET *528 0.0018525
*CONN
*I *1824:A_N I *D sky130_fd_sc_hd__nand3b_2
*I *1822:B1_N I *D sky130_fd_sc_hd__o21bai_2
*I *2174:B1 I *D sky130_fd_sc_hd__o21ai_2
*I *2209:X O *D sky130_fd_sc_hd__clkdlybuf4s25_1
*CAP
1 *1824:A_N 0.000155781
2 *1822:B1_N 0
3 *2174:B1 3.23746e-05
4 *2209:X 0.000194683
5 *528:20 0.000109287
6 *528:14 0.000427377
7 *1824:A_N *1822:A2 4.19884e-05
8 *2174:B1 *1822:A1 0.000115146
9 *528:14 *2286:A 0
10 *528:20 *1822:A1 0.000278111
11 *528:20 *1822:A2 4.82863e-05
12 S[12] *528:14 6.04659e-05
13 S[4] *528:14 1.4389e-05
14 *1823:A1 *1824:A_N 7.58604e-05
15 *1825:A1 *1824:A_N 9.50342e-06
16 *1825:A2 *1824:A_N 3.99039e-05
17 *1825:A2 *2174:B1 0.000122155
18 *1825:A2 *528:20 2.7441e-05
19 *1828:D *1824:A_N 4.66826e-05
20 *210:12 *528:20 5.30673e-05
*RES
1 *2209:X *528:14 6.33 
2 *528:14 *528:20 4.88 
3 *528:20 *2174:B1 3.43 
4 *528:20 *1822:B1_N 1.6 
5 *528:14 *1824:A_N 6.54 
*END

*D_NET *529 0.00381965
*CONN
*I *1796:B1 I *D sky130_fd_sc_hd__o21ai_2
*I *1799:A_N I *D sky130_fd_sc_hd__nand3b_2
*I *1798:B1_N I *D sky130_fd_sc_hd__o21bai_2
*I *1795:B1 I *D sky130_fd_sc_hd__o21a_4
*I *2210:X O *D sky130_fd_sc_hd__clkdlybuf4s25_1
*CAP
1 *1796:B1 0.000125424
2 *1799:A_N 0.000431718
3 *1798:B1_N 2.15402e-05
4 *1795:B1 0.000267732
5 *2210:X 0.000128292
6 *529:38 0.000692923
7 *529:14 0.000413625
8 *529:8 0.000388426
9 *1795:B1 *565:47 0
10 *1796:B1 *565:33 0
11 *1799:A_N *565:33 3.93101e-05
12 *529:38 *565:33 0
13 *1791:A *1799:A_N 0.000157409
14 *1792:B *529:14 6.59214e-05
15 *1797:A2 *1799:A_N 7.20529e-05
16 *1798:A1 *1798:B1_N 0
17 *1799:B *1799:A_N 4.77757e-05
18 *1799:C *1799:A_N 8.30853e-06
19 *1811:A *1799:A_N 0.000232403
20 *1811:B *1796:B1 3.25831e-05
21 *2075:A1_N *1796:B1 0.000109989
22 *2075:A1_N *529:38 7.30547e-05
23 *2210:A *529:14 1.04063e-05
24 *183:10 *1795:B1 0.000163019
25 *183:10 *529:14 0
26 *183:10 *529:38 0
27 *186:12 *1795:B1 7.27003e-05
28 *186:12 *529:8 0.000201508
29 *186:12 *529:14 6.35307e-05
30 *186:12 *529:38 0
*RES
1 *2210:X *529:8 5.43 
2 *529:8 *529:14 4.355 
3 *529:14 *1795:B1 10.46 
4 *529:14 *1798:B1_N 1.96 
5 *529:8 *529:38 2.145 
6 *529:38 *1799:A_N 13.855 
7 *529:38 *1796:B1 6.03 
*END

*D_NET *530 0.00156632
*CONN
*I *1807:B1 I *D sky130_fd_sc_hd__o21ai_2
*I *1805:A_N I *D sky130_fd_sc_hd__nand3b_4
*I *1806:B1 I *D sky130_fd_sc_hd__o21a_4
*I *2211:X O *D sky130_fd_sc_hd__clkdlybuf4s25_1
*CAP
1 *1807:B1 9.54979e-06
2 *1805:A_N 9.9331e-05
3 *1806:B1 1.45361e-05
4 *2211:X 0
5 *530:10 0.00024755
6 *530:4 0.000143233
7 *1805:A_N *566:42 5.23362e-05
8 *1806:B1 *1806:A2 5.83121e-06
9 *1806:B1 *566:27 1.91597e-05
10 *1807:B1 *566:27 4.99619e-05
11 *530:10 *1806:A2 0
12 *530:10 *566:27 0.000489388
13 *1805:B *1805:A_N 0
14 *1808:A *530:10 2.49909e-05
15 *457:28 *1807:B1 5.83121e-06
16 *457:36 *1806:B1 4.82919e-05
17 *457:36 *1807:B1 9.80032e-06
18 *457:36 *530:10 0.000189311
19 *508:14 *1805:A_N 0.000157221
*RES
1 *2211:X *530:4 1.6 
2 *530:4 *530:10 5.055 
3 *530:10 *1806:B1 2.05 
4 *530:10 *1805:A_N 7.49 
5 *530:4 *1807:B1 2.05 
*END

*D_NET *531 0.001723
*CONN
*I *2146:B1 I *D sky130_fd_sc_hd__o21ai_4
*I *2145:B1_N I *D sky130_fd_sc_hd__o21bai_4
*I *2144:B1_N I *D sky130_fd_sc_hd__o21ba_2
*I *2212:X O *D sky130_fd_sc_hd__clkdlybuf4s25_1
*CAP
1 *2146:B1 1.77416e-05
2 *2145:B1_N 0
3 *2144:B1_N 0.00018321
4 *2212:X 0.000142473
5 *531:10 0.000307942
6 *2144:B1_N *537:18 0.00016063
7 *2146:B1 *542:12 7.60965e-05
8 *2088:A *2144:B1_N 0.000141599
9 *2119:A1 *531:10 0
10 *2148:A1 *2144:B1_N 0.000162311
11 *2148:A1 *531:10 0
12 *2212:A *531:10 0
13 *2299:A *2146:B1 0.00012657
14 *2299:A *531:10 2.75145e-05
15 *147:12 *2144:B1_N 0.00033242
16 *147:12 *531:10 4.44927e-05
*RES
1 *2212:X *531:10 5.685 
2 *531:10 *2144:B1_N 9.015 
3 *531:10 *2145:B1_N 3.6 
4 *2212:X *2146:B1 4.34 
*END

*D_NET *532 0.00227502
*CONN
*I *1813:B1 I *D sky130_fd_sc_hd__o21ai_2
*I *2169:A_N I *D sky130_fd_sc_hd__nand3b_4
*I *2213:X O *D sky130_fd_sc_hd__clkdlybuf4s25_1
*CAP
1 *1813:B1 0.000455944
2 *2169:A_N 5.66328e-05
3 *2213:X 0.000240097
4 *532:10 0.000752674
5 *1813:B1 *1813:A2 5.3444e-05
6 *1813:B1 *563:30 0
7 *532:10 *563:8 0
8 *1813:A1 *1813:B1 0.00023585
9 *1828:A *1813:B1 0.0001249
10 *1828:B *1813:B1 0
11 *1828:C *1813:B1 8.53113e-06
12 *2169:B *1813:B1 0.000222562
13 *2175:B1 *1813:B1 0
14 *2208:A *1813:B1 4.82919e-05
15 *171:8 *1813:B1 0
16 *171:8 *532:10 0
17 *527:10 *1813:B1 7.60965e-05
*RES
1 *2213:X *532:10 6.72 
2 *532:10 *2169:A_N 4.395 
3 *532:10 *1813:B1 13.455 
*END

*D_NET *533 0.000724467
*CONN
*I *2161:B1_N I *D sky130_fd_sc_hd__o21ba_2
*I *2162:B1_N I *D sky130_fd_sc_hd__o21bai_4
*I *2158:B1 I *D sky130_fd_sc_hd__o21ai_4
*I *2214:X O *D sky130_fd_sc_hd__clkdlybuf4s25_1
*CAP
1 *2161:B1_N 0
2 *2162:B1_N 0.000122938
3 *2158:B1 0.000151543
4 *2214:X 0.000183537
5 *533:24 0.000154932
6 *2083:B1 *2158:B1 8.88523e-06
7 *2083:B1 *2162:B1_N 0
8 *2083:B1 *533:24 5.05437e-05
9 *2083:B2 *2162:B1_N 2.97004e-06
10 *2214:A *2158:B1 0
11 *160:8 *2158:B1 4.91189e-05
12 *160:8 *2162:B1_N 0
13 *470:28 *2162:B1_N 0
14 *470:34 *2162:B1_N 0
*RES
1 *2214:X *2158:B1 9.63 
2 *2214:X *533:24 2.395 
3 *533:24 *2162:B1_N 7.49 
4 *533:24 *2161:B1_N 1.6 
*END

*D_NET *534 0.000751522
*CONN
*I *2154:A_N I *D sky130_fd_sc_hd__nand3b_2
*I *2153:B1 I *D sky130_fd_sc_hd__o21ai_2
*I *2215:X O *D sky130_fd_sc_hd__clkdlybuf4s25_1
*CAP
1 *2154:A_N 9.4739e-05
2 *2153:B1 2.60044e-05
3 *2215:X 0.000130527
4 *534:6 0.00025127
5 *2154:A_N *569:19 0
6 *2153:A1 *2153:B1 2.75145e-05
7 *2153:A1 *2154:A_N 0
8 *2153:A1 *534:6 0.000159867
9 *2154:C *2154:A_N 9.50342e-06
10 *155:12 *2154:A_N 5.20968e-05
11 *155:16 *2154:A_N 0
*RES
1 *2215:X *534:6 4.12 
2 *534:6 *2153:B1 2.05 
3 *534:6 *2154:A_N 7.34 
*END

*D_NET *535 0.00594728
*CONN
*I *1848:A2 I *D sky130_fd_sc_hd__o21ai_4
*I *1846:B I *D sky130_fd_sc_hd__and2_2
*I *1849:A2 I *D sky130_fd_sc_hd__a21oi_2
*I *1862:A1 I *D sky130_fd_sc_hd__o211ai_2
*I *1847:B I *D sky130_fd_sc_hd__nor2_2
*I *2065:S I *D sky130_fd_sc_hd__mux2_1
*I *2064:B I *D sky130_fd_sc_hd__xor2_2
*I *2216:X O *D sky130_fd_sc_hd__dlymetal6s4s_1
*CAP
1 *1848:A2 8.10176e-05
2 *1846:B 0.000200024
3 *1849:A2 3.36471e-05
4 *1862:A1 0
5 *1847:B 0.000346803
6 *2065:S 7.77953e-05
7 *2064:B 5.1259e-05
8 *2216:X 0
9 *535:60 0.000451691
10 *535:49 0.000290234
11 *535:36 0.000577321
12 *535:30 0.000340092
13 *535:8 0.000361042
14 *535:4 0.000332757
15 *1847:B *2282:A 0.000228714
16 *1847:B *566:12 9.50342e-06
17 *1849:A2 *559:10 0.000197826
18 *535:49 *2282:A 2.68526e-05
19 *535:60 *2282:A 2.20014e-05
20 *1807:A1 *1847:B 0
21 *1846:A *1846:B 0.000233561
22 *1847:A *1847:B 7.36562e-05
23 *1848:A1 *1846:B 4.9968e-05
24 *1849:A1 *1848:A2 1.52862e-05
25 *1849:A1 *1849:A2 0.000122801
26 *1851:A *1846:B 0
27 *1851:B *1849:A2 4.40028e-05
28 *1861:A1 *1848:A2 0
29 *1861:A1 *535:36 0
30 *1862:A2 *1847:B 3.09164e-05
31 *1862:A2 *535:36 0.000162332
32 *1862:A2 *535:60 0
33 *2065:A0 *2065:S 3.03684e-05
34 *2065:A1 *2065:S 8.40213e-05
35 *2068:B *1847:B 0
36 *2190:A *1846:B 5.18317e-06
37 *2240:A *535:8 0.0002437
38 *2240:A *535:30 0.000111285
39 *2243:A *2064:B 0.00020779
40 *2243:A *2065:S 0.000126392
41 *2326:A *1847:B 0
42 *234:6 *1846:B 6.41532e-05
43 *236:22 *1848:A2 0.00011686
44 *236:22 *535:36 2.14129e-05
45 *239:10 *535:60 0
46 *250:14 *535:36 2.65814e-06
47 *250:14 *535:49 1.58462e-05
48 *250:14 *535:60 3.13099e-05
49 *454:8 *1846:B 0.000196048
50 *454:29 *2064:B 0.000206123
51 *454:29 *2065:S 0.000113517
52 *458:22 *1848:A2 9.50342e-06
53 *493:20 *1847:B 0
*RES
1 *2216:X *535:4 1.6 
2 *535:4 *535:8 5.9 
3 *535:8 *2064:B 4.4 
4 *535:8 *2065:S 6.03 
5 *535:4 *535:30 3.83 
6 *535:30 *535:36 4.94 
7 *535:36 *1847:B 12.335 
8 *535:36 *535:49 1.14 
9 *535:49 *1862:A1 1.6 
10 *535:49 *535:60 5.375 
11 *535:60 *1849:A2 5.43 
12 *535:60 *1846:B 8.61 
13 *535:30 *1848:A2 5.49 
*END

*D_NET *536 0.00395349
*CONN
*I *2139:A2 I *D sky130_fd_sc_hd__a21o_4
*I *2138:A2 I *D sky130_fd_sc_hd__o21ai_2
*I *2137:B I *D sky130_fd_sc_hd__nor2_2
*I *2136:B I *D sky130_fd_sc_hd__and2_4
*I *2217:X O *D sky130_fd_sc_hd__clkdlybuf4s25_1
*CAP
1 *2139:A2 0.0001908
2 *2138:A2 0.000145722
3 *2137:B 7.00898e-05
4 *2136:B 0.00042267
5 *2217:X 9.76542e-05
6 *536:23 0.000369065
7 *536:21 0.000344054
8 *536:6 0.000520324
9 *2136:B *2261:A 4.82863e-05
10 *2137:B *2290:A 2.03321e-05
11 *536:6 *2261:A 0.000163204
12 *536:23 *2261:A 0
13 *536:23 *2290:A 3.56353e-05
14 *2087:A1_N *2139:A2 0.000163314
15 *2087:A2_N *2139:A2 4.82919e-05
16 *2087:B1 *2139:A2 0.00023468
17 *2087:B2 *2136:B 6.07412e-05
18 *2087:B2 *2139:A2 0
19 *2139:B1 *2139:A2 2.16833e-05
20 *2140:A1 *2137:B 9.54399e-05
21 *2140:A1 *536:23 0.000162325
22 *2140:B1_N *536:23 0.000204456
23 *2149:A *2139:A2 9.80032e-06
24 *2298:A *2139:A2 2.05056e-05
25 *138:8 *2136:B 0.000419398
26 *138:12 *536:23 0
27 *470:24 *2136:B 3.67337e-05
28 *502:12 *2136:B 0
29 *516:6 *2138:A2 4.82863e-05
*RES
1 *2217:X *536:6 3.085 
2 *536:6 *2136:B 11.495 
3 *536:6 *536:21 2 
4 *536:21 *536:23 3.93 
5 *536:23 *2137:B 5.235 
6 *536:23 *2138:A2 5.79 
7 *536:21 *2139:A2 8.43 
*END

*D_NET *537 0.00360663
*CONN
*I *2146:A1 I *D sky130_fd_sc_hd__o21ai_4
*I *2143:B I *D sky130_fd_sc_hd__and2_4
*I *2142:B I *D sky130_fd_sc_hd__nor2_2
*I *2147:A2 I *D sky130_fd_sc_hd__a21o_4
*I *2218:X O *D sky130_fd_sc_hd__clkdlybuf4s25_1
*CAP
1 *2146:A1 0
2 *2143:B 5.88839e-05
3 *2142:B 9.53967e-05
4 *2147:A2 0
5 *2218:X 0.00027427
6 *537:42 0.000182406
7 *537:27 0.000287409
8 *537:18 0.000342759
9 *2143:B *542:12 1.19928e-05
10 *2088:A *537:18 0.000311288
11 *2142:A *2142:B 0.000201503
12 *2142:A *537:42 5.83373e-05
13 *2144:A2 *537:18 0.000137571
14 *2144:B1_N *537:18 0.00016063
15 *2146:A2 *2143:B 8.49205e-05
16 *2147:A1 *2142:B 3.13457e-05
17 *2147:A1 *537:27 5.77591e-05
18 *2147:B1 *2142:B 4.99619e-05
19 *2147:B1 *537:27 3.66286e-05
20 *2148:A1 *537:18 0.000282617
21 *2299:A *537:42 1.1561e-05
22 *144:8 *2142:B 0.000312182
23 *144:8 *537:27 0.00015896
24 *145:8 *2143:B 6.71882e-05
25 *147:12 *537:18 0
26 *148:10 *537:42 8.45475e-05
27 *148:12 *537:42 0.000199727
28 *468:16 *537:42 0.000106784
*RES
1 *2218:X *537:18 12.74 
2 *537:18 *2147:A2 1.6 
3 *537:18 *537:27 2.1 
4 *537:27 *2142:B 5.17 
5 *537:27 *537:42 7.675 
6 *537:42 *2143:B 3.1 
7 *537:42 *2146:A1 1.6 
*END

*D_NET *538 0.00490438
*CONN
*I *2120:B I *D sky130_fd_sc_hd__nand2_2
*I *2122:A2 I *D sky130_fd_sc_hd__o21a_2
*I *2099:A I *D sky130_fd_sc_hd__inv_2
*I *2219:X O *D sky130_fd_sc_hd__clkdlybuf4s25_1
*CAP
1 *2120:B 0
2 *2122:A2 0
3 *2099:A 0.000385057
4 *2219:X 0.00125821
5 *538:28 0.000491122
6 *538:20 0.00136428
7 *2099:A *2122:B1 2.49909e-05
8 *2099:A *2186:A 2.97206e-06
9 *2099:A *542:12 6.07575e-06
10 *2099:A *542:24 9.14049e-05
11 *1819:A1 *538:20 2.66586e-05
12 *1819:A2 *538:20 2.86265e-06
13 *1819:B1 *538:20 0.000107102
14 *1821:B1 *538:20 9.27255e-06
15 *1821:B1 *538:28 7.21296e-06
16 *2118:A *538:20 0.000124895
17 *2119:A1 *538:20 0.00014364
18 *2120:A *538:20 2.84447e-05
19 *2120:A *538:28 0.000122737
20 *2123:A2 *2099:A 0
21 *2131:D1 *2099:A 1.12467e-05
22 *2184:A *2099:A 0.000134094
23 *2296:A *538:20 4.82919e-05
24 *101:12 *2099:A 6.17032e-05
25 *121:31 *2099:A 0
26 *122:12 *2099:A 0.000158297
27 *122:12 *538:28 9.37731e-05
28 *124:10 *2099:A 1.07797e-05
29 *133:10 *2099:A 1.17309e-05
30 *147:12 *538:20 1.4389e-05
31 *470:16 *538:20 9.4368e-05
32 *478:10 *538:20 6.87705e-05
*RES
1 *2219:X *538:20 18.64 
2 *538:20 *538:28 6.34 
3 *538:28 *2099:A 13.43 
4 *538:28 *2122:A2 1.6 
5 *538:20 *2120:B 1.6 
*END

*D_NET *539 0.00243031
*CONN
*I *2124:A2 I *D sky130_fd_sc_hd__o21ai_4
*I *2117:B I *D sky130_fd_sc_hd__and2_4
*I *2118:B I *D sky130_fd_sc_hd__nor2_2
*I *2220:X O *D sky130_fd_sc_hd__clkdlybuf4s25_1
*CAP
1 *2124:A2 6.01557e-05
2 *2117:B 0
3 *2118:B 0.000247236
4 *2220:X 0.000335349
5 *539:16 0.000287667
6 *539:12 0.000435936
7 *539:12 *2124:B1 0
8 *539:12 *2265:A 4.11678e-06
9 *539:12 *553:8 0
10 *539:12 *561:10 7.23533e-05
11 *1820:B2 *2118:B 0
12 *2119:A1 *539:12 0
13 *2124:A1 *2124:A2 3.83041e-05
14 *2124:A1 *539:16 4.99619e-05
15 *2125:B1 *2118:B 0
16 *2317:A *539:12 0.000116559
17 *126:12 *2124:A2 0.000163204
18 *126:12 *539:12 0.00011686
19 *126:12 *539:16 4.82863e-05
20 *468:12 *2118:B 2.14129e-05
21 *468:12 *539:12 2.4592e-05
22 *468:14 *2118:B 0.000131401
23 *468:16 *2118:B 0.000203067
24 *468:58 *2118:B 4.82919e-05
25 *468:58 *2124:A2 0
26 *468:58 *539:16 2.55546e-05
27 *470:16 *2118:B 0
*RES
1 *2220:X *539:12 11.51 
2 *539:12 *539:16 1.155 
3 *539:16 *2118:B 10.58 
4 *539:16 *2117:B 1.6 
5 *539:12 *2124:A2 3.445 
*END

*D_NET *540 0.00375867
*CONN
*I *2115:A2 I *D sky130_fd_sc_hd__a21o_2
*I *2114:A1 I *D sky130_fd_sc_hd__o21bai_2
*I *2113:A I *D sky130_fd_sc_hd__nor2_2
*I *2112:B I *D sky130_fd_sc_hd__and2_4
*I *2221:X O *D sky130_fd_sc_hd__clkdlybuf4s25_1
*CAP
1 *2115:A2 0.000137485
2 *2114:A1 0
3 *2113:A 7.6206e-05
4 *2112:B 5.7008e-05
5 *2221:X 0.000853809
6 *540:23 0.000158156
7 *540:19 0.000342677
8 *540:6 0.00103406
9 *2113:A *2113:B 9.53428e-06
10 *2113:A *2114:A2 3.25635e-05
11 *2113:A *2266:A 2.30292e-05
12 *2113:A *607:106 2.75145e-05
13 *2113:A *607:115 6.3889e-05
14 *540:19 *2112:A 0.000147841
15 *540:23 *2112:A 0.00011686
16 *2060:A2 *540:6 0.00013106
17 *2060:B1 *540:6 3.2956e-05
18 *2060:C1 *540:6 2.65881e-05
19 *2115:B1 *2113:A 0.000158965
20 *2115:B1 *2115:A2 4.99619e-05
21 *2116:A1 *2115:A2 1.91597e-05
22 *2116:A2 *2115:A2 8.23457e-05
23 *2131:B1 *2115:A2 9.80032e-06
24 *2131:B1 *540:19 0
25 *2131:B1 *540:23 0
26 *114:12 *2115:A2 1.91597e-05
27 *114:12 *540:19 0.000116165
28 *114:25 *540:23 1.26548e-05
29 *116:6 *2113:A 1.08758e-05
30 *417:46 *540:6 8.34281e-06
*RES
1 *2221:X *540:6 13.78 
2 *540:6 *2112:B 2.41 
3 *540:6 *540:19 4.91 
4 *540:19 *540:23 3.635 
5 *540:23 *2113:A 4.15 
6 *540:23 *2114:A1 1.6 
7 *540:19 *2115:A2 5.775 
*END

*D_NET *541 0.00783987
*CONN
*I *2109:A_N I *D sky130_fd_sc_hd__nand2b_2
*I *2108:B I *D sky130_fd_sc_hd__nand2_2
*I *2222:X O *D sky130_fd_sc_hd__clkdlybuf4s25_1
*CAP
1 *2109:A_N 0
2 *2108:B 0.000369593
3 *2222:X 0.00162922
4 *541:12 0.00199881
5 *2108:B *2110:B1_N 2.68721e-05
6 *2108:B *575:10 9.24127e-05
7 *541:12 *1842:B 2.61093e-05
8 *541:12 *544:12 0.000271769
9 *541:12 *544:34 0.000290062
10 *2098:A *541:12 8.35106e-05
11 *2108:A *2108:B 5.53249e-06
12 *2123:A1 *541:12 1.61831e-05
13 *2189:A *2108:B 0
14 *2189:A *541:12 0.000319862
15 *2225:A *541:12 8.45369e-05
16 *230:10 *541:12 0.000829085
17 *453:6 *541:12 6.55939e-05
18 *453:102 *541:12 0.00150296
19 *453:109 *541:12 0.000227769
*RES
1 *2222:X *541:12 40.085 
2 *541:12 *2108:B 11.96 
3 *541:12 *2109:A_N 1.6 
*END

*D_NET *542 0.00574977
*CONN
*I *2122:B1 I *D sky130_fd_sc_hd__o21a_2
*I *2091:A1 I *D sky130_fd_sc_hd__a32o_2
*I *2132:B1 I *D sky130_fd_sc_hd__a21o_2
*I *2223:X O *D sky130_fd_sc_hd__clkdlybuf4s25_1
*CAP
1 *2122:B1 5.00656e-05
2 *2091:A1 0.000104194
3 *2132:B1 0
4 *2223:X 0.00132677
5 *542:24 0.000384896
6 *542:12 0.00165754
7 *2091:A1 *607:41 0
8 *2089:A *2091:A1 5.07376e-05
9 *2091:A2 *2091:A1 0.00018305
10 *2092:B *2091:A1 4.93654e-06
11 *2099:A *2122:B1 2.49909e-05
12 *2099:A *542:12 6.07575e-06
13 *2099:A *542:24 9.14049e-05
14 *2119:A1 *542:12 0
15 *2123:A2 *542:24 4.99619e-05
16 *2123:B1 *542:24 4.82863e-05
17 *2125:A2_N *542:24 3.57349e-05
18 *2132:A1 *542:24 0.000541107
19 *2143:B *542:12 1.19928e-05
20 *2146:A2 *542:12 0.00011964
21 *2146:B1 *542:12 7.60965e-05
22 *2184:A *542:12 0.000271314
23 *2293:A *542:12 9.66106e-05
24 *2299:A *542:12 0.000185091
25 *124:10 *542:24 9.30717e-05
26 *125:14 *2091:A1 2.49909e-05
27 *125:14 *542:24 0.000120359
28 *145:8 *542:12 9.46111e-06
29 *259:22 *2091:A1 0.000181383
*RES
1 *2223:X *542:12 22.445 
2 *542:12 *542:24 11.905 
3 *542:24 *2132:B1 1.6 
4 *542:24 *2091:A1 8.9 
5 *542:12 *2122:B1 2.665 
*END

*D_NET *543 0.00030154
*CONN
*I *2103:A I *D sky130_fd_sc_hd__xor2_4
*I *2224:X O *D sky130_fd_sc_hd__clkdlybuf4s25_1
*CAP
1 *2103:A 4.12163e-05
2 *2224:X 4.12163e-05
3 *2103:A *2186:A 0.000140912
4 *1843:A *2103:A 7.81954e-05
*RES
1 *2224:X *2103:A 8.835 
*END

*D_NET *544 0.00348434
*CONN
*I *1878:B I *D sky130_fd_sc_hd__nand2_2
*I *1880:A2 I *D sky130_fd_sc_hd__a21oi_2
*I *1877:B I *D sky130_fd_sc_hd__or2_4
*I *1881:A2 I *D sky130_fd_sc_hd__o21ai_2
*I *2225:X O *D sky130_fd_sc_hd__clkdlybuf4s25_1
*CAP
1 *1878:B 0.000109851
2 *1880:A2 0.000265724
3 *1877:B 0
4 *1881:A2 0.00016125
5 *2225:X 0
6 *544:34 0.000597296
7 *544:12 0.000387775
8 *544:4 0.000448246
9 *1880:A2 *1840:B 0.000123955
10 *1881:A2 *597:6 0.000233004
11 *1840:A_N *1880:A2 8.64421e-05
12 *1842:A *1878:B 3.03465e-05
13 *1842:A *1880:A2 3.62197e-05
14 *1843:A *1881:A2 6.35448e-05
15 *1881:B1 *544:12 7.89689e-05
16 *2101:A *1881:A2 0.000159957
17 *453:29 *1880:A2 0
18 *458:22 *544:12 0.000139933
19 *459:18 *1880:A2 0
20 *541:12 *544:12 0.000271769
21 *541:12 *544:34 0.000290062
*RES
1 *2225:X *544:4 1.6 
2 *544:4 *544:12 8.155 
3 *544:12 *1881:A2 9.665 
4 *544:12 *1877:B 1.6 
5 *544:4 *544:34 4.865 
6 *544:34 *1880:A2 8.205 
7 *544:34 *1878:B 5.235 
*END

*D_NET *545 0.00704951
*CONN
*I *1885:B I *D sky130_fd_sc_hd__nor2_4
*I *1887:B I *D sky130_fd_sc_hd__nand2_2
*I *1886:B I *D sky130_fd_sc_hd__and2_2
*I *2226:X O *D sky130_fd_sc_hd__clkdlybuf4s25_1
*CAP
1 *1885:B 0.000318225
2 *1887:B 0.000260689
3 *1886:B 0.000352223
4 *2226:X 0
5 *545:21 0.0016065
6 *545:4 0.00137981
7 *1885:B *2268:A 0.000155436
8 *1887:B *586:16 2.7441e-05
9 *1843:A *1886:B 0.000353831
10 *1843:A *545:21 0.000187281
11 *1885:A *1885:B 0
12 *1887:A *1885:B 0.000469627
13 *1887:A *1887:B 0.000550717
14 *1888:B *1885:B 8.5242e-05
15 *1888:B *1887:B 0.000402743
16 *1894:A2 *545:21 3.1835e-05
17 *1894:B1_N *545:21 2.01474e-05
18 *1895:A2 *1885:B 7.8458e-05
19 *2104:B *1885:B 2.60986e-05
20 *2106:B *545:21 2.01259e-05
21 *2191:A *1886:B 0
22 *2226:A *1886:B 2.30292e-05
23 *105:24 *545:21 8.73389e-06
24 *263:32 *1885:B 0.00013994
25 *266:14 *1887:B 8.50369e-06
26 *266:29 *1887:B 3.91776e-05
27 *280:8 *545:21 0.000121023
28 *455:8 *1886:B 0
29 *460:10 *545:21 0.00028578
30 *460:52 *545:21 2.68464e-05
31 *462:6 *545:21 5.58036e-05
32 *462:16 *545:21 1.42452e-05
*RES
1 *2226:X *545:4 1.6 
2 *545:4 *1886:B 10.79 
3 *545:4 *545:21 14.87 
4 *545:21 *1887:B 11.34 
5 *545:21 *1885:B 11.94 
*END

*D_NET *546 0.00248131
*CONN
*I *1897:B I *D sky130_fd_sc_hd__nor2_2
*I *1899:B I *D sky130_fd_sc_hd__nand2_2
*I *1898:B I *D sky130_fd_sc_hd__and2_2
*I *2227:X O *D sky130_fd_sc_hd__clkdlybuf4s25_1
*CAP
1 *1897:B 5.65378e-05
2 *1899:B 0.000369916
3 *1898:B 6.31056e-05
4 *2227:X 0.00043686
5 *546:17 0.000426454
6 *546:6 0.000499966
7 *1899:B *2268:A 5.84828e-05
8 *1899:B *570:18 0
9 *1886:A *1898:B 2.39233e-05
10 *1886:A *546:6 5.18922e-05
11 *1899:A *1899:B 1.37328e-05
12 *1900:A_N *1899:B 5.36526e-05
13 *1901:A2 *1897:B 0
14 *1902:B1_N *546:6 5.05521e-05
15 *282:10 *1897:B 5.72091e-05
16 *282:10 *1899:B 1.82476e-05
17 *283:8 *1898:B 0
18 *283:8 *546:6 0.000160635
19 *287:10 *546:6 1.34594e-05
20 *463:71 *1897:B 5.53249e-06
21 *463:75 *1897:B 8.87475e-05
22 *463:75 *1899:B 3.24046e-05
*RES
1 *2227:X *546:6 8.26 
2 *546:6 *1898:B 2.665 
3 *546:6 *546:17 2 
4 *546:17 *1899:B 10.23 
5 *546:17 *1897:B 5.49 
*END

*D_NET *547 0.0058111
*CONN
*I *1842:B I *D sky130_fd_sc_hd__and2_2
*I *1840:B I *D sky130_fd_sc_hd__nand2b_2
*I *1844:A1 I *D sky130_fd_sc_hd__o21ai_4
*I *1841:A_N I *D sky130_fd_sc_hd__nand2b_2
*I *1845:A2 I *D sky130_fd_sc_hd__a21o_4
*I *2228:X O *D sky130_fd_sc_hd__clkdlybuf4s25_1
*CAP
1 *1842:B 0.000215379
2 *1840:B 0.00014354
3 *1844:A1 1.8855e-05
4 *1841:A_N 0.000318833
5 *1845:A2 3.17226e-05
6 *2228:X 5.30973e-05
7 *547:44 0.000216211
8 *547:18 0.000464333
9 *547:12 0.000228399
10 *547:8 0.000329281
11 *1840:A_N *1840:B 8.97178e-05
12 *1843:B *1840:B 0.000447324
13 *1843:B *547:18 0.000249212
14 *1843:B *547:44 0.000259924
15 *1850:B2 *547:18 0
16 *1860:B1 *547:18 8.18626e-05
17 *1880:A2 *1840:B 0.000123955
18 *1881:A1 *1842:B 0.000305651
19 *1881:B1 *547:8 0.000157602
20 *1881:B1 *547:12 0.000117174
21 *2098:A *1842:B 3.50152e-06
22 *2101:A *547:8 0.000105546
23 *2101:A *547:12 0.000140006
24 *2193:A *1841:A_N 0.000459366
25 *2225:A *1842:B 0.000122331
26 *230:10 *1842:B 0.00019188
27 *231:29 *547:18 8.40213e-05
28 *231:29 *547:44 0.00023301
29 *248:8 *1845:A2 5.16348e-05
30 *248:8 *547:18 0.000114492
31 *453:6 *1842:B 1.08758e-05
32 *459:39 *1840:B 0.000219824
33 *459:39 *1844:A1 9.13949e-06
34 *459:39 *547:44 2.10214e-05
35 *459:55 *547:12 2.62115e-05
36 *460:18 *1841:A_N 8.97642e-05
37 *476:10 *547:12 5.02905e-05
38 *541:12 *1842:B 2.61093e-05
*RES
1 *2228:X *547:8 5.49 
2 *547:8 *547:12 4.145 
3 *547:12 *547:18 5.555 
4 *547:18 *1845:A2 4.215 
5 *547:18 *1841:A_N 13.735 
6 *547:12 *547:44 2.52 
7 *547:44 *1844:A1 1.96 
8 *547:44 *1840:B 6.895 
9 *547:8 *1842:B 8.895 
*END

*D_NET *548 0.00194506
*CONN
*I *1909:B I *D sky130_fd_sc_hd__nand2_2
*I *1907:B I *D sky130_fd_sc_hd__nor2_2
*I *1908:B I *D sky130_fd_sc_hd__and2_2
*I *2229:X O *D sky130_fd_sc_hd__clkdlybuf4s25_1
*CAP
1 *1909:B 0.000267617
2 *1907:B 0.000101686
3 *1908:B 0
4 *2229:X 5.5803e-05
5 *548:14 0.000284668
6 *548:8 0.000506403
7 S[20] *1909:B 0.000134938
8 *1908:A *1907:B 0.000162325
9 *1910:A_N *1907:B 0
10 *1910:A_N *548:14 9.50342e-06
11 *1911:A2 *548:14 5.30673e-05
12 *1934:C1 *1909:B 0.000123225
13 *1948:A *548:14 0
14 *294:12 *548:14 0
15 *295:8 *548:14 7.76064e-05
16 *295:19 *548:8 3.39069e-05
17 *295:19 *548:14 1.0183e-05
18 *304:42 *1907:B 2.75145e-05
19 *304:42 *548:14 9.66106e-05
20 *311:30 *548:8 0
*RES
1 *2229:X *548:8 4.725 
2 *548:8 *548:14 6.14 
3 *548:14 *1908:B 1.6 
4 *548:14 *1907:B 7.94 
5 *548:8 *1909:B 7.86 
*END

*D_NET *549 0.00410614
*CONN
*I *1928:A2 I *D sky130_fd_sc_hd__o21ai_2
*I *1925:B I *D sky130_fd_sc_hd__nor2_2
*I *1924:B I *D sky130_fd_sc_hd__and2_4
*I *1929:A2 I *D sky130_fd_sc_hd__a21oi_2
*I *2230:X O *D sky130_fd_sc_hd__clkdlybuf4s25_1
*CAP
1 *1928:A2 0
2 *1925:B 0
3 *1924:B 0
4 *1929:A2 0.000428817
5 *2230:X 0.00023083
6 *549:20 0.00104665
7 *549:12 0.000762334
8 *549:8 0.000375328
9 *549:8 *2275:A 0
10 *549:12 *2275:A 0
11 *549:20 *2275:A 0
12 *1921:A *1929:A2 0.000318717
13 *1922:A2 *1929:A2 0
14 *1925:A *549:12 0.000116158
15 *1925:A *549:20 9.50342e-06
16 *1927:A2 *549:8 0
17 *1927:A2 *549:12 4.18603e-06
18 *1929:A1 *1929:A2 8.73389e-06
19 *1930:A2 *549:20 1.19928e-05
20 *1930:B1 *549:20 8.64421e-05
21 *1931:A1 *1929:A2 7.23533e-05
22 *1948:A *1929:A2 0.000139238
23 *2195:A *549:8 0
24 *2306:A *1929:A2 0.000233372
25 *2306:A *549:20 0.000202952
26 *307:68 *549:12 5.2584e-05
27 *307:68 *549:20 2.97004e-06
28 *311:12 *549:20 0
29 *311:18 *549:20 0
30 *463:10 *1929:A2 0
31 *463:14 *1929:A2 2.97004e-06
*RES
1 *2230:X *549:8 7.275 
2 *549:8 *549:12 2.685 
3 *549:12 *549:20 11.675 
4 *549:20 *1929:A2 13.235 
5 *549:20 *1924:B 1.6 
6 *549:12 *1925:B 3.6 
7 *549:8 *1928:A2 3.6 
*END

*D_NET *550 0.00245194
*CONN
*I *1939:B I *D sky130_fd_sc_hd__and2_4
*I *1940:B I *D sky130_fd_sc_hd__nor2_2
*I *2231:X O *D sky130_fd_sc_hd__clkdlybuf4s25_1
*CAP
1 *1939:B 0.00014088
2 *1940:B 0.000259531
3 *2231:X 0.000301806
4 *550:8 0.000702217
5 S[23] *1939:B 1.16578e-05
6 *1939:A *1939:B 2.03321e-05
7 *1942:B1_N *1939:B 6.85516e-05
8 *1942:B1_N *1940:B 0.000132842
9 *1950:A1 *1940:B 0
10 *1950:B1 *1940:B 0.000110125
11 *1958:B1 *1940:B 0.000160658
12 *1964:A2 *1940:B 0.000184717
13 *2231:A *1939:B 0
14 *2231:A *550:8 8.51589e-06
15 *321:10 *1939:B 0
16 *323:8 *1939:B 5.74095e-05
17 *323:8 *1940:B 5.38986e-05
18 *323:10 *1940:B 9.766e-05
19 *324:16 *1940:B 0
20 *325:14 *1940:B 0
21 *507:10 *1939:B 0.000141142
*RES
1 *2231:X *550:8 6.81 
2 *550:8 *1940:B 10.455 
3 *550:8 *1939:B 7.05 
*END

*D_NET *551 0.00106343
*CONN
*I *1952:B I *D sky130_fd_sc_hd__nand2_2
*I *1951:B I *D sky130_fd_sc_hd__nor2_2
*I *2232:X O *D sky130_fd_sc_hd__clkdlybuf4s25_1
*CAP
1 *1952:B 0
2 *1951:B 0.000232614
3 *2232:X 0.000103774
4 *551:6 0.000336388
5 *1951:B *2267:A 0
6 *551:6 *2188:A 3.73239e-05
7 *1942:A1 *1951:B 0
8 *1953:B_N *1951:B 0
9 *333:10 *1951:B 2.75229e-05
10 *333:10 *551:6 9.66021e-05
11 *466:68 *1951:B 0
12 *509:12 *1951:B 0.000229203
*RES
1 *2232:X *551:6 3.775 
2 *551:6 *1951:B 10.235 
3 *551:6 *1952:B 1.6 
*END

*D_NET *552 0.00181274
*CONN
*I *1969:B I *D sky130_fd_sc_hd__and2_2
*I *1968:B I *D sky130_fd_sc_hd__nor2_4
*I *1970:B I *D sky130_fd_sc_hd__nand2_2
*I *2233:X O *D sky130_fd_sc_hd__clkdlybuf4s25_1
*CAP
1 *1969:B 0
2 *1968:B 0.00014732
3 *1970:B 0
4 *2233:X 0.000225613
5 *552:23 0.000413523
6 *552:12 0.000491817
7 *552:12 *2278:A 0
8 *1969:A *552:23 2.75145e-05
9 *1970:A *552:23 4.36791e-05
10 *1983:A1 *552:12 8.65961e-05
11 *1995:A *552:12 0
12 *1995:C *552:12 7.4027e-05
13 *1997:A1 *552:23 2.75229e-05
14 *2001:B *552:12 0
15 *350:10 *552:23 4.66108e-05
16 *352:8 *552:12 0.000228515
*RES
1 *2233:X *552:12 9.815 
2 *552:12 *1970:B 1.6 
3 *552:12 *552:23 3.93 
4 *552:23 *1968:B 3.775 
5 *552:23 *1969:B 1.6 
*END

*D_NET *553 0.00153667
*CONN
*I *2119:B1_N I *D sky130_fd_sc_hd__o21bai_4
*I *2124:B1 I *D sky130_fd_sc_hd__o21ai_4
*I *2234:X O *D sky130_fd_sc_hd__clkdlybuf4s25_1
*CAP
1 *2119:B1_N 0.000296678
2 *2124:B1 0.000146402
3 *2234:X 0.000192477
4 *553:8 0.000635556
5 S[13] *553:8 2.05641e-05
6 *2119:A1 *2124:B1 7.81954e-05
7 *2119:A2 *2119:B1_N 0.0001249
8 *2220:A *553:8 1.88656e-05
9 *121:10 *2119:B1_N 2.30292e-05
10 *539:12 *2124:B1 0
11 *539:12 *553:8 0
*RES
1 *2234:X *553:8 6.765 
2 *553:8 *2124:B1 6.255 
3 *553:8 *2119:B1_N 8.205 
*END

*D_NET *554 0.0032801
*CONN
*I *1982:A2 I *D sky130_fd_sc_hd__a21boi_2
*I *1983:A2 I *D sky130_fd_sc_hd__o21ai_2
*I *1979:B I *D sky130_fd_sc_hd__and2_2
*I *1978:B I *D sky130_fd_sc_hd__nor2_2
*I *2235:X O *D sky130_fd_sc_hd__clkdlybuf4s25_1
*CAP
1 *1982:A2 1.11992e-05
2 *1983:A2 0.000142472
3 *1979:B 0.000109735
4 *1978:B 0
5 *2235:X 0.000259385
6 *554:34 0.000492833
7 *554:14 0.000255681
8 *554:10 0.000744492
9 *1983:A1 *1983:A2 1.85674e-05
10 *1995:D *1983:A2 3.23663e-05
11 *2200:A *554:10 8.31173e-05
12 *2236:A *554:10 0
13 *357:10 *1979:B 0.000122271
14 *367:12 *554:14 0
15 *368:12 *554:14 0
16 *369:14 *554:14 1.01661e-05
17 *370:8 *554:14 0.000140912
18 *472:6 *554:34 0.000164874
19 *472:14 *554:10 8.99634e-06
20 *472:14 *554:14 0.000171324
21 *472:81 *1979:B 2.84447e-05
22 *472:106 *554:34 0.000110673
23 *473:65 *1982:A2 9.53428e-06
24 *473:65 *1983:A2 0.000142753
25 *473:65 *554:34 1.61831e-05
26 *473:72 *554:34 0.000160491
27 *473:89 *554:34 4.36241e-05
*RES
1 *2235:X *554:10 7.32 
2 *554:10 *554:14 5.675 
3 *554:14 *1978:B 1.6 
4 *554:14 *1979:B 3.805 
5 *554:10 *554:34 8.315 
6 *554:34 *1983:A2 4.39 
7 *554:34 *1982:A2 1.96 
*END

*D_NET *555 0.000826204
*CONN
*I *1989:B I *D sky130_fd_sc_hd__nor2_2
*I *1990:B I *D sky130_fd_sc_hd__and2_2
*I *2236:X O *D sky130_fd_sc_hd__clkdlybuf4s25_1
*CAP
1 *1989:B 2.30959e-05
2 *1990:B 0
3 *2236:X 2.36291e-05
4 *555:6 4.67249e-05
5 *1989:A *1989:B 8.65905e-05
6 *472:106 *1989:B 7.66083e-05
7 *472:106 *555:6 0.000203178
8 *473:89 *1989:B 0.000163199
9 *473:89 *555:6 0.000203178
*RES
1 *2236:X *555:6 3.43 
2 *555:6 *1990:B 1.6 
3 *555:6 *1989:B 3.085 
*END

*D_NET *556 0.00429581
*CONN
*I *2006:B I *D sky130_fd_sc_hd__and2_2
*I *2005:B I *D sky130_fd_sc_hd__nor2_2
*I *2237:X O *D sky130_fd_sc_hd__clkdlybuf4s25_1
*CAP
1 *2006:B 1.85694e-05
2 *2005:B 0.000315748
3 *2237:X 0.0011407
4 *556:14 0.00147502
5 *556:14 *2283:A 2.75229e-05
6 *2005:A *2005:B 5.14337e-05
7 *2061:A *556:14 0.000467074
8 *2237:A *556:14 0
9 *382:8 *2005:B 0.000163961
10 *383:8 *2005:B 0.000120945
11 *387:14 *2005:B 9.06885e-05
12 *517:10 *2005:B 0.000139629
13 *517:10 *2006:B 9.53428e-06
14 *517:10 *556:14 0.0002267
15 *517:14 *2005:B 4.82919e-05
*RES
1 *2237:X *556:14 20.39 
2 *556:14 *2005:B 8.68 
3 *556:14 *2006:B 1.96 
*END

*D_NET *557 0.00115977
*CONN
*I *2015:B I *D sky130_fd_sc_hd__and2_2
*I *2014:B I *D sky130_fd_sc_hd__nor2_2
*I *2238:X O *D sky130_fd_sc_hd__clkdlybuf4s25_1
*CAP
1 *2015:B 6.32906e-05
2 *2014:B 0.000154347
3 *2238:X 7.44178e-05
4 *557:10 0.000292055
5 *2015:A *2014:B 0.000188561
6 *2015:A *2015:B 4.21973e-05
7 *2016:A1 *2014:B 4.82919e-05
8 *391:10 *2014:B 0.000123225
9 *391:10 *2015:B 0.000163204
10 *391:10 *557:10 1.0183e-05
*RES
1 *2238:X *557:10 6.725 
2 *557:10 *2014:B 5.17 
3 *557:10 *2015:B 3.445 
*END

*D_NET *558 0.00223279
*CONN
*I *2031:B I *D sky130_fd_sc_hd__and2_2
*I *2030:B I *D sky130_fd_sc_hd__nor2_2
*I *2239:X O *D sky130_fd_sc_hd__clkdlybuf4s25_1
*CAP
1 *2031:B 0.000268382
2 *2030:B 0
3 *2239:X 0.000455284
4 *558:12 0.000723665
5 S[28] *558:12 5.59619e-05
6 *2030:A *2031:B 8.36075e-05
7 *2034:A1 *558:12 1.94805e-05
8 *2034:A2 *2031:B 0.000274659
9 *2035:B1_N *558:12 0
10 *2037:B2 *558:12 0
11 *2204:A *558:12 0.000145453
12 *2239:A *558:12 0
13 *405:8 *2031:B 8.65961e-05
14 *405:25 *558:12 3.47837e-05
15 *409:8 *2031:B 8.49205e-05
*RES
1 *2239:X *558:12 12.89 
2 *558:12 *2030:B 1.6 
3 *558:12 *2031:B 7.255 
*END

*D_NET *559 0.00235726
*CONN
*I *1839:A2 I *D sky130_fd_sc_hd__o21ai_2
*I *1837:B I *D sky130_fd_sc_hd__nor2_2
*I *1836:B I *D sky130_fd_sc_hd__and2_4
*I *2240:X O *D sky130_fd_sc_hd__clkdlybuf4s25_1
*CAP
1 *1839:A2 4.23978e-05
2 *1837:B 0.000103327
3 *1836:B 0
4 *2240:X 0.000428568
5 *559:18 0.000250993
6 *559:10 0.000618631
7 *1836:A *1837:B 3.66286e-05
8 *1836:A *559:18 4.99619e-05
9 *1839:A1 *1839:A2 5.4155e-06
10 *1839:A1 *559:18 0
11 *1849:A1 *559:10 1.43191e-05
12 *1849:A2 *559:10 0.000197826
13 *1849:B1 *559:10 4.89295e-05
14 *1851:B *559:10 1.72945e-05
15 *1852:A1 *559:18 0.000187766
16 *1855:B1_N *1839:A2 4.00541e-06
17 *225:12 *1837:B 5.72091e-05
18 *227:12 *559:18 3.09233e-05
19 *494:10 *1837:B 9.50342e-06
20 *494:12 *1837:B 0.000164686
21 *494:12 *559:18 0
22 *524:33 *1839:A2 2.05056e-05
23 *524:33 *559:10 6.83659e-05
*RES
1 *2240:X *559:10 8.725 
2 *559:10 *559:18 7.285 
3 *559:18 *1836:B 1.6 
4 *559:18 *1837:B 8.285 
5 *559:10 *1839:A2 2.41 
*END

*D_NET *560 0.00134002
*CONN
*I *2040:B I *D sky130_fd_sc_hd__and2_2
*I *2039:B I *D sky130_fd_sc_hd__nor2_2
*I *2241:X O *D sky130_fd_sc_hd__clkdlybuf4s25_1
*CAP
1 *2040:B 0
2 *2039:B 0.000116028
3 *2241:X 0.000113552
4 *560:8 0.000229581
5 *2039:B *2283:A 8.57406e-05
6 *560:8 *2283:A 0.000241483
7 *2039:A *2039:B 0.000162784
8 *2040:A *2039:B 0.000160641
9 *2040:A *560:8 3.25635e-05
10 *2041:B *2039:B 1.71013e-05
11 *2059:C1 *2039:B 1.52945e-05
12 *413:6 *2039:B 4.99619e-05
13 *414:8 *2039:B 4.5783e-05
14 *415:8 *2039:B 2.05056e-05
15 *417:22 *2039:B 2.55587e-05
16 *434:10 *2039:B 2.34423e-05
*RES
1 *2241:X *560:8 4.48 
2 *560:8 *2039:B 9.77 
3 *560:8 *2040:B 1.6 
*END

*D_NET *561 0.00234483
*CONN
*I *2054:B I *D sky130_fd_sc_hd__nor2_2
*I *2055:B I *D sky130_fd_sc_hd__and2_2
*I *2242:X O *D sky130_fd_sc_hd__clkdlybuf4s25_1
*CAP
1 *2054:B 0.000202316
2 *2055:B 3.37585e-05
3 *2242:X 0.000707257
4 *561:10 0.000943331
5 *2054:B *2266:A 0.000201503
6 *561:10 *2264:A 2.11084e-05
7 *561:10 *2265:A 0
8 S[14] *2054:B 0
9 *2054:A *2054:B 0
10 *2220:A *561:10 0
11 *2317:A *561:10 0
12 *427:16 *2054:B 0.000163199
13 *539:12 *561:10 7.23533e-05
*RES
1 *2242:X *561:10 12.645 
2 *561:10 *2055:B 4.05 
3 *561:10 *2054:B 7.935 
*END

*D_NET *562 0.00663345
*CONN
*I *1831:A_N I *D sky130_fd_sc_hd__nand2b_2
*I *1832:B I *D sky130_fd_sc_hd__nand2_2
*I *1833:B I *D sky130_fd_sc_hd__and2_2
*I *1835:A2 I *D sky130_fd_sc_hd__o21ai_2
*I *2243:X O *D sky130_fd_sc_hd__clkdlybuf4s25_1
*CAP
1 *1831:A_N 6.58761e-05
2 *1832:B 0.000121127
3 *1833:B 0
4 *1835:A2 3.37454e-05
5 *2243:X 0.00143262
6 *562:30 0.000337965
7 *562:23 0.000394816
8 *562:10 0.00171022
9 *562:10 *2282:A 0.000106086
10 *562:10 *2285:A 6.14776e-05
11 *1807:A1 *562:10 8.52845e-05
12 *1831:B *1831:A_N 0.000151541
13 *1831:B *562:30 8.8266e-05
14 *1833:A *562:30 7.10578e-05
15 *1847:A *562:10 0.000273878
16 *1856:B1 *562:10 0.000208484
17 *1857:B1 *562:10 0.000109995
18 *1858:B2 *562:10 0.000308371
19 *1859:B1 *562:10 7.89689e-05
20 *1859:B1 *562:23 7.71016e-05
21 *2067:A2 *562:10 5.51854e-05
22 *2069:A2 *562:10 8.8266e-05
23 *2180:A *1832:B 0
24 *2255:A *562:10 0.000157959
25 *2314:A *562:10 7.60965e-05
26 *2326:A *562:10 0.000123955
27 *2329:A *562:10 6.25091e-05
28 *220:8 *1832:B 0
29 *241:24 *562:10 0.00015698
30 *461:6 *562:30 8.96017e-05
31 *461:19 *562:23 6.95422e-05
32 *461:25 *562:10 3.64783e-05
*RES
1 *2243:X *562:10 32.145 
2 *562:10 *1835:A2 4.05 
3 *562:10 *562:23 6.185 
4 *562:23 *1833:B 1.6 
5 *562:23 *562:30 3.21 
6 *562:30 *1832:B 7.49 
7 *562:30 *1831:A_N 3.085 
*END

*D_NET *563 0.00490608
*CONN
*I *2171:B I *D sky130_fd_sc_hd__and2b_2
*I *2172:B I *D sky130_fd_sc_hd__nand2_2
*I *2173:A_N I *D sky130_fd_sc_hd__nand2b_2
*I *2170:B I *D sky130_fd_sc_hd__and2_2
*I *2175:A2 I *D sky130_fd_sc_hd__a21o_2
*I *1823:A2 I *D sky130_fd_sc_hd__a21oi_2
*I *2174:A2 I *D sky130_fd_sc_hd__o21ai_2
*I *1822:A1 I *D sky130_fd_sc_hd__o21bai_2
*I *2244:X O *D sky130_fd_sc_hd__clkdlybuf4s25_1
*CAP
1 *2171:B 8.43047e-05
2 *2172:B 1.14162e-05
3 *2173:A_N 0
4 *2170:B 0
5 *2175:A2 0
6 *1823:A2 6.81089e-05
7 *2174:A2 0
8 *1822:A1 0.000377356
9 *2244:X 0.000106838
10 *563:61 9.84674e-05
11 *563:54 0.000363786
12 *563:47 0.000312285
13 *563:45 0.000181058
14 *563:30 0.000182566
15 *563:12 0.000424631
16 *563:8 0.000207367
17 *1822:A1 *1822:A2 2.4269e-05
18 *2172:B *607:47 8.8266e-05
19 *563:61 *607:47 0.000198945
20 *1813:B1 *563:30 0
21 *1823:A1 *1823:A2 1.85674e-05
22 *1825:A2 *1822:A1 9.27255e-06
23 *1828:D *1823:A2 3.70488e-05
24 *2171:A_N *2171:B 4.82863e-05
25 *2171:A_N *563:54 4.82863e-05
26 *2174:A1 *563:8 1.70935e-05
27 *2174:A1 *563:30 7.44453e-05
28 *2174:A1 *563:45 0.000103974
29 *2174:B1 *1822:A1 0.000115146
30 *2175:A1 *563:54 4.99619e-05
31 *2175:B1 *1822:A1 4.85494e-05
32 *2175:B1 *563:12 0.000122337
33 *2175:B1 *563:30 6.55406e-05
34 *2175:B1 *563:45 9.9535e-05
35 *478:75 *2172:B 4.60584e-05
36 *478:75 *563:61 6.77501e-05
37 *478:77 *563:61 0.000122331
38 *478:79 *2171:B 7.40446e-05
39 *478:79 *563:54 0.000656031
40 *478:79 *563:61 7.40446e-05
41 *528:20 *1822:A1 0.000278111
42 *532:10 *563:8 0
*RES
1 *2244:X *563:8 5.235 
2 *563:8 *563:12 3.14 
3 *563:12 *1822:A1 8.8 
4 *563:12 *2174:A2 1.6 
5 *563:8 *563:30 1.635 
6 *563:30 *1823:A2 4.755 
7 *563:30 *563:45 4.145 
8 *563:45 *563:47 0.615 
9 *563:47 *2175:A2 1.6 
10 *563:47 *563:54 6.66 
11 *563:54 *2170:B 1.6 
12 *563:54 *563:61 2.865 
13 *563:61 *2173:A_N 1.6 
14 *563:61 *2172:B 2.395 
15 *563:45 *2171:B 3.085 
*END

*D_NET *564 0.00309124
*CONN
*I *2114:B1_N I *D sky130_fd_sc_hd__o21bai_2
*I *2116:B1 I *D sky130_fd_sc_hd__o21ai_4
*I *2245:X O *D sky130_fd_sc_hd__clkdlybuf4s25_1
*CAP
1 *2114:B1_N 7.59947e-05
2 *2116:B1 3.37585e-05
3 *2245:X 0.00106669
4 *564:10 0.00117645
5 *2114:B1_N *2266:A 1.83756e-05
6 *2062:A *564:10 7.68414e-06
7 *2062:B *564:10 0.000410563
8 *2063:B1 *564:10 6.58339e-05
9 *2131:B1 *2114:B1_N 9.428e-05
10 *118:10 *2114:B1_N 0.000141606
*RES
1 *2245:X *564:10 15.445 
2 *564:10 *2116:B1 2.05 
3 *564:10 *2114:B1_N 7.94 
*END

*D_NET *565 0.004883
*CONN
*I *2176:B I *D sky130_fd_sc_hd__and2_2
*I *1796:A2 I *D sky130_fd_sc_hd__o21ai_2
*I *1791:B I *D sky130_fd_sc_hd__nand2_2
*I *1794:B I *D sky130_fd_sc_hd__nand2_2
*I *1795:A1 I *D sky130_fd_sc_hd__o21a_4
*I *2100:A I *D sky130_fd_sc_hd__inv_2
*I *1792:A I *D sky130_fd_sc_hd__nor2_2
*I *2246:X O *D sky130_fd_sc_hd__clkdlybuf4s25_1
*CAP
1 *2176:B 2.45313e-05
2 *1796:A2 0
3 *1791:B 0
4 *1794:B 0
5 *1795:A1 0
6 *2100:A 9.10099e-05
7 *1792:A 0
8 *2246:X 0.000297274
9 *565:47 0.000203788
10 *565:41 0.000570611
11 *565:33 0.000699721
12 *565:23 0.000362009
13 *565:21 0.000292394
14 *565:10 0.000445015
15 *565:10 *2288:A 0
16 S[6] *565:10 4.05674e-06
17 *1791:A *565:41 0.000145377
18 *1794:A *565:41 1.17036e-05
19 *1794:A *565:47 5.53249e-06
20 *1795:A2 *2100:A 1.62913e-05
21 *1795:A2 *565:41 0.000108329
22 *1795:A2 *565:47 0.000207103
23 *1795:B1 *565:47 0
24 *1796:A1 *565:23 0.000162311
25 *1796:B1 *565:33 0
26 *1797:A2 *565:41 7.23533e-05
27 *1799:A_N *565:33 3.93101e-05
28 *1799:B *565:41 0.000156765
29 *1799:C *565:41 8.09021e-06
30 *1800:A2 *565:23 4.35432e-05
31 *1810:A *565:21 0.000173533
32 *1811:A *565:33 1.14169e-05
33 *1811:A *565:41 2.95083e-05
34 *2074:A *565:10 9.50342e-06
35 *2074:A *565:21 0.000187064
36 *2075:A1_N *565:33 0.000134821
37 *2075:A2_N *565:33 5.34747e-05
38 *2076:B *565:21 7.17811e-05
39 *2076:B *565:33 0.000119631
40 *180:12 *565:21 4.11281e-05
41 *183:10 *565:47 0
42 *186:12 *565:21 0
43 *461:35 *2176:B 3.57349e-05
44 *461:35 *565:23 4.82863e-05
45 *529:38 *565:33 0
*RES
1 *2246:X *565:10 7.41 
2 *565:10 *1792:A 3.6 
3 *565:10 *565:21 6.185 
4 *565:21 *565:23 2.52 
5 *565:23 *565:33 9.37 
6 *565:33 *565:41 8.93 
7 *565:41 *565:47 4.595 
8 *565:47 *2100:A 3.1 
9 *565:47 *1795:A1 1.6 
10 *565:41 *1794:B 3.6 
11 *565:33 *1791:B 1.6 
12 *565:23 *1796:A2 1.6 
13 *565:21 *2176:B 2.05 
*END

*D_NET *566 0.0050689
*CONN
*I *1803:B I *D sky130_fd_sc_hd__and2_2
*I *1802:B I *D sky130_fd_sc_hd__nand2b_4
*I *1801:A_N I *D sky130_fd_sc_hd__nand2b_4
*I *1804:B I *D sky130_fd_sc_hd__nand2_2
*I *1806:A2 I *D sky130_fd_sc_hd__o21a_4
*I *1807:A2 I *D sky130_fd_sc_hd__o21ai_2
*I *2247:X O *D sky130_fd_sc_hd__clkdlybuf4s25_1
*CAP
1 *1803:B 8.71201e-05
2 *1802:B 2.08101e-05
3 *1801:A_N 0.000129209
4 *1804:B 0
5 *1806:A2 0.000130402
6 *1807:A2 0.000108555
7 *2247:X 6.63038e-05
8 *566:51 0.000378035
9 *566:42 0.000387254
10 *566:27 0.00070983
11 *566:12 0.000638485
12 *566:8 0.000263164
13 *1798:A1 *1807:A2 0
14 *1798:A1 *566:12 0
15 *1801:B *566:42 0.000163992
16 *1803:A *1803:B 0.000196669
17 *1803:A *566:8 0.000111285
18 *1804:A *566:51 0.000121443
19 *1805:A_N *566:42 5.23362e-05
20 *1805:B *566:42 0
21 *1805:C *1801:A_N 0.000141606
22 *1806:A1 *1806:A2 1.83756e-05
23 *1806:B1 *1806:A2 5.83121e-06
24 *1806:B1 *566:27 1.91597e-05
25 *1807:B1 *566:27 4.99619e-05
26 *1847:B *566:12 9.50342e-06
27 *1861:A2 *566:8 1.47256e-05
28 *193:14 *1803:B 0.000126336
29 *193:14 *566:8 0.000237243
30 *195:10 *1807:A2 6.69608e-06
31 *457:28 *1807:A2 4.89295e-05
32 *457:28 *566:27 9.47972e-06
33 *457:36 *1806:A2 2.8185e-05
34 *457:47 *566:42 0.000100308
35 *508:14 *566:42 0.000198281
36 *530:10 *1806:A2 0
37 *530:10 *566:27 0.000489388
*RES
1 *2247:X *566:8 4.135 
2 *566:8 *566:12 3.38 
3 *566:12 *1807:A2 5.355 
4 *566:12 *566:27 7.625 
5 *566:27 *1806:A2 3.355 
6 *566:27 *566:42 8.695 
7 *566:42 *1804:B 1.6 
8 *566:42 *566:51 3.57 
9 *566:51 *1801:A_N 8.03 
10 *566:51 *1802:B 1.96 
11 *566:8 *1803:B 4.12 
*END

*D_NET *567 0.00310137
*CONN
*I *1814:A2 I *D sky130_fd_sc_hd__a21o_2
*I *2168:B I *D sky130_fd_sc_hd__and2_2
*I *2167:B I *D sky130_fd_sc_hd__nand2b_2
*I *2166:A_N I *D sky130_fd_sc_hd__nand2b_2
*I *1813:A2 I *D sky130_fd_sc_hd__o21ai_2
*I *2248:X O *D sky130_fd_sc_hd__clkdlybuf4s25_1
*CAP
1 *1814:A2 0
2 *2168:B 0.000113709
3 *2167:B 0.000191058
4 *2166:A_N 0
5 *1813:A2 0.000171142
6 *2248:X 0.00034955
7 *567:52 0.000124491
8 *567:12 0.000171142
9 *567:10 0.000529826
10 *2167:B *2285:A 5.30065e-05
11 *2167:B *2289:A 0.00013903
12 *567:10 *2285:A 0.000162332
13 *567:10 *2289:A 0.000166943
14 S[3] *567:10 6.55328e-05
15 S[7] *567:10 6.27438e-05
16 *1813:A1 *1813:A2 3.09088e-05
17 *1813:B1 *1813:A2 5.3444e-05
18 *1814:B1 *2168:B 8.26273e-05
19 *1814:B1 *567:52 4.82919e-05
20 *1828:C *2168:B 0.000162311
21 *2168:A *2168:B 0.000234106
22 *2168:A *567:52 2.0514e-05
23 *2208:A *567:10 0
24 *201:10 *2167:B 9.37731e-05
25 *461:31 *2167:B 6.00111e-05
26 *461:35 *2167:B 1.48813e-05
27 *461:35 *2168:B 0
*RES
1 *2248:X *567:10 9.885 
2 *567:10 *567:12 2 
3 *567:12 *1813:A2 4.495 
4 *567:12 *2166:A_N 1.6 
5 *567:10 *2167:B 7.545 
6 *2167:B *567:52 2.05 
7 *567:52 *2168:B 5.635 
8 *567:52 *1814:A2 1.6 
*END

*D_NET *568 0.00396461
*CONN
*I *2159:A2 I *D sky130_fd_sc_hd__a21oi_2
*I *2160:A2 I *D sky130_fd_sc_hd__a21o_4
*I *2156:B I *D sky130_fd_sc_hd__and2_4
*I *2157:B I *D sky130_fd_sc_hd__nor2_2
*I *2158:A2 I *D sky130_fd_sc_hd__o21ai_4
*I *2249:X O *D sky130_fd_sc_hd__clkdlybuf4s25_1
*CAP
1 *2159:A2 0.000209052
2 *2160:A2 0.000311846
3 *2156:B 0
4 *2157:B 0
5 *2158:A2 2.08101e-05
6 *2249:X 0.000617117
7 *568:30 0.000459393
8 *568:17 0.000344752
9 *568:6 0.000626081
10 *2159:A2 *2291:A 5.50989e-05
11 *568:6 *2291:A 0.0001249
12 *2084:A *2159:A2 6.73665e-05
13 *2084:B *2159:A2 9.49308e-05
14 *2137:A *2160:A2 0.000150653
15 *2157:A *568:17 7.45031e-05
16 *2157:A *568:30 4.99619e-05
17 *2160:A1 *2160:A2 0.000160635
18 *2162:A1 *2160:A2 0.000133075
19 *2249:A *568:6 4.82919e-05
20 *158:23 *2160:A2 8.53177e-05
21 *159:10 *2160:A2 3.09164e-05
22 *159:10 *568:30 0.000162332
23 *470:28 *2160:A2 0
24 *470:44 *568:30 0.000137578
*RES
1 *2249:X *568:6 7.57 
2 *568:6 *2158:A2 1.96 
3 *568:6 *568:17 3.225 
4 *568:17 *2157:B 1.6 
5 *568:17 *568:30 5.3 
6 *568:30 *2156:B 3.6 
7 *568:30 *2160:A2 10.395 
8 *2249:X *2159:A2 11.76 
*END

*D_NET *569 0.00245025
*CONN
*I *2152:B I *D sky130_fd_sc_hd__and2_2
*I *2151:B I *D sky130_fd_sc_hd__nand2_2
*I *2150:A_N I *D sky130_fd_sc_hd__nand2b_2
*I *2153:A2 I *D sky130_fd_sc_hd__o21ai_2
*I *2250:X O *D sky130_fd_sc_hd__clkdlybuf4s25_1
*CAP
1 *2152:B 7.46502e-05
2 *2151:B 0
3 *2150:A_N 9.97547e-05
4 *2153:A2 0
5 *2250:X 0.00042833
6 *569:25 0.00025728
7 *569:19 0.000299854
8 *569:10 0.000496008
9 *2150:A_N *2151:A 1.90686e-05
10 *2150:A_N *2172:A 0
11 *2150:A_N *607:41 2.76781e-05
12 *2150:A_N *607:43 2.75229e-05
13 *569:19 *2263:A 7.26629e-05
14 *569:25 *2263:A 0.000203769
15 *2152:A *2152:B 6.46363e-05
16 *2154:A_N *569:19 0
17 *2154:C *2150:A_N 0.00012657
18 *2154:C *569:25 0
19 *2215:A *569:10 0
20 *2215:A *569:19 0
21 *2250:A *569:10 1.83847e-05
22 *154:10 *2152:B 8.23457e-05
23 *155:12 *569:19 4.91189e-05
24 *156:12 *569:25 0
25 *478:75 *2150:A_N 0.000102616
*RES
1 *2250:X *569:10 8.79 
2 *569:10 *2153:A2 3.6 
3 *569:10 *569:19 1.89 
4 *569:19 *569:25 4.85 
5 *569:25 *2150:A_N 4.6 
6 *569:25 *2151:B 1.6 
7 *569:19 *2152:B 5.085 
*END

*D_NET *570 0.0241163
*CONN
*I *2188:A I *D sky130_fd_sc_hd__buf_2
*I *2183:A I *D sky130_fd_sc_hd__dlymetal6s2s_1
*I *2181:A I *D sky130_fd_sc_hd__buf_8
*I *2186:A I *D sky130_fd_sc_hd__buf_6
*I *2251:X O *D sky130_fd_sc_hd__buf_8
*CAP
1 *2188:A 0.00187179
2 *2183:A 2.70669e-05
3 *2181:A 0
4 *2186:A 0.00473393
5 *2251:X 5.80215e-05
6 *570:52 0.00249991
7 *570:18 0.0059027
8 *570:6 0.00182784
9 *2188:A *2276:A 0
10 *570:18 *2272:A 0
11 *570:18 *2274:A 1.73877e-05
12 S[17] *570:18 0
13 S[18] *570:18 0.000125182
14 *1843:A *2186:A 0.000185965
15 *1843:A *570:18 1.94805e-05
16 *1843:B *2186:A 0.000146595
17 *1886:A *570:18 2.54436e-05
18 *1888:A_N *570:18 4.70343e-05
19 *1889:A2 *570:18 4.18603e-06
20 *1899:B *570:18 0
21 *1900:A_N *570:18 2.53191e-06
22 *1900:B *570:18 9.9535e-05
23 *1900:C *570:18 0.00015642
24 *1910:B *570:18 0
25 *1911:B1_N *570:18 0
26 *1914:B *570:18 0
27 *1914:C *570:18 0
28 *1922:A2 *570:18 0.000156842
29 *1922:B1 *570:18 5.16348e-05
30 *1925:A *2188:A 4.11678e-06
31 *1928:B1 *2188:A 0.00015695
32 *1931:B1 *2183:A 0.000160211
33 *1931:B1 *2188:A 0.00018285
34 *1931:B1 *570:52 7.73875e-05
35 *1931:C1 *570:52 4.82863e-05
36 *1931:D1 *570:52 4.82919e-05
37 *1933:A *570:52 3.00381e-05
38 *1952:A *2188:A 0.000116393
39 *1971:B *2188:A 0.000352156
40 *1972:A_N *2188:A 0.000502814
41 *1973:A2 *2188:A 5.34525e-05
42 *2099:A *2186:A 2.97206e-06
43 *2103:A *2186:A 0.000140912
44 *2103:B *570:18 0
45 *2182:A *570:52 0.000129291
46 *2184:A *2186:A 7.9642e-06
47 *2190:A *2186:A 0
48 *2192:A *570:18 0.000479711
49 *2228:A *2186:A 4.92063e-05
50 *2229:A *570:18 3.63701e-06
51 *2232:A *2188:A 6.97118e-05
52 *2233:A *2188:A 0.000162325
53 *230:10 *2186:A 0.00017151
54 *271:18 *570:18 7.45881e-05
55 *274:8 *570:18 0
56 *275:22 *570:18 4.40899e-05
57 *276:10 *570:18 8.97642e-05
58 *295:8 *570:18 0.000387719
59 *295:19 *570:18 0.000154488
60 *304:42 *570:18 0.000517467
61 *305:10 *570:18 0.000137578
62 *309:8 *2188:A 6.61497e-05
63 *311:10 *2188:A 1.33293e-05
64 *333:10 *2188:A 0.000201503
65 *453:39 *2186:A 7.60474e-05
66 *453:102 *2186:A 0.000131502
67 *455:8 *570:18 0
68 *455:19 *570:18 0
69 *460:10 *2186:A 0
70 *460:10 *570:18 0
71 *460:18 *2186:A 0
72 *463:71 *570:18 0
73 *464:6 *2183:A 0.000122699
74 *464:6 *570:52 9.10513e-05
75 *465:10 *570:18 6.18754e-05
76 *465:12 *570:18 0.000112971
77 *466:22 *2188:A 3.81908e-06
78 *466:51 *2188:A 0.000467068
79 *466:64 *2188:A 0.00026617
80 *473:10 *2188:A 8.07785e-05
81 *473:12 *2188:A 6.10014e-05
82 *489:12 *570:18 0
83 *512:16 *2188:A 7.67415e-06
84 *551:6 *2188:A 3.73239e-05
*RES
1 *2251:X *570:6 2.395 
2 *570:6 *570:18 31.865 
3 *570:18 *2186:A 22.8921 
4 *570:18 *2181:A 3.6 
5 *570:6 *570:52 9.555 
6 *570:52 *2183:A 3.085 
7 *570:52 *2188:A 36.695 
*END

*D_NET *571 0.00160373
*CONN
*I *2260:A I *D sky130_fd_sc_hd__clkdlybuf4s25_1
*I *2064:X O *D sky130_fd_sc_hd__xor2_2
*CAP
1 *2260:A 0.000502106
2 *2064:X 0.000502106
3 S[0] *2260:A 0.000254439
4 *1805:C *2260:A 0.000161344
5 *2066:B *2260:A 0.000183738
6 *2243:A *2260:A 0
*RES
1 *2064:X *2260:A 17.49 
*END

*D_NET *572 0.00172116
*CONN
*I *2261:A I *D sky130_fd_sc_hd__clkbuf_2
*I *2086:X O *D sky130_fd_sc_hd__xor2_2
*CAP
1 *2261:A 0.000363992
2 *2086:X 0.000363992
3 *2261:A *2290:A 0.00021164
4 S[10] *2261:A 0.000369427
5 *2087:B2 *2261:A 0.000200615
6 *2136:B *2261:A 4.82863e-05
7 *536:6 *2261:A 0.000163204
8 *536:23 *2261:A 0
*RES
1 *2086:X *2261:A 17.385 
*END

*D_NET *573 0.000594299
*CONN
*I *2262:A I *D sky130_fd_sc_hd__buf_4
*I *2088:X O *D sky130_fd_sc_hd__xor2_2
*CAP
1 *2262:A 0.00029715
2 *2088:X 0.00029715
*RES
1 *2088:X *2262:A 7.115 
*END

*D_NET *574 0.0031778
*CONN
*I *2263:A I *D sky130_fd_sc_hd__dlymetal6s4s_1
*I *2090:X O *D sky130_fd_sc_hd__xor2_2
*CAP
1 *2263:A 0.00110306
2 *2090:X 0.00110306
3 *2263:A *2286:A 0
4 *2263:A *607:41 0.000487461
5 *1824:B *2263:A 0
6 *1830:A_N *2263:A 0.00020779
7 *156:12 *2263:A 0
8 *258:12 *2263:A 0
9 *569:19 *2263:A 7.26629e-05
10 *569:25 *2263:A 0.000203769
*RES
1 *2090:X *2263:A 29.49 
*END

*D_NET *575 0.00731413
*CONN
*I *2110:B1_N I *D sky130_fd_sc_hd__a21bo_2
*I *2111:A_N I *D sky130_fd_sc_hd__nand3b_2
*I *2252:X O *D sky130_fd_sc_hd__clkdlybuf4s25_1
*CAP
1 *2110:B1_N 2.17438e-05
2 *2111:A_N 0.000126542
3 *2252:X 0.00264299
4 *575:10 0.00279128
5 *575:10 *1879:C 0.000119246
6 *575:10 *597:6 0.000754944
7 *1878:A *575:10 0.000160831
8 *1879:B *575:10 1.05984e-05
9 *2108:B *2110:B1_N 2.68721e-05
10 *2108:B *575:10 9.24127e-05
11 *2109:B *2111:A_N 0
12 *2111:B *2111:A_N 1.47256e-05
13 *2111:C *2111:A_N 8.49205e-05
14 *2189:A *2110:B1_N 2.03578e-05
15 *2189:A *2111:A_N 0
16 *2189:A *575:10 0.000104309
17 *2254:A *575:10 4.99619e-05
18 *110:12 *2111:A_N 4.18603e-06
19 *111:10 *2111:A_N 1.52184e-05
20 *112:6 *2111:A_N 0.00027299
*RES
1 *2252:X *575:10 36.195 
2 *575:10 *2111:A_N 10.735 
3 *575:10 *2110:B1_N 4.32375 
*END

*D_NET *576 6.21128e-05
*CONN
*I *2264:A I *D sky130_fd_sc_hd__dlygate4sd1_1
*I *2092:Y O *D sky130_fd_sc_hd__xnor2_2
*CAP
1 *2264:A 2.05022e-05
2 *2092:Y 2.05022e-05
3 *561:10 *2264:A 2.11084e-05
*RES
1 *2092:Y *2264:A 3.65 
*END

*D_NET *577 0.000603188
*CONN
*I *2265:A I *D sky130_fd_sc_hd__buf_6
*I *2094:Y O *D sky130_fd_sc_hd__xnor2_2
*CAP
1 *2265:A 0.000299535
2 *2094:Y 0.000299535
3 *430:12 *2265:A 0
4 *539:12 *2265:A 4.11678e-06
5 *561:10 *2265:A 0
*RES
1 *2094:Y *2265:A 10.755 
*END

*D_NET *578 0.00481361
*CONN
*I *2266:A I *D sky130_fd_sc_hd__clkbuf_4
*I *2096:X O *D sky130_fd_sc_hd__xor2_2
*CAP
1 *2266:A 0.00144951
2 *2096:X 0.00144951
3 *2266:A *2292:A 0.000538532
4 *2266:A *607:106 2.66586e-05
5 carryOut *2266:A 6.55429e-05
6 *2054:B *2266:A 0.000201503
7 *2056:A *2266:A 2.49909e-05
8 *2056:B *2266:A 5.61852e-05
9 *2113:A *2266:A 2.30292e-05
10 *2114:B1_N *2266:A 1.83756e-05
11 *2115:B1 *2266:A 0.000160635
12 *2221:A *2266:A 4.92063e-05
13 *116:6 *2266:A 7.57202e-05
14 *427:16 *2266:A 0.00038554
15 *430:12 *2266:A 9.98804e-05
16 *526:10 *2266:A 0.000188785
*RES
1 *2096:X *2266:A 31.71 
*END

*D_NET *579 0.00291023
*CONN
*I *2267:A I *D sky130_fd_sc_hd__buf_6
*I *1876:X O *D sky130_fd_sc_hd__xor2_2
*CAP
1 *2267:A 0.000982046
2 *1876:X 0.000982046
3 *1876:B *2267:A 0
4 *1951:B *2267:A 0
5 *1953:B_N *2267:A 5.21046e-05
6 *1954:A_N *2267:A 0.000110315
7 *1956:A *2267:A 7.71016e-05
8 *1956:B *2267:A 5.51245e-05
9 *2197:A *2267:A 0.000362979
10 *333:10 *2267:A 0.000151632
11 *334:10 *2267:A 0.000136883
12 *509:12 *2267:A 0
*RES
1 *1876:X *2267:A 27.45 
*END

*D_NET *580 0.00340386
*CONN
*I *2268:A I *D sky130_fd_sc_hd__buf_6
*I *1884:X O *D sky130_fd_sc_hd__xor2_2
*CAP
1 *2268:A 0.000968762
2 *1884:X 0.000968762
3 *1884:A *2268:A 5.05521e-05
4 *1885:A *2268:A 4.34279e-05
5 *1885:B *2268:A 0.000155436
6 *1899:A *2268:A 2.87826e-05
7 *1899:B *2268:A 5.84828e-05
8 *1904:B1 *2268:A 0.000157378
9 *1906:B *2268:A 7.08493e-05
10 *1914:C *2268:A 4.82863e-05
11 *1915:B *2268:A 0.000267191
12 *271:14 *2268:A 0.000104181
13 *274:26 *2268:A 0.000386221
14 *275:22 *2268:A 9.555e-05
*RES
1 *1884:X *2268:A 25.575 
*END

*D_NET *581 0.000490303
*CONN
*I *2269:A I *D sky130_fd_sc_hd__buf_6
*I *1896:X O *D sky130_fd_sc_hd__xor2_2
*CAP
1 *2269:A 0.000160074
2 *1896:X 0.000160074
3 *1888:B *2269:A 1.83756e-05
4 *1896:A *2269:A 0
5 *2103:B *2269:A 9.54469e-05
6 *274:8 *2269:A 5.63318e-05
*RES
1 *1896:X *2269:A 10.08 
*END

*D_NET *582 0.00145908
*CONN
*I *2270:A I *D sky130_fd_sc_hd__buf_6
*I *1906:Y O *D sky130_fd_sc_hd__xnor2_2
*CAP
1 *2270:A 0.000437012
2 *1906:Y 0.000437012
3 *1886:A *2270:A 0.000116563
4 *1900:A_N *2270:A 8.8266e-05
5 *1903:B *2270:A 0.000160641
6 *1906:A *2270:A 0.000105615
7 *271:14 *2270:A 2.11084e-05
8 *274:19 *2270:A 7.23533e-05
9 *285:26 *2270:A 2.05056e-05
*RES
1 *1906:Y *2270:A 15.675 
*END

*D_NET *583 0.000210076
*CONN
*I *2271:A I *D sky130_fd_sc_hd__buf_6
*I *2066:Y O *D sky130_fd_sc_hd__xnor2_2
*CAP
1 *2271:A 1.0943e-05
2 *2066:Y 1.0943e-05
3 S[1] *2271:A 8.8266e-05
4 *2066:A *2271:A 8.8266e-05
5 *2067:A1 *2271:A 1.16578e-05
*RES
1 *2066:Y *2271:A 3.995 
*END

*D_NET *584 0.00112754
*CONN
*I *2272:A I *D sky130_fd_sc_hd__buf_8
*I *1923:X O *D sky130_fd_sc_hd__and2_4
*CAP
1 *2272:A 0.000402542
2 *1923:X 0.000402542
3 *1922:B1 *2272:A 1.52945e-05
4 *1923:B *2272:A 0
5 *2194:A *2272:A 0
6 *2229:A *2272:A 0.00016163
7 *304:42 *2272:A 8.26527e-05
8 *305:10 *2272:A 0
9 *305:25 *2272:A 0
10 *487:10 *2272:A 6.28765e-05
11 *570:18 *2272:A 0
*RES
1 *1923:X *2272:A 15.21 
*END

*D_NET *585 0.00105133
*CONN
*I *2273:A I *D sky130_fd_sc_hd__buf_8
*I *1933:Y O *D sky130_fd_sc_hd__nand2_4
*CAP
1 *2273:A 0.000294335
2 *1933:Y 0.000294335
3 S[21] *2273:A 4.99619e-05
4 *1933:A *2273:A 4.82863e-05
5 *1933:B *2273:A 8.82473e-05
6 *463:10 *2273:A 0.000276159
*RES
1 *1933:Y *2273:A 9.635 
*END

*D_NET *586 0.0039951
*CONN
*I *2104:A I *D sky130_fd_sc_hd__nand2_4
*I *2106:A I *D sky130_fd_sc_hd__or2_4
*I *1893:C I *D sky130_fd_sc_hd__nand3_2
*I *2253:X O *D sky130_fd_sc_hd__clkdlybuf4s25_1
*CAP
1 *2104:A 7.43469e-05
2 *2106:A 0
3 *1893:C 0
4 *2253:X 0.000844644
5 *586:27 0.0003091
6 *586:16 0.0010794
7 *1881:A1 *586:16 2.30292e-05
8 *1887:A *2104:A 0.000112971
9 *1887:A *586:16 7.00889e-06
10 *1887:A *586:27 8.71001e-05
11 *1887:B *586:16 2.7441e-05
12 *1888:B *586:16 0.000125865
13 *1895:A2 *586:16 5.4003e-05
14 *2224:A *586:16 4.99619e-05
15 *108:12 *2104:A 7.81954e-05
16 *266:29 *586:16 0.000154298
17 *268:6 *586:16 0.000574059
18 *268:19 *586:16 0.000122797
19 *269:12 *2104:A 0
20 *269:12 *586:16 0.000270888
21 *269:12 *586:27 0
*RES
1 *2253:X *586:16 21.605 
2 *586:16 *1893:C 1.6 
3 *586:16 *586:27 5.72 
4 *586:27 *2106:A 3.6 
5 *586:27 *2104:A 6 
*END

*D_NET *587 0.00164525
*CONN
*I *2274:A I *D sky130_fd_sc_hd__buf_6
*I *1947:Y O *D sky130_fd_sc_hd__nand2_2
*CAP
1 *2274:A 0.00036524
2 *1947:Y 0.00036524
3 *286:12 *2274:A 0.000804313
4 *465:10 *2274:A 9.30717e-05
5 *570:18 *2274:A 1.73877e-05
*RES
1 *1947:Y *2274:A 16.185 
*END

*D_NET *588 0.00149024
*CONN
*I *2275:A I *D sky130_fd_sc_hd__buf_6
*I *1960:Y O *D sky130_fd_sc_hd__nand2_2
*CAP
1 *2275:A 0.000524467
2 *1960:Y 0.000524467
3 *1925:A *2275:A 0
4 *1939:A *2275:A 0
5 *1942:B1_N *2275:A 0
6 *1950:A3 *2275:A 0.000187071
7 *1958:A1_N *2275:A 3.00381e-05
8 *324:16 *2275:A 0.000154488
9 *325:14 *2275:A 6.97103e-05
10 *549:8 *2275:A 0
11 *549:12 *2275:A 0
12 *549:20 *2275:A 0
*RES
1 *1960:Y *2275:A 17.445 
*END

*D_NET *589 0.00254329
*CONN
*I *2276:A I *D sky130_fd_sc_hd__buf_6
*I *1977:X O *D sky130_fd_sc_hd__and2b_2
*CAP
1 *2276:A 0.00050318
2 *1977:X 0.00050318
3 *1971:B *2276:A 7.47215e-05
4 *1976:A1 *2276:A 7.63204e-05
5 *1976:B1 *2276:A 7.00889e-06
6 *1977:B *2276:A 0.000120655
7 *1995:C *2276:A 1.94723e-05
8 *2109:B *2276:A 0.000265376
9 *2188:A *2276:A 0
10 *350:10 *2276:A 0.000159964
11 *352:10 *2276:A 5.98004e-06
12 *353:10 *2276:A 0.000523946
13 *353:16 *2276:A 0.000140912
14 *473:10 *2276:A 8.52172e-05
15 *473:12 *2276:A 5.73518e-05
*RES
1 *1977:X *2276:A 20.61 
*END

*D_NET *590 0.00116676
*CONN
*I *2277:A I *D sky130_fd_sc_hd__buf_6
*I *1988:Y O *D sky130_fd_sc_hd__nor2_4
*CAP
1 *2277:A 0.000480827
2 *1988:Y 0.000480827
3 S[16] *2277:A 0
4 S[25] *2277:A 4.82919e-05
5 *1954:A_N *2277:A 0
6 *1973:A1 *2277:A 5.21714e-05
7 *1973:A2 *2277:A 0
8 *1987:A1 *2277:A 0
9 *2197:A *2277:A 0
10 *2198:A *2277:A 4.82919e-05
11 *2233:A *2277:A 0
12 *348:10 *2277:A 3.39151e-05
13 *348:19 *2277:A 2.24336e-05
14 *351:8 *2277:A 0
15 *512:10 *2277:A 0
16 *512:16 *2277:A 0
*RES
1 *1988:Y *2277:A 15.66 
*END

*D_NET *591 0.00115599
*CONN
*I *2278:A I *D sky130_fd_sc_hd__buf_6
*I *2001:Y O *D sky130_fd_sc_hd__nand2_2
*CAP
1 *2278:A 0.00042896
2 *2001:Y 0.00042896
3 S[26] *2278:A 8.8266e-05
4 *1995:A *2278:A 0.000103185
5 *2001:A *2278:A 5.33085e-05
6 *2001:B *2278:A 5.33085e-05
7 *373:10 *2278:A 0
8 *552:12 *2278:A 0
*RES
1 *2001:Y *2278:A 15.165 
*END

*D_NET *592 0.00204842
*CONN
*I *2279:A I *D sky130_fd_sc_hd__buf_6
*I *2013:Y O *D sky130_fd_sc_hd__nand2_2
*CAP
1 *2279:A 0.000696493
2 *2013:Y 0.000696493
3 *1980:B1_N *2279:A 5.7344e-05
4 *2235:A *2279:A 0.000164874
5 *2236:A *2279:A 0
6 *359:10 *2279:A 0.00022921
7 *362:8 *2279:A 0
8 *362:12 *2279:A 0
9 *374:12 *2279:A 0
10 *380:10 *2279:A 0
11 *381:10 *2279:A 3.25831e-05
12 *513:8 *2279:A 4.84393e-05
13 *513:10 *2279:A 0.000122985
*RES
1 *2013:Y *2279:A 20.88 
*END

*D_NET *593 0.000861801
*CONN
*I *2280:A I *D sky130_fd_sc_hd__clkbuf_2
*I *2029:X O *D sky130_fd_sc_hd__and2_4
*CAP
1 *2280:A 0.0004309
2 *2029:X 0.0004309
*RES
1 *2029:X *2280:A 8.825 
*END

*D_NET *594 0.000526132
*CONN
*I *2281:A I *D sky130_fd_sc_hd__clkbuf_4
*I *2038:Y O *D sky130_fd_sc_hd__nand2_2
*CAP
1 *2281:A 0.000134326
2 *2038:Y 0.000134326
3 S[28] *2281:A 0
4 *2037:B2 *2281:A 7.89689e-05
5 *2038:A *2281:A 0.000178512
*RES
1 *2038:Y *2281:A 10.875 
*END

*D_NET *595 0.00241334
*CONN
*I *2282:A I *D sky130_fd_sc_hd__buf_6
*I *2068:X O *D sky130_fd_sc_hd__xor2_2
*CAP
1 *2282:A 0.000728333
2 *2068:X 0.000728333
3 *1847:B *2282:A 0.000228714
4 *2065:A0 *2282:A 0.000119756
5 *2067:A2 *2282:A 0.000132462
6 *2255:A *2282:A 0.000271303
7 *250:14 *2282:A 4.94994e-05
8 *535:49 *2282:A 2.68526e-05
9 *535:60 *2282:A 2.20014e-05
10 *562:10 *2282:A 0.000106086
*RES
1 *2068:X *2282:A 21.18 
*END

*D_NET *596 0.00187043
*CONN
*I *2283:A I *D sky130_fd_sc_hd__buf_6
*I *2052:Y O *D sky130_fd_sc_hd__o21ai_4
*CAP
1 *2283:A 0.00046739
2 *2052:Y 0.00046739
3 S[30] *2283:A 0
4 *2039:B *2283:A 8.57406e-05
5 *2040:A *2283:A 1.19928e-05
6 *2059:C1 *2283:A 0
7 *2202:A *2283:A 8.75474e-05
8 *2237:A *2283:A 0
9 *416:8 *2283:A 0.000237249
10 *423:6 *2283:A 0.000162311
11 *472:37 *2283:A 8.18041e-05
12 *556:14 *2283:A 2.75229e-05
13 *560:8 *2283:A 0.000241483
*RES
1 *2052:Y *2283:A 16.89 
*END

*D_NET *597 0.00282891
*CONN
*I *1879:C I *D sky130_fd_sc_hd__nand3_2
*I *1880:B1 I *D sky130_fd_sc_hd__a21oi_2
*I *2254:X O *D sky130_fd_sc_hd__clkdlybuf4s25_1
*CAP
1 *1879:C 6.5303e-05
2 *1880:B1 0.000237329
3 *2254:X 0.000216706
4 *597:6 0.000519339
5 *1842:A *1879:C 8.73389e-06
6 *1877:A *597:6 4.82919e-05
7 *1878:A *1879:C 0
8 *1879:A *597:6 4.89295e-05
9 *1879:B *1879:C 3.56417e-05
10 *1881:A2 *597:6 0.000233004
11 *1881:B1 *1880:B1 4.89295e-05
12 *2098:A *1880:B1 2.05661e-05
13 *266:14 *1880:B1 5.39961e-05
14 *458:22 *1880:B1 0
15 *459:14 *1879:C 8.73389e-06
16 *459:14 *597:6 4.07475e-05
17 *459:18 *1880:B1 0.000282024
18 *459:39 *1880:B1 8.64421e-05
19 *575:10 *1879:C 0.000119246
20 *575:10 *597:6 0.000754944
*RES
1 *2254:X *597:6 8.605 
2 *597:6 *1880:B1 10.835 
3 *597:6 *1879:C 3.1 
*END

*D_NET *598 0.000947549
*CONN
*I *2284:A I *D sky130_fd_sc_hd__buf_6
*I *2063:Y O *D sky130_fd_sc_hd__a22oi_4
*CAP
1 *2284:A 0.000179852
2 *2063:Y 0.000179852
3 *2062:A *2284:A 6.35048e-05
4 *2062:B *2284:A 2.75145e-05
5 *2063:B1 *2284:A 1.85674e-05
6 *2063:B2 *2284:A 0
7 *2097:A1 *2284:A 0.000163204
8 *2097:A2 *2284:A 5.2089e-05
9 *2097:B1 *2284:A 0.000163199
10 *427:16 *2284:A 5.14739e-05
11 *429:8 *2284:A 4.82919e-05
*RES
1 *2063:Y *2284:A 12.18 
*END

*D_NET *599 0.00262256
*CONN
*I *2285:A I *D sky130_fd_sc_hd__buf_6
*I *2070:Y O *D sky130_fd_sc_hd__xnor2_2
*CAP
1 *2285:A 0.0005899
2 *2070:Y 0.0005899
3 *2285:A *2289:A 6.7449e-05
4 *2070:A *2285:A 4.80285e-05
5 *2077:A1_N *2285:A 0
6 *2078:B *2285:A 0.000118513
7 *2167:B *2285:A 5.30065e-05
8 *2169:C *2285:A 0.000162419
9 *199:12 *2285:A 0
10 *201:10 *2285:A 0.000158297
11 *201:27 *2285:A 0.000137578
12 *461:25 *2285:A 0.000423276
13 *461:27 *2285:A 2.7881e-05
14 *461:56 *2285:A 1.44177e-05
15 *461:58 *2285:A 8.08153e-06
16 *562:10 *2285:A 6.14776e-05
17 *567:10 *2285:A 0.000162332
*RES
1 *2070:Y *2285:A 22.41 
*END

*D_NET *600 0.0017629
*CONN
*I *2286:A I *D sky130_fd_sc_hd__buf_6
*I *2072:Y O *D sky130_fd_sc_hd__xnor2_2
*CAP
1 *2286:A 0.000521198
2 *2072:Y 0.000521198
3 *2286:A *1822:A2 0.000120001
4 *2286:A *2316:A 7.89767e-05
5 S[12] *2286:A 7.63047e-05
6 *1824:B *2286:A 8.08439e-05
7 *1824:C *2286:A 0.000143266
8 *1827:A *2286:A 4.82919e-05
9 *1827:B *2286:A 8.49205e-05
10 *1830:C *2286:A 7.44453e-05
11 *1830:D *2286:A 1.34503e-05
12 *2263:A *2286:A 0
13 *213:10 *2286:A 0
14 *528:14 *2286:A 0
*RES
1 *2072:Y *2286:A 18.3 
*END

*D_NET *601 0.00026916
*CONN
*I *2287:A I *D sky130_fd_sc_hd__buf_6
*I *2074:X O *D sky130_fd_sc_hd__xor2_2
*CAP
1 *2287:A 9.47717e-05
2 *2074:X 9.47717e-05
3 *2287:A *2288:A 0
4 *2287:A *2289:A 7.96171e-05
*RES
1 *2074:X *2287:A 9.345 
*END

*D_NET *602 0.0017009
*CONN
*I *2288:A I *D sky130_fd_sc_hd__buf_6
*I *2076:Y O *D sky130_fd_sc_hd__xnor2_2
*CAP
1 *2288:A 0.00058688
2 *2076:Y 0.00058688
3 *2288:A *2289:A 0
4 S[6] *2288:A 8.65905e-05
5 *1800:A1 *2288:A 0
6 *1800:A2 *2288:A 0
7 *1810:A *2288:A 0
8 *2074:A *2288:A 0
9 *2074:B *2288:A 6.5525e-05
10 *2076:A *2288:A 0
11 *2076:B *2288:A 0
12 *2077:B1 *2288:A 5.55616e-05
13 *2287:A *2288:A 0
14 *199:12 *2288:A 0.00011852
15 *440:12 *2288:A 0.000200945
16 *565:10 *2288:A 0
*RES
1 *2076:Y *2288:A 18.99 
*END

*D_NET *603 0.00165049
*CONN
*I *2289:A I *D sky130_fd_sc_hd__buf_6
*I *2078:X O *D sky130_fd_sc_hd__xor2_2
*CAP
1 *2289:A 0.000491035
2 *2078:X 0.000491035
3 S[3] *2289:A 0
4 *2074:B *2289:A 0
5 *2077:A1_N *2289:A 0.000105068
6 *2077:B1 *2289:A 0
7 *2167:B *2289:A 0.00013903
8 *2285:A *2289:A 6.7449e-05
9 *2287:A *2289:A 7.96171e-05
10 *2288:A *2289:A 0
11 *201:10 *2289:A 3.76596e-05
12 *201:27 *2289:A 7.26551e-05
13 *440:12 *2289:A 0
14 *567:10 *2289:A 0.000166943
*RES
1 *2078:X *2289:A 17.955 
*END

*D_NET *604 0.00185909
*CONN
*I *2290:A I *D sky130_fd_sc_hd__buf_6
*I *2082:X O *D sky130_fd_sc_hd__or2_2
*CAP
1 *2290:A 0.000586961
2 *2082:X 0.000586961
3 *2086:A *2290:A 4.99619e-05
4 *2137:B *2290:A 2.03321e-05
5 *2140:A1 *2290:A 0.000138188
6 *2140:A2 *2290:A 0.000107415
7 *2140:B1_N *2290:A 8.65905e-05
8 *2261:A *2290:A 0.00021164
9 *142:8 *2290:A 3.54025e-05
10 *536:23 *2290:A 3.56353e-05
*RES
1 *2082:X *2290:A 18.75 
*END

*D_NET *605 0.000646725
*CONN
*I *2291:A I *D sky130_fd_sc_hd__buf_4
*I *2084:X O *D sky130_fd_sc_hd__xor2_2
*CAP
1 *2291:A 0.000186352
2 *2084:X 0.000186352
3 S[9] *2291:A 5.84694e-05
4 *2084:B *2291:A 3.25831e-05
5 *2159:A2 *2291:A 5.50989e-05
6 *2214:A *2291:A 0
7 *2249:A *2291:A 2.97004e-06
8 *160:8 *2291:A 0
9 *568:6 *2291:A 0.0001249
*RES
1 *2084:X *2291:A 11.34 
*END

*D_NET *606 0.00181003
*CONN
*I *2292:A I *D sky130_fd_sc_hd__buf_2
*I *2097:X O *D sky130_fd_sc_hd__a21o_2
*CAP
1 *2292:A 0.000496966
2 *2097:X 0.000496966
3 carryOut *2292:A 0.000133465
4 *2056:B *2292:A 9.28053e-05
5 *2234:A *2292:A 1.92979e-05
6 *2266:A *2292:A 0.000538532
7 *430:12 *2292:A 3.20032e-05
*RES
1 *2097:X *2292:A 15.555 
*END

*D_NET *607 0.0113944
*CONN
*I *2115:A1 I *D sky130_fd_sc_hd__a21o_2
*I *2114:A2 I *D sky130_fd_sc_hd__o21bai_2
*I *2112:A I *D sky130_fd_sc_hd__and2_4
*I *2113:B I *D sky130_fd_sc_hd__nor2_2
*I *2121:A I *D sky130_fd_sc_hd__nand2_2
*I *2151:A I *D sky130_fd_sc_hd__nand2_2
*I *2172:A I *D sky130_fd_sc_hd__nand2_2
*I *2316:A I *D sky130_fd_sc_hd__buf_2
*I *1822:A2 I *D sky130_fd_sc_hd__o21bai_2
*I *2315:A I *D sky130_fd_sc_hd__buf_2
*I *2189:X O *D sky130_fd_sc_hd__buf_8
*CAP
1 *2115:A1 0
2 *2114:A2 5.75155e-05
3 *2112:A 0.000159085
4 *2113:B 1.85694e-05
5 *2121:A 0
6 *2151:A 8.95845e-06
7 *2172:A 2.08101e-05
8 *2316:A 5.20061e-05
9 *1822:A2 0.000246595
10 *2315:A 0.000194871
11 *2189:X 0
12 *607:115 0.000285594
13 *607:106 0.000197344
14 *607:98 0.000423981
15 *607:47 0.000468357
16 *607:43 0.000298336
17 *607:41 0.0010936
18 *607:35 0.00147948
19 *607:33 0.00179165
20 *607:4 0.00116971
21 S[12] *1822:A2 2.65814e-06
22 *1822:A1 *1822:A2 2.4269e-05
23 *1823:A1 *1822:A2 0.000135547
24 *1823:A1 *2316:A 4.84393e-05
25 *1824:A_N *1822:A2 4.19884e-05
26 *1824:C *1822:A2 0.000140912
27 *1830:A_N *607:41 0.000115847
28 *1872:A2_N *607:33 8.65905e-05
29 *1872:B1 *607:33 7.06865e-05
30 *1872:B2 *607:33 3.86529e-05
31 *1875:B1_N *607:33 4.40446e-05
32 *2089:A *607:35 0
33 *2091:A1 *607:41 0
34 *2096:A *607:35 0
35 *2096:A *607:98 0
36 *2096:B *607:35 9.16237e-05
37 *2108:A *2315:A 0
38 *2109:B *2315:A 0
39 *2113:A *2113:B 9.53428e-06
40 *2113:A *2114:A2 3.25635e-05
41 *2113:A *607:106 2.75145e-05
42 *2113:A *607:115 6.3889e-05
43 *2115:B1 *607:98 5.05437e-05
44 *2115:B1 *607:106 3.47837e-05
45 *2123:A1 *607:35 4.21006e-05
46 *2123:A1 *607:41 7.16781e-05
47 *2123:A2 *607:41 0
48 *2127:B *607:33 4.23612e-05
49 *2131:B1 *607:98 2.66586e-05
50 *2132:A2 *607:41 0.000100536
51 *2134:B *607:33 0.000246783
52 *2150:A_N *2151:A 1.90686e-05
53 *2150:A_N *2172:A 0
54 *2150:A_N *607:41 2.76781e-05
55 *2150:A_N *607:43 2.75229e-05
56 *2165:A *607:41 0
57 *2172:B *607:47 8.8266e-05
58 *2189:A *2315:A 0
59 *2263:A *607:41 0.000487461
60 *2266:A *607:106 2.66586e-05
61 *2286:A *1822:A2 0.000120001
62 *2286:A *2316:A 7.89767e-05
63 *113:34 *607:33 2.25285e-05
64 *114:25 *2112:A 0.000158297
65 *116:6 *2114:A2 1.47347e-05
66 *124:10 *607:41 0
67 *129:6 *607:33 0.000119762
68 *129:10 *607:33 4.82863e-05
69 *133:10 *607:35 0
70 *156:12 *607:41 0
71 *156:25 *607:41 0
72 *166:8 *607:41 0
73 *213:10 *2316:A 0
74 *258:12 *607:35 0
75 *258:12 *607:41 0
76 *259:22 *607:41 0
77 *449:10 *607:35 0
78 *478:75 *607:43 5.41594e-05
79 *478:75 *607:47 3.23663e-05
80 *528:20 *1822:A2 4.82863e-05
81 *540:19 *2112:A 0.000147841
82 *540:23 *2112:A 0.00011686
83 *563:61 *607:47 0.000198945
*RES
1 *2189:X *607:4 1.6 
2 *607:4 *2315:A 8.705 
3 *607:4 *607:33 19.62 
4 *607:33 *607:35 8.775 
5 *607:35 *607:41 22.7 
6 *607:41 *607:43 1.83 
7 *607:43 *607:47 5.21 
8 *607:47 *1822:A2 9.735 
9 *607:47 *2316:A 5.235 
10 *607:43 *2172:A 1.96 
11 *607:41 *2151:A 1.96 
12 *607:35 *2121:A 3.6 
13 *607:33 *607:98 6.08 
14 *607:98 *607:106 6.265 
15 *607:106 *2113:B 1.96 
16 *607:106 *607:115 1.14 
17 *607:115 *2112:A 9.83 
18 *607:115 *2114:A2 2.755 
19 *607:98 *2115:A1 1.6 
*END
