*SPEF "ieee 1481-1999"
*DESIGN "addsub32"
*DATE "09:47:11 Tuesday September 29, 2026"
*VENDOR "The OpenROAD Project"
*PROGRAM "OpenROAD"
*VERSION "dcf36133a369abc8f3c5e5738cd4d82e4903c0e0"
*DESIGN_FLOW "NAME_SCOPE LOCAL" "PIN_CAP NONE"
*DIVIDER /
*DELIMITER :
*BUS_DELIMITER []
*T_UNIT 1 NS
*C_UNIT 1 PF
*R_UNIT 1 OHM
*L_UNIT 1 HENRY

*NAME_MAP
*1 A[0]
*2 A[10]
*3 A[11]
*4 A[12]
*5 A[13]
*6 A[14]
*7 A[15]
*8 A[16]
*9 A[17]
*10 A[18]
*11 A[19]
*12 A[1]
*13 A[20]
*14 A[21]
*15 A[22]
*16 A[23]
*17 A[24]
*18 A[25]
*19 A[26]
*20 A[27]
*21 A[28]
*22 A[29]
*23 A[2]
*24 A[30]
*25 A[31]
*26 A[3]
*27 A[4]
*28 A[5]
*29 A[6]
*30 A[7]
*31 A[8]
*32 A[9]
*33 B[0]
*34 B[10]
*35 B[11]
*36 B[12]
*37 B[13]
*38 B[14]
*39 B[15]
*40 B[16]
*41 B[17]
*42 B[18]
*43 B[19]
*44 B[1]
*45 B[20]
*46 B[21]
*47 B[22]
*48 B[23]
*49 B[24]
*50 B[25]
*51 B[26]
*52 B[27]
*53 B[28]
*54 B[29]
*55 B[2]
*56 B[30]
*57 B[31]
*58 B[3]
*59 B[4]
*60 B[5]
*61 B[6]
*62 B[7]
*63 B[8]
*64 B[9]
*65 S[0]
*66 S[10]
*67 S[11]
*68 S[12]
*69 S[13]
*70 S[14]
*71 S[15]
*72 S[16]
*73 S[17]
*74 S[18]
*75 S[19]
*76 S[1]
*77 S[20]
*78 S[21]
*79 S[22]
*80 S[23]
*81 S[24]
*82 S[25]
*83 S[26]
*84 S[27]
*85 S[28]
*86 S[29]
*87 S[2]
*88 S[30]
*89 S[31]
*90 S[3]
*91 S[4]
*92 S[5]
*93 S[6]
*94 S[7]
*95 S[8]
*96 S[9]
*99 carryOut
*100 sub
*101 _000_
*102 _001_
*103 _002_
*104 _003_
*105 _004_
*106 _005_
*107 _006_
*108 _007_
*109 _008_
*110 _009_
*111 _010_
*112 _011_
*113 _012_
*114 _013_
*115 _014_
*116 _015_
*117 _016_
*118 _017_
*119 _018_
*120 _019_
*121 _020_
*122 _021_
*123 _022_
*124 _023_
*125 _024_
*126 _025_
*127 _026_
*128 _027_
*129 _028_
*130 _029_
*131 _030_
*132 _031_
*133 _032_
*134 _033_
*135 _034_
*136 _035_
*137 _036_
*138 _037_
*139 _038_
*140 _039_
*141 _040_
*142 _041_
*143 _042_
*144 _043_
*145 _044_
*146 _045_
*147 _046_
*148 _047_
*149 _048_
*150 _049_
*151 _050_
*152 _051_
*153 _052_
*154 _053_
*155 _054_
*156 _055_
*157 _056_
*158 _057_
*159 _058_
*160 _059_
*161 _060_
*162 _061_
*163 _062_
*164 _063_
*165 _064_
*166 _065_
*167 _066_
*168 _067_
*169 _068_
*170 _069_
*171 _070_
*172 _071_
*173 _072_
*174 _073_
*175 _074_
*176 _075_
*177 _076_
*178 _077_
*179 _078_
*180 _079_
*181 _080_
*182 _081_
*183 _082_
*184 _083_
*185 _084_
*186 _085_
*187 _086_
*188 _087_
*189 _088_
*190 _089_
*191 _090_
*192 _091_
*193 _092_
*194 _093_
*195 _094_
*196 _095_
*197 _096_
*198 _097_
*199 _098_
*200 _099_
*201 _100_
*202 _101_
*203 _102_
*204 _103_
*205 _104_
*206 _105_
*207 _106_
*208 _107_
*209 _108_
*210 _109_
*211 _110_
*212 _111_
*213 _112_
*214 _113_
*215 _114_
*216 _115_
*217 _116_
*218 _117_
*219 _118_
*220 _119_
*221 _120_
*222 _121_
*223 _122_
*224 _123_
*225 _124_
*226 _125_
*227 _126_
*228 _127_
*229 _128_
*230 _129_
*231 _130_
*232 _131_
*233 _132_
*234 _133_
*235 _134_
*236 _135_
*237 _136_
*238 _137_
*239 _138_
*240 _139_
*241 _140_
*242 _141_
*243 _142_
*244 _143_
*245 _144_
*246 _145_
*247 _146_
*248 _147_
*249 _148_
*250 _149_
*251 _150_
*252 _151_
*253 _152_
*254 _153_
*255 _154_
*256 _155_
*257 _156_
*258 _157_
*259 _158_
*260 _159_
*261 _160_
*262 _161_
*263 _162_
*264 _163_
*265 _164_
*266 _165_
*267 _166_
*268 _167_
*269 _168_
*270 _169_
*271 _170_
*272 _171_
*273 _172_
*274 _173_
*275 _174_
*276 _175_
*277 _176_
*278 _177_
*279 _178_
*280 _179_
*281 _180_
*282 _181_
*283 _182_
*284 _183_
*285 _184_
*286 _185_
*287 _186_
*288 _187_
*289 _188_
*290 _189_
*291 _190_
*292 _191_
*293 _192_
*294 _193_
*295 _194_
*296 _195_
*297 _196_
*298 _197_
*299 _198_
*300 _199_
*301 _200_
*302 _201_
*303 _202_
*304 _203_
*305 _204_
*306 _205_
*307 _206_
*308 _207_
*309 _208_
*310 _209_
*311 _210_
*312 _211_
*313 _212_
*314 _213_
*315 _214_
*316 _215_
*317 _216_
*318 _217_
*319 _218_
*320 _219_
*321 _220_
*322 _221_
*323 _222_
*324 _223_
*325 _224_
*326 _225_
*327 _226_
*328 _227_
*329 _228_
*330 _229_
*331 _230_
*332 _231_
*333 _232_
*334 _233_
*335 _234_
*336 _235_
*337 _236_
*338 _237_
*339 _238_
*340 _239_
*341 _240_
*342 _241_
*343 _242_
*344 _243_
*345 _244_
*346 _245_
*347 _246_
*348 _247_
*349 _248_
*350 _249_
*351 _250_
*352 _251_
*353 _252_
*354 _253_
*355 _254_
*356 _255_
*357 _256_
*358 _257_
*359 _258_
*360 _259_
*361 _260_
*362 _261_
*363 _262_
*364 _263_
*365 _264_
*366 _265_
*367 _266_
*368 _267_
*369 _268_
*370 _269_
*371 _270_
*372 _271_
*373 _272_
*374 _273_
*375 _274_
*376 _275_
*377 _276_
*378 _277_
*379 _278_
*380 _279_
*381 _280_
*382 _281_
*383 _282_
*384 _283_
*385 _284_
*386 _285_
*387 _286_
*388 _287_
*389 _288_
*390 _289_
*391 _290_
*392 _291_
*393 _292_
*394 _293_
*395 _294_
*396 _295_
*397 _296_
*398 _297_
*399 _298_
*400 _299_
*401 _300_
*402 _301_
*403 _302_
*404 _303_
*405 _304_
*406 _305_
*407 _306_
*408 _307_
*409 _308_
*410 _309_
*411 _310_
*412 _311_
*413 _312_
*414 _313_
*415 _314_
*416 _315_
*417 _316_
*418 _317_
*419 _318_
*420 _319_
*421 _320_
*422 _321_
*423 _322_
*424 _323_
*425 _324_
*426 _325_
*427 _326_
*428 _327_
*429 _328_
*430 _329_
*431 _330_
*432 _331_
*433 _332_
*434 _333_
*435 _334_
*436 _335_
*437 _336_
*438 _337_
*439 _338_
*440 _339_
*441 _340_
*442 _341_
*443 _342_
*444 _343_
*445 _344_
*446 _345_
*447 _346_
*448 _347_
*449 _348_
*450 net1
*451 net10
*452 net100
*453 net101
*454 net102
*455 net103
*456 net104
*457 net105
*458 net106
*459 net107
*460 net108
*461 net109
*462 net11
*463 net110
*464 net111
*465 net112
*466 net113
*467 net114
*468 net115
*469 net116
*470 net117
*471 net118
*472 net119
*473 net12
*474 net120
*475 net121
*476 net122
*477 net123
*478 net124
*479 net125
*480 net126
*481 net127
*482 net128
*483 net129
*484 net13
*485 net130
*486 net131
*487 net132
*488 net133
*489 net134
*490 net135
*491 net136
*492 net137
*493 net138
*494 net139
*495 net14
*496 net140
*497 net141
*498 net142
*499 net147
*500 net15
*501 net154
*502 net155
*503 net156
*504 net157
*505 net158
*506 net16
*507 net17
*508 net18
*509 net19
*510 net2
*511 net20
*512 net201
*513 net21
*514 net22
*515 net23
*516 net24
*517 net25
*518 net26
*519 net27
*520 net28
*521 net29
*522 net3
*523 net30
*524 net31
*525 net32
*526 net33
*527 net34
*528 net35
*529 net36
*530 net37
*531 net38
*532 net39
*533 net4
*534 net40
*535 net41
*536 net42
*537 net43
*538 net44
*539 net45
*540 net46
*541 net47
*542 net48
*543 net49
*544 net5
*545 net50
*546 net51
*547 net52
*548 net53
*549 net54
*550 net55
*551 net56
*552 net57
*553 net58
*554 net59
*555 net6
*556 net60
*557 net61
*558 net62
*559 net63
*560 net64
*561 net65
*562 net66
*563 net67
*564 net68
*565 net69
*566 net7
*567 net70
*568 net71
*569 net72
*570 net73
*571 net74
*572 net75
*573 net76
*574 net77
*575 net78
*576 net79
*577 net8
*578 net80
*579 net81
*580 net82
*581 net83
*582 net84
*583 net85
*584 net86
*585 net87
*586 net88
*587 net89
*588 net9
*589 net90
*590 net91
*591 net92
*592 net93
*593 net94
*594 net95
*595 net96
*596 net97
*597 net98
*598 net99
*599 FILLER_0_113
*600 FILLER_0_12
*601 FILLER_0_123
*602 FILLER_0_126
*603 FILLER_0_139
*604 FILLER_0_15
*605 FILLER_0_157
*606 FILLER_0_160
*607 FILLER_0_167
*608 FILLER_0_169
*609 FILLER_0_175
*610 FILLER_0_178
*611 FILLER_0_18
*612 FILLER_0_181
*613 FILLER_0_191
*614 FILLER_0_194
*615 FILLER_0_197
*616 FILLER_0_200
*617 FILLER_0_203
*618 FILLER_0_206
*619 FILLER_0_209
*620 FILLER_0_29
*621 FILLER_0_3
*622 FILLER_0_32
*623 FILLER_0_42
*624 FILLER_0_57
*625 FILLER_0_6
*626 FILLER_0_60
*627 FILLER_0_9
*628 FILLER_0_94
*629 FILLER_10_100
*630 FILLER_10_119
*631 FILLER_10_122
*632 FILLER_10_125
*633 FILLER_10_128
*634 FILLER_10_131
*635 FILLER_10_134
*636 FILLER_10_137
*637 FILLER_10_141
*638 FILLER_10_144
*639 FILLER_10_147
*640 FILLER_10_150
*641 FILLER_10_153
*642 FILLER_10_156
*643 FILLER_10_159
*644 FILLER_10_166
*645 FILLER_10_169
*646 FILLER_10_172
*647 FILLER_10_175
*648 FILLER_10_178
*649 FILLER_10_209
*650 FILLER_10_26
*651 FILLER_10_29
*652 FILLER_10_3
*653 FILLER_10_45
*654 FILLER_10_48
*655 FILLER_10_51
*656 FILLER_10_54
*657 FILLER_10_57
*658 FILLER_10_60
*659 FILLER_10_63
*660 FILLER_10_66
*661 FILLER_10_69
*662 FILLER_10_72
*663 FILLER_10_75
*664 FILLER_10_78
*665 FILLER_10_81
*666 FILLER_10_85
*667 FILLER_10_88
*668 FILLER_10_91
*669 FILLER_10_94
*670 FILLER_10_97
*671 FILLER_11_102
*672 FILLER_11_105
*673 FILLER_11_108
*674 FILLER_11_111
*675 FILLER_11_113
*676 FILLER_11_116
*677 FILLER_11_132
*678 FILLER_11_135
*679 FILLER_11_138
*680 FILLER_11_141
*681 FILLER_11_144
*682 FILLER_11_147
*683 FILLER_11_150
*684 FILLER_11_153
*685 FILLER_11_164
*686 FILLER_11_167
*687 FILLER_11_178
*688 FILLER_11_181
*689 FILLER_11_184
*690 FILLER_11_195
*691 FILLER_11_198
*692 FILLER_11_29
*693 FILLER_11_3
*694 FILLER_11_37
*695 FILLER_11_51
*696 FILLER_11_54
*697 FILLER_11_57
*698 FILLER_11_60
*699 FILLER_11_63
*700 FILLER_11_66
*701 FILLER_11_69
*702 FILLER_11_72
*703 FILLER_11_75
*704 FILLER_11_78
*705 FILLER_11_81
*706 FILLER_11_84
*707 FILLER_11_87
*708 FILLER_11_90
*709 FILLER_11_93
*710 FILLER_12_100
*711 FILLER_12_103
*712 FILLER_12_106
*713 FILLER_12_109
*714 FILLER_12_112
*715 FILLER_12_12
*716 FILLER_12_139
*717 FILLER_12_141
*718 FILLER_12_144
*719 FILLER_12_147
*720 FILLER_12_150
*721 FILLER_12_174
*722 FILLER_12_177
*723 FILLER_12_210
*724 FILLER_12_29
*725 FILLER_12_41
*726 FILLER_12_44
*727 FILLER_12_47
*728 FILLER_12_50
*729 FILLER_12_53
*730 FILLER_12_56
*731 FILLER_12_59
*732 FILLER_12_62
*733 FILLER_12_65
*734 FILLER_12_68
*735 FILLER_12_71
*736 FILLER_12_74
*737 FILLER_12_77
*738 FILLER_12_80
*739 FILLER_12_83
*740 FILLER_12_85
*741 FILLER_12_88
*742 FILLER_12_91
*743 FILLER_12_94
*744 FILLER_12_97
*745 FILLER_13_102
*746 FILLER_13_105
*747 FILLER_13_108
*748 FILLER_13_11
*749 FILLER_13_111
*750 FILLER_13_113
*751 FILLER_13_116
*752 FILLER_13_125
*753 FILLER_13_136
*754 FILLER_13_139
*755 FILLER_13_142
*756 FILLER_13_145
*757 FILLER_13_148
*758 FILLER_13_151
*759 FILLER_13_154
*760 FILLER_13_157
*761 FILLER_13_165
*762 FILLER_13_182
*763 FILLER_13_209
*764 FILLER_13_47
*765 FILLER_13_50
*766 FILLER_13_53
*767 FILLER_13_57
*768 FILLER_13_60
*769 FILLER_13_63
*770 FILLER_13_66
*771 FILLER_13_69
*772 FILLER_13_72
*773 FILLER_13_75
*774 FILLER_13_78
*775 FILLER_13_81
*776 FILLER_13_84
*777 FILLER_13_87
*778 FILLER_13_90
*779 FILLER_13_93
*780 FILLER_13_96
*781 FILLER_13_99
*782 FILLER_14_100
*783 FILLER_14_103
*784 FILLER_14_106
*785 FILLER_14_109
*786 FILLER_14_112
*787 FILLER_14_115
*788 FILLER_14_118
*789 FILLER_14_121
*790 FILLER_14_124
*791 FILLER_14_127
*792 FILLER_14_130
*793 FILLER_14_133
*794 FILLER_14_136
*795 FILLER_14_139
*796 FILLER_14_141
*797 FILLER_14_144
*798 FILLER_14_147
*799 FILLER_14_150
*800 FILLER_14_153
*801 FILLER_14_156
*802 FILLER_14_166
*803 FILLER_14_177
*804 FILLER_14_197
*805 FILLER_14_207
*806 FILLER_14_210
*807 FILLER_14_26
*808 FILLER_14_51
*809 FILLER_14_54
*810 FILLER_14_57
*811 FILLER_14_60
*812 FILLER_14_63
*813 FILLER_14_79
*814 FILLER_14_82
*815 FILLER_14_85
*816 FILLER_14_88
*817 FILLER_14_91
*818 FILLER_14_94
*819 FILLER_14_97
*820 FILLER_15_100
*821 FILLER_15_103
*822 FILLER_15_106
*823 FILLER_15_109
*824 FILLER_15_113
*825 FILLER_15_116
*826 FILLER_15_119
*827 FILLER_15_122
*828 FILLER_15_125
*829 FILLER_15_128
*830 FILLER_15_131
*831 FILLER_15_134
*832 FILLER_15_137
*833 FILLER_15_140
*834 FILLER_15_143
*835 FILLER_15_146
*836 FILLER_15_149
*837 FILLER_15_152
*838 FILLER_15_155
*839 FILLER_15_158
*840 FILLER_15_161
*841 FILLER_15_164
*842 FILLER_15_167
*843 FILLER_15_169
*844 FILLER_15_185
*845 FILLER_15_197
*846 FILLER_15_200
*847 FILLER_15_39
*848 FILLER_15_42
*849 FILLER_15_45
*850 FILLER_15_53
*851 FILLER_15_57
*852 FILLER_15_79
*853 FILLER_15_82
*854 FILLER_15_85
*855 FILLER_15_88
*856 FILLER_15_91
*857 FILLER_16_106
*858 FILLER_16_109
*859 FILLER_16_112
*860 FILLER_16_115
*861 FILLER_16_118
*862 FILLER_16_121
*863 FILLER_16_124
*864 FILLER_16_127
*865 FILLER_16_130
*866 FILLER_16_133
*867 FILLER_16_136
*868 FILLER_16_139
*869 FILLER_16_141
*870 FILLER_16_144
*871 FILLER_16_147
*872 FILLER_16_150
*873 FILLER_16_153
*874 FILLER_16_156
*875 FILLER_16_159
*876 FILLER_16_162
*877 FILLER_16_165
*878 FILLER_16_168
*879 FILLER_16_171
*880 FILLER_16_174
*881 FILLER_16_177
*882 FILLER_16_192
*883 FILLER_16_195
*884 FILLER_16_27
*885 FILLER_16_29
*886 FILLER_16_32
*887 FILLER_16_35
*888 FILLER_16_57
*889 FILLER_16_60
*890 FILLER_16_77
*891 FILLER_16_80
*892 FILLER_16_83
*893 FILLER_16_85
*894 FILLER_16_88
*895 FILLER_16_91
*896 FILLER_17_101
*897 FILLER_17_104
*898 FILLER_17_107
*899 FILLER_17_110
*900 FILLER_17_113
*901 FILLER_17_116
*902 FILLER_17_119
*903 FILLER_17_134
*904 FILLER_17_137
*905 FILLER_17_140
*906 FILLER_17_143
*907 FILLER_17_146
*908 FILLER_17_149
*909 FILLER_17_152
*910 FILLER_17_155
*911 FILLER_17_169
*912 FILLER_17_172
*913 FILLER_17_175
*914 FILLER_17_178
*915 FILLER_17_39
*916 FILLER_17_57
*917 FILLER_17_60
*918 FILLER_17_67
*919 FILLER_17_70
*920 FILLER_17_73
*921 FILLER_17_76
*922 FILLER_17_82
*923 FILLER_17_85
*924 FILLER_18_112
*925 FILLER_18_115
*926 FILLER_18_118
*927 FILLER_18_121
*928 FILLER_18_124
*929 FILLER_18_127
*930 FILLER_18_137
*931 FILLER_18_141
*932 FILLER_18_144
*933 FILLER_18_173
*934 FILLER_18_176
*935 FILLER_18_202
*936 FILLER_18_209
*937 FILLER_18_3
*938 FILLER_18_40
*939 FILLER_18_43
*940 FILLER_18_53
*941 FILLER_18_56
*942 FILLER_18_59
*943 FILLER_18_62
*944 FILLER_18_65
*945 FILLER_18_68
*946 FILLER_18_71
*947 FILLER_18_74
*948 FILLER_18_77
*949 FILLER_18_80
*950 FILLER_18_83
*951 FILLER_18_85
*952 FILLER_18_88
*953 FILLER_18_94
*954 FILLER_18_97
*955 FILLER_19_110
*956 FILLER_19_147
*957 FILLER_19_150
*958 FILLER_19_169
*959 FILLER_19_172
*960 FILLER_19_175
*961 FILLER_19_178
*962 FILLER_19_181
*963 FILLER_19_190
*964 FILLER_19_193
*965 FILLER_19_31
*966 FILLER_19_41
*967 FILLER_19_44
*968 FILLER_19_47
*969 FILLER_19_50
*970 FILLER_19_53
*971 FILLER_19_57
*972 FILLER_19_68
*973 FILLER_19_80
*974 FILLER_19_83
*975 FILLER_19_90
*976 FILLER_1_117
*977 FILLER_1_12
*978 FILLER_1_120
*979 FILLER_1_139
*980 FILLER_1_149
*981 FILLER_1_15
*982 FILLER_1_164
*983 FILLER_1_167
*984 FILLER_1_169
*985 FILLER_1_172
*986 FILLER_1_199
*987 FILLER_1_202
*988 FILLER_1_205
*989 FILLER_1_208
*990 FILLER_1_3
*991 FILLER_1_39
*992 FILLER_1_6
*993 FILLER_1_67
*994 FILLER_1_70
*995 FILLER_1_9
*996 FILLER_20_119
*997 FILLER_20_122
*998 FILLER_20_147
*999 FILLER_20_150
*1000 FILLER_20_169
*1001 FILLER_20_177
*1002 FILLER_20_180
*1003 FILLER_20_183
*1004 FILLER_20_186
*1005 FILLER_20_189
*1006 FILLER_20_192
*1007 FILLER_20_195
*1008 FILLER_20_197
*1009 FILLER_20_200
*1010 FILLER_20_207
*1011 FILLER_20_210
*1012 FILLER_20_25
*1013 FILLER_20_29
*1014 FILLER_20_3
*1015 FILLER_20_32
*1016 FILLER_20_49
*1017 FILLER_20_52
*1018 FILLER_20_55
*1019 FILLER_20_6
*1020 FILLER_20_81
*1021 FILLER_20_85
*1022 FILLER_20_93
*1023 FILLER_20_96
*1024 FILLER_20_99
*1025 FILLER_21_100
*1026 FILLER_21_103
*1027 FILLER_21_106
*1028 FILLER_21_109
*1029 FILLER_21_113
*1030 FILLER_21_116
*1031 FILLER_21_129
*1032 FILLER_21_158
*1033 FILLER_21_161
*1034 FILLER_21_164
*1035 FILLER_21_167
*1036 FILLER_21_169
*1037 FILLER_21_172
*1038 FILLER_21_193
*1039 FILLER_21_196
*1040 FILLER_21_206
*1041 FILLER_21_209
*1042 FILLER_21_27
*1043 FILLER_21_3
*1044 FILLER_21_30
*1045 FILLER_21_52
*1046 FILLER_21_55
*1047 FILLER_21_57
*1048 FILLER_21_6
*1049 FILLER_21_60
*1050 FILLER_21_77
*1051 FILLER_21_80
*1052 FILLER_21_83
*1053 FILLER_21_9
*1054 FILLER_21_94
*1055 FILLER_21_97
*1056 FILLER_22_100
*1057 FILLER_22_103
*1058 FILLER_22_106
*1059 FILLER_22_109
*1060 FILLER_22_112
*1061 FILLER_22_115
*1062 FILLER_22_118
*1063 FILLER_22_121
*1064 FILLER_22_124
*1065 FILLER_22_127
*1066 FILLER_22_132
*1067 FILLER_22_141
*1068 FILLER_22_149
*1069 FILLER_22_152
*1070 FILLER_22_155
*1071 FILLER_22_158
*1072 FILLER_22_161
*1073 FILLER_22_164
*1074 FILLER_22_167
*1075 FILLER_22_170
*1076 FILLER_22_173
*1077 FILLER_22_176
*1078 FILLER_22_179
*1079 FILLER_22_182
*1080 FILLER_22_19
*1081 FILLER_22_193
*1082 FILLER_22_29
*1083 FILLER_22_37
*1084 FILLER_22_44
*1085 FILLER_22_63
*1086 FILLER_22_66
*1087 FILLER_22_69
*1088 FILLER_22_72
*1089 FILLER_22_75
*1090 FILLER_22_78
*1091 FILLER_22_81
*1092 FILLER_22_85
*1093 FILLER_22_88
*1094 FILLER_22_91
*1095 FILLER_22_94
*1096 FILLER_22_97
*1097 FILLER_23_108
*1098 FILLER_23_111
*1099 FILLER_23_113
*1100 FILLER_23_116
*1101 FILLER_23_126
*1102 FILLER_23_129
*1103 FILLER_23_132
*1104 FILLER_23_135
*1105 FILLER_23_138
*1106 FILLER_23_141
*1107 FILLER_23_144
*1108 FILLER_23_147
*1109 FILLER_23_150
*1110 FILLER_23_153
*1111 FILLER_23_156
*1112 FILLER_23_159
*1113 FILLER_23_162
*1114 FILLER_23_165
*1115 FILLER_23_169
*1116 FILLER_23_172
*1117 FILLER_23_175
*1118 FILLER_23_178
*1119 FILLER_23_181
*1120 FILLER_23_184
*1121 FILLER_23_187
*1122 FILLER_23_30
*1123 FILLER_23_33
*1124 FILLER_23_36
*1125 FILLER_23_39
*1126 FILLER_23_42
*1127 FILLER_23_45
*1128 FILLER_23_48
*1129 FILLER_23_51
*1130 FILLER_23_54
*1131 FILLER_23_57
*1132 FILLER_23_60
*1133 FILLER_23_68
*1134 FILLER_23_71
*1135 FILLER_23_84
*1136 FILLER_23_87
*1137 FILLER_23_90
*1138 FILLER_23_93
*1139 FILLER_24_108
*1140 FILLER_24_111
*1141 FILLER_24_114
*1142 FILLER_24_117
*1143 FILLER_24_141
*1144 FILLER_24_144
*1145 FILLER_24_147
*1146 FILLER_24_150
*1147 FILLER_24_153
*1148 FILLER_24_156
*1149 FILLER_24_159
*1150 FILLER_24_16
*1151 FILLER_24_162
*1152 FILLER_24_165
*1153 FILLER_24_168
*1154 FILLER_24_171
*1155 FILLER_24_174
*1156 FILLER_24_177
*1157 FILLER_24_180
*1158 FILLER_24_183
*1159 FILLER_24_186
*1160 FILLER_24_197
*1161 FILLER_24_200
*1162 FILLER_24_27
*1163 FILLER_24_34
*1164 FILLER_24_37
*1165 FILLER_24_55
*1166 FILLER_24_58
*1167 FILLER_24_74
*1168 FILLER_24_82
*1169 FILLER_24_85
*1170 FILLER_25_100
*1171 FILLER_25_104
*1172 FILLER_25_107
*1173 FILLER_25_110
*1174 FILLER_25_12
*1175 FILLER_25_120
*1176 FILLER_25_123
*1177 FILLER_25_150
*1178 FILLER_25_166
*1179 FILLER_25_169
*1180 FILLER_25_172
*1181 FILLER_25_175
*1182 FILLER_25_178
*1183 FILLER_25_18
*1184 FILLER_25_193
*1185 FILLER_25_204
*1186 FILLER_25_207
*1187 FILLER_25_210
*1188 FILLER_25_53
*1189 FILLER_25_57
*1190 FILLER_25_60
*1191 FILLER_25_63
*1192 FILLER_25_66
*1193 FILLER_25_73
*1194 FILLER_25_80
*1195 FILLER_25_97
*1196 FILLER_26_100
*1197 FILLER_26_103
*1198 FILLER_26_106
*1199 FILLER_26_109
*1200 FILLER_26_112
*1201 FILLER_26_115
*1202 FILLER_26_118
*1203 FILLER_26_121
*1204 FILLER_26_124
*1205 FILLER_26_127
*1206 FILLER_26_130
*1207 FILLER_26_139
*1208 FILLER_26_155
*1209 FILLER_26_158
*1210 FILLER_26_174
*1211 FILLER_26_210
*1212 FILLER_26_29
*1213 FILLER_26_3
*1214 FILLER_26_32
*1215 FILLER_26_40
*1216 FILLER_26_43
*1217 FILLER_26_51
*1218 FILLER_26_54
*1219 FILLER_26_57
*1220 FILLER_26_60
*1221 FILLER_26_63
*1222 FILLER_26_66
*1223 FILLER_26_69
*1224 FILLER_26_72
*1225 FILLER_26_75
*1226 FILLER_26_78
*1227 FILLER_26_81
*1228 FILLER_26_85
*1229 FILLER_26_88
*1230 FILLER_26_91
*1231 FILLER_26_94
*1232 FILLER_26_97
*1233 FILLER_27_102
*1234 FILLER_27_105
*1235 FILLER_27_108
*1236 FILLER_27_111
*1237 FILLER_27_120
*1238 FILLER_27_123
*1239 FILLER_27_126
*1240 FILLER_27_129
*1241 FILLER_27_132
*1242 FILLER_27_135
*1243 FILLER_27_138
*1244 FILLER_27_141
*1245 FILLER_27_160
*1246 FILLER_27_163
*1247 FILLER_27_166
*1248 FILLER_27_169
*1249 FILLER_27_172
*1250 FILLER_27_175
*1251 FILLER_27_178
*1252 FILLER_27_184
*1253 FILLER_27_20
*1254 FILLER_27_23
*1255 FILLER_27_26
*1256 FILLER_27_29
*1257 FILLER_27_32
*1258 FILLER_27_35
*1259 FILLER_27_38
*1260 FILLER_27_41
*1261 FILLER_27_44
*1262 FILLER_27_47
*1263 FILLER_27_50
*1264 FILLER_27_53
*1265 FILLER_27_57
*1266 FILLER_27_60
*1267 FILLER_27_63
*1268 FILLER_27_66
*1269 FILLER_27_69
*1270 FILLER_27_72
*1271 FILLER_27_75
*1272 FILLER_27_78
*1273 FILLER_27_96
*1274 FILLER_27_99
*1275 FILLER_28_100
*1276 FILLER_28_108
*1277 FILLER_28_119
*1278 FILLER_28_135
*1279 FILLER_28_138
*1280 FILLER_28_141
*1281 FILLER_28_144
*1282 FILLER_28_152
*1283 FILLER_28_167
*1284 FILLER_28_170
*1285 FILLER_28_173
*1286 FILLER_28_191
*1287 FILLER_28_194
*1288 FILLER_28_206
*1289 FILLER_28_209
*1290 FILLER_28_24
*1291 FILLER_28_27
*1292 FILLER_28_36
*1293 FILLER_28_39
*1294 FILLER_28_42
*1295 FILLER_28_45
*1296 FILLER_28_52
*1297 FILLER_28_55
*1298 FILLER_28_78
*1299 FILLER_28_81
*1300 FILLER_28_85
*1301 FILLER_28_88
*1302 FILLER_28_91
*1303 FILLER_28_94
*1304 FILLER_28_97
*1305 FILLER_29_113
*1306 FILLER_29_136
*1307 FILLER_29_139
*1308 FILLER_29_148
*1309 FILLER_29_151
*1310 FILLER_29_154
*1311 FILLER_29_157
*1312 FILLER_29_16
*1313 FILLER_29_160
*1314 FILLER_29_163
*1315 FILLER_29_166
*1316 FILLER_29_169
*1317 FILLER_29_172
*1318 FILLER_29_183
*1319 FILLER_29_195
*1320 FILLER_29_41
*1321 FILLER_29_55
*1322 FILLER_29_57
*1323 FILLER_29_60
*1324 FILLER_29_70
*1325 FILLER_29_90
*1326 FILLER_2_120
*1327 FILLER_2_123
*1328 FILLER_2_13
*1329 FILLER_2_141
*1330 FILLER_2_152
*1331 FILLER_2_16
*1332 FILLER_2_173
*1333 FILLER_2_176
*1334 FILLER_2_19
*1335 FILLER_2_194
*1336 FILLER_2_202
*1337 FILLER_2_205
*1338 FILLER_2_208
*1339 FILLER_2_22
*1340 FILLER_2_25
*1341 FILLER_2_29
*1342 FILLER_2_3
*1343 FILLER_2_44
*1344 FILLER_2_47
*1345 FILLER_2_6
*1346 FILLER_2_72
*1347 FILLER_2_75
*1348 FILLER_2_91
*1349 FILLER_30_100
*1350 FILLER_30_113
*1351 FILLER_30_119
*1352 FILLER_30_122
*1353 FILLER_30_125
*1354 FILLER_30_139
*1355 FILLER_30_141
*1356 FILLER_30_144
*1357 FILLER_30_147
*1358 FILLER_30_157
*1359 FILLER_30_160
*1360 FILLER_30_163
*1361 FILLER_30_166
*1362 FILLER_30_169
*1363 FILLER_30_172
*1364 FILLER_30_175
*1365 FILLER_30_185
*1366 FILLER_30_188
*1367 FILLER_30_195
*1368 FILLER_30_25
*1369 FILLER_30_35
*1370 FILLER_30_38
*1371 FILLER_30_41
*1372 FILLER_30_49
*1373 FILLER_30_52
*1374 FILLER_30_55
*1375 FILLER_30_58
*1376 FILLER_30_80
*1377 FILLER_30_83
*1378 FILLER_30_85
*1379 FILLER_30_88
*1380 FILLER_30_91
*1381 FILLER_30_94
*1382 FILLER_30_97
*1383 FILLER_31_108
*1384 FILLER_31_111
*1385 FILLER_31_117
*1386 FILLER_31_120
*1387 FILLER_31_123
*1388 FILLER_31_137
*1389 FILLER_31_140
*1390 FILLER_31_143
*1391 FILLER_31_165
*1392 FILLER_31_169
*1393 FILLER_31_172
*1394 FILLER_31_175
*1395 FILLER_31_180
*1396 FILLER_31_183
*1397 FILLER_31_186
*1398 FILLER_31_189
*1399 FILLER_31_192
*1400 FILLER_31_195
*1401 FILLER_31_198
*1402 FILLER_31_201
*1403 FILLER_31_27
*1404 FILLER_31_3
*1405 FILLER_31_30
*1406 FILLER_31_33
*1407 FILLER_31_36
*1408 FILLER_31_44
*1409 FILLER_31_47
*1410 FILLER_31_6
*1411 FILLER_31_64
*1412 FILLER_31_67
*1413 FILLER_31_70
*1414 FILLER_31_73
*1415 FILLER_31_76
*1416 FILLER_31_84
*1417 FILLER_31_9
*1418 FILLER_32_114
*1419 FILLER_32_117
*1420 FILLER_32_16
*1421 FILLER_32_164
*1422 FILLER_32_189
*1423 FILLER_32_19
*1424 FILLER_32_192
*1425 FILLER_32_195
*1426 FILLER_32_197
*1427 FILLER_32_200
*1428 FILLER_32_203
*1429 FILLER_32_206
*1430 FILLER_32_209
*1431 FILLER_32_22
*1432 FILLER_32_25
*1433 FILLER_32_29
*1434 FILLER_32_32
*1435 FILLER_32_45
*1436 FILLER_32_48
*1437 FILLER_32_58
*1438 FILLER_32_61
*1439 FILLER_32_85
*1440 FILLER_32_95
*1441 FILLER_33_110
*1442 FILLER_33_113
*1443 FILLER_33_145
*1444 FILLER_33_15
*1445 FILLER_33_165
*1446 FILLER_33_169
*1447 FILLER_33_18
*1448 FILLER_33_193
*1449 FILLER_33_196
*1450 FILLER_33_199
*1451 FILLER_33_202
*1452 FILLER_33_205
*1453 FILLER_33_208
*1454 FILLER_33_21
*1455 FILLER_33_24
*1456 FILLER_33_45
*1457 FILLER_33_55
*1458 FILLER_33_57
*1459 FILLER_33_74
*1460 FILLER_34_114
*1461 FILLER_34_138
*1462 FILLER_34_141
*1463 FILLER_34_15
*1464 FILLER_34_165
*1465 FILLER_34_18
*1466 FILLER_34_197
*1467 FILLER_34_200
*1468 FILLER_34_203
*1469 FILLER_34_206
*1470 FILLER_34_209
*1471 FILLER_34_21
*1472 FILLER_34_24
*1473 FILLER_34_27
*1474 FILLER_34_29
*1475 FILLER_34_52
*1476 FILLER_34_68
*1477 FILLER_34_81
*1478 FILLER_34_94
*1479 FILLER_35_113
*1480 FILLER_35_12
*1481 FILLER_35_147
*1482 FILLER_35_15
*1483 FILLER_35_165
*1484 FILLER_35_18
*1485 FILLER_35_194
*1486 FILLER_35_197
*1487 FILLER_35_200
*1488 FILLER_35_203
*1489 FILLER_35_206
*1490 FILLER_35_209
*1491 FILLER_35_21
*1492 FILLER_35_24
*1493 FILLER_35_27
*1494 FILLER_35_29
*1495 FILLER_35_3
*1496 FILLER_35_32
*1497 FILLER_35_35
*1498 FILLER_35_38
*1499 FILLER_35_57
*1500 FILLER_35_6
*1501 FILLER_35_85
*1502 FILLER_35_9
*1503 FILLER_35_97
*1504 FILLER_3_121
*1505 FILLER_3_147
*1506 FILLER_3_150
*1507 FILLER_3_169
*1508 FILLER_3_178
*1509 FILLER_3_195
*1510 FILLER_3_198
*1511 FILLER_3_201
*1512 FILLER_3_204
*1513 FILLER_3_207
*1514 FILLER_3_210
*1515 FILLER_3_42
*1516 FILLER_3_55
*1517 FILLER_3_64
*1518 FILLER_3_86
*1519 FILLER_4_113
*1520 FILLER_4_116
*1521 FILLER_4_134
*1522 FILLER_4_137
*1523 FILLER_4_141
*1524 FILLER_4_144
*1525 FILLER_4_147
*1526 FILLER_4_150
*1527 FILLER_4_153
*1528 FILLER_4_156
*1529 FILLER_4_172
*1530 FILLER_4_175
*1531 FILLER_4_178
*1532 FILLER_4_181
*1533 FILLER_4_184
*1534 FILLER_4_187
*1535 FILLER_4_190
*1536 FILLER_4_193
*1537 FILLER_4_197
*1538 FILLER_4_200
*1539 FILLER_4_203
*1540 FILLER_4_206
*1541 FILLER_4_209
*1542 FILLER_4_27
*1543 FILLER_4_29
*1544 FILLER_4_43
*1545 FILLER_4_46
*1546 FILLER_4_49
*1547 FILLER_4_59
*1548 FILLER_4_62
*1549 FILLER_4_65
*1550 FILLER_4_68
*1551 FILLER_4_71
*1552 FILLER_4_74
*1553 FILLER_4_98
*1554 FILLER_5_101
*1555 FILLER_5_109
*1556 FILLER_5_113
*1557 FILLER_5_116
*1558 FILLER_5_119
*1559 FILLER_5_134
*1560 FILLER_5_137
*1561 FILLER_5_140
*1562 FILLER_5_148
*1563 FILLER_5_151
*1564 FILLER_5_154
*1565 FILLER_5_157
*1566 FILLER_5_160
*1567 FILLER_5_163
*1568 FILLER_5_166
*1569 FILLER_5_176
*1570 FILLER_5_179
*1571 FILLER_5_182
*1572 FILLER_5_185
*1573 FILLER_5_188
*1574 FILLER_5_195
*1575 FILLER_5_210
*1576 FILLER_5_3
*1577 FILLER_5_31
*1578 FILLER_5_34
*1579 FILLER_5_37
*1580 FILLER_5_40
*1581 FILLER_5_43
*1582 FILLER_5_46
*1583 FILLER_5_6
*1584 FILLER_5_68
*1585 FILLER_5_71
*1586 FILLER_5_74
*1587 FILLER_5_77
*1588 FILLER_5_80
*1589 FILLER_5_83
*1590 FILLER_5_86
*1591 FILLER_5_89
*1592 FILLER_5_92
*1593 FILLER_5_95
*1594 FILLER_5_98
*1595 FILLER_6_119
*1596 FILLER_6_129
*1597 FILLER_6_132
*1598 FILLER_6_135
*1599 FILLER_6_138
*1600 FILLER_6_141
*1601 FILLER_6_155
*1602 FILLER_6_164
*1603 FILLER_6_167
*1604 FILLER_6_170
*1605 FILLER_6_182
*1606 FILLER_6_185
*1607 FILLER_6_188
*1608 FILLER_6_210
*1609 FILLER_6_26
*1610 FILLER_6_79
*1611 FILLER_6_82
*1612 FILLER_6_98
*1613 FILLER_7_100
*1614 FILLER_7_103
*1615 FILLER_7_106
*1616 FILLER_7_109
*1617 FILLER_7_136
*1618 FILLER_7_139
*1619 FILLER_7_163
*1620 FILLER_7_166
*1621 FILLER_7_169
*1622 FILLER_7_18
*1623 FILLER_7_190
*1624 FILLER_7_28
*1625 FILLER_7_31
*1626 FILLER_7_45
*1627 FILLER_7_53
*1628 FILLER_7_57
*1629 FILLER_7_60
*1630 FILLER_7_66
*1631 FILLER_7_69
*1632 FILLER_7_80
*1633 FILLER_7_97
*1634 FILLER_8_102
*1635 FILLER_8_105
*1636 FILLER_8_108
*1637 FILLER_8_111
*1638 FILLER_8_125
*1639 FILLER_8_128
*1640 FILLER_8_141
*1641 FILLER_8_147
*1642 FILLER_8_150
*1643 FILLER_8_153
*1644 FILLER_8_156
*1645 FILLER_8_178
*1646 FILLER_8_181
*1647 FILLER_8_184
*1648 FILLER_8_187
*1649 FILLER_8_193
*1650 FILLER_8_202
*1651 FILLER_8_26
*1652 FILLER_8_29
*1653 FILLER_8_39
*1654 FILLER_8_55
*1655 FILLER_8_58
*1656 FILLER_8_61
*1657 FILLER_8_64
*1658 FILLER_8_81
*1659 FILLER_8_85
*1660 FILLER_8_88
*1661 FILLER_9_101
*1662 FILLER_9_104
*1663 FILLER_9_107
*1664 FILLER_9_110
*1665 FILLER_9_136
*1666 FILLER_9_139
*1667 FILLER_9_142
*1668 FILLER_9_145
*1669 FILLER_9_148
*1670 FILLER_9_151
*1671 FILLER_9_154
*1672 FILLER_9_157
*1673 FILLER_9_160
*1674 FILLER_9_163
*1675 FILLER_9_166
*1676 FILLER_9_169
*1677 FILLER_9_179
*1678 FILLER_9_182
*1679 FILLER_9_193
*1680 FILLER_9_196
*1681 FILLER_9_20
*1682 FILLER_9_210
*1683 FILLER_9_3
*1684 FILLER_9_33
*1685 FILLER_9_46
*1686 FILLER_9_49
*1687 FILLER_9_52
*1688 FILLER_9_55
*1689 FILLER_9_57
*1690 FILLER_9_6
*1691 FILLER_9_60
*1692 FILLER_9_63
*1693 FILLER_9_66
*1694 FILLER_9_69
*1695 FILLER_9_76
*1696 FILLER_9_79
*1697 FILLER_9_82
*1698 FILLER_9_85
*1699 FILLER_9_95
*1700 FILLER_9_98
*1701 PHY_EDGE_ROW_0_Left_36
*1702 PHY_EDGE_ROW_0_Right_0
*1703 PHY_EDGE_ROW_10_Left_46
*1704 PHY_EDGE_ROW_10_Right_10
*1705 PHY_EDGE_ROW_11_Left_47
*1706 PHY_EDGE_ROW_11_Right_11
*1707 PHY_EDGE_ROW_12_Left_48
*1708 PHY_EDGE_ROW_12_Right_12
*1709 PHY_EDGE_ROW_13_Left_49
*1710 PHY_EDGE_ROW_13_Right_13
*1711 PHY_EDGE_ROW_14_Left_50
*1712 PHY_EDGE_ROW_14_Right_14
*1713 PHY_EDGE_ROW_15_Left_51
*1714 PHY_EDGE_ROW_15_Right_15
*1715 PHY_EDGE_ROW_16_Left_52
*1716 PHY_EDGE_ROW_16_Right_16
*1717 PHY_EDGE_ROW_17_Left_53
*1718 PHY_EDGE_ROW_17_Right_17
*1719 PHY_EDGE_ROW_18_Left_54
*1720 PHY_EDGE_ROW_18_Right_18
*1721 PHY_EDGE_ROW_19_Left_55
*1722 PHY_EDGE_ROW_19_Right_19
*1723 PHY_EDGE_ROW_1_Left_37
*1724 PHY_EDGE_ROW_1_Right_1
*1725 PHY_EDGE_ROW_20_Left_56
*1726 PHY_EDGE_ROW_20_Right_20
*1727 PHY_EDGE_ROW_21_Left_57
*1728 PHY_EDGE_ROW_21_Right_21
*1729 PHY_EDGE_ROW_22_Left_58
*1730 PHY_EDGE_ROW_22_Right_22
*1731 PHY_EDGE_ROW_23_Left_59
*1732 PHY_EDGE_ROW_23_Right_23
*1733 PHY_EDGE_ROW_24_Left_60
*1734 PHY_EDGE_ROW_24_Right_24
*1735 PHY_EDGE_ROW_25_Left_61
*1736 PHY_EDGE_ROW_25_Right_25
*1737 PHY_EDGE_ROW_26_Left_62
*1738 PHY_EDGE_ROW_26_Right_26
*1739 PHY_EDGE_ROW_27_Left_63
*1740 PHY_EDGE_ROW_27_Right_27
*1741 PHY_EDGE_ROW_28_Left_64
*1742 PHY_EDGE_ROW_28_Right_28
*1743 PHY_EDGE_ROW_29_Left_65
*1744 PHY_EDGE_ROW_29_Right_29
*1745 PHY_EDGE_ROW_2_Left_38
*1746 PHY_EDGE_ROW_2_Right_2
*1747 PHY_EDGE_ROW_30_Left_66
*1748 PHY_EDGE_ROW_30_Right_30
*1749 PHY_EDGE_ROW_31_Left_67
*1750 PHY_EDGE_ROW_31_Right_31
*1751 PHY_EDGE_ROW_32_Left_68
*1752 PHY_EDGE_ROW_32_Right_32
*1753 PHY_EDGE_ROW_33_Left_69
*1754 PHY_EDGE_ROW_33_Right_33
*1755 PHY_EDGE_ROW_34_Left_70
*1756 PHY_EDGE_ROW_34_Right_34
*1757 PHY_EDGE_ROW_35_Left_71
*1758 PHY_EDGE_ROW_35_Right_35
*1759 PHY_EDGE_ROW_3_Left_39
*1760 PHY_EDGE_ROW_3_Right_3
*1761 PHY_EDGE_ROW_4_Left_40
*1762 PHY_EDGE_ROW_4_Right_4
*1763 PHY_EDGE_ROW_5_Left_41
*1764 PHY_EDGE_ROW_5_Right_5
*1765 PHY_EDGE_ROW_6_Left_42
*1766 PHY_EDGE_ROW_6_Right_6
*1767 PHY_EDGE_ROW_7_Left_43
*1768 PHY_EDGE_ROW_7_Right_7
*1769 PHY_EDGE_ROW_8_Left_44
*1770 PHY_EDGE_ROW_8_Right_8
*1771 PHY_EDGE_ROW_9_Left_45
*1772 PHY_EDGE_ROW_9_Right_9
*1773 TAP_TAPCELL_ROW_0_72
*1774 TAP_TAPCELL_ROW_0_73
*1775 TAP_TAPCELL_ROW_0_74
*1776 TAP_TAPCELL_ROW_0_75
*1777 TAP_TAPCELL_ROW_0_76
*1778 TAP_TAPCELL_ROW_0_77
*1779 TAP_TAPCELL_ROW_0_78
*1780 TAP_TAPCELL_ROW_10_110
*1781 TAP_TAPCELL_ROW_10_111
*1782 TAP_TAPCELL_ROW_10_112
*1783 TAP_TAPCELL_ROW_10_113
*1784 TAP_TAPCELL_ROW_11_114
*1785 TAP_TAPCELL_ROW_11_115
*1786 TAP_TAPCELL_ROW_11_116
*1787 TAP_TAPCELL_ROW_12_117
*1788 TAP_TAPCELL_ROW_12_118
*1789 TAP_TAPCELL_ROW_12_119
*1790 TAP_TAPCELL_ROW_12_120
*1791 TAP_TAPCELL_ROW_13_121
*1792 TAP_TAPCELL_ROW_13_122
*1793 TAP_TAPCELL_ROW_13_123
*1794 TAP_TAPCELL_ROW_14_124
*1795 TAP_TAPCELL_ROW_14_125
*1796 TAP_TAPCELL_ROW_14_126
*1797 TAP_TAPCELL_ROW_14_127
*1798 TAP_TAPCELL_ROW_15_128
*1799 TAP_TAPCELL_ROW_15_129
*1800 TAP_TAPCELL_ROW_15_130
*1801 TAP_TAPCELL_ROW_16_131
*1802 TAP_TAPCELL_ROW_16_132
*1803 TAP_TAPCELL_ROW_16_133
*1804 TAP_TAPCELL_ROW_16_134
*1805 TAP_TAPCELL_ROW_17_135
*1806 TAP_TAPCELL_ROW_17_136
*1807 TAP_TAPCELL_ROW_17_137
*1808 TAP_TAPCELL_ROW_18_138
*1809 TAP_TAPCELL_ROW_18_139
*1810 TAP_TAPCELL_ROW_18_140
*1811 TAP_TAPCELL_ROW_18_141
*1812 TAP_TAPCELL_ROW_19_142
*1813 TAP_TAPCELL_ROW_19_143
*1814 TAP_TAPCELL_ROW_19_144
*1815 TAP_TAPCELL_ROW_1_79
*1816 TAP_TAPCELL_ROW_1_80
*1817 TAP_TAPCELL_ROW_1_81
*1818 TAP_TAPCELL_ROW_20_145
*1819 TAP_TAPCELL_ROW_20_146
*1820 TAP_TAPCELL_ROW_20_147
*1821 TAP_TAPCELL_ROW_20_148
*1822 TAP_TAPCELL_ROW_21_149
*1823 TAP_TAPCELL_ROW_21_150
*1824 TAP_TAPCELL_ROW_21_151
*1825 TAP_TAPCELL_ROW_22_152
*1826 TAP_TAPCELL_ROW_22_153
*1827 TAP_TAPCELL_ROW_22_154
*1828 TAP_TAPCELL_ROW_22_155
*1829 TAP_TAPCELL_ROW_23_156
*1830 TAP_TAPCELL_ROW_23_157
*1831 TAP_TAPCELL_ROW_23_158
*1832 TAP_TAPCELL_ROW_24_159
*1833 TAP_TAPCELL_ROW_24_160
*1834 TAP_TAPCELL_ROW_24_161
*1835 TAP_TAPCELL_ROW_24_162
*1836 TAP_TAPCELL_ROW_25_163
*1837 TAP_TAPCELL_ROW_25_164
*1838 TAP_TAPCELL_ROW_25_165
*1839 TAP_TAPCELL_ROW_26_166
*1840 TAP_TAPCELL_ROW_26_167
*1841 TAP_TAPCELL_ROW_26_168
*1842 TAP_TAPCELL_ROW_26_169
*1843 TAP_TAPCELL_ROW_27_170
*1844 TAP_TAPCELL_ROW_27_171
*1845 TAP_TAPCELL_ROW_27_172
*1846 TAP_TAPCELL_ROW_28_173
*1847 TAP_TAPCELL_ROW_28_174
*1848 TAP_TAPCELL_ROW_28_175
*1849 TAP_TAPCELL_ROW_28_176
*1850 TAP_TAPCELL_ROW_29_177
*1851 TAP_TAPCELL_ROW_29_178
*1852 TAP_TAPCELL_ROW_29_179
*1853 TAP_TAPCELL_ROW_2_82
*1854 TAP_TAPCELL_ROW_2_83
*1855 TAP_TAPCELL_ROW_2_84
*1856 TAP_TAPCELL_ROW_2_85
*1857 TAP_TAPCELL_ROW_30_180
*1858 TAP_TAPCELL_ROW_30_181
*1859 TAP_TAPCELL_ROW_30_182
*1860 TAP_TAPCELL_ROW_30_183
*1861 TAP_TAPCELL_ROW_31_184
*1862 TAP_TAPCELL_ROW_31_185
*1863 TAP_TAPCELL_ROW_31_186
*1864 TAP_TAPCELL_ROW_32_187
*1865 TAP_TAPCELL_ROW_32_188
*1866 TAP_TAPCELL_ROW_32_189
*1867 TAP_TAPCELL_ROW_32_190
*1868 TAP_TAPCELL_ROW_33_191
*1869 TAP_TAPCELL_ROW_33_192
*1870 TAP_TAPCELL_ROW_33_193
*1871 TAP_TAPCELL_ROW_34_194
*1872 TAP_TAPCELL_ROW_34_195
*1873 TAP_TAPCELL_ROW_34_196
*1874 TAP_TAPCELL_ROW_34_197
*1875 TAP_TAPCELL_ROW_35_198
*1876 TAP_TAPCELL_ROW_35_199
*1877 TAP_TAPCELL_ROW_35_200
*1878 TAP_TAPCELL_ROW_35_201
*1879 TAP_TAPCELL_ROW_35_202
*1880 TAP_TAPCELL_ROW_35_203
*1881 TAP_TAPCELL_ROW_35_204
*1882 TAP_TAPCELL_ROW_3_86
*1883 TAP_TAPCELL_ROW_3_87
*1884 TAP_TAPCELL_ROW_3_88
*1885 TAP_TAPCELL_ROW_4_89
*1886 TAP_TAPCELL_ROW_4_90
*1887 TAP_TAPCELL_ROW_4_91
*1888 TAP_TAPCELL_ROW_4_92
*1889 TAP_TAPCELL_ROW_5_93
*1890 TAP_TAPCELL_ROW_5_94
*1891 TAP_TAPCELL_ROW_5_95
*1892 TAP_TAPCELL_ROW_6_96
*1893 TAP_TAPCELL_ROW_6_97
*1894 TAP_TAPCELL_ROW_6_98
*1895 TAP_TAPCELL_ROW_6_99
*1896 TAP_TAPCELL_ROW_7_100
*1897 TAP_TAPCELL_ROW_7_101
*1898 TAP_TAPCELL_ROW_7_102
*1899 TAP_TAPCELL_ROW_8_103
*1900 TAP_TAPCELL_ROW_8_104
*1901 TAP_TAPCELL_ROW_8_105
*1902 TAP_TAPCELL_ROW_8_106
*1903 TAP_TAPCELL_ROW_9_107
*1904 TAP_TAPCELL_ROW_9_108
*1905 TAP_TAPCELL_ROW_9_109
*1906 _349_
*1907 _350_
*1908 _351_
*1909 _352_
*1910 _353_
*1911 _354_
*1912 _355_
*1913 _356_
*1914 _357_
*1915 _358_
*1916 _359_
*1917 _360_
*1918 _361_
*1919 _362_
*1920 _363_
*1921 _364_
*1922 _365_
*1923 _366_
*1924 _367_
*1925 _368_
*1926 _369_
*1927 _370_
*1928 _371_
*1929 _372_
*1930 _373_
*1931 _374_
*1932 _375_
*1933 _376_
*1934 _377_
*1935 _378_
*1936 _379_
*1937 _380_
*1938 _381_
*1939 _382_
*1940 _383_
*1941 _384_
*1942 _385_
*1943 _386_
*1944 _387_
*1945 _388_
*1946 _389_
*1947 _390_
*1948 _391_
*1949 _392_
*1950 _393_
*1951 _394_
*1952 _395_
*1953 _396_
*1954 _397_
*1955 _398_
*1956 _399_
*1957 _400_
*1958 _401_
*1959 _402_
*1960 _403_
*1961 _404_
*1962 _405_
*1963 _406_
*1964 _407_
*1965 _408_
*1966 _409_
*1967 _410_
*1968 _411_
*1969 _412_
*1970 _413_
*1971 _414_
*1972 _415_
*1973 _416_
*1974 _417_
*1975 _418_
*1976 _419_
*1977 _420_
*1978 _421_
*1979 _422_
*1980 _423_
*1981 _424_
*1982 _425_
*1983 _426_
*1984 _427_
*1985 _428_
*1986 _429_
*1987 _430_
*1988 _431_
*1989 _432_
*1990 _433_
*1991 _434_
*1992 _435_
*1993 _436_
*1994 _437_
*1995 _438_
*1996 _439_
*1997 _440_
*1998 _441_
*1999 _442_
*2000 _443_
*2001 _444_
*2002 _445_
*2003 _446_
*2004 _447_
*2005 _448_
*2006 _449_
*2007 _450_
*2008 _451_
*2009 _452_
*2010 _453_
*2011 _454_
*2012 _455_
*2013 _456_
*2014 _457_
*2015 _458_
*2016 _459_
*2017 _460_
*2018 _461_
*2019 _462_
*2020 _463_
*2021 _464_
*2022 _465_
*2023 _466_
*2024 _467_
*2025 _468_
*2026 _469_
*2027 _470_
*2028 _471_
*2029 _472_
*2030 _473_
*2031 _474_
*2032 _475_
*2033 _476_
*2034 _477_
*2035 _478_
*2036 _479_
*2037 _480_
*2038 _481_
*2039 _482_
*2040 _483_
*2041 _484_
*2042 _485_
*2043 _486_
*2044 _487_
*2045 _488_
*2046 _489_
*2047 _490_
*2048 _491_
*2049 _492_
*2050 _493_
*2051 _494_
*2052 _495_
*2053 _496_
*2054 _497_
*2055 _498_
*2056 _499_
*2057 _500_
*2058 _501_
*2059 _502_
*2060 _503_
*2061 _504_
*2062 _505_
*2063 _506_
*2064 _507_
*2065 _508_
*2066 _509_
*2067 _510_
*2068 _511_
*2069 _512_
*2070 _513_
*2071 _514_
*2072 _515_
*2073 _516_
*2074 _517_
*2075 _518_
*2076 _519_
*2077 _520_
*2078 _521_
*2079 _522_
*2080 _523_
*2081 _524_
*2082 _525_
*2083 _526_
*2084 _527_
*2085 _528_
*2086 _529_
*2087 _530_
*2088 _531_
*2089 _532_
*2090 _533_
*2091 _534_
*2092 _535_
*2093 _536_
*2094 _537_
*2095 _538_
*2096 _539_
*2097 _540_
*2098 _541_
*2099 _542_
*2100 _543_
*2101 _544_
*2102 _545_
*2103 _546_
*2104 _547_
*2105 _548_
*2106 _549_
*2107 _550_
*2108 _551_
*2109 _552_
*2110 _553_
*2111 _554_
*2112 _555_
*2113 _556_
*2114 _557_
*2115 _558_
*2116 _559_
*2117 _560_
*2118 _561_
*2119 _562_
*2120 _563_
*2121 _564_
*2122 _565_
*2123 _566_
*2124 _567_
*2125 _568_
*2126 _569_
*2127 _570_
*2128 _571_
*2129 _572_
*2130 _573_
*2131 _574_
*2132 _575_
*2133 _576_
*2134 _577_
*2135 _578_
*2136 _579_
*2137 _580_
*2138 _581_
*2139 _582_
*2140 _583_
*2141 _584_
*2142 _585_
*2143 _586_
*2144 _587_
*2145 _588_
*2146 _589_
*2147 _590_
*2148 _591_
*2149 _592_
*2150 _593_
*2151 _594_
*2152 _595_
*2153 _596_
*2154 _597_
*2155 _598_
*2156 _599_
*2157 _600_
*2158 _601_
*2159 _602_
*2160 _603_
*2161 _604_
*2162 _605_
*2163 _606_
*2164 _607_
*2165 _608_
*2166 _609_
*2167 _610_
*2168 _611_
*2169 _612_
*2170 _613_
*2171 _614_
*2172 _615_
*2173 _616_
*2174 _617_
*2175 _618_
*2176 _619_
*2177 _620_
*2178 _621_
*2179 _622_
*2180 _623_
*2181 _624_
*2182 _625_
*2183 _626_
*2184 _627_
*2185 _628_
*2186 _629_
*2187 _630_
*2188 _631_
*2189 _632_
*2190 _633_
*2191 _634_
*2192 _635_
*2193 _636_
*2194 _637_
*2195 _638_
*2196 _639_
*2197 _640_
*2198 _641_
*2199 _642_
*2200 _643_
*2201 _644_
*2202 _645_
*2203 _646_
*2204 _647_
*2205 _648_
*2206 _649_
*2207 _650_
*2208 _651_
*2209 _652_
*2210 _653_
*2211 _654_
*2212 _655_
*2213 _656_
*2214 _657_
*2215 _658_
*2216 _659_
*2217 _660_
*2218 _661_
*2219 _662_
*2220 _663_
*2221 _664_
*2222 _665_
*2223 _666_
*2224 _667_
*2225 _668_
*2226 _669_
*2227 _670_
*2228 _671_
*2229 _672_
*2230 _673_
*2231 _674_
*2232 _675_
*2233 _676_
*2234 _677_
*2235 _678_
*2236 _679_
*2237 _680_
*2238 _681_
*2239 _682_
*2240 _683_
*2241 _684_
*2242 _685_
*2243 _686_
*2244 _687_
*2245 _688_
*2246 _689_
*2247 _690_
*2248 _691_
*2249 _692_
*2250 _693_
*2251 _694_
*2252 _695_
*2253 _696_
*2254 _697_
*2255 _698_
*2256 _699_
*2257 _700_
*2258 _701_
*2259 _702_
*2260 _703_
*2261 _704_
*2262 _705_
*2263 _706_
*2264 _707_
*2265 _708_
*2266 _709_
*2267 _710_
*2268 _711_
*2269 _712_
*2270 _713_
*2271 _714_
*2272 _715_
*2273 _716_
*2274 _717_
*2275 _718_
*2276 _719_
*2277 _720_
*2278 _721_
*2279 _722_
*2280 _723_
*2281 _724_
*2282 _725_
*2283 _726_
*2284 _727_
*2285 _728_
*2286 _729_
*2287 _730_
*2288 fanout101
*2289 fanout103
*2290 fanout105
*2291 fanout106
*2292 fanout108
*2293 fanout109
*2294 fanout111
*2295 fanout112
*2296 fanout114
*2297 fanout116
*2298 fanout117
*2299 fanout119
*2300 fanout121
*2301 input1
*2302 input10
*2303 input11
*2304 input12
*2305 input13
*2306 input14
*2307 input15
*2308 input16
*2309 input17
*2310 input18
*2311 input19
*2312 input2
*2313 input20
*2314 input21
*2315 input22
*2316 input23
*2317 input24
*2318 input25
*2319 input26
*2320 input27
*2321 input28
*2322 input29
*2323 input3
*2324 input30
*2325 input31
*2326 input32
*2327 input33
*2328 input34
*2329 input35
*2330 input36
*2331 input37
*2332 input38
*2333 input39
*2334 input4
*2335 input40
*2336 input41
*2337 input42
*2338 input43
*2339 input44
*2340 input45
*2341 input46
*2342 input47
*2343 input48
*2344 input49
*2345 input5
*2346 input50
*2347 input51
*2348 input52
*2349 input53
*2350 input54
*2351 input55
*2352 input56
*2353 input57
*2354 input58
*2355 input59
*2356 input6
*2357 input60
*2358 input61
*2359 input62
*2360 input63
*2361 input64
*2362 input65
*2363 input7
*2364 input8
*2365 input9
*2366 load_slew102
*2367 load_slew104
*2368 load_slew107
*2369 load_slew110
*2370 load_slew113
*2371 load_slew115
*2372 load_slew118
*2373 load_slew120
*2374 max_cap100
*2375 max_cap99
*2376 output66
*2377 output67
*2378 output68
*2379 output69
*2380 output70
*2381 output71
*2382 output72
*2383 output73
*2384 output74
*2385 output75
*2386 output76
*2387 output77
*2388 output78
*2389 output79
*2390 output80
*2391 output81
*2392 output82
*2393 output83
*2394 output84
*2395 output85
*2396 output86
*2397 output87
*2398 output88
*2399 output89
*2400 output90
*2401 output91
*2402 output92
*2403 output93
*2404 output94
*2405 output95
*2406 output96
*2407 output97
*2408 output98
*2409 rebuffer122
*2410 rebuffer123
*2411 rebuffer124
*2412 rebuffer125
*2413 rebuffer126
*2414 rebuffer127
*2415 rebuffer128
*2416 rebuffer129
*2417 rebuffer130
*2418 rebuffer131
*2419 rebuffer132
*2420 rebuffer133
*2421 rebuffer134
*2422 rebuffer135
*2423 rebuffer136
*2424 rebuffer137
*2425 rebuffer138
*2426 rebuffer139
*2427 rebuffer140
*2428 rebuffer141
*2429 rebuffer142
*2430 rebuffer147
*2431 rebuffer154
*2432 rebuffer155
*2433 rebuffer156
*2434 rebuffer157
*2435 rebuffer158
*2436 rebuffer201

*PORTS
A[0] I
A[10] I
A[11] I
A[12] I
A[13] I
A[14] I
A[15] I
A[16] I
A[17] I
A[18] I
A[19] I
A[1] I
A[20] I
A[21] I
A[22] I
A[23] I
A[24] I
A[25] I
A[26] I
A[27] I
A[28] I
A[29] I
A[2] I
A[30] I
A[31] I
A[3] I
A[4] I
A[5] I
A[6] I
A[7] I
A[8] I
A[9] I
B[0] I
B[10] I
B[11] I
B[12] I
B[13] I
B[14] I
B[15] I
B[16] I
B[17] I
B[18] I
B[19] I
B[1] I
B[20] I
B[21] I
B[22] I
B[23] I
B[24] I
B[25] I
B[26] I
B[27] I
B[28] I
B[29] I
B[2] I
B[30] I
B[31] I
B[3] I
B[4] I
B[5] I
B[6] I
B[7] I
B[8] I
B[9] I
S[0] O
S[10] O
S[11] O
S[12] O
S[13] O
S[14] O
S[15] O
S[16] O
S[17] O
S[18] O
S[19] O
S[1] O
S[20] O
S[21] O
S[22] O
S[23] O
S[24] O
S[25] O
S[26] O
S[27] O
S[28] O
S[29] O
S[2] O
S[30] O
S[31] O
S[3] O
S[4] O
S[5] O
S[6] O
S[7] O
S[8] O
S[9] O
carryOut O
sub I

*D_NET *1 0.00113636
*CONN
*P A[0] I
*I *2301:A I *D sky130_fd_sc_hd__clkdlybuf4s25_1
*CAP
1 A[0] 0.000497231
2 *2301:A 0.000497231
3 *2301:A S[0] 0.0001419
4 *2301:A *2327:A 0
*RES
1 A[0] *2301:A 11.2172 
*END

*D_NET *2 0.00157811
*CONN
*P A[10] I
*I *2312:A I *D sky130_fd_sc_hd__clkdlybuf4s25_1
*CAP
1 A[10] 0.000741942
2 *2312:A 0.000741942
3 *2312:A *2328:A 4.71155e-05
4 *2312:A *2330:A 4.71155e-05
*RES
1 A[10] *2312:A 16.5323 
*END

*D_NET *3 0.00205439
*CONN
*P A[11] I
*I *2323:A I *D sky130_fd_sc_hd__clkdlybuf4s25_1
*CAP
1 A[11] 0.000510301
2 *2323:A 0.000510301
3 *2323:A *2325:A 0
4 *2323:A *2329:A 0.000450933
5 *2323:A *2360:A 0.000115779
6 *2323:A *559:8 0.000467074
*RES
1 A[11] *2323:A 17.295 
*END

*D_NET *4 0.00136796
*CONN
*P A[12] I
*I *2334:A I *D sky130_fd_sc_hd__clkdlybuf4s25_1
*CAP
1 A[12] 0.000388213
2 *2334:A 0.000388213
3 *2334:A S[12] 0
4 *2334:A *2328:A 0.000512671
5 *2334:A *2331:A 0
6 *2334:A *2379:A 1.67513e-05
7 *2334:A *544:10 6.21133e-05
*RES
1 A[12] *2334:A 6.1326 
*END

*D_NET *5 0.00271949
*CONN
*P A[13] I
*I *2345:A I *D sky130_fd_sc_hd__clkdlybuf4s25_1
*CAP
1 A[13] 0.000817352
2 *2345:A 0.000817352
3 *2345:A S[11] 0.000166346
4 *2345:A S[12] 6.18807e-05
5 *2345:A S[13] 0.000376209
6 *2345:A *2227:B1_N 0
7 *2345:A *2331:A 0.000369062
8 *2345:A *2378:A 2.03321e-05
9 *2345:A *115:12 9.09591e-05
10 *2345:A *544:10 0
*RES
1 A[13] *2345:A 17.768 
*END

*D_NET *6 0.000730281
*CONN
*P A[14] I
*I *2356:A I *D sky130_fd_sc_hd__clkdlybuf4s25_1
*CAP
1 A[14] 0.000258494
2 *2356:A 0.000258494
3 *2356:A S[16] 0.000213293
4 *2356:A S[18] 0
5 *2356:A *471:39 0
*RES
1 A[14] *2356:A 5.273 
*END

*D_NET *7 0.00128686
*CONN
*P A[15] I
*I *2363:A I *D sky130_fd_sc_hd__clkdlybuf4s25_1
*CAP
1 A[15] 0.000310532
2 *2363:A 0.000310532
3 *2363:A S[15] 0.000379429
4 *2363:A *2217:B 0.000118504
5 *2363:A *2313:A 0
6 *2363:A *2333:A 0.000167868
7 *2363:A *471:37 0
*RES
1 A[15] *2363:A 8.078 
*END

*D_NET *8 0.00190831
*CONN
*P A[16] I
*I *2364:A I *D sky130_fd_sc_hd__clkdlybuf4s25_1
*CAP
1 A[16] 0.000465281
2 *2364:A 0.000465281
3 *2364:A S[3] 0.000188914
4 *2364:A *2288:A 0
5 *2364:A *2319:A 0.000365912
6 *2364:A *2336:A 8.77298e-05
7 *2364:A *2354:A 0.000250002
8 *2364:A *513:12 8.5193e-05
*RES
1 A[16] *2364:A 6.9139 
*END

*D_NET *9 0.00168318
*CONN
*P A[17] I
*I *2365:A I *D sky130_fd_sc_hd__clkdlybuf4s25_1
*CAP
1 A[17] 0.000508325
2 *2365:A 0.000508325
3 *2365:A *2314:A 5.72429e-05
4 *2365:A *2315:A 0
5 *2365:A *2336:A 0.000278748
6 *2365:A *2349:A 0.000155684
7 *2365:A *2350:A 0.000124895
8 *2365:A *549:10 4.99619e-05
*RES
1 A[17] *2365:A 11.0868 
*END

*D_NET *10 0.00101907
*CONN
*P A[18] I
*I *2302:A I *D sky130_fd_sc_hd__clkdlybuf4s25_1
*CAP
1 A[18] 0.000411008
2 *2302:A 0.000411008
3 *2302:A S[28] 5.51545e-05
4 *2302:A *2303:A 0
5 *2302:A *2337:A 0.0001419
*RES
1 A[18] *2302:A 9.94223 
*END

*D_NET *11 0.000862789
*CONN
*P A[19] I
*I *2303:A I *D sky130_fd_sc_hd__clkdlybuf4s25_1
*CAP
1 A[19] 0.000335324
2 *2303:A 0.000335324
3 *2303:A S[28] 0
4 *2303:A *2338:A 0.000192142
5 *2302:A *2303:A 0
*RES
1 A[19] *2303:A 8.09377 
*END

*D_NET *12 0.00168858
*CONN
*P A[1] I
*I *2304:A I *D sky130_fd_sc_hd__clkdlybuf4s25_1
*CAP
1 A[1] 0.00044639
2 *2304:A 0.00044639
3 *2304:A S[1] 0
4 *2304:A *1910:A 4.92096e-05
5 *2304:A *1916:A1 0.000176647
6 *2304:A *2185:A2 4.82863e-05
7 *2304:A *2339:A 0.000521661
8 *2304:A *2357:A 0
*RES
1 A[1] *2304:A 15.345 
*END

*D_NET *13 0.00130527
*CONN
*P A[20] I
*I *2305:A I *D sky130_fd_sc_hd__clkdlybuf4s25_1
*CAP
1 A[20] 0.00039665
2 *2305:A 0.00039665
3 *2305:A *2340:A 0.000507043
4 *2305:A *540:8 4.9253e-06
*RES
1 A[20] *2305:A 13.7738 
*END

*D_NET *14 0.0013295
*CONN
*P A[21] I
*I *2306:A I *D sky130_fd_sc_hd__clkdlybuf4s25_1
*CAP
1 A[21] 0.000400622
2 *2306:A 0.000400622
3 *2306:A S[21] 0
4 *2306:A *2341:A 0.000478296
5 *2306:A *2388:A 4.99619e-05
*RES
1 A[21] *2306:A 13.7738 
*END

*D_NET *15 0.00162624
*CONN
*P A[22] I
*I *2307:A I *D sky130_fd_sc_hd__clkdlybuf4s25_1
*CAP
1 A[22] 0.000485258
2 *2307:A 0.000485258
3 *2307:A S[19] 0
4 *2307:A *2308:A 0.000505176
5 *2307:A *2391:A 0.00011964
6 *2307:A *500:12 3.09088e-05
*RES
1 A[22] *2307:A 15.8438 
*END

*D_NET *16 0.00247474
*CONN
*P A[23] I
*I *2308:A I *D sky130_fd_sc_hd__clkdlybuf4s25_1
*CAP
1 A[23] 0.000830857
2 *2308:A 0.000830857
3 *2308:A S[23] 0.000109267
4 *2308:A *2300:A 0.000198581
5 *2308:A *2342:A 0
6 *2308:A *500:12 0
7 *2307:A *2308:A 0.000505176
*RES
1 A[23] *2308:A 21.3487 
*END

*D_NET *17 0.00242154
*CONN
*P A[24] I
*I *2309:A I *D sky130_fd_sc_hd__clkdlybuf4s25_1
*CAP
1 A[24] 0.000481723
2 *2309:A 0.000481723
3 *2309:A S[23] 0.000672433
4 *2309:A S[24] 0.00049174
5 *2309:A *2343:A 0.000200615
6 *2309:A *542:10 9.3305e-05
*RES
1 A[24] *2309:A 18.0187 
*END

*D_NET *18 0.0016022
*CONN
*P A[25] I
*I *2310:A I *D sky130_fd_sc_hd__clkdlybuf4s25_1
*CAP
1 A[25] 0.000466099
2 *2310:A 0.000466099
3 *2310:A S[25] 0.000146149
4 *2310:A *2346:A 0.000451385
5 *2310:A *2393:A 5.53249e-06
6 *2310:A *508:10 6.69341e-05
*RES
1 A[25] *2310:A 15.4987 
*END

*D_NET *19 0.00164047
*CONN
*P A[26] I
*I *2311:A I *D sky130_fd_sc_hd__clkdlybuf4s25_1
*CAP
1 A[26] 0.00032637
2 *2311:A 0.00032637
3 *2311:A S[26] 0.000617341
4 *2311:A *2104:A 0
5 *2311:A *2347:A 0.000370394
*RES
1 A[26] *2311:A 8.843 
*END

*D_NET *20 0.00165097
*CONN
*P A[27] I
*I *2313:A I *D sky130_fd_sc_hd__clkdlybuf4s25_1
*CAP
1 A[27] 0.000647011
2 *2313:A 0.000647011
3 *2313:A S[15] 0
4 *2313:A S[27] 0.000283105
5 *2313:A *2217:B 0
6 *2313:A *2333:A 0
7 *2313:A *2348:A 7.38417e-05
8 *2313:A *471:16 0
9 *2313:A *532:10 0
10 *2363:A *2313:A 0
*RES
1 A[27] *2313:A 6.75913 
*END

*D_NET *21 0.00233943
*CONN
*P A[28] I
*I *2314:A I *D sky130_fd_sc_hd__clkdlybuf4s25_1
*CAP
1 A[28] 0.000696466
2 *2314:A 0.000696466
3 *2314:A S[29] 0
4 *2314:A S[3] 0
5 *2314:A *2141:B 9.84372e-05
6 *2314:A *2315:A 9.70043e-06
7 *2314:A *2319:A 0.000364081
8 *2314:A *2336:A 0
9 *2314:A *2349:A 0.000251627
10 *2314:A *2350:A 0.000165407
11 *2314:A *549:10 0
12 *2365:A *2314:A 5.72429e-05
*RES
1 A[28] *2314:A 14.3966 
*END

*D_NET *22 0.0018201
*CONN
*P A[29] I
*I *2315:A I *D sky130_fd_sc_hd__clkdlybuf4s25_1
*CAP
1 A[29] 0.000406821
2 *2315:A 0.000406821
3 *2315:A S[29] 0.000188914
4 *2315:A *2141:B 0
5 *2315:A *2349:A 0.00024282
6 *2315:A *2350:A 0.000565029
7 *2314:A *2315:A 9.70043e-06
8 *2365:A *2315:A 0
*RES
1 A[29] *2315:A 12.6838 
*END

*D_NET *23 0.00212413
*CONN
*P A[2] I
*I *2316:A I *D sky130_fd_sc_hd__clkdlybuf4s25_1
*CAP
1 A[2] 0.000560171
2 *2316:A 0.000560171
3 *2316:A S[0] 4.70256e-05
4 *2316:A S[2] 0.000194101
5 *2316:A *2177:A 0
6 *2316:A *2319:A 0.000573744
7 *2316:A *2335:A 0
8 *2316:A *2351:A 0.000188914
9 *2316:A *515:10 0
*RES
1 A[2] *2316:A 13.3766 
*END

*D_NET *24 0.000832299
*CONN
*P A[30] I
*I *2317:A I *D sky130_fd_sc_hd__clkdlybuf4s25_1
*CAP
1 A[30] 0.000305421
2 *2317:A 0.000305421
3 *2317:A S[30] 0
4 *2317:A *2318:A 9.48869e-05
5 *2317:A *2352:A 0.00012657
*RES
1 A[30] *2317:A 8.7307 
*END

*D_NET *25 0.00208835
*CONN
*P A[31] I
*I *2318:A I *D sky130_fd_sc_hd__clkdlybuf4s25_1
*CAP
1 A[31] 0.000685765
2 *2318:A 0.000685765
3 *2318:A carryOut 0.000346039
4 *2318:A *2164:B 7.38415e-05
5 *2318:A *2352:A 6.71331e-05
6 *2318:A *421:8 0.00013492
7 *2318:A *517:8 0
8 *2317:A *2318:A 9.48869e-05
*RES
1 A[31] *2318:A 14.1416 
*END

*D_NET *26 0.00349341
*CONN
*P A[3] I
*I *2319:A I *D sky130_fd_sc_hd__clkdlybuf4s25_1
*CAP
1 A[3] 0.000896494
2 *2319:A 0.000896494
3 *2319:A S[0] 2.75229e-05
4 *2319:A S[3] 0
5 *2319:A *1953:B1_N 0
6 *2319:A *2177:A 0
7 *2319:A *2336:A 0.000369161
8 *2319:A *2351:A 0
9 *2319:A *234:12 0
10 *2319:A *431:12 0
11 *2319:A *478:34 0
12 *2319:A *515:10 0
13 *2314:A *2319:A 0.000364081
14 *2316:A *2319:A 0.000573744
15 *2364:A *2319:A 0.000365912
*RES
1 A[3] *2319:A 20.2599 
*END

*D_NET *27 0.00204026
*CONN
*P A[4] I
*I *2320:A I *D sky130_fd_sc_hd__clkdlybuf4s25_1
*CAP
1 A[4] 0.000635861
2 *2320:A 0.000635861
3 *2320:A S[5] 0
4 *2320:A *1916:A1 8.57024e-05
5 *2320:A *2186:B 9.50342e-06
6 *2320:A *2355:A 0.000440154
7 *2320:A *519:10 8.79923e-05
8 *2320:A *554:10 0.000145184
*RES
1 A[4] *2320:A 17.985 
*END

*D_NET *28 0.00236378
*CONN
*P A[5] I
*I *2321:A I *D sky130_fd_sc_hd__clkdlybuf4s25_1
*CAP
1 A[5] 0.000952292
2 *2321:A 0.000952292
3 *2321:A S[1] 0.00023049
4 *2321:A *1912:A1 0
5 *2321:A *2357:A 0.000228706
*RES
1 A[5] *2321:A 26.35 
*END

*D_NET *29 0.00126092
*CONN
*P A[6] I
*I *2322:A I *D sky130_fd_sc_hd__clkdlybuf4s25_1
*CAP
1 A[6] 0.000587165
2 *2322:A 0.000587165
3 *2322:A *2324:A 8.65905e-05
4 *2322:A *2358:A 0
*RES
1 A[6] *2322:A 13.845 
*END

*D_NET *30 0.00139664
*CONN
*P A[7] I
*I *2324:A I *D sky130_fd_sc_hd__clkdlybuf4s25_1
*CAP
1 A[7] 0.000561383
2 *2324:A 0.000561383
3 *2324:A S[4] 0.000187283
4 *2324:A *2358:A 0
5 *2324:A *2359:A 0
6 *2322:A *2324:A 8.65905e-05
*RES
1 A[7] *2324:A 14.775 
*END

*D_NET *31 0.00265979
*CONN
*P A[8] I
*I *2325:A I *D sky130_fd_sc_hd__clkdlybuf4s25_1
*CAP
1 A[8] 0.000567166
2 *2325:A 0.000567166
3 *2325:A *1930:A1 2.49909e-05
4 *2325:A *2258:B 6.44051e-05
5 *2325:A *2260:B 0.000183043
6 *2325:A *2329:A 0
7 *2325:A *2360:A 0.00080594
8 *2325:A *449:14 0
9 *2325:A *466:17 2.23922e-05
10 *2325:A *466:19 0.000152127
11 *2325:A *466:21 0.000177568
12 *2325:A *559:12 9.49958e-05
13 *2323:A *2325:A 0
*RES
1 A[8] *2325:A 19.53 
*END

*D_NET *32 0.00108367
*CONN
*P A[9] I
*I *2326:A I *D sky130_fd_sc_hd__clkdlybuf4s25_1
*CAP
1 A[9] 0.000541837
2 *2326:A 0.000541837
3 *2326:A *2361:A 0
*RES
1 A[9] *2326:A 13.05 
*END

*D_NET *33 0.00170023
*CONN
*P B[0] I
*I *2327:A I *D sky130_fd_sc_hd__dlygate4sd1_1
*CAP
1 B[0] 0.00062493
2 *2327:A 0.00062493
3 *2327:A S[0] 0.000315655
4 *2327:A *1945:B 0
5 *2327:A *1948:A1 0
6 *2327:A *2172:A 6.5265e-05
7 *2327:A *450:29 6.9451e-05
8 *2327:A *526:32 0
9 *2301:A *2327:A 0
*RES
1 B[0] *2327:A 12.3566 
*END

*D_NET *34 0.00188274
*CONN
*P B[10] I
*I *2328:A I *D sky130_fd_sc_hd__clkdlybuf4s25_1
*CAP
1 B[10] 0.00047756
2 *2328:A 0.00047756
3 *2328:A *2330:A 0.000367838
4 *2328:A *2331:A 0
5 *2312:A *2328:A 4.71155e-05
6 *2334:A *2328:A 0.000512671
*RES
1 B[10] *2328:A 6.20527 
*END

*D_NET *35 0.00207868
*CONN
*P B[11] I
*I *2329:A I *D sky130_fd_sc_hd__clkdlybuf4s25_1
*CAP
1 B[11] 0.000726247
2 *2329:A 0.000726247
3 *2329:A *2191:B2 8.38943e-05
4 *2329:A *2260:B 0
5 *2329:A *2263:B 8.77073e-05
6 *2329:A *2263:C 0
7 *2329:A *438:10 0
8 *2329:A *466:17 0
9 *2329:A *466:19 0
10 *2329:A *524:10 3.64998e-06
11 *2323:A *2329:A 0.000450933
12 *2325:A *2329:A 0
*RES
1 B[11] *2329:A 19.425 
*END

*D_NET *36 0.00168235
*CONN
*P B[12] I
*I *2330:A I *D sky130_fd_sc_hd__clkdlybuf4s25_1
*CAP
1 B[12] 0.000614918
2 *2330:A 0.000614918
3 *2330:A *2271:A1 2.04694e-05
4 *2330:A *527:31 1.70935e-05
5 *2312:A *2330:A 4.71155e-05
6 *2328:A *2330:A 0.000367838
*RES
1 B[12] *2330:A 6.402 
*END

*D_NET *37 0.00186488
*CONN
*P B[13] I
*I *2331:A I *D sky130_fd_sc_hd__clkdlybuf4s25_1
*CAP
1 B[13] 0.000425216
2 *2331:A 0.000425216
3 *2331:A S[12] 0.000438923
4 *2331:A S[13] 0.000118366
5 *2331:A *2227:A1 8.3907e-05
6 *2331:A *2227:B1_N 0
7 *2331:A *2228:B 4.18603e-06
8 *2328:A *2331:A 0
9 *2334:A *2331:A 0
10 *2345:A *2331:A 0.000369062
*RES
1 B[13] *2331:A 6.93393 
*END

*D_NET *38 0.00100054
*CONN
*P B[14] I
*I *2332:A I *D sky130_fd_sc_hd__clkdlybuf4s25_1
*CAP
1 B[14] 0.000308851
2 *2332:A 0.000308851
3 *2332:A S[15] 0
4 *2332:A S[18] 0.000382841
5 *2332:A *471:37 0
*RES
1 B[14] *2332:A 6.293 
*END

*D_NET *39 0.00122408
*CONN
*P B[15] I
*I *2333:A I *D sky130_fd_sc_hd__clkdlybuf4s25_1
*CAP
1 B[15] 0.00050735
2 *2333:A 0.00050735
3 *2333:A *2348:A 4.15095e-05
4 *2313:A *2333:A 0
5 *2363:A *2333:A 0.000167868
*RES
1 B[15] *2333:A 11.5286 
*END

*D_NET *40 0.00204412
*CONN
*P B[16] I
*I *2335:A I *D sky130_fd_sc_hd__clkdlybuf4s25_1
*CAP
1 B[16] 0.000583202
2 *2335:A 0.000583202
3 *2335:A *2180:A_N 0.000125439
4 *2335:A *2180:B 8.49205e-05
5 *2335:A *2351:A 0
6 *2335:A *2354:A 0.000639544
7 *2335:A *234:12 4.18603e-06
8 *2335:A *431:12 0
9 *2335:A *513:12 2.36272e-05
10 *2316:A *2335:A 0
*RES
1 B[16] *2335:A 8.2991 
*END

*D_NET *41 0.00201428
*CONN
*P B[17] I
*I *2336:A I *D sky130_fd_sc_hd__clkdlybuf4s25_1
*CAP
1 B[17] 0.000617303
2 *2336:A 0.000617303
3 *2336:A *513:12 0
4 *2336:A *548:12 1.83847e-05
5 *2336:A *549:10 2.56523e-05
6 *2314:A *2336:A 0
7 *2319:A *2336:A 0.000369161
8 *2364:A *2336:A 8.77298e-05
9 *2365:A *2336:A 0.000278748
*RES
1 B[17] *2336:A 8.77103 
*END

*D_NET *42 0.00244589
*CONN
*P B[18] I
*I *2337:A I *D sky130_fd_sc_hd__clkdlybuf4s25_1
*CAP
1 B[18] 0.000593004
2 *2337:A 0.000593004
3 *2337:A S[29] 0.000529137
4 *2337:A *2396:A 5.6361e-05
5 *2337:A *2397:A 5.59676e-05
6 *2337:A *401:10 0.000236246
7 *2337:A *402:10 0.000240274
8 *2302:A *2337:A 0.0001419
*RES
1 B[18] *2337:A 10.8843 
*END

*D_NET *43 0.000981962
*CONN
*P B[19] I
*I *2338:A I *D sky130_fd_sc_hd__clkdlybuf4s25_1
*CAP
1 B[19] 0.00039491
2 *2338:A 0.00039491
3 *2338:A S[30] 0
4 *2338:A S[31] 0
5 *2338:A *2139:B 0
6 *2338:A *399:10 0
7 *2303:A *2338:A 0.000192142
*RES
1 B[19] *2338:A 6.74663 
*END

*D_NET *44 0.00238584
*CONN
*P B[1] I
*I *2339:A I *D sky130_fd_sc_hd__clkdlybuf4s25_1
*CAP
1 B[1] 0.000558251
2 *2339:A 0.000558251
3 *2339:A *1916:A1 0.000155928
4 *2339:A *1917:C1 2.81759e-05
5 *2339:A *2185:A2 4.21889e-05
6 *2339:A *186:6 0.000423626
7 *2339:A *473:10 4.85494e-05
8 *2339:A *538:10 4.92062e-05
9 *2304:A *2339:A 0.000521661
*RES
1 B[1] *2339:A 18.9 
*END

*D_NET *45 0.001895
*CONN
*P B[20] I
*I *2340:A I *D sky130_fd_sc_hd__clkdlybuf4s25_1
*CAP
1 B[20] 0.000629964
2 *2340:A 0.000629964
3 *2340:A *2029:A 0
4 *2340:A *2388:A 0
5 *2340:A *286:10 4.99619e-05
6 *2340:A *464:10 0
7 *2340:A *539:6 4.82919e-05
8 *2340:A *539:26 2.97746e-05
9 *2305:A *2340:A 0.000507043
*RES
1 B[20] *2340:A 17.8538 
*END

*D_NET *46 0.00163595
*CONN
*P B[21] I
*I *2341:A I *D sky130_fd_sc_hd__clkdlybuf4s25_1
*CAP
1 B[21] 0.000527526
2 *2341:A 0.000527526
3 *2341:A *2029:A 4.80285e-05
4 *2341:A *2029:B 3.00381e-05
5 *2341:A *2388:A 2.45351e-05
6 *2306:A *2341:A 0.000478296
*RES
1 B[21] *2341:A 15.2587 
*END

*D_NET *47 0.00227657
*CONN
*P B[22] I
*I *2342:A I *D sky130_fd_sc_hd__clkdlybuf4s25_1
*CAP
1 B[22] 0.0010282
2 *2342:A 0.0010282
3 *2342:A S[23] 0.000107399
4 *2342:A *2048:B 0
5 *2342:A *2050:B1_N 0
6 *2342:A *2299:A 6.35535e-05
7 *2342:A *2343:A 0
8 *2342:A *2424:A 0
9 *2342:A *315:18 4.92096e-05
10 *2342:A *500:12 0
11 *2342:A *542:10 0
12 *2308:A *2342:A 0
*RES
1 B[22] *2342:A 21.9338 
*END

*D_NET *48 0.0025372
*CONN
*P B[23] I
*I *2343:A I *D sky130_fd_sc_hd__clkdlybuf4s25_1
*CAP
1 B[23] 0.00087839
2 *2343:A 0.00087839
3 *2343:A *2391:A 4.04522e-05
4 *2343:A *472:10 0.000416053
5 *2343:A *542:10 0.000123299
6 *2309:A *2343:A 0.000200615
7 *2342:A *2343:A 0
*RES
1 B[23] *2343:A 20.8838 
*END

*D_NET *49 0.00259403
*CONN
*P B[24] I
*I *2344:A I *D sky130_fd_sc_hd__clkdlybuf4s25_1
*CAP
1 B[24] 0.000637086
2 *2344:A 0.000637086
3 *2344:A S[24] 0.000364552
4 *2344:A S[25] 0.000629227
5 *2344:A *2081:B 0
6 *2344:A *2082:C 9.50342e-06
7 *2344:A *2096:A1 1.26626e-05
8 *2344:A *2392:A 0.000162318
9 *2344:A *507:12 0
10 *2344:A *507:23 0.000141599
*RES
1 B[24] *2344:A 24.7188 
*END

*D_NET *50 0.00203332
*CONN
*P B[25] I
*I *2346:A I *D sky130_fd_sc_hd__clkdlybuf4s25_1
*CAP
1 B[25] 0.000615818
2 *2346:A 0.000615818
3 *2346:A S[25] 0.000256998
4 *2346:A *508:10 9.3305e-05
5 *2310:A *2346:A 0.000451385
*RES
1 B[25] *2346:A 17.8838 
*END

*D_NET *51 0.00152627
*CONN
*P B[26] I
*I *2347:A I *D sky130_fd_sc_hd__clkdlybuf4s25_1
*CAP
1 B[26] 0.000568175
2 *2347:A 0.000568175
3 *2347:A S[26] 1.09934e-05
4 *2347:A *2113:A 8.53113e-06
5 *2347:A *471:10 0
6 *2311:A *2347:A 0.000370394
*RES
1 B[26] *2347:A 6.75913 
*END

*D_NET *52 0.00166039
*CONN
*P B[27] I
*I *2348:A I *D sky130_fd_sc_hd__clkdlybuf4s25_1
*CAP
1 B[27] 0.00077252
2 *2348:A 0.00077252
3 *2313:A *2348:A 7.38417e-05
4 *2333:A *2348:A 4.15095e-05
*RES
1 B[27] *2348:A 17.0105 
*END

*D_NET *53 0.00163972
*CONN
*P B[28] I
*I *2349:A I *D sky130_fd_sc_hd__clkdlybuf4s25_1
*CAP
1 B[28] 0.000494793
2 *2349:A 0.000494793
3 *2314:A *2349:A 0.000251627
4 *2315:A *2349:A 0.00024282
5 *2365:A *2349:A 0.000155684
*RES
1 B[28] *2349:A 11.6286 
*END

*D_NET *54 0.00185359
*CONN
*P B[29] I
*I *2350:A I *D sky130_fd_sc_hd__clkdlybuf4s25_1
*CAP
1 B[29] 0.00049913
2 *2350:A 0.00049913
3 *2314:A *2350:A 0.000165407
4 *2315:A *2350:A 0.000565029
5 *2365:A *2350:A 0.000124895
*RES
1 B[29] *2350:A 13.7355 
*END

*D_NET *55 0.00129032
*CONN
*P B[2] I
*I *2351:A I *D sky130_fd_sc_hd__clkdlybuf4s25_1
*CAP
1 B[2] 0.000550703
2 *2351:A 0.000550703
3 *2316:A *2351:A 0.000188914
4 *2319:A *2351:A 0
5 *2335:A *2351:A 0
*RES
1 B[2] *2351:A 11.3338 
*END

*D_NET *56 0.00182159
*CONN
*P B[30] I
*I *2352:A I *D sky130_fd_sc_hd__clkdlybuf4s25_1
*CAP
1 B[30] 0.00051613
2 *2352:A 0.00051613
3 *2352:A carryOut 0.00028294
4 *2352:A *2353:A 0.000282647
5 *2352:A *422:16 0
6 *2352:A *516:10 3.00381e-05
7 *2317:A *2352:A 0.00012657
8 *2318:A *2352:A 6.71331e-05
*RES
1 B[30] *2352:A 12.3618 
*END

*D_NET *57 0.00179832
*CONN
*P B[31] I
*I *2353:A I *D sky130_fd_sc_hd__clkdlybuf4s25_1
*CAP
1 B[31] 0.000643354
2 *2353:A 0.000643354
3 *2353:A carryOut 0.000131323
4 *2353:A *2292:A 0
5 *2353:A *2408:A 9.76456e-05
6 *2352:A *2353:A 0.000282647
*RES
1 B[31] *2353:A 7.9339 
*END

*D_NET *58 0.00305369
*CONN
*P B[3] I
*I *2354:A I *D sky130_fd_sc_hd__clkdlybuf4s25_1
*CAP
1 B[3] 0.000785436
2 *2354:A 0.000785436
3 *2354:A S[3] 0.000188914
4 *2354:A *1953:A2 8.53113e-06
5 *2354:A *1962:A2 4.40358e-05
6 *2354:A *2180:A_N 0
7 *2354:A *2180:B 0.000120985
8 *2354:A *513:12 2.09442e-05
9 *2354:A *518:20 0.000209858
10 *2335:A *2354:A 0.000639544
11 *2364:A *2354:A 0.000250002
*RES
1 B[3] *2354:A 11.3654 
*END

*D_NET *59 0.00133746
*CONN
*P B[4] I
*I *2355:A I *D sky130_fd_sc_hd__clkdlybuf4s25_1
*CAP
1 B[4] 0.000429724
2 *2355:A 0.000429724
3 *2355:A S[5] 0
4 *2355:A *2186:B 2.75145e-05
5 *2355:A *554:10 1.03423e-05
6 *2320:A *2355:A 0.000440154
*RES
1 B[4] *2355:A 13.5 
*END

*D_NET *60 0.00289503
*CONN
*P B[5] I
*I *2357:A I *D sky130_fd_sc_hd__clkdlybuf4s25_1
*CAP
1 B[5] 0.000980416
2 *2357:A 0.000980416
3 *2357:A S[1] 0.000344829
4 *2357:A *1910:A 6.97034e-05
5 *2357:A *1910:B 7.10044e-05
6 *2357:A *1912:A1 5.06989e-05
7 *2357:A *556:6 9.58212e-05
8 *2357:A *556:15 7.34372e-05
9 *2304:A *2357:A 0
10 *2321:A *2357:A 0.000228706
*RES
1 B[5] *2357:A 20.955 
*END

*D_NET *61 0.0013745
*CONN
*P B[6] I
*I *2358:A I *D sky130_fd_sc_hd__clkdlybuf4s25_1
*CAP
1 B[6] 0.000578724
2 *2358:A 0.000578724
3 *2358:A S[4] 0.000217054
4 *2358:A S[7] 0
5 *2358:A *2287:A2 0
6 *2358:A *521:12 0
7 *2322:A *2358:A 0
8 *2324:A *2358:A 0
*RES
1 B[6] *2358:A 14.895 
*END

*D_NET *62 0.0013216
*CONN
*P B[7] I
*I *2359:A I *D sky130_fd_sc_hd__clkdlybuf4s25_1
*CAP
1 B[7] 0.000430786
2 *2359:A 0.000430786
3 *2359:A S[4] 0.000441643
4 *2359:A *523:10 1.83847e-05
5 *2324:A *2359:A 0
*RES
1 B[7] *2359:A 13.05 
*END

*D_NET *63 0.00235703
*CONN
*P B[8] I
*I *2360:A I *D sky130_fd_sc_hd__clkdlybuf4s25_1
*CAP
1 B[8] 0.000602135
2 *2360:A 0.000602135
3 *2360:A *2260:B 0.000163204
4 *2360:A *559:8 3.52525e-05
5 *2360:A *559:12 3.25831e-05
6 *2323:A *2360:A 0.000115779
7 *2325:A *2360:A 0.00080594
*RES
1 B[8] *2360:A 18.015 
*END

*D_NET *64 0.00168257
*CONN
*P B[9] I
*I *2361:A I *D sky130_fd_sc_hd__clkdlybuf4s25_1
*CAP
1 B[9] 0.000741813
2 *2361:A 0.000741813
3 *2361:A *525:8 0
4 *2361:A *525:21 0
5 *2361:A *560:8 0.000198945
6 *2326:A *2361:A 0
*RES
1 B[9] *2361:A 16.725 
*END

*D_NET *65 0.00187399
*CONN
*P S[0] O
*I *2376:X O *D sky130_fd_sc_hd__clkdlybuf4s25_1
*CAP
1 S[0] 0.000661751
2 *2376:X 0.000661751
3 S[0] *518:20 1.83847e-05
4 *2301:A S[0] 0.0001419
5 *2316:A S[0] 4.70256e-05
6 *2319:A S[0] 2.75229e-05
7 *2327:A S[0] 0.000315655
*RES
1 *2376:X S[0] 12.0018 
*END

*D_NET *66 0.00180934
*CONN
*P S[10] O
*I *2377:X O *D sky130_fd_sc_hd__dlymetal6s4s_1
*CAP
1 S[10] 0.000650891
2 *2377:X 0.000650891
3 S[10] S[11] 0.000402935
4 S[10] *2196:A 0.000104619
5 S[10] *2377:A 0
*RES
1 *2377:X S[10] 7.10873 
*END

*D_NET *67 0.0017946
*CONN
*P S[11] O
*I *2378:X O *D sky130_fd_sc_hd__clkbuf_2
*CAP
1 S[11] 0.000497904
2 *2378:X 0.000497904
3 S[11] *2378:A 0.000229515
4 S[10] S[11] 0.000402935
5 *2345:A S[11] 0.000166346
*RES
1 *2378:X S[11] 9.66627 
*END

*D_NET *68 0.00171959
*CONN
*P S[12] O
*I *2379:X O *D sky130_fd_sc_hd__dlymetal6s4s_1
*CAP
1 S[12] 0.000435867
2 *2379:X 0.000435867
3 S[12] *2227:B1_N 1.17036e-05
4 S[12] *115:12 0.000162047
5 S[12] *544:10 0.000173298
6 *2331:A S[12] 0.000438923
7 *2334:A S[12] 0
8 *2345:A S[12] 6.18807e-05
*RES
1 *2379:X S[12] 9.0178 
*END

*D_NET *69 0.00239149
*CONN
*P S[13] O
*I *2380:X O *D sky130_fd_sc_hd__dlymetal6s4s_1
*CAP
1 S[13] 0.000678372
2 *2380:X 0.000678372
3 S[13] S[14] 0.000540169
4 S[13] *2202:A1 0
5 *2331:A S[13] 0.000118366
6 *2345:A S[13] 0.000376209
*RES
1 *2380:X S[13] 6.43833 
*END

*D_NET *70 0.00247696
*CONN
*P S[14] O
*I *2381:X O *D sky130_fd_sc_hd__clkbuf_4
*CAP
1 S[14] 0.000683946
2 *2381:X 0.000683946
3 S[14] S[17] 0.000402935
4 S[14] *2220:A 3.64998e-06
5 S[14] *2220:B 3.45679e-05
6 S[14] *2221:A 4.49498e-05
7 S[14] *2221:B 5.71917e-05
8 S[14] *555:10 2.55998e-05
9 S[13] S[14] 0.000540169
*RES
1 *2381:X S[14] 11.6641 
*END

*D_NET *71 0.00139353
*CONN
*P S[15] O
*I *2382:X O *D sky130_fd_sc_hd__clkbuf_2
*CAP
1 S[15] 0.00041811
2 *2382:X 0.00041811
3 S[15] S[18] 0
4 S[15] *471:37 0.000177886
5 *2313:A S[15] 0
6 *2332:A S[15] 0
7 *2363:A S[15] 0.000379429
*RES
1 *2382:X S[15] 7.29107 
*END

*D_NET *72 0.000939157
*CONN
*P S[16] O
*I *2383:X O *D sky130_fd_sc_hd__buf_6
*CAP
1 S[16] 0.00016779
2 *2383:X 0.00016779
3 S[16] S[17] 0.000390284
4 S[16] *2221:A 0
5 *2356:A S[16] 0.000213293
*RES
1 *2383:X S[16] 5.33127 
*END

*D_NET *73 0.00117407
*CONN
*P S[17] O
*I *2384:X O *D sky130_fd_sc_hd__buf_6
*CAP
1 S[17] 0.000190427
2 *2384:X 0.000190427
3 S[14] S[17] 0.000402935
4 S[16] S[17] 0.000390284
*RES
1 *2384:X S[17] 6.09627 
*END

*D_NET *74 0.00121488
*CONN
*P S[18] O
*I *2385:X O *D sky130_fd_sc_hd__clkbuf_4
*CAP
1 S[18] 0.000371343
2 *2385:X 0.000371343
3 S[18] *471:37 2.38193e-05
4 S[18] *471:39 6.55328e-05
5 S[15] S[18] 0
6 *2332:A S[18] 0.000382841
7 *2356:A S[18] 0
*RES
1 *2385:X S[18] 6.9778 
*END

*D_NET *75 0.00296384
*CONN
*P S[19] O
*I *2386:X O *D sky130_fd_sc_hd__clkbuf_4
*CAP
1 S[19] 0.0010926
2 *2386:X 0.0010926
3 S[19] *2063:C 0
4 S[19] *2068:C1 7.24866e-05
5 S[19] *2069:B1 0.000185405
6 S[19] *2070:A 6.02202e-05
7 S[19] *2070:B 0.000170535
8 S[19] *2071:D1 7.99094e-05
9 S[19] *2386:A 4.82863e-05
10 S[19] *2391:A 0
11 S[19] *2435:A 4.70475e-05
12 S[19] *317:12 0.000114753
13 S[19] *500:12 0
14 S[19] *506:14 0
15 *2307:A S[19] 0
*RES
1 *2386:X S[19] 25.7738 
*END

*D_NET *76 0.00261465
*CONN
*P S[1] O
*I *2387:X O *D sky130_fd_sc_hd__dlymetal6s2s_1
*CAP
1 S[1] 0.000717927
2 *2387:X 0.000717927
3 S[1] *1910:A 0
4 S[1] *1912:B1_N 0
5 S[1] *1916:A1 0
6 S[1] *520:44 0.000291379
7 S[1] *538:10 0.000312097
8 *2304:A S[1] 0
9 *2321:A S[1] 0.00023049
10 *2357:A S[1] 0.000344829
*RES
1 *2387:X S[1] 20.31 
*END

*D_NET *77 0.00154612
*CONN
*P S[20] O
*I *2388:X O *D sky130_fd_sc_hd__buf_6
*CAP
1 S[20] 0.000499725
2 *2388:X 0.000499725
3 S[20] S[21] 0.000493607
4 S[20] *2388:A 5.30673e-05
*RES
1 *2388:X S[20] 15.2437 
*END

*D_NET *78 0.00182459
*CONN
*P S[21] O
*I *2389:X O *D sky130_fd_sc_hd__buf_8
*CAP
1 S[21] 0.000593321
2 *2389:X 0.000593321
3 S[21] *2029:B 0
4 S[21] *2300:A 6.47326e-05
5 S[21] *2389:A 2.75229e-05
6 S[21] *297:8 0
7 S[21] *495:10 5.2089e-05
8 S[20] S[21] 0.000493607
9 *2306:A S[21] 0
*RES
1 *2389:X S[21] 17.2987 
*END

*D_NET *79 0.00126456
*CONN
*P S[22] O
*I *2390:X O *D sky130_fd_sc_hd__buf_6
*CAP
1 S[22] 0.000594231
2 *2390:X 0.000594231
3 S[22] *2063:A 7.60965e-05
*RES
1 *2390:X S[22] 14.2087 
*END

*D_NET *80 0.0024911
*CONN
*P S[23] O
*I *2391:X O *D sky130_fd_sc_hd__buf_4
*CAP
1 S[23] 0.000792308
2 *2391:X 0.000792308
3 S[23] S[24] 1.73877e-05
4 S[23] *2432:A 0
5 *2308:A S[23] 0.000109267
6 *2309:A S[23] 0.000672433
7 *2342:A S[23] 0.000107399
*RES
1 *2391:X S[23] 25.0338 
*END

*D_NET *81 0.00271951
*CONN
*P S[24] O
*I *2392:X O *D sky130_fd_sc_hd__buf_6
*CAP
1 S[24] 0.000514199
2 *2392:X 0.000514199
3 S[24] *2079:B 4.82863e-05
4 S[24] *2081:B 0
5 S[24] *2081:C 7.73569e-05
6 S[24] *2083:A2 4.01778e-05
7 S[24] *2392:A 4.66108e-05
8 S[24] *2432:A 0
9 S[24] *475:25 0.000541118
10 S[24] *507:12 6.38806e-05
11 S[23] S[24] 1.73877e-05
12 *2309:A S[24] 0.00049174
13 *2344:A S[24] 0.000364552
*RES
1 *2392:X S[24] 20.2987 
*END

*D_NET *82 0.00253211
*CONN
*P S[25] O
*I *2393:X O *D sky130_fd_sc_hd__buf_6
*CAP
1 S[25] 0.000749869
2 *2393:X 0.000749869
3 *2310:A S[25] 0.000146149
4 *2344:A S[25] 0.000629227
5 *2346:A S[25] 0.000256998
*RES
1 *2393:X S[25] 25.5588 
*END

*D_NET *83 0.00163744
*CONN
*P S[26] O
*I *2394:X O *D sky130_fd_sc_hd__buf_6
*CAP
1 S[26] 0.000504555
2 *2394:X 0.000504555
3 S[26] *2104:A 0
4 S[26] *2104:B 0
5 S[26] *366:8 0
6 *2311:A S[26] 0.000617341
7 *2347:A S[26] 1.09934e-05
*RES
1 *2394:X S[26] 10.1763 
*END

*D_NET *84 0.00125478
*CONN
*P S[27] O
*I *2395:X O *D sky130_fd_sc_hd__buf_6
*CAP
1 S[27] 0.000485836
2 *2395:X 0.000485836
3 S[27] *2111:B 0
4 S[27] *2112:A2 0
5 *2313:A S[27] 0.000283105
*RES
1 *2395:X S[27] 6.24913 
*END

*D_NET *85 0.000902774
*CONN
*P S[28] O
*I *2396:X O *D sky130_fd_sc_hd__buf_6
*CAP
1 S[28] 0.00042381
2 *2396:X 0.00042381
3 *2302:A S[28] 5.51545e-05
4 *2303:A S[28] 0
*RES
1 *2396:X S[28] 10.0957 
*END

*D_NET *86 0.00218482
*CONN
*P S[29] O
*I *2397:X O *D sky130_fd_sc_hd__buf_6
*CAP
1 S[29] 0.000493598
2 *2397:X 0.000493598
3 S[29] *401:10 1.17701e-05
4 S[29] *402:10 0.000290289
5 S[29] *549:10 0.000177513
6 *2314:A S[29] 0
7 *2315:A S[29] 0.000188914
8 *2337:A S[29] 0.000529137
*RES
1 *2397:X S[29] 9.25277 
*END

*D_NET *87 0.00236197
*CONN
*P S[2] O
*I *2398:X O *D sky130_fd_sc_hd__buf_4
*CAP
1 S[2] 0.000718409
2 *2398:X 0.000718409
3 S[2] *1953:B1_N 0.000171123
4 S[2] *1955:B1 0.000279444
5 S[2] *2180:A_N 6.95335e-05
6 S[2] *226:12 2.60986e-05
7 S[2] *431:12 0.000184853
8 *2316:A S[2] 0.000194101
*RES
1 *2398:X S[2] 11.4676 
*END

*D_NET *88 0.00112551
*CONN
*P S[30] O
*I *2399:X O *D sky130_fd_sc_hd__buf_6
*CAP
1 S[30] 0.0004683
2 *2399:X 0.0004683
3 S[30] S[31] 0.000188914
4 S[30] *2400:A 0
5 S[30] *461:12 0
6 *2317:A S[30] 0
7 *2338:A S[30] 0
*RES
1 *2399:X S[30] 7.8249 
*END

*D_NET *89 0.0008272
*CONN
*P S[31] O
*I *2400:X O *D sky130_fd_sc_hd__buf_6
*CAP
1 S[31] 0.000319143
2 *2400:X 0.000319143
3 S[30] S[31] 0.000188914
4 *2338:A S[31] 0
*RES
1 *2400:X S[31] 7.67377 
*END

*D_NET *90 0.00138816
*CONN
*P S[3] O
*I *2401:X O *D sky130_fd_sc_hd__buf_6
*CAP
1 S[3] 0.000505164
2 *2401:X 0.000505164
3 *2314:A S[3] 0
4 *2319:A S[3] 0
5 *2354:A S[3] 0.000188914
6 *2364:A S[3] 0.000188914
*RES
1 *2401:X S[3] 11.7538 
*END

*D_NET *91 0.00226955
*CONN
*P S[4] O
*I *2402:X O *D sky130_fd_sc_hd__clkbuf_2
*CAP
1 S[4] 0.000685737
2 *2402:X 0.000685737
3 S[4] S[7] 0
4 S[4] *523:10 5.20968e-05
5 *2324:A S[4] 0.000187283
6 *2358:A S[4] 0.000217054
7 *2359:A S[4] 0.000441643
*RES
1 *2402:X S[4] 23.77 
*END

*D_NET *92 0.00181137
*CONN
*P S[5] O
*I *2403:X O *D sky130_fd_sc_hd__buf_2
*CAP
1 S[5] 0.00076847
2 *2403:X 0.00076847
3 S[5] S[6] 0
4 S[5] S[7] 0
5 S[5] *1907:A2 8.23457e-05
6 S[5] *1917:A2 6.36578e-05
7 S[5] *1964:B1 0.000116853
8 S[5] *2185:B1 1.15688e-05
9 S[5] *2186:A 0
10 S[5] *190:10 0
11 *2320:A S[5] 0
12 *2355:A S[5] 0
*RES
1 *2403:X S[5] 16.965 
*END

*D_NET *93 0.00123531
*CONN
*P S[6] O
*I *2404:X O *D sky130_fd_sc_hd__buf_6
*CAP
1 S[6] 0.000611826
2 *2404:X 0.000611826
3 S[6] S[7] 0
4 S[6] *2404:A 1.16578e-05
5 S[5] S[6] 0
*RES
1 *2404:X S[6] 13.935 
*END

*D_NET *94 0.00253844
*CONN
*P S[7] O
*I *2405:X O *D sky130_fd_sc_hd__buf_2
*CAP
1 S[7] 0.000796517
2 *2405:X 0.000796517
3 S[7] *1907:A1 4.82863e-05
4 S[7] *1907:A2 3.94429e-05
5 S[7] *1917:A1 0.000117832
6 S[7] *2287:A1 5.83121e-06
7 S[7] *176:6 0.000158072
8 S[7] *177:12 0.000341885
9 S[7] *178:23 8.59365e-05
10 S[7] *190:10 0
11 S[7] *459:79 7.73272e-05
12 S[7] *521:12 0
13 S[7] *557:12 7.07957e-05
14 S[4] S[7] 0
15 S[5] S[7] 0
16 S[6] S[7] 0
17 *2358:A S[7] 0
*RES
1 *2405:X S[7] 20.4 
*END

*D_NET *95 0.00106046
*CONN
*P S[8] O
*I *2406:X O *D sky130_fd_sc_hd__clkbuf_2
*CAP
1 S[8] 0.000530231
2 *2406:X 0.000530231
*RES
1 *2406:X S[8] 12.795 
*END

*D_NET *96 0.00137443
*CONN
*P S[9] O
*I *2407:X O *D sky130_fd_sc_hd__clkbuf_2
*CAP
1 S[9] 0.000672198
2 *2407:X 0.000672198
3 S[9] *2407:A 3.00381e-05
*RES
1 *2407:X S[9] 14.265 
*END

*D_NET *99 0.00202736
*CONN
*P carryOut O
*I *2408:X O *D sky130_fd_sc_hd__buf_6
*CAP
1 carryOut 0.000382796
2 *2408:X 0.000382796
3 carryOut *2164:A 0.000152071
4 carryOut *461:12 0.000140711
5 carryOut *517:8 0.000208683
6 *2318:A carryOut 0.000346039
7 *2352:A carryOut 0.00028294
8 *2353:A carryOut 0.000131323
*RES
1 *2408:X carryOut 9.50777 
*END

*D_NET *100 0.000748316
*CONN
*P sub I
*I *2362:A I *D sky130_fd_sc_hd__buf_8
*CAP
1 sub 0.000374158
2 *2362:A 0.000374158
*RES
1 sub *2362:A 8.41223 
*END

*D_NET *101 0.000666843
*CONN
*I *1915:A I *D sky130_fd_sc_hd__nand3_4
*I *2210:Y O *D sky130_fd_sc_hd__inv_2
*CAP
1 *1915:A 0.000150914
2 *2210:Y 0.000150914
3 *1915:A *1909:B 0.000196048
4 *1915:A *1915:B 4.69765e-05
5 *1915:A *454:16 0.000116158
6 *1915:A *454:53 5.83121e-06
*RES
1 *2210:Y *1915:A 10.77 
*END

*D_NET *102 0.000696722
*CONN
*I *2215:A1 I *D sky130_fd_sc_hd__o21bai_4
*I *2214:A_N I *D sky130_fd_sc_hd__nand3b_2
*I *2211:Y O *D sky130_fd_sc_hd__nor2_8
*CAP
1 *2215:A1 0.000122142
2 *2214:A_N 0.000154699
3 *2211:Y 0.000276841
4 *2214:A_N *2211:B 5.34747e-05
5 *2214:A_N *2214:B 9.3062e-06
6 *2214:A_N *2215:A2 5.02217e-05
7 *2214:A_N *2291:A 0
8 *2215:A1 *2214:B 0
9 *2215:A1 *2215:A2 0
10 *2215:A1 *106:10 3.00381e-05
*RES
1 *2211:Y *2214:A_N 9.72 
2 *2211:Y *2215:A1 9.03 
*END

*D_NET *103 0.000891591
*CONN
*I *2215:A2 I *D sky130_fd_sc_hd__o21bai_4
*I *2212:X O *D sky130_fd_sc_hd__and2_4
*CAP
1 *2215:A2 0.000287532
2 *2212:X 0.000287532
3 *2215:A2 *2214:B 0.000183738
4 *2215:A2 *2214:C 7.22354e-05
5 *2215:A2 *2291:A 0
6 *2215:A2 *258:16 1.03323e-05
7 *2214:A_N *2215:A2 5.02217e-05
8 *2215:A1 *2215:A2 0
*RES
1 *2212:X *2215:A2 12.615 
*END

*D_NET *104 0.00124021
*CONN
*I *2214:B I *D sky130_fd_sc_hd__nand3b_2
*I *2213:Y O *D sky130_fd_sc_hd__nand2_2
*CAP
1 *2214:B 0.000278252
2 *2213:Y 0.000278252
3 *2214:B *2211:A 1.61831e-05
4 *2214:B *2211:B 0.000299625
5 *2214:B *2213:B 4.99619e-05
6 *2214:B *577:8 0.000124895
7 *2214:A_N *2214:B 9.3062e-06
8 *2215:A1 *2214:B 0
9 *2215:A2 *2214:B 0.000183738
*RES
1 *2213:Y *2214:B 13.5 
*END

*D_NET *105 0.00239827
*CONN
*I *1999:A I *D sky130_fd_sc_hd__nand2_2
*I *2216:A I *D sky130_fd_sc_hd__nand2_2
*I *1989:A1 I *D sky130_fd_sc_hd__a21bo_2
*I *1998:A I *D sky130_fd_sc_hd__and4_2
*I *2214:Y O *D sky130_fd_sc_hd__nand3b_2
*CAP
1 *1999:A 0
2 *2216:A 0.000100437
3 *1989:A1 0.000195257
4 *1998:A 0
5 *2214:Y 0.000136873
6 *105:23 0.000372708
7 *105:16 0.000265154
8 *105:12 0.000325013
9 *1989:A1 *106:10 1.22676e-05
10 *1989:A1 *106:27 0.000147543
11 *2216:A *1998:B 8.49205e-05
12 *2216:A *2021:A 4.82919e-05
13 *2216:A *2216:B 3.57349e-05
14 *2216:A *269:10 2.8185e-05
15 *105:12 *258:16 0.000225836
16 *105:16 *1998:D 8.34281e-06
17 *105:16 *258:16 4.66108e-05
18 *105:16 *258:25 0.000188312
19 *105:16 *259:8 5.83121e-06
20 *105:23 *1998:B 0.000124895
21 *105:23 *258:25 4.60584e-05
*RES
1 *2214:Y *105:12 8.285 
2 *105:12 *105:16 3.915 
3 *105:16 *1998:A 1.6 
4 *105:16 *105:23 1.83 
5 *105:23 *1989:A1 9.785 
6 *105:23 *2216:A 3.79 
7 *105:12 *1999:A 1.6 
*END

*D_NET *106 0.00264937
*CONN
*I *2216:B I *D sky130_fd_sc_hd__nand2_2
*I *1998:B I *D sky130_fd_sc_hd__and4_2
*I *1989:B1_N I *D sky130_fd_sc_hd__a21bo_2
*I *2215:Y O *D sky130_fd_sc_hd__o21bai_4
*CAP
1 *2216:B 1.49104e-05
2 *1998:B 5.14891e-05
3 *1989:B1_N 1.33565e-05
4 *2215:Y 0.000684437
5 *106:27 0.000245691
6 *106:10 0.000877085
7 *1989:B1_N *1989:A2 2.41437e-05
8 *1998:B *1998:D 2.30292e-05
9 *1998:B *258:25 4.99619e-05
10 *1998:B *269:10 2.75145e-05
11 *2216:B *269:10 2.49909e-05
12 *106:27 *1990:A 5.83169e-05
13 *106:27 *1990:B 6.74079e-05
14 *106:27 *2021:A 5.16348e-05
15 *106:27 *2384:A 0
16 *1989:A1 *106:10 1.22676e-05
17 *1989:A1 *106:27 0.000147543
18 *2215:A1 *106:10 3.00381e-05
19 *2216:A *1998:B 8.49205e-05
20 *2216:A *2216:B 3.57349e-05
21 *105:23 *1998:B 0.000124895
*RES
1 *2215:Y *106:10 14.13 
2 *106:10 *1989:B1_N 3.8325 
3 *106:10 *106:27 6.74 
4 *106:27 *1998:B 3.43 
5 *106:27 *2216:B 2.05 
*END

*D_NET *107 0.00189258
*CONN
*I *1982:A I *D sky130_fd_sc_hd__xor2_2
*I *2021:A I *D sky130_fd_sc_hd__nor4_4
*I *2216:Y O *D sky130_fd_sc_hd__nand2_2
*CAP
1 *1982:A 0.000478743
2 *2021:A 0.000224667
3 *2216:Y 0.00070341
4 *1982:A *269:10 9.91257e-05
5 *2021:A *1988:A 0
6 *2021:A *1990:A 0.000122877
7 *2021:A *2021:B 2.05661e-05
8 *2021:A *274:10 0.000143266
9 *2216:A *2021:A 4.82919e-05
10 *106:27 *2021:A 5.16348e-05
*RES
1 *2216:Y *2021:A 12.345 
2 *2216:Y *1982:A 10.895 
*END

*D_NET *108 0.000691259
*CONN
*I *2238:A1 I *D sky130_fd_sc_hd__o21bai_2
*I *2219:B I *D sky130_fd_sc_hd__or3b_4
*I *2217:Y O *D sky130_fd_sc_hd__nor2_2
*CAP
1 *2238:A1 0
2 *2219:B 0.000100822
3 *2217:Y 0.000124841
4 *108:8 0.000225663
5 *2219:B *2219:A 0.000164679
6 *2219:B *471:37 7.52529e-05
7 *108:8 *109:14 0
*RES
1 *2217:Y *108:8 3.445 
2 *108:8 *2219:B 8.285 
3 *108:8 *2238:A1 1.6 
*END

*D_NET *109 0.00119937
*CONN
*I *2219:A I *D sky130_fd_sc_hd__or3b_4
*I *2238:A2 I *D sky130_fd_sc_hd__o21bai_2
*I *2218:X O *D sky130_fd_sc_hd__and2_4
*CAP
1 *2219:A 0.000101871
2 *2238:A2 0
3 *2218:X 0.000308227
4 *109:14 0.000410099
5 *2219:A *2219:C_N 0
6 *2219:A *2382:A 0
7 *2219:A *129:14 6.55406e-05
8 *2219:A *471:37 1.01661e-05
9 *2219:A *566:10 0
10 *109:14 *2382:A 0.000138791
11 *109:14 *566:10 0
12 *2219:B *2219:A 0.000164679
13 *108:8 *109:14 0
*RES
1 *2218:X *109:14 10.895 
2 *109:14 *2238:A2 1.6 
3 *109:14 *2219:A 8.195 
*END

*D_NET *110 0.00601818
*CONN
*I *2206:A1 I *D sky130_fd_sc_hd__a22oi_2
*I *2205:A I *D sky130_fd_sc_hd__and4_2
*I *2249:A I *D sky130_fd_sc_hd__and4_4
*I *2250:A3 I *D sky130_fd_sc_hd__a41o_2
*I *2241:B1_N I *D sky130_fd_sc_hd__a21boi_2
*I *2242:B1 I *D sky130_fd_sc_hd__o21ai_4
*I *2219:X O *D sky130_fd_sc_hd__or3b_4
*CAP
1 *2206:A1 4.01156e-05
2 *2205:A 0
3 *2249:A 8.33114e-05
4 *2250:A3 0.00022069
5 *2241:B1_N 5.66328e-05
6 *2242:B1 0.000116153
7 *2219:X 0.000231103
8 *110:28 0.000276811
9 *110:26 0.000950883
10 *110:20 0.000877222
11 *110:16 0.00055881
12 *110:6 0.000662285
13 *2206:A1 *2205:C 9.36815e-05
14 *2206:A1 *2206:B1 0
15 *2206:A1 *2207:B 4.99619e-05
16 *2206:A1 *129:14 1.31519e-05
17 *2242:B1 *1979:B 5.4256e-05
18 *2242:B1 *2240:B1 0
19 *2242:B1 *2242:A2 0
20 *2249:A *129:41 7.17811e-05
21 *2249:A *129:54 1.52184e-05
22 *2249:A *475:35 0.000157595
23 *2250:A3 *2250:A1 1.37328e-05
24 *2250:A3 *2250:A4 7.28255e-05
25 *2250:A3 *2250:B1 9.66106e-05
26 *110:6 *2205:C 2.7441e-05
27 *110:6 *129:14 0.000274654
28 *110:16 *2205:B 1.61831e-05
29 *110:16 *2205:C 0.000188076
30 *110:16 *2206:B1 0.0001249
31 *110:16 *2207:A 9.50342e-06
32 *110:16 *2207:B 8.65905e-05
33 *110:16 *128:35 4.9968e-05
34 *110:16 *129:41 2.66586e-05
35 *110:16 *446:12 2.88519e-05
36 *110:20 *129:41 9.9441e-05
37 *110:26 *1981:A1 2.46089e-05
38 *110:26 *2077:B2 0
39 *110:26 *2131:A2 0
40 *110:26 *129:41 6.35423e-06
41 *110:26 *140:12 6.6564e-05
42 *110:26 *342:10 0.000275553
43 *110:28 *2131:A2 0
44 *110:28 *2240:B1 0
*RES
1 *2219:X *110:6 4.81 
2 *110:6 *110:16 10.51 
3 *110:16 *110:20 3.0525 
4 *110:20 *110:26 10.2875 
5 *110:26 *110:28 1.635 
6 *110:28 *2242:B1 5.745 
7 *110:28 *2241:B1_N 4.395 
8 *110:26 *2250:A3 7.095 
9 *110:20 *2249:A 7.7675 
10 *110:16 *2205:A 1.6 
11 *110:6 *2206:A1 3.01 
*END

*D_NET *111 0.00252297
*CONN
*I *2222:A I *D sky130_fd_sc_hd__nor2_2
*I *2245:A1 I *D sky130_fd_sc_hd__o21a_2
*I *2247:A2 I *D sky130_fd_sc_hd__o2111a_2
*I *2236:A1 I *D sky130_fd_sc_hd__o211ai_2
*I *2237:A1 I *D sky130_fd_sc_hd__o21bai_2
*I *2220:X O *D sky130_fd_sc_hd__and2_4
*CAP
1 *2222:A 0.000103666
2 *2245:A1 0.000177695
3 *2247:A2 0.000110174
4 *2236:A1 5.83781e-05
5 *2237:A1 6.95262e-06
6 *2220:X 0.000111746
7 *111:34 0.000287869
8 *111:23 0.000313905
9 *111:19 0.000376362
10 *111:10 0.000135867
11 *2222:A *2237:A2 4.76128e-05
12 *2222:A *2385:A 2.04748e-05
13 *2236:A1 *555:24 3.45252e-05
14 *2237:A1 *2237:A2 4.82863e-05
15 *2245:A1 *2223:B1 0
16 *2245:A1 *2247:D1 6.45236e-05
17 *2245:A1 *114:6 3.00381e-05
18 *2245:A1 *114:12 2.75229e-05
19 *2245:A1 *128:27 0.000179015
20 *2245:A1 *555:10 0
21 *2247:A2 *2204:A 0
22 *2247:A2 *2247:D1 0.000150778
23 *2247:A2 *2381:A 0
24 *2247:A2 *555:10 0
25 *111:10 *112:10 7.09921e-05
26 *111:10 *555:10 0
27 *111:19 *2237:A2 9.42091e-06
28 *111:23 *2237:A2 3.23663e-05
29 *111:23 *113:10 7.68414e-06
30 *111:23 *555:14 0.000111285
31 *111:23 *555:24 5.83121e-06
*RES
1 *2220:X *111:10 7.235 
2 *111:10 *2237:A1 2.05 
3 *111:10 *111:19 0.36 
4 *111:19 *111:23 3.57 
5 *111:23 *2236:A1 2.41 
6 *111:23 *111:34 2 
7 *111:34 *2247:A2 5.745 
8 *111:34 *2245:A1 7.305 
9 *111:19 *2222:A 3.445 
*END

*D_NET *112 0.00112466
*CONN
*I *2237:A2 I *D sky130_fd_sc_hd__o21bai_2
*I *2222:B I *D sky130_fd_sc_hd__nor2_2
*I *2221:Y O *D sky130_fd_sc_hd__nor2_2
*CAP
1 *2237:A2 6.35383e-05
2 *2222:B 0
3 *2221:Y 0.000134808
4 *112:10 0.000198347
5 *2237:A2 *2385:A 0
6 *2237:A2 *113:10 0.000203178
7 *112:10 *2221:B 0.000163985
8 *112:10 *2381:A 0
9 *112:10 *531:10 0.000152127
10 *2222:A *2237:A2 4.76128e-05
11 *2237:A1 *2237:A2 4.82863e-05
12 *111:10 *112:10 7.09921e-05
13 *111:19 *2237:A2 9.42091e-06
14 *111:23 *2237:A2 3.23663e-05
*RES
1 *2221:Y *112:10 9.275 
2 *112:10 *2222:B 1.6 
3 *112:10 *2237:A2 4.15 
*END

*D_NET *113 0.00343786
*CONN
*I *2239:A2 I *D sky130_fd_sc_hd__o21a_2
*I *2240:A2 I *D sky130_fd_sc_hd__o21ai_2
*I *2235:A1 I *D sky130_fd_sc_hd__a22oi_2
*I *2222:Y O *D sky130_fd_sc_hd__nor2_2
*CAP
1 *2239:A2 7.37494e-05
2 *2240:A2 0
3 *2235:A1 9.23521e-05
4 *2222:Y 0.000260961
5 *113:14 0.000126634
6 *113:10 0.000368993
7 *2235:A1 *2235:A2 6.35535e-05
8 *2235:A1 *2235:B1 4.18603e-06
9 *2235:A1 *2240:B1 0
10 *2235:A1 *2242:A2 0
11 *2239:A2 *2239:A1 0.000139245
12 *2239:A2 *2240:B1 0
13 *113:10 *2236:C1 8.65961e-05
14 *113:10 *2240:A1 1.46744e-05
15 *113:10 *2385:A 0.0012055
16 *113:10 *128:8 0.000122331
17 *113:10 *555:14 6.6564e-05
18 *113:10 *555:24 0.000455095
19 *113:14 *2240:A1 5.9973e-05
20 *113:14 *2385:A 8.65905e-05
21 *2237:A2 *113:10 0.000203178
22 *111:23 *113:10 7.68414e-06
*RES
1 *2222:Y *113:10 13.21 
2 *113:10 *113:14 1.155 
3 *113:14 *2235:A1 7.49 
4 *113:14 *2240:A2 1.6 
5 *113:10 *2239:A2 7.235 
*END

*D_NET *114 0.00192013
*CONN
*I *2245:A2 I *D sky130_fd_sc_hd__o21a_2
*I *2236:A2 I *D sky130_fd_sc_hd__o211ai_2
*I *2247:A1 I *D sky130_fd_sc_hd__o2111a_2
*I *2223:Y O *D sky130_fd_sc_hd__o21ai_2
*CAP
1 *2245:A2 0
2 *2236:A2 0
3 *2247:A1 0.000179348
4 *2223:Y 0.000193523
5 *114:12 0.000371074
6 *114:6 0.00038525
7 *2247:A1 *2204:A 0.000138551
8 *2247:A1 *2247:B1 1.61831e-05
9 *2247:A1 *2247:C1 6.2727e-05
10 *2247:A1 *2247:D1 0.000139978
11 *114:6 *2223:B1 9.66106e-05
12 *114:12 *2204:A 0.000149759
13 *114:12 *2247:D1 1.22676e-05
14 *114:12 *128:27 4.62396e-05
15 *114:12 *128:35 7.10578e-05
16 *2245:A1 *114:6 3.00381e-05
17 *2245:A1 *114:12 2.75229e-05
*RES
1 *2223:Y *114:6 4.81 
2 *114:6 *114:12 5.72 
3 *114:12 *2247:A1 7.77 
4 *114:12 *2236:A2 3.6 
5 *114:6 *2245:A2 1.6 
*END

*D_NET *115 0.00124256
*CONN
*I *2227:A1 I *D sky130_fd_sc_hd__o21bai_2
*I *2228:A_N I *D sky130_fd_sc_hd__nand3b_2
*I *2224:Y O *D sky130_fd_sc_hd__nor2_2
*CAP
1 *2227:A1 0.000344528
2 *2228:A_N 0
3 *2224:Y 8.17623e-05
4 *115:12 0.000426291
5 *2227:A1 *2227:A2 0
6 *2227:A1 *2227:B1_N 0
7 *2227:A1 *119:14 5.30673e-05
8 S[12] *115:12 0.000162047
9 *2331:A *2227:A1 8.3907e-05
10 *2345:A *115:12 9.09591e-05
*RES
1 *2224:Y *115:12 7.94 
2 *115:12 *2228:A_N 1.6 
3 *115:12 *2227:A1 10.805 
*END

*D_NET *116 0.00101675
*CONN
*I *2227:A2 I *D sky130_fd_sc_hd__o21bai_2
*I *2225:X O *D sky130_fd_sc_hd__and2_4
*CAP
1 *2227:A2 0.000412266
2 *2225:X 0.000412266
3 *2227:A2 *2201:B 0
4 *2227:A2 *2225:A 0
5 *2227:A2 *118:6 0.000192218
6 *2227:A2 *530:10 0
7 *2227:A2 *533:40 0
8 *2227:A1 *2227:A2 0
*RES
1 *2225:X *2227:A2 14.205 
*END

*D_NET *117 0.000912529
*CONN
*I *2228:B I *D sky130_fd_sc_hd__nand3b_2
*I *2226:Y O *D sky130_fd_sc_hd__nand2_2
*CAP
1 *2228:B 0.000137929
2 *2226:Y 0.000137929
3 *2228:B *2224:A 0.000279787
4 *2228:B *2224:B 0.000278111
5 *2228:B *2225:A 0
6 *2228:B *544:10 7.45881e-05
7 *2331:A *2228:B 4.18603e-06
*RES
1 *2226:Y *2228:B 11.865 
*END

*D_NET *118 0.00534435
*CONN
*I *2248:C I *D sky130_fd_sc_hd__and3_2
*I *2235:B2 I *D sky130_fd_sc_hd__a22oi_2
*I *2247:C1 I *D sky130_fd_sc_hd__o2111a_2
*I *2246:A I *D sky130_fd_sc_hd__nand2_2
*I *2234:A I *D sky130_fd_sc_hd__nand3_2
*I *2227:Y O *D sky130_fd_sc_hd__o21bai_2
*CAP
1 *2248:C 0
2 *2235:B2 0.000371076
3 *2247:C1 0.000117213
4 *2246:A 1.04051e-05
5 *2234:A 0.000106974
6 *2227:Y 0.000408876
7 *118:47 0.000714757
8 *118:28 0.00064574
9 *118:8 0.000135154
10 *118:6 0.000611497
11 *2234:A *2233:B1 0.000124895
12 *2234:A *2234:C 2.75145e-05
13 *2235:B2 *2203:A1 9.37731e-05
14 *2235:B2 *2383:A 0.000176661
15 *2235:B2 *475:35 9.54469e-05
16 *2246:A *2201:A 0
17 *2247:C1 *2247:B1 1.85054e-05
18 *2247:C1 *2249:C 5.83121e-06
19 *118:6 *2201:A 0.0001249
20 *118:6 *137:6 4.82863e-05
21 *118:8 *2201:A 0
22 *118:28 *2202:A1 8.97642e-05
23 *118:28 *2204:A 0.000185398
24 *118:28 *2204:B 5.93761e-05
25 *118:28 *2383:A 0.000183731
26 *118:28 *119:23 4.43871e-06
27 *118:28 *119:38 8.78813e-05
28 *118:28 *119:49 7.07879e-05
29 *118:28 *119:62 2.60986e-05
30 *118:47 *2204:A 0.000114492
31 *118:47 *2248:A 4.82919e-05
32 *118:47 *119:62 5.73362e-05
33 *118:47 *555:24 0.000324302
34 *2227:A2 *118:6 0.000192218
35 *2247:A1 *2247:C1 6.2727e-05
*RES
1 *2227:Y *118:6 8.605 
2 *118:6 *118:8 0.36 
3 *118:8 *2234:A 3.79 
4 *118:8 *2246:A 1.96 
5 *118:6 *118:28 7.97 
6 *118:28 *2247:C1 5.46 
7 *118:28 *118:47 7.28 
8 *118:47 *2235:B2 11.705 
9 *118:47 *2248:C 1.6 
*END

*D_NET *119 0.00548015
*CONN
*I *2248:B I *D sky130_fd_sc_hd__and3_2
*I *2236:B1 I *D sky130_fd_sc_hd__o211ai_2
*I *2247:B1 I *D sky130_fd_sc_hd__o2111a_2
*I *2202:B1 I *D sky130_fd_sc_hd__o211ai_2
*I *2233:B1 I *D sky130_fd_sc_hd__o21ai_2
*I *2246:B I *D sky130_fd_sc_hd__nand2_2
*I *2228:Y O *D sky130_fd_sc_hd__nand3b_2
*CAP
1 *2248:B 0.000418472
2 *2236:B1 0
3 *2247:B1 0.000246953
4 *2202:B1 9.73191e-06
5 *2233:B1 0.000356475
6 *2246:B 0
7 *2228:Y 0.000571576
8 *119:62 0.000547447
9 *119:49 0.000522097
10 *119:38 0.000252029
11 *119:23 0.00048943
12 *119:14 0.000608402
13 *2202:B1 *2202:A2 4.82863e-05
14 *2202:B1 *2384:A 4.82863e-05
15 *2233:B1 *2233:A2 0
16 *2233:B1 *2234:C 7.25421e-05
17 *2247:B1 *2247:D1 5.30673e-05
18 *2247:B1 *2249:C 2.19562e-06
19 *2247:B1 *2383:A 4.66108e-05
20 *2248:B *2203:A1 7.23533e-05
21 *2248:B *2204:A 5.12942e-05
22 *2248:B *2241:A1 2.88598e-05
23 *2248:B *475:35 7.4027e-05
24 *119:14 *2201:B 4.43682e-05
25 *119:14 *2225:A 4.35348e-05
26 *119:14 *2225:B 8.8266e-05
27 *119:14 *2234:C 6.36656e-05
28 *119:14 *135:25 0
29 *119:14 *533:40 5.05437e-05
30 *119:23 *2201:B 0
31 *119:23 *135:25 0
32 *119:38 *2236:C1 0
33 *119:38 *125:8 0
34 *119:38 *135:25 0
35 *119:49 *2236:C1 0
36 *119:49 *2383:A 0.000164672
37 *119:62 *2204:A 1.65192e-05
38 *119:62 *2236:C1 0
39 *119:62 *2383:A 2.92496e-05
40 *2227:A1 *119:14 5.30673e-05
41 *2234:A *2233:B1 0.000124895
42 *2247:A1 *2247:B1 1.61831e-05
43 *2247:C1 *2247:B1 1.85054e-05
44 *118:28 *119:23 4.43871e-06
45 *118:28 *119:38 8.78813e-05
46 *118:28 *119:49 7.07879e-05
47 *118:28 *119:62 2.60986e-05
48 *118:47 *119:62 5.73362e-05
*RES
1 *2228:Y *119:14 13.305 
2 *119:14 *2246:B 3.6 
3 *119:14 *119:23 0.615 
4 *119:23 *2233:B1 9.255 
5 *119:23 *119:38 1.89 
6 *119:38 *2202:B1 4.05 
7 *119:38 *119:49 3.42 
8 *119:49 *2247:B1 6.735 
9 *119:49 *119:62 2.655 
10 *119:62 *2236:B1 3.6 
11 *119:62 *2248:B 13.315 
*END

*D_NET *120 0.00136406
*CONN
*I *2231:A I *D sky130_fd_sc_hd__nor2_2
*I *2243:A1 I *D sky130_fd_sc_hd__o21bai_2
*I *2229:Y O *D sky130_fd_sc_hd__nor2_2
*CAP
1 *2231:A 0.000149411
2 *2243:A1 2.11983e-05
3 *2229:Y 0.000263404
4 *120:8 0.000434013
5 *2231:A *2231:B 0.000161529
6 *2231:A *2233:A1 2.97004e-06
7 *2231:A *121:21 7.67465e-05
8 *2231:A *135:10 0.000161529
9 *2231:A *475:35 0
10 *2243:A1 *533:18 4.82919e-05
11 *120:8 *2232:A2 0
12 *120:8 *121:10 4.19967e-05
13 *120:8 *121:21 2.97004e-06
14 *120:8 *244:14 0
15 *120:8 *475:45 0
16 *120:8 *475:55 0
*RES
1 *2229:Y *120:8 7.53 
2 *120:8 *2243:A1 4.05 
3 *120:8 *2231:A 7.485 
*END

*D_NET *121 0.00235145
*CONN
*I *2233:A1 I *D sky130_fd_sc_hd__o21ai_2
*I *2231:B I *D sky130_fd_sc_hd__nor2_2
*I *2244:A1 I *D sky130_fd_sc_hd__o21a_2
*I *2243:A2 I *D sky130_fd_sc_hd__o21bai_2
*I *2230:X O *D sky130_fd_sc_hd__and2_2
*CAP
1 *2233:A1 0.000138975
2 *2231:B 0.000117975
3 *2244:A1 7.50206e-05
4 *2243:A2 2.11983e-05
5 *2230:X 0.000182586
6 *121:23 0.000192996
7 *121:21 0.000229054
8 *121:10 0.000293864
9 *2231:B *2200:B1 0
10 *2231:B *135:10 9.64441e-05
11 *2231:B *442:12 0.000271964
12 *2233:A1 *2233:A2 0
13 *2233:A1 *475:35 0
14 *2243:A2 *533:18 4.82919e-05
15 *2244:A1 *2244:A2 3.00381e-05
16 *2244:A1 *442:12 3.79763e-05
17 *121:10 *2232:A1 0
18 *121:10 *2232:A2 0
19 *121:10 *469:54 0.000164874
20 *121:21 *2233:A2 0
21 *121:21 *2244:B1 0.000163985
22 *2231:A *2231:B 0.000161529
23 *2231:A *2233:A1 2.97004e-06
24 *2231:A *121:21 7.67465e-05
25 *120:8 *121:10 4.19967e-05
26 *120:8 *121:21 2.97004e-06
*RES
1 *2230:X *121:10 6.465 
2 *121:10 *2243:A2 4.05 
3 *121:10 *121:21 2.4 
4 *121:21 *121:23 2 
5 *121:23 *2244:A1 3.085 
6 *121:23 *2231:B 5.53 
7 *121:21 *2233:A1 5.745 
*END

*D_NET *122 0.00064832
*CONN
*I *2200:A2 I *D sky130_fd_sc_hd__a22o_2
*I *2234:B I *D sky130_fd_sc_hd__nand3_2
*I *2231:Y O *D sky130_fd_sc_hd__nor2_2
*CAP
1 *2200:A2 0.000125971
2 *2234:B 3.72377e-05
3 *2231:Y 0.000163209
4 *2200:A2 *2200:B1 4.47209e-05
5 *2200:A2 *135:10 4.82863e-05
6 *2200:A2 *533:40 4.6303e-05
7 *2234:B *135:25 6.47594e-05
8 *2234:B *442:18 0.000117832
*RES
1 *2231:Y *2234:B 8.58 
2 *2231:Y *2200:A2 5.51375 
*END

*D_NET *123 0.000852259
*CONN
*I *2233:A2 I *D sky130_fd_sc_hd__o21ai_2
*I *2244:A2 I *D sky130_fd_sc_hd__o21a_2
*I *2232:Y O *D sky130_fd_sc_hd__o21ai_2
*CAP
1 *2233:A2 0.000265271
2 *2244:A2 2.36281e-05
3 *2232:Y 7.89135e-05
4 *123:8 0.000367812
5 *2233:A2 *2244:B1 0
6 *2244:A2 *442:12 8.65961e-05
7 *123:8 *2244:B1 0
8 *2233:A1 *2233:A2 0
9 *2233:B1 *2233:A2 0
10 *2244:A1 *2244:A2 3.00381e-05
11 *121:21 *2233:A2 0
*RES
1 *2232:Y *123:8 4.725 
2 *123:8 *2244:A2 4.395 
3 *123:8 *2233:A2 7.59 
*END

*D_NET *124 0.000740091
*CONN
*I *2235:B1 I *D sky130_fd_sc_hd__a22oi_2
*I *2233:Y O *D sky130_fd_sc_hd__o21ai_2
*CAP
1 *2235:B1 0.000367952
2 *2233:Y 0.000367952
3 *2235:B1 *2242:A2 0
4 *2235:B1 *475:35 0
5 *2235:A1 *2235:B1 4.18603e-06
*RES
1 *2233:Y *2235:B1 13.17 
*END

*D_NET *125 0.00151992
*CONN
*I *2236:C1 I *D sky130_fd_sc_hd__o211ai_2
*I *2202:C1 I *D sky130_fd_sc_hd__o211ai_2
*I *2234:Y O *D sky130_fd_sc_hd__nand3_2
*CAP
1 *2236:C1 0.000271962
2 *2202:C1 0
3 *2234:Y 7.05641e-05
4 *125:8 0.000342526
5 *2236:C1 *2249:D 1.88904e-05
6 *2236:C1 *135:44 0.000492861
7 *2236:C1 *555:24 8.65961e-05
8 *125:8 *135:25 0.00010816
9 *125:8 *135:44 4.17687e-05
10 *113:10 *2236:C1 8.65961e-05
11 *119:38 *2236:C1 0
12 *119:38 *125:8 0
13 *119:49 *2236:C1 0
14 *119:62 *2236:C1 0
*RES
1 *2234:Y *125:8 5.235 
2 *125:8 *2202:C1 3.6 
3 *125:8 *2236:C1 10.365 
*END

*D_NET *126 0.000538619
*CONN
*I *2242:A2 I *D sky130_fd_sc_hd__o21ai_4
*I *2235:Y O *D sky130_fd_sc_hd__a22oi_2
*CAP
1 *2242:A2 0.000206859
2 *2235:Y 0.000206859
3 *2242:A2 *2240:B1 0
4 *2242:A2 *2383:A 0.0001249
5 *2235:A1 *2242:A2 0
6 *2235:B1 *2242:A2 0
7 *2242:B1 *2242:A2 0
*RES
1 *2235:Y *2242:A2 10.74 
*END

*D_NET *127 0.00226158
*CONN
*I *2203:B1 I *D sky130_fd_sc_hd__a21o_2
*I *2241:A1 I *D sky130_fd_sc_hd__a21boi_2
*I *2236:Y O *D sky130_fd_sc_hd__o211ai_2
*CAP
1 *2203:B1 3.3713e-05
2 *2241:A1 0.000374364
3 *2236:Y 0.000174243
4 *127:10 0.00058232
5 *2203:B1 *2249:C 0.000131408
6 *2203:B1 *2249:D 0.000141606
7 *2241:A1 *2240:B1 0.000163204
8 *2241:A1 *2241:A2 2.16833e-05
9 *2241:A1 *129:60 8.65905e-05
10 *127:10 *2249:C 0.000162318
11 *127:10 *2249:D 0.000160651
12 *127:10 *2385:A 0.000200615
13 *2248:B *2241:A1 2.88598e-05
*RES
1 *2236:Y *127:10 7.32 
2 *127:10 *2241:A1 9.24 
3 *127:10 *2203:B1 5.235 
*END

*D_NET *128 0.00288297
*CONN
*I *2245:B1 I *D sky130_fd_sc_hd__o21a_2
*I *2206:B2 I *D sky130_fd_sc_hd__a22oi_2
*I *2205:B I *D sky130_fd_sc_hd__and4_2
*I *2247:D1 I *D sky130_fd_sc_hd__o2111a_2
*I *2237:Y O *D sky130_fd_sc_hd__o21bai_2
*CAP
1 *2245:B1 0
2 *2206:B2 0
3 *2205:B 7.43727e-05
4 *2247:D1 0.000167734
5 *2237:Y 2.6234e-05
6 *128:35 0.000328238
7 *128:27 0.000328157
8 *128:8 0.000268259
9 *2205:B *2205:C 0.000190177
10 *2205:B *2206:B1 0.000157418
11 *2205:B *129:41 4.99619e-05
12 *2247:D1 *2204:A 9.26907e-06
13 *128:8 *555:14 8.65961e-05
14 *128:8 *555:24 4.66108e-05
15 *128:27 *2204:A 0
16 *128:35 *2204:A 5.39961e-05
17 *128:35 *2250:A4 0.000163012
18 *128:35 *136:8 2.75229e-05
19 *128:35 *446:12 0
20 *2245:A1 *2247:D1 6.45236e-05
21 *2245:A1 *128:27 0.000179015
22 *2247:A1 *2247:D1 0.000139978
23 *2247:A2 *2247:D1 0.000150778
24 *2247:B1 *2247:D1 5.30673e-05
25 *110:16 *2205:B 1.61831e-05
26 *110:16 *128:35 4.9968e-05
27 *113:10 *128:8 0.000122331
28 *114:12 *2247:D1 1.22676e-05
29 *114:12 *128:27 4.62396e-05
30 *114:12 *128:35 7.10578e-05
*RES
1 *2237:Y *128:8 4.74 
2 *128:8 *2247:D1 7.605 
3 *128:8 *128:27 4.145 
4 *128:27 *128:35 9.325 
5 *128:35 *2205:B 4.24 
6 *128:35 *2206:B2 1.6 
7 *128:27 *2245:B1 1.6 
*END

*D_NET *129 0.00478
*CONN
*I *2249:B I *D sky130_fd_sc_hd__and4_4
*I *2239:B1 I *D sky130_fd_sc_hd__o21a_2
*I *2240:B1 I *D sky130_fd_sc_hd__o21ai_2
*I *2250:A2 I *D sky130_fd_sc_hd__a41o_2
*I *2206:A2 I *D sky130_fd_sc_hd__a22oi_2
*I *2205:C I *D sky130_fd_sc_hd__and4_2
*I *2238:Y O *D sky130_fd_sc_hd__o21bai_2
*CAP
1 *2249:B 0
2 *2239:B1 0
3 *2240:B1 0.000217573
4 *2250:A2 0.000163143
5 *2206:A2 0
6 *2205:C 0.00071009
7 *2238:Y 0.000182736
8 *129:60 0.000317312
9 *129:54 0.000143016
10 *129:41 0.000691515
11 *129:14 0.00040773
12 *2205:C *2206:B1 4.47209e-05
13 *2205:C *2207:B 2.30292e-05
14 *2240:B1 *1979:B 0
15 *2240:B1 *2239:A1 0
16 *2240:B1 *2241:A2 8.65961e-05
17 *2250:A2 *2250:A1 9.91257e-05
18 *2250:A2 *2250:A4 0.000122155
19 *129:14 *2382:A 6.10014e-05
20 *129:41 *140:12 0
21 *129:41 *342:10 0
22 *129:41 *475:35 4.78859e-05
23 *129:54 *139:14 9.50342e-06
24 *129:54 *475:35 5.11148e-06
25 *129:60 *2239:A1 8.53113e-06
26 *129:60 *139:14 6.72982e-05
27 *2205:B *2205:C 0.000190177
28 *2205:B *129:41 4.99619e-05
29 *2206:A1 *2205:C 9.36815e-05
30 *2206:A1 *129:14 1.31519e-05
31 *2219:A *129:14 6.55406e-05
32 *2235:A1 *2240:B1 0
33 *2239:A2 *2240:B1 0
34 *2241:A1 *2240:B1 0.000163204
35 *2241:A1 *129:60 8.65905e-05
36 *2242:A2 *2240:B1 0
37 *2242:B1 *2240:B1 0
38 *2249:A *129:41 7.17811e-05
39 *2249:A *129:54 1.52184e-05
40 *110:6 *2205:C 2.7441e-05
41 *110:6 *129:14 0.000274654
42 *110:16 *2205:C 0.000188076
43 *110:16 *129:41 2.66586e-05
44 *110:20 *129:41 9.9441e-05
45 *110:26 *129:41 6.35423e-06
46 *110:28 *2240:B1 0
*RES
1 *2238:Y *129:14 10.205 
2 *129:14 *2205:C 7.255 
3 *129:14 *2206:A2 1.6 
4 *2205:C *129:41 10.755 
5 *129:41 *2250:A2 6.57 
6 *129:41 *129:54 0.615 
7 *129:54 *129:60 4.175 
8 *129:60 *2240:B1 9.74 
9 *129:60 *2239:B1 1.6 
10 *129:54 *2249:B 3.6 
*END

*D_NET *130 0.000216155
*CONN
*I *2241:A2 I *D sky130_fd_sc_hd__a21boi_2
*I *2239:X O *D sky130_fd_sc_hd__o21a_2
*CAP
1 *2241:A2 5.39378e-05
2 *2239:X 5.39378e-05
3 *2240:B1 *2241:A2 8.65961e-05
4 *2241:A1 *2241:A2 2.16833e-05
*RES
1 *2239:X *2241:A2 4.34 
*END

*D_NET *131 0.000127087
*CONN
*I *2242:A1 I *D sky130_fd_sc_hd__o21ai_4
*I *2240:Y O *D sky130_fd_sc_hd__o21ai_2
*CAP
1 *2242:A1 3.89406e-05
2 *2240:Y 3.89406e-05
3 *2242:A1 *2385:A 4.92062e-05
*RES
1 *2240:Y *2242:A1 3.995 
*END

*D_NET *132 0.00169434
*CONN
*I *1979:B I *D sky130_fd_sc_hd__nand2_4
*I *2241:Y O *D sky130_fd_sc_hd__a21boi_2
*CAP
1 *1979:B 0.000333821
2 *2241:Y 0.000333821
3 *1979:B *2385:A 0.000656025
4 *1979:B *133:8 0.000316421
5 *2240:B1 *1979:B 0
6 *2242:B1 *1979:B 5.4256e-05
*RES
1 *2241:Y *1979:B 15.96 
*END

*D_NET *133 0.00608633
*CONN
*I *2077:A2 I *D sky130_fd_sc_hd__o221ai_4
*I *2250:B1 I *D sky130_fd_sc_hd__a41o_2
*I *1981:A2 I *D sky130_fd_sc_hd__o22ai_4
*I *2131:A1 I *D sky130_fd_sc_hd__o221ai_4
*I *1978:B1 I *D sky130_fd_sc_hd__a31oi_2
*I *2242:Y O *D sky130_fd_sc_hd__o21ai_4
*CAP
1 *2077:A2 0.000191762
2 *2250:B1 0.000211414
3 *1981:A2 0.000307346
4 *2131:A1 0
5 *1978:B1 0.00104617
6 *2242:Y 0.000121192
7 *133:47 0.000450949
8 *133:32 0.000411375
9 *133:23 0.000167054
10 *133:8 0.00127816
11 *1978:B1 *1980:D 8.8266e-05
12 *1978:B1 *1981:B1 0
13 *1978:B1 *2197:D 8.47455e-05
14 *1978:B1 *2417:A 0.000117116
15 *1978:B1 *244:14 7.35813e-05
16 *1978:B1 *244:27 5.72091e-05
17 *1981:A2 *1981:A1 5.062e-06
18 *1981:A2 *2001:A1 0
19 *1981:A2 *141:18 6.62095e-05
20 *1981:A2 *245:24 2.75145e-05
21 *2077:A2 *2077:B2 8.40213e-05
22 *2077:A2 *2131:A2 8.52172e-05
23 *2077:A2 *2410:A 0.00015212
24 *2250:B1 *1981:A1 1.61831e-05
25 *2250:B1 *2418:A 4.82919e-05
26 *2250:B1 *141:18 0.000310014
27 *2250:B1 *245:24 0
28 *133:23 *1981:B1 0
29 *133:23 *252:10 6.55328e-05
30 *133:32 *2131:A2 4.40556e-05
31 *133:32 *252:10 2.4997e-05
32 *133:32 *252:23 5.02217e-05
33 *133:47 *2131:A2 4.13092e-05
34 *133:47 *2410:A 3.09233e-05
35 *133:47 *252:23 1.52862e-05
36 *1979:B *133:8 0.000316421
37 *2250:A3 *2250:B1 9.66106e-05
*RES
1 *2242:Y *133:8 6.465 
2 *133:8 *1978:B1 22.08 
3 *133:8 *133:23 2.145 
4 *133:23 *2131:A1 3.6 
5 *133:23 *133:32 1.635 
6 *133:32 *1981:A2 7.425 
7 *133:32 *133:47 1.32 
8 *133:47 *2250:B1 9 
9 *133:47 *2077:A2 7.68 
*END

*D_NET *134 0.000332501
*CONN
*I *2244:B1 I *D sky130_fd_sc_hd__o21a_2
*I *2243:Y O *D sky130_fd_sc_hd__o21bai_2
*CAP
1 *2244:B1 8.42584e-05
2 *2243:Y 8.42584e-05
3 *2233:A2 *2244:B1 0
4 *121:21 *2244:B1 0.000163985
5 *123:8 *2244:B1 0
*RES
1 *2243:Y *2244:B1 9.09 
*END

*D_NET *135 0.00560376
*CONN
*I *2200:B2 I *D sky130_fd_sc_hd__a22o_2
*I *2249:D I *D sky130_fd_sc_hd__and4_4
*I *2248:A I *D sky130_fd_sc_hd__and3_2
*I *2198:B I *D sky130_fd_sc_hd__nand2_2
*I *2199:A I *D sky130_fd_sc_hd__xor2_2
*I *2244:X O *D sky130_fd_sc_hd__o21a_2
*CAP
1 *2200:B2 0
2 *2249:D 0.000339297
3 *2248:A 5.5035e-05
4 *2198:B 0.000134821
5 *2199:A 0.000157336
6 *2244:X 0.000218697
7 *135:44 0.000566654
8 *135:25 0.000447959
9 *135:12 0.000298153
10 *135:10 0.000218697
11 *2198:B *2198:A 4.82919e-05
12 *2198:B *2384:A 8.3472e-05
13 *2198:B *442:18 1.03755e-05
14 *2199:A *2199:B 0.00028939
15 *2199:A *2234:C 2.97004e-06
16 *2199:A *442:18 9.3062e-06
17 *2199:A *475:35 0
18 *2199:A *533:18 0.000122155
19 *2199:A *533:40 0
20 *2248:A *2249:C 1.88904e-05
21 *2248:A *555:24 4.66108e-05
22 *2249:D *2204:A 0
23 *2249:D *2249:C 0.000304494
24 *2249:D *2250:A1 2.57174e-05
25 *2249:D *2250:A4 0.000385327
26 *135:10 *2200:B1 8.49205e-05
27 *135:10 *442:12 9.80032e-06
28 *135:25 *2234:C 5.21714e-05
29 *135:25 *442:18 7.64192e-05
30 *135:44 *2203:A1 0.000163221
31 *135:44 *2249:C 4.31189e-05
32 *135:44 *442:18 7.21296e-06
33 *2200:A2 *135:10 4.82863e-05
34 *2203:B1 *2249:D 0.000141606
35 *2231:A *135:10 0.000161529
36 *2231:B *135:10 9.64441e-05
37 *2234:B *135:25 6.47594e-05
38 *2236:C1 *2249:D 1.88904e-05
39 *2236:C1 *135:44 0.000492861
40 *118:47 *2248:A 4.82919e-05
41 *119:14 *135:25 0
42 *119:23 *135:25 0
43 *119:38 *135:25 0
44 *125:8 *135:25 0.00010816
45 *125:8 *135:44 4.17687e-05
46 *127:10 *2249:D 0.000160651
*RES
1 *2244:X *135:10 5.965 
2 *135:10 *135:12 2 
3 *135:12 *2199:A 7.83 
4 *135:12 *135:25 3.8025 
5 *135:25 *2198:B 6.5775 
6 *135:25 *135:44 6.225 
7 *135:44 *2248:A 4.7325 
8 *135:44 *2249:D 12.3375 
9 *135:10 *2200:B2 1.6 
*END

*D_NET *136 0.00360928
*CONN
*I *2250:A4 I *D sky130_fd_sc_hd__a41o_2
*I *2204:A I *D sky130_fd_sc_hd__xor2_2
*I *2245:X O *D sky130_fd_sc_hd__o21a_2
*CAP
1 *2250:A4 0.000606147
2 *2204:A 0.000293824
3 *2245:X 7.2535e-05
4 *136:8 0.000972506
5 *2204:A *2381:A 0
6 *2250:A4 *2250:A1 9.27255e-06
7 *2250:A4 *446:12 0.000164874
8 *2247:A1 *2204:A 0.000138551
9 *2247:A2 *2204:A 0
10 *2247:D1 *2204:A 9.26907e-06
11 *2248:B *2204:A 5.12942e-05
12 *2249:D *2204:A 0
13 *2249:D *2250:A4 0.000385327
14 *2250:A2 *2250:A4 0.000122155
15 *2250:A3 *2250:A4 7.28255e-05
16 *114:12 *2204:A 0.000149759
17 *118:28 *2204:A 0.000185398
18 *118:47 *2204:A 0.000114492
19 *119:62 *2204:A 1.65192e-05
20 *128:27 *2204:A 0
21 *128:35 *2204:A 5.39961e-05
22 *128:35 *2250:A4 0.000163012
23 *128:35 *136:8 2.75229e-05
*RES
1 *2245:X *136:8 4.395 
2 *136:8 *2204:A 10.335 
3 *136:8 *2250:A4 15.27 
*END

*D_NET *137 0.000697944
*CONN
*I *2201:A I *D sky130_fd_sc_hd__xnor2_2
*I *2202:A1 I *D sky130_fd_sc_hd__o211ai_2
*I *2246:Y O *D sky130_fd_sc_hd__nand2_2
*CAP
1 *2201:A 6.91979e-05
2 *2202:A1 0.000102107
3 *2246:Y 1.91908e-05
4 *137:6 0.000190495
5 *2202:A1 *2204:B 5.4003e-05
6 S[13] *2202:A1 0
7 *2246:A *2201:A 0
8 *118:6 *2201:A 0.0001249
9 *118:6 *137:6 4.82863e-05
10 *118:8 *2201:A 0
11 *118:28 *2202:A1 8.97642e-05
*RES
1 *2246:Y *137:6 2.05 
2 *137:6 *2202:A1 7.745 
3 *137:6 *2201:A 3.1 
*END

*D_NET *138 0.0023495
*CONN
*I *2249:C I *D sky130_fd_sc_hd__and4_4
*I *2247:X O *D sky130_fd_sc_hd__o2111a_2
*CAP
1 *2249:C 0.000502253
2 *2247:X 0.000502253
3 *2249:C *2203:A1 0.000419718
4 *2249:C *2203:A2 6.00111e-05
5 *2249:C *2250:A1 8.57024e-05
6 *2249:C *2383:A 9.39178e-05
7 *2249:C *475:35 1.73877e-05
8 *2203:B1 *2249:C 0.000131408
9 *2247:B1 *2249:C 2.19562e-06
10 *2247:C1 *2249:C 5.83121e-06
11 *2248:A *2249:C 1.88904e-05
12 *2249:D *2249:C 0.000304494
13 *127:10 *2249:C 0.000162318
14 *135:44 *2249:C 4.31189e-05
*RES
1 *2247:X *2249:C 18.39 
*END

*D_NET *139 0.00162991
*CONN
*I *2203:A2 I *D sky130_fd_sc_hd__a21o_2
*I *2250:A1 I *D sky130_fd_sc_hd__a41o_2
*I *2248:X O *D sky130_fd_sc_hd__and3_2
*CAP
1 *2203:A2 0.000105582
2 *2250:A1 0.000216074
3 *2248:X 0.000114008
4 *139:14 0.000435663
5 *139:14 *2239:A1 0.000143266
6 *139:14 *475:35 0.000244952
7 *2249:C *2203:A2 6.00111e-05
8 *2249:C *2250:A1 8.57024e-05
9 *2249:D *2250:A1 2.57174e-05
10 *2250:A2 *2250:A1 9.91257e-05
11 *2250:A3 *2250:A1 1.37328e-05
12 *2250:A4 *2250:A1 9.27255e-06
13 *129:54 *139:14 9.50342e-06
14 *129:60 *139:14 6.72982e-05
*RES
1 *2248:X *139:14 9.065 
2 *139:14 *2250:A1 5.65 
3 *139:14 *2203:A2 3.1 
*END

*D_NET *140 0.00342821
*CONN
*I *2420:A I *D sky130_fd_sc_hd__buf_4
*I *2421:A I *D sky130_fd_sc_hd__buf_4
*I *1981:A1 I *D sky130_fd_sc_hd__o22ai_4
*I *2249:X O *D sky130_fd_sc_hd__and4_4
*CAP
1 *2420:A 2.08101e-05
2 *2421:A 0.000259772
3 *1981:A1 0.000675308
4 *2249:X 0.000159621
5 *140:16 0.000988409
6 *140:12 0.000233761
7 *1981:A1 *2077:B2 0
8 *1981:A1 *141:18 0.000758108
9 *1981:A1 *245:24 0
10 *2421:A *342:10 0
11 *140:12 *342:10 1.0183e-05
12 *140:16 *2077:A1 4.82919e-05
13 *140:16 *342:10 0.000161529
14 *1981:A2 *1981:A1 5.062e-06
15 *2250:B1 *1981:A1 1.61831e-05
16 *110:26 *1981:A1 2.46089e-05
17 *110:26 *140:12 6.6564e-05
18 *129:41 *140:12 0
*RES
1 *2249:X *140:12 8.63 
2 *140:12 *140:16 3.485 
3 *140:16 *1981:A1 13.29 
4 *140:16 *2421:A 7.575 
5 *140:12 *2420:A 1.96 
*END

*D_NET *141 0.00424273
*CONN
*I *2004:C I *D sky130_fd_sc_hd__nand4b_2
*I *2135:A1 I *D sky130_fd_sc_hd__a31oi_2
*I *2001:A1 I *D sky130_fd_sc_hd__a31oi_4
*I *2250:X O *D sky130_fd_sc_hd__a41o_2
*CAP
1 *2004:C 0.000265619
2 *2135:A1 0
3 *2001:A1 0.000580334
4 *2250:X 0.000432761
5 *141:18 0.000747476
6 *2001:A1 *2001:B1 3.95724e-05
7 *2001:A1 *2134:B 7.97252e-05
8 *2001:A1 *2145:A2 0.000168213
9 *2001:A1 *254:10 0.000187485
10 *2004:C *2001:A3 0
11 *2004:C *2002:B 0
12 *2004:C *253:25 0.000140422
13 *2004:C *269:10 0
14 *2004:C *290:8 0.000140912
15 *141:18 *2131:B2 0
16 *141:18 *2131:C1 5.72004e-05
17 *141:18 *2135:A2 5.10137e-05
18 *141:18 *2135:B1 0.000170991
19 *141:18 *2418:A 1.91597e-05
20 *141:18 *245:24 2.75145e-05
21 *1981:A1 *141:18 0.000758108
22 *1981:A2 *2001:A1 0
23 *1981:A2 *141:18 6.62095e-05
24 *2250:B1 *141:18 0.000310014
*RES
1 *2250:X *141:18 17.57 
2 *141:18 *2001:A1 12.725 
3 *141:18 *2135:A1 1.6 
4 *2001:A1 *2004:C 12.39 
*END

*D_NET *142 0.00106538
*CONN
*I *2254:A1 I *D sky130_fd_sc_hd__o21bai_4
*I *2253:A1 I *D sky130_fd_sc_hd__o21ba_2
*I *2251:Y O *D sky130_fd_sc_hd__nor2_2
*CAP
1 *2254:A1 0
2 *2253:A1 0.000247417
3 *2251:Y 0.00020667
4 *142:8 0.000454087
5 *2253:A1 *2253:B1_N 0
6 *2253:A1 *2254:A2 0.000116158
7 *2253:A1 *525:21 4.10476e-05
*RES
1 *2251:Y *142:8 4.48 
2 *142:8 *2253:A1 9.155 
3 *142:8 *2254:A1 1.6 
*END

*D_NET *143 0.000546873
*CONN
*I *2253:A2 I *D sky130_fd_sc_hd__o21ba_2
*I *2254:A2 I *D sky130_fd_sc_hd__o21bai_4
*I *2252:X O *D sky130_fd_sc_hd__and2_4
*CAP
1 *2253:A2 8.0985e-05
2 *2254:A2 0.000111097
3 *2252:X 0
4 *143:4 0.000192082
5 *2253:A2 *1969:A2 0
6 *2253:A2 *2252:A 0
7 *2253:A2 *468:29 4.65515e-05
8 *2254:A2 *2251:A 0
9 *2254:A2 *2253:B1_N 0
10 *2253:A1 *2254:A2 0.000116158
*RES
1 *2252:X *143:4 1.6 
2 *143:4 *2254:A2 7.745 
3 *143:4 *2253:A2 3.1 
*END

*D_NET *144 0.000447405
*CONN
*I *1969:A2 I *D sky130_fd_sc_hd__o21ai_2
*I *2253:X O *D sky130_fd_sc_hd__o21ba_2
*CAP
1 *1969:A2 0.000150172
2 *2253:X 0.000150172
3 *1969:A2 *2253:B1_N 4.99619e-05
4 *1969:A2 *468:29 9.70988e-05
5 *2253:A2 *1969:A2 0
*RES
1 *2253:X *1969:A2 6.335 
*END

*D_NET *145 0.0024756
*CONN
*I *2265:A I *D sky130_fd_sc_hd__and4_2
*I *2266:A I *D sky130_fd_sc_hd__nand4_4
*I *2257:A I *D sky130_fd_sc_hd__nand2_2
*I *2254:Y O *D sky130_fd_sc_hd__o21bai_4
*CAP
1 *2265:A 0.00017078
2 *2266:A 0
3 *2257:A 0.000186899
4 *2254:Y 0.000361101
5 *145:25 0.000297248
6 *145:6 0.000674468
7 *2257:A *2190:A 4.99619e-05
8 *2257:A *2190:B 0
9 *2257:A *2193:A1 6.47326e-05
10 *2257:A *438:23 6.96579e-05
11 *2265:A *2190:A 5.00699e-05
12 *2265:A *2264:B 8.49205e-05
13 *2265:A *2265:B 4.82919e-05
14 *2265:A *147:12 5.53249e-06
15 *2265:A *153:23 0.00012657
16 *2265:A *153:34 1.46744e-05
17 *2265:A *154:44 5.02217e-05
18 *145:6 *2190:A 3.96653e-05
19 *145:6 *2193:A1 3.23955e-05
20 *145:6 *2254:B1_N 3.72916e-05
21 *145:25 *2257:B 0
22 *145:25 *2265:B 0
23 *145:25 *147:12 0.000111117
*RES
1 *2254:Y *145:6 6.88 
2 *145:6 *2257:A 5.53 
3 *145:6 *145:25 4.445 
4 *145:25 *2266:A 3.6 
5 *145:25 *2265:A 7.41 
*END

*D_NET *146 0.000298865
*CONN
*I *2256:B1 I *D sky130_fd_sc_hd__o21ai_2
*I *2255:Y O *D sky130_fd_sc_hd__a21boi_2
*CAP
1 *2256:B1 9.87147e-05
2 *2255:Y 9.87147e-05
3 *2256:B1 *2256:A2 4.60584e-05
4 *2256:B1 *560:8 5.53774e-05
*RES
1 *2255:Y *2256:B1 4.7 
*END

*D_NET *147 0.00261308
*CONN
*I *2265:B I *D sky130_fd_sc_hd__and4_2
*I *2257:B I *D sky130_fd_sc_hd__nand2_2
*I *1969:B1 I *D sky130_fd_sc_hd__o21ai_2
*I *2266:B I *D sky130_fd_sc_hd__nand4_4
*I *2256:Y O *D sky130_fd_sc_hd__o21ai_2
*CAP
1 *2265:B 0.000149209
2 *2257:B 0.00014602
3 *1969:B1 0.000107693
4 *2266:B 0.000154974
5 *2256:Y 0.00040767
6 *147:37 0.000295229
7 *147:12 0.000670337
8 *1969:B1 *468:29 1.56428e-05
9 *2257:B *2282:B 1.43521e-05
10 *2257:B *153:10 0
11 *2257:B *522:10 0
12 *2265:B *2282:B 3.68967e-05
13 *2265:B *154:44 6.57653e-06
14 *2266:B *154:44 4.99619e-05
15 *147:12 *2190:A 0.000206824
16 *147:12 *2256:A1 0.000179737
17 *147:12 *2256:A2 7.00889e-06
18 *147:12 *2406:A 0
19 *147:12 *2407:A 0
20 *2265:A *2265:B 4.82919e-05
21 *2265:A *147:12 5.53249e-06
22 *145:25 *2257:B 0
23 *145:25 *2265:B 0
24 *145:25 *147:12 0.000111117
*RES
1 *2256:Y *147:12 13.85 
2 *147:12 *2266:B 4.15 
3 *147:12 *1969:B1 3.085 
4 *2266:B *147:37 3.6 
5 *147:37 *2257:B 6 
6 *147:37 *2265:B 5.985 
*END

*D_NET *148 0.000279747
*CONN
*I *2192:A I *D sky130_fd_sc_hd__xnor2_2
*I *2257:Y O *D sky130_fd_sc_hd__nand2_2
*CAP
1 *2192:A 6.94211e-05
2 *2257:Y 6.94211e-05
3 *2192:A *522:10 0.000140905
*RES
1 *2257:Y *2192:A 8.835 
*END

*D_NET *149 0.00158138
*CONN
*I *2262:B I *D sky130_fd_sc_hd__nand2_4
*I *2191:A2 I *D sky130_fd_sc_hd__a22o_2
*I *2258:Y O *D sky130_fd_sc_hd__nand2_2
*CAP
1 *2262:B 4.32874e-05
2 *2191:A2 0.000112351
3 *2258:Y 0.000312857
4 *149:6 0.000468495
5 *2191:A2 *2191:B1 1.26548e-05
6 *2191:A2 *2262:A 0.000139245
7 *2191:A2 *438:10 1.1561e-05
8 *2191:A2 *522:10 0
9 *2262:B *154:25 0.0001249
10 *2262:B *438:23 4.7101e-05
11 *149:6 *2258:A 4.66108e-05
12 *149:6 *154:6 8.65905e-05
13 *149:6 *154:25 0.000148089
14 *149:6 *438:23 2.76356e-05
*RES
1 *2258:Y *149:6 6.88 
2 *149:6 *2191:A2 7.86875 
3 *149:6 *2262:B 3.1 
*END

*D_NET *150 0.00103037
*CONN
*I *2263:B I *D sky130_fd_sc_hd__nand3b_2
*I *2259:Y O *D sky130_fd_sc_hd__nand2_2
*CAP
1 *2263:B 0.000294352
2 *2259:Y 0.000294352
3 *2263:B *2263:C 0.000119285
4 *2263:B *2283:B 8.8266e-05
5 *2263:B *466:36 0.000146408
6 *2329:A *2263:B 8.77073e-05
*RES
1 *2259:Y *2263:B 13.155 
*END

*D_NET *151 0.000586836
*CONN
*I *2263:C I *D sky130_fd_sc_hd__nand3b_2
*I *2260:Y O *D sky130_fd_sc_hd__nand2b_4
*CAP
1 *2263:C 0.000108628
2 *2260:Y 0.000108628
3 *2263:C *2260:B 6.28765e-05
4 *2263:C *2261:B1 0.000166346
5 *2263:C *466:21 1.15688e-05
6 *2263:C *524:10 9.50342e-06
7 *2263:B *2263:C 0.000119285
8 *2329:A *2263:C 0
*RES
1 *2260:Y *2263:C 10.62 
*END

*D_NET *152 0.000699957
*CONN
*I *2191:A1 I *D sky130_fd_sc_hd__a22o_2
*I *2262:A I *D sky130_fd_sc_hd__nand2_4
*I *2261:X O *D sky130_fd_sc_hd__o21a_4
*CAP
1 *2191:A1 0
2 *2262:A 3.98243e-05
3 *2261:X 0.000166644
4 *152:6 0.000206468
5 *2262:A *2191:B1 9.37731e-05
6 *2262:A *438:10 5.4003e-05
7 *2191:A2 *2262:A 0.000139245
*RES
1 *2261:X *152:6 3.775 
2 *152:6 *2262:A 7.235 
3 *152:6 *2191:A1 1.6 
*END

*D_NET *153 0.00254296
*CONN
*I *1969:A1 I *D sky130_fd_sc_hd__o21ai_2
*I *2264:A I *D sky130_fd_sc_hd__nand2_2
*I *2265:C I *D sky130_fd_sc_hd__and4_2
*I *2266:C I *D sky130_fd_sc_hd__nand4_4
*I *2262:Y O *D sky130_fd_sc_hd__nand2_4
*CAP
1 *1969:A1 0.000138224
2 *2264:A 0
3 *2265:C 0
4 *2266:C 0
5 *2262:Y 0.000215912
6 *153:34 0.00033326
7 *153:23 0.000380026
8 *153:10 0.000400901
9 *1969:A1 *2193:A1 9.05377e-05
10 *1969:A1 *242:8 9.24049e-05
11 *153:10 *2282:B 3.25831e-05
12 *153:10 *154:25 8.65905e-05
13 *153:10 *438:23 1.20373e-05
14 *153:10 *522:10 0.000141599
15 *153:23 *2282:B 0.000162318
16 *153:23 *522:10 0.00015212
17 *153:34 *2264:B 0.000163204
18 *2257:B *153:10 0
19 *2265:A *153:23 0.00012657
20 *2265:A *153:34 1.46744e-05
*RES
1 *2262:Y *153:10 7.065 
2 *153:10 *2266:C 3.6 
3 *153:10 *153:23 6.41 
4 *153:23 *2265:C 1.6 
5 *153:23 *153:34 3.585 
6 *153:34 *2264:A 1.6 
7 *153:34 *1969:A1 8.63 
*END

*D_NET *154 0.00295013
*CONN
*I *2264:B I *D sky130_fd_sc_hd__nand2_2
*I *2265:D I *D sky130_fd_sc_hd__and4_2
*I *2266:D I *D sky130_fd_sc_hd__nand4_4
*I *2191:B2 I *D sky130_fd_sc_hd__a22o_2
*I *2263:Y O *D sky130_fd_sc_hd__nand3b_2
*CAP
1 *2264:B 4.53977e-05
2 *2265:D 0
3 *2266:D 0
4 *2191:B2 7.47648e-05
5 *2263:Y 4.23943e-05
6 *154:44 0.000514024
7 *154:25 0.000741513
8 *154:6 0.000390045
9 *2191:B2 *2191:B1 6.47594e-05
10 *2191:B2 *438:10 4.92128e-05
11 *154:25 *438:10 0
12 *154:25 *438:23 5.33172e-05
13 *154:25 *522:10 8.97486e-05
14 *154:44 *2282:B 0
15 *2262:B *154:25 0.0001249
16 *2265:A *2264:B 8.49205e-05
17 *2265:A *154:44 5.02217e-05
18 *2265:B *154:44 6.57653e-06
19 *2266:B *154:44 4.99619e-05
20 *2329:A *2191:B2 8.38943e-05
21 *149:6 *154:6 8.65905e-05
22 *149:6 *154:25 0.000148089
23 *153:10 *154:25 8.65905e-05
24 *153:34 *2264:B 0.000163204
*RES
1 *2263:Y *154:6 2.395 
2 *154:6 *2191:B2 8 
3 *154:6 *154:25 9.79 
4 *154:25 *2266:D 1.6 
5 *154:25 *154:44 10.105 
6 *154:44 *2265:D 1.6 
7 *154:44 *2264:B 3.085 
*END

*D_NET *155 0.00100758
*CONN
*I *2190:A I *D sky130_fd_sc_hd__xnor2_2
*I *2264:Y O *D sky130_fd_sc_hd__nand2_2
*CAP
1 *2190:A 0.000180934
2 *2264:Y 0.000180934
3 *2190:A *2193:A1 7.22354e-05
4 *2190:A *2256:A1 7.63282e-05
5 *2190:A *468:14 0.000150631
6 *2257:A *2190:A 4.99619e-05
7 *2265:A *2190:A 5.00699e-05
8 *145:6 *2190:A 3.96653e-05
9 *147:12 *2190:A 0.000206824
*RES
1 *2264:Y *2190:A 13.035 
*END

*D_NET *156 0.000387642
*CONN
*I *2193:A2 I *D sky130_fd_sc_hd__a21oi_2
*I *2265:X O *D sky130_fd_sc_hd__and4_2
*CAP
1 *2193:A2 0.000185271
2 *2265:X 0.000185271
3 *2193:A2 *2282:B 0
4 *2193:A2 *166:12 1.71013e-05
5 *2193:A2 *468:14 0
*RES
1 *2265:X *2193:A2 10.065 
*END

*D_NET *157 0.0012687
*CONN
*I *2282:B I *D sky130_fd_sc_hd__nor2_4
*I *2266:Y O *D sky130_fd_sc_hd__nand4_4
*CAP
1 *2282:B 0.00040952
2 *2266:Y 0.00040952
3 *2282:B *2277:B1 7.89767e-05
4 *2282:B *166:12 0
5 *2282:B *522:10 0.000124532
6 *2282:B *528:32 0
7 *2193:A2 *2282:B 0
8 *2257:B *2282:B 1.43521e-05
9 *2265:B *2282:B 3.68967e-05
10 *153:10 *2282:B 3.25831e-05
11 *153:23 *2282:B 0.000162318
12 *154:44 *2282:B 0
*RES
1 *2266:Y *2282:B 15.72 
*END

*D_NET *158 0.00121069
*CONN
*I *2270:B I *D sky130_fd_sc_hd__nand3b_2
*I *2267:Y O *D sky130_fd_sc_hd__nand2b_2
*CAP
1 *2270:B 0.000331408
2 *2267:Y 0.000331408
3 *2270:B *2270:C 2.97004e-06
4 *2270:B *2271:A2 0.000111285
5 *2270:B *2271:B1 0
6 *2270:B *162:14 0.000235568
7 *2270:B *527:21 0.00016569
8 *2270:B *527:31 0
9 *2270:B *529:8 3.23663e-05
*RES
1 *2267:Y *2270:B 14.22 
*END

*D_NET *159 0.000362156
*CONN
*I *2270:C I *D sky130_fd_sc_hd__nand3b_2
*I *2268:Y O *D sky130_fd_sc_hd__nand2_2
*CAP
1 *2270:C 0.000126673
2 *2268:Y 0.000126673
3 *2270:C *510:8 0.000105841
4 *2270:C *527:31 0
5 *2270:B *2270:C 2.97004e-06
*RES
1 *2268:Y *2270:C 9.795 
*END

*D_NET *160 0.00108715
*CONN
*I *1970:A1 I *D sky130_fd_sc_hd__a31o_2
*I *2272:B I *D sky130_fd_sc_hd__nand2_4
*I *2269:Y O *D sky130_fd_sc_hd__nand2_2
*CAP
1 *1970:A1 0.00022404
2 *2272:B 0.000333197
3 *2269:Y 0.000109157
4 *1970:A1 *1970:A2 4.82863e-05
5 *1970:A1 *1970:A3 0.000184866
6 *1970:A1 *1971:B1 3.09088e-05
7 *2272:B *1970:A3 4.82863e-05
8 *2272:B *2269:A 0
9 *2272:B *161:10 5.92849e-05
10 *2272:B *163:10 4.91189e-05
11 *2272:B *527:31 0
*RES
1 *2269:Y *2272:B 9.795 
2 *2272:B *1970:A1 7.475 
*END

*D_NET *161 0.00410308
*CONN
*I *2281:C1 I *D sky130_fd_sc_hd__o2111ai_2
*I *2280:C1 I *D sky130_fd_sc_hd__o2111a_2
*I *2273:A I *D sky130_fd_sc_hd__nand2_2
*I *2270:Y O *D sky130_fd_sc_hd__nand3b_2
*CAP
1 *2281:C1 0.00050969
2 *2280:C1 0.000381303
3 *2273:A 4.46462e-05
4 *2270:Y 0.000295988
5 *161:12 0.00062574
6 *161:10 0.00100547
7 *2273:A *2195:A1 9.14049e-05
8 *2273:A *2273:B 0.00011379
9 *2280:C1 *2273:B 8.40213e-05
10 *2280:C1 *163:12 6.47326e-05
11 *2280:C1 *163:34 5.98073e-05
12 *2280:C1 *166:25 0.000203178
13 *2281:C1 *2196:A 1.54837e-05
14 *2281:C1 *2268:A 6.14838e-05
15 *2281:C1 *2279:A1 0.000217512
16 *2281:C1 *2279:A2 1.61831e-05
17 *2281:C1 *2279:B1 8.22234e-06
18 *2281:C1 *169:8 0
19 *161:10 *1970:A3 4.82919e-05
20 *161:10 *163:10 0
21 *161:10 *527:31 0.00011538
22 *161:12 *2195:A1 4.14369e-05
23 *161:12 *2195:A2 1.07797e-05
24 *161:12 *2196:A 0
25 *161:12 *2273:B 2.92496e-05
26 *161:12 *163:10 0
27 *161:12 *166:31 0
28 *2272:B *161:10 5.92849e-05
*RES
1 *2270:Y *161:10 8.94 
2 *161:10 *161:12 3.42 
3 *161:12 *2273:A 4.98 
4 *161:12 *2280:C1 8.88 
5 *161:10 *2281:C1 10.29 
*END

*D_NET *162 0.00253372
*CONN
*I *2272:A I *D sky130_fd_sc_hd__nand2_4
*I *1970:A3 I *D sky130_fd_sc_hd__a31o_2
*I *2271:X O *D sky130_fd_sc_hd__o21a_4
*CAP
1 *2272:A 0
2 *1970:A3 0.000326973
3 *2271:X 0.000557703
4 *162:14 0.000884676
5 *1970:A3 *1971:B1 8.65961e-05
6 *162:14 *2269:A 0
7 *162:14 *2271:A2 1.47347e-05
8 *162:14 *2271:B1 2.75145e-05
9 *162:14 *527:31 0.000118513
10 *1970:A1 *1970:A3 0.000184866
11 *2270:B *162:14 0.000235568
12 *2272:B *1970:A3 4.82863e-05
13 *161:10 *1970:A3 4.82919e-05
*RES
1 *2271:X *162:14 12.965 
2 *162:14 *1970:A3 7.945 
3 *162:14 *2272:A 1.6 
*END

*D_NET *163 0.00259173
*CONN
*I *2273:B I *D sky130_fd_sc_hd__nand2_2
*I *2195:B1 I *D sky130_fd_sc_hd__o21ai_2
*I *2280:B1 I *D sky130_fd_sc_hd__o2111a_2
*I *2281:B1 I *D sky130_fd_sc_hd__o2111ai_2
*I *2272:Y O *D sky130_fd_sc_hd__nand2_4
*CAP
1 *2273:B 0.000134888
2 *2195:B1 0
3 *2280:B1 0
4 *2281:B1 8.58704e-05
5 *2272:Y 0.000296389
6 *163:34 0.000237652
7 *163:12 0.000190845
8 *163:10 0.000504129
9 *2273:B *2194:A 4.82919e-05
10 *2273:B *2195:A1 4.66108e-05
11 *2273:B *2195:A2 9.37731e-05
12 *2281:B1 *1970:A2 7.30547e-05
13 *2281:B1 *1971:A1 5.92191e-05
14 *2281:B1 *2280:A2 0.000145553
15 *2281:B1 *166:25 3.00381e-05
16 *2281:B1 *166:31 0
17 *163:10 *1970:A2 0
18 *163:10 *2268:A 6.65973e-05
19 *163:10 *2269:A 7.89767e-05
20 *163:10 *166:31 0
21 *163:12 *2280:A2 3.00381e-05
22 *163:12 *166:25 6.90876e-05
23 *2272:B *163:10 4.91189e-05
24 *2273:A *2273:B 0.00011379
25 *2280:C1 *2273:B 8.40213e-05
26 *2280:C1 *163:12 6.47326e-05
27 *2280:C1 *163:34 5.98073e-05
28 *161:10 *163:10 0
29 *161:12 *2273:B 2.92496e-05
30 *161:12 *163:10 0
*RES
1 *2272:Y *163:10 11.06 
2 *163:10 *163:12 2.52 
3 *163:12 *2281:B1 8.195 
4 *163:12 *2280:B1 1.6 
5 *163:10 *163:34 2.1 
6 *163:34 *2195:B1 1.6 
7 *163:34 *2273:B 8.825 
*END

*D_NET *164 0.00104432
*CONN
*I *2194:A I *D sky130_fd_sc_hd__xor2_2
*I *2195:A1 I *D sky130_fd_sc_hd__o21ai_2
*I *2273:Y O *D sky130_fd_sc_hd__nand2_2
*CAP
1 *2194:A 0.000116928
2 *2195:A1 0.000121755
3 *2273:Y 0
4 *164:4 0.000238684
5 *2194:A *2194:B 0.000219442
6 *2194:A *440:6 0.000119762
7 *2195:A1 *166:31 0
8 *2273:A *2195:A1 9.14049e-05
9 *2273:B *2194:A 4.82919e-05
10 *2273:B *2195:A1 4.66108e-05
11 *161:12 *2195:A1 4.14369e-05
*RES
1 *2273:Y *164:4 1.6 
2 *164:4 *2195:A1 7.685 
3 *164:4 *2194:A 4.825 
*END

*D_NET *165 0.00215663
*CONN
*I *2279:A1 I *D sky130_fd_sc_hd__o21a_2
*I *2281:A2 I *D sky130_fd_sc_hd__o2111ai_2
*I *2280:A2 I *D sky130_fd_sc_hd__o2111a_2
*I *2274:X O *D sky130_fd_sc_hd__and2_4
*CAP
1 *2279:A1 7.14742e-05
2 *2281:A2 0
3 *2280:A2 8.94759e-05
4 *2274:X 0.000483708
5 *165:27 7.14742e-05
6 *165:14 0.000573184
7 *2279:A1 *2268:A 4.43682e-05
8 *2279:A1 *2279:A2 5.61035e-05
9 *2280:A2 *166:31 5.12942e-05
10 *165:14 *1970:A2 5.65627e-05
11 *165:14 *1971:A1 0.000120655
12 *165:14 *1971:B1 4.23245e-05
13 *165:14 *2268:A 0
14 *165:14 *2274:A 9.87211e-05
15 *165:14 *166:31 4.18603e-06
16 *2281:B1 *2280:A2 0.000145553
17 *2281:C1 *2279:A1 0.000217512
18 *163:12 *2280:A2 3.00381e-05
*RES
1 *2274:X *165:14 10.38 
2 *165:14 *2280:A2 5.685 
3 *165:14 *165:27 2 
4 *165:27 *2281:A2 1.6 
5 *165:27 *2279:A1 4.15 
*END

*D_NET *166 0.00320104
*CONN
*I *2280:A1 I *D sky130_fd_sc_hd__o2111a_2
*I *2281:A1 I *D sky130_fd_sc_hd__o2111ai_2
*I *2279:A2 I *D sky130_fd_sc_hd__o21a_2
*I *2276:B1 I *D sky130_fd_sc_hd__a21oi_2
*I *2275:Y O *D sky130_fd_sc_hd__o21ai_2
*CAP
1 *2280:A1 0
2 *2281:A1 0
3 *2279:A2 4.83897e-05
4 *2276:B1 0
5 *2275:Y 0.000555078
6 *166:31 0.000190425
7 *166:25 0.000456845
8 *166:12 0.000869887
9 *2279:A2 *2268:A 4.66108e-05
10 *2279:A2 *2279:B1 4.60584e-05
11 *166:12 *2275:B1 0.000145117
12 *166:12 *468:14 0
13 *166:25 *1970:B1 9.80943e-06
14 *166:25 *2276:A1 0.000237406
15 *166:25 *2280:D1 9.66021e-05
16 *166:31 *1971:A1 0
17 *166:31 *2268:A 5.16418e-05
18 *2193:A2 *166:12 1.71013e-05
19 *2195:A1 *166:31 0
20 *2279:A1 *2279:A2 5.61035e-05
21 *2280:A2 *166:31 5.12942e-05
22 *2280:C1 *166:25 0.000203178
23 *2281:B1 *166:25 3.00381e-05
24 *2281:B1 *166:31 0
25 *2281:C1 *2279:A2 1.61831e-05
26 *2282:B *166:12 0
27 *161:12 *166:31 0
28 *163:10 *166:31 0
29 *163:12 *166:25 6.90876e-05
30 *165:14 *166:31 4.18603e-06
*RES
1 *2275:Y *166:12 14.315 
2 *166:12 *2276:B1 1.6 
3 *166:12 *166:25 7.14 
4 *166:25 *166:31 6.4 
5 *166:31 *2279:A2 3.1 
6 *166:31 *2281:A1 1.6 
7 *166:25 *2280:A1 1.6 
*END

*D_NET *167 0.00186806
*CONN
*I *1970:B1 I *D sky130_fd_sc_hd__a31o_2
*I *2276:Y O *D sky130_fd_sc_hd__a21oi_2
*CAP
1 *1970:B1 0.000416405
2 *2276:Y 0.000416405
3 *1970:B1 *1970:A2 0
4 *1970:B1 *1971:A1 8.09021e-06
5 *1970:B1 *1971:A2 0.000288302
6 *1970:B1 *2276:A1 0.000316415
7 *1970:B1 *2280:D1 0.000142065
8 *1970:B1 *169:12 7.23602e-05
9 *1970:B1 *468:10 0.0001032
10 *1970:B1 *468:12 9.50036e-05
11 *166:25 *1970:B1 9.80943e-06
*RES
1 *2276:Y *1970:B1 16.725 
*END

*D_NET *168 0.000322335
*CONN
*I *2278:B1 I *D sky130_fd_sc_hd__o21ai_4
*I *2277:Y O *D sky130_fd_sc_hd__a21oi_4
*CAP
1 *2278:B1 8.03522e-05
2 *2277:Y 8.03522e-05
3 *2278:B1 *2274:B 2.23922e-05
4 *2278:B1 *2275:A1 0
5 *2278:B1 *528:32 0.000139238
*RES
1 *2277:Y *2278:B1 9.09 
*END

*D_NET *169 0.00430671
*CONN
*I *2281:D1 I *D sky130_fd_sc_hd__o2111ai_2
*I *2279:B1 I *D sky130_fd_sc_hd__o21a_2
*I *1970:A2 I *D sky130_fd_sc_hd__a31o_2
*I *2280:D1 I *D sky130_fd_sc_hd__o2111a_2
*I *2278:Y O *D sky130_fd_sc_hd__o21ai_4
*CAP
1 *2281:D1 0
2 *2279:B1 0.000307243
3 *1970:A2 0.000336741
4 *2280:D1 0.000102173
5 *2278:Y 0.000364948
6 *169:27 0.000788418
7 *169:12 0.000272336
8 *169:8 0.000390678
9 *1970:A2 *1971:A1 0.000202095
10 *1970:A2 *1971:A2 7.21296e-06
11 *1970:A2 *2268:A 0
12 *1970:A2 *2269:A 0
13 *1970:A2 *468:10 0
14 *2279:B1 *2268:A 0.000232111
15 *2280:D1 *468:12 0.000116165
16 *2280:D1 *468:14 8.53113e-06
17 *169:8 *2268:A 0.000120359
18 *169:8 *2282:A 0.000207879
19 *169:8 *173:14 4.99619e-05
20 *169:12 *468:12 6.45236e-05
21 *169:27 *2268:A 0.000192125
22 *1970:A1 *1970:A2 4.82863e-05
23 *1970:B1 *1970:A2 0
24 *1970:B1 *2280:D1 0.000142065
25 *1970:B1 *169:12 7.23602e-05
26 *2279:A2 *2279:B1 4.60584e-05
27 *2281:B1 *1970:A2 7.30547e-05
28 *2281:C1 *2279:B1 8.22234e-06
29 *2281:C1 *169:8 0
30 *163:10 *1970:A2 0
31 *165:14 *1970:A2 5.65627e-05
32 *166:25 *2280:D1 9.66021e-05
*RES
1 *2278:Y *169:8 8.275 
2 *169:8 *169:12 2.87 
3 *169:12 *2280:D1 6.465 
4 *169:12 *169:27 3.83 
5 *169:27 *1970:A2 11.51 
6 *169:27 *2279:B1 5.77 
7 *169:8 *2281:D1 1.6 
*END

*D_NET *170 0.000922818
*CONN
*I *2196:A I *D sky130_fd_sc_hd__xor2_2
*I *2279:X O *D sky130_fd_sc_hd__o21a_2
*CAP
1 *2196:A 0.000361801
2 *2279:X 0.000361801
3 *2196:A *2195:A2 5.53249e-06
4 *2196:A *2196:B 7.35813e-05
5 S[10] *2196:A 0.000104619
6 *2281:C1 *2196:A 1.54837e-05
7 *161:12 *2196:A 0
*RES
1 *2279:X *2196:A 12.495 
*END

*D_NET *171 0.000733495
*CONN
*I *1971:A2 I *D sky130_fd_sc_hd__a21oi_4
*I *2280:X O *D sky130_fd_sc_hd__o2111a_2
*CAP
1 *1971:A2 0.000121692
2 *2280:X 0.000121692
3 *1971:A2 *1971:A1 0.000194595
4 *1970:A2 *1971:A2 7.21296e-06
5 *1970:B1 *1971:A2 0.000288302
*RES
1 *2280:X *1971:A2 11.07 
*END

*D_NET *172 0.000799993
*CONN
*I *2282:A I *D sky130_fd_sc_hd__nor2_4
*I *2281:Y O *D sky130_fd_sc_hd__o2111ai_2
*CAP
1 *2282:A 0.000102115
2 *2281:Y 0.000102115
3 *2282:A *2268:A 0.000387885
4 *169:8 *2282:A 0.000207879
*RES
1 *2281:Y *2282:A 7.115 
*END

*D_NET *173 0.00408393
*CONN
*I *1977:C I *D sky130_fd_sc_hd__nand3_2
*I *1978:A1 I *D sky130_fd_sc_hd__a31oi_2
*I *1967:D I *D sky130_fd_sc_hd__nand4_4
*I *1968:B I *D sky130_fd_sc_hd__nand3_4
*I *2282:Y O *D sky130_fd_sc_hd__nor2_4
*CAP
1 *1977:C 0.00016441
2 *1978:A1 0
3 *1967:D 0.000107174
4 *1968:B 0
5 *2282:Y 0.00075707
6 *173:38 0.000259685
7 *173:27 0.000416558
8 *173:14 0.000971179
9 *1967:D *1967:B 8.65905e-05
10 *1977:C *1977:B 5.12772e-05
11 *1977:C *1980:A 0.000138551
12 *1977:C *2197:A 0.000229217
13 *1977:C *2197:B 0
14 *1977:C *207:23 1.01661e-05
15 *1977:C *241:10 0
16 *173:14 *1931:A1 7.22354e-05
17 *173:14 *1931:A2 6.12198e-05
18 *173:14 *1968:C 0
19 *173:14 *2209:A 0
20 *173:14 *2268:A 0.000102539
21 *173:14 *2278:A1 0.000201508
22 *173:14 *2278:A2 0.000120806
23 *173:14 *2295:A 0.00011852
24 *173:14 *241:10 1.22762e-05
25 *173:14 *449:14 8.08153e-06
26 *173:27 *207:10 0
27 *173:27 *241:10 6.73665e-05
28 *173:38 *207:23 7.75412e-05
29 *173:38 *241:10 0
30 *169:8 *173:14 4.99619e-05
*RES
1 *2282:Y *173:14 17.07 
2 *173:14 *1968:B 3.6 
3 *173:14 *173:27 5.72 
4 *173:27 *1967:D 3.43 
5 *173:27 *173:38 4.145 
6 *173:38 *1978:A1 3.6 
7 *173:38 *1977:C 8.04 
*END

*D_NET *174 0.000429895
*CONN
*I *2286:B I *D sky130_fd_sc_hd__nand3b_2
*I *2283:Y O *D sky130_fd_sc_hd__nand2b_4
*CAP
1 *2286:B 0.000127517
2 *2283:Y 0.000127517
3 *2286:B *2287:A2 8.8266e-05
4 *2286:B *449:24 8.65961e-05
5 *2286:B *521:12 0
*RES
1 *2283:Y *2286:B 9.63 
*END

*D_NET *175 0.000315807
*CONN
*I *2286:C I *D sky130_fd_sc_hd__nand3b_2
*I *2284:Y O *D sky130_fd_sc_hd__nand2_2
*CAP
1 *2286:C 3.42036e-05
2 *2284:Y 3.42036e-05
3 *2286:C *2287:B1 3.25635e-05
4 *2286:C *178:8 0.00012657
5 *2286:C *521:12 8.8266e-05
*RES
1 *2284:Y *2286:C 4.7 
*END

*D_NET *176 0.002027
*CONN
*I *1964:A1 I *D sky130_fd_sc_hd__o21ai_2
*I *1917:A2 I *D sky130_fd_sc_hd__o2111ai_4
*I *1907:A1 I *D sky130_fd_sc_hd__o21ai_2
*I *2285:X O *D sky130_fd_sc_hd__and2_2
*CAP
1 *1964:A1 7.42137e-05
2 *1917:A2 0.000150497
3 *1907:A1 0.00014709
4 *2285:X 3.44534e-05
5 *176:15 0.000224711
6 *176:6 0.000181544
7 *1907:A1 *1907:A2 0.000195558
8 *1907:A1 *2186:A 0.000155491
9 *1907:A1 *177:12 0.000208446
10 *1917:A2 *1964:B1 2.46007e-05
11 *1917:A2 *190:10 0.000101325
12 *1964:A1 *1964:B1 5.55458e-05
13 *1964:A1 *190:10 8.17796e-05
14 *176:6 *1907:A2 3.7712e-05
15 *176:6 *2405:A 8.40213e-05
16 S[5] *1917:A2 6.36578e-05
17 S[7] *1907:A1 4.82863e-05
18 S[7] *176:6 0.000158072
*RES
1 *2285:X *176:6 3.085 
2 *176:6 *1907:A1 6.19 
3 *176:6 *176:15 2 
4 *176:15 *1917:A2 6.885 
5 *176:15 *1964:A1 5.49 
*END

*D_NET *177 0.00534753
*CONN
*I *1965:B1 I *D sky130_fd_sc_hd__a2bb2oi_2
*I *2187:A1_N I *D sky130_fd_sc_hd__o2bb2a_2
*I *1963:C I *D sky130_fd_sc_hd__nand4_2
*I *1907:B1 I *D sky130_fd_sc_hd__o21ai_2
*I *1917:D1 I *D sky130_fd_sc_hd__o2111ai_4
*I *2286:Y O *D sky130_fd_sc_hd__nand3b_2
*CAP
1 *1965:B1 6.93654e-05
2 *2187:A1_N 0.000459296
3 *1963:C 0
4 *1907:B1 0
5 *1917:D1 0.000112191
6 *2286:Y 5.48394e-05
7 *177:43 0.000590492
8 *177:34 0.000160605
9 *177:12 0.000887745
10 *177:6 0.000929168
11 *1917:D1 *1910:A 0
12 *1917:D1 *1917:C1 4.41506e-05
13 *1917:D1 *2185:B1 8.40213e-05
14 *1917:D1 *519:10 0.000136884
15 *1965:B1 *1963:B 2.59981e-05
16 *1965:B1 *1965:B2 0.000122337
17 *1965:B1 *2188:A 0.000122337
18 *2187:A1_N *1965:B2 0.000168209
19 *2187:A1_N *2188:A 8.65905e-05
20 *2187:A1_N *2188:B 0.000191355
21 *177:6 *2287:A1 7.66083e-05
22 *177:12 *1910:A 0
23 *177:12 *2287:A1 0.000283896
24 *177:12 *519:10 9.54399e-05
25 *177:34 *1963:B 5.53249e-06
26 *177:34 *178:23 0
27 *177:34 *449:47 2.46089e-05
28 *177:43 *1963:B 6.5525e-05
29 S[7] *177:12 0.000341885
30 *1907:A1 *177:12 0.000208446
*RES
1 *2286:Y *177:6 2.395 
2 *177:6 *177:12 12.545 
3 *177:12 *1917:D1 6.03 
4 *177:12 *1907:B1 3.6 
5 *177:6 *177:34 3.635 
6 *177:34 *1963:C 3.6 
7 *177:34 *177:43 1.38 
8 *177:43 *2187:A1_N 10.6125 
9 *177:43 *1965:B1 5.355 
*END

*D_NET *178 0.00456012
*CONN
*I *1907:A2 I *D sky130_fd_sc_hd__o21ai_2
*I *1906:B1 I *D sky130_fd_sc_hd__a21o_2
*I *1964:A2 I *D sky130_fd_sc_hd__o21ai_2
*I *1917:A1 I *D sky130_fd_sc_hd__o2111ai_4
*I *2287:Y O *D sky130_fd_sc_hd__o21ai_4
*CAP
1 *1907:A2 0.00055877
2 *1906:B1 0
3 *1964:A2 0.000141383
4 *1917:A1 4.29983e-05
5 *2287:Y 0.00045568
6 *178:23 0.000330002
7 *178:10 0.000231618
8 *178:8 0.00101445
9 *1907:A2 *2186:A 0.000123189
10 *1907:A2 *2287:A1 3.57349e-05
11 *1907:A2 *2405:A 8.57024e-05
12 *1907:A2 *459:79 4.82863e-05
13 *1917:A1 *2284:B 9.37731e-05
14 *1917:A1 *521:12 0
15 *1964:A2 *1906:A1 8.67294e-05
16 *1964:A2 *1963:A 0.00030615
17 *178:8 *2284:B 2.75229e-05
18 *178:8 *2287:A1 3.58131e-05
19 *178:8 *2287:B1 0.000109101
20 *178:8 *521:12 2.0514e-05
21 *178:23 *2284:B 4.9968e-05
22 *178:23 *449:47 0
23 *178:23 *459:79 7.73409e-05
24 S[5] *1907:A2 8.23457e-05
25 S[7] *1907:A2 3.94429e-05
26 S[7] *1917:A1 0.000117832
27 S[7] *178:23 8.59365e-05
28 *1907:A1 *1907:A2 0.000195558
29 *2286:C *178:8 0.00012657
30 *176:6 *1907:A2 3.7712e-05
31 *177:34 *178:23 0
*RES
1 *2287:Y *178:8 7.585 
2 *178:8 *178:10 2 
3 *178:10 *1917:A1 4.98 
4 *178:10 *178:23 4.91 
5 *178:23 *1964:A2 5.185 
6 *178:23 *1906:B1 1.6 
7 *178:8 *1907:A2 11.53 
*END

*D_NET *179 0.000122413
*CONN
*I *1963:D I *D sky130_fd_sc_hd__nand4_2
*I *1906:X O *D sky130_fd_sc_hd__a21o_2
*CAP
1 *1963:D 3.4673e-05
2 *1906:X 3.4673e-05
3 *1963:D *1963:A 5.30673e-05
*RES
1 *1906:X *1963:D 3.995 
*END

*D_NET *180 0.00107771
*CONN
*I *2186:A I *D sky130_fd_sc_hd__xnor2_2
*I *1907:Y O *D sky130_fd_sc_hd__o21ai_2
*CAP
1 *2186:A 0.000234568
2 *1907:Y 0.000234568
3 *2186:A *2185:B1 0
4 *2186:A *2186:B 1.73877e-05
5 *2186:A *2403:A 4.43871e-06
6 *2186:A *554:10 0.000308062
7 S[5] *2186:A 0
8 *1907:A1 *2186:A 0.000155491
9 *1907:A2 *2186:A 0.000123189
*RES
1 *1907:Y *2186:A 12.87 
*END

*D_NET *181 0.00217157
*CONN
*I *1915:B I *D sky130_fd_sc_hd__nand3_4
*I *2185:A1 I *D sky130_fd_sc_hd__a22oi_2
*I *1916:B2 I *D sky130_fd_sc_hd__a22oi_4
*I *1908:Y O *D sky130_fd_sc_hd__nand2b_4
*CAP
1 *1915:B 0.000195308
2 *2185:A1 0.000264183
3 *1916:B2 2.08101e-05
4 *1908:Y 0.000480195
5 *181:6 0.000569881
6 *1915:B *1909:B 8.95416e-05
7 *1915:B *1915:C 0
8 *1915:B *520:44 0
9 *2185:A1 *1910:A 5.42473e-05
10 *2185:A1 *1916:A1 5.12942e-05
11 *2185:A1 *189:14 0.000134938
12 *2185:A1 *556:47 2.67184e-05
13 *181:6 *556:34 0.000122801
14 *181:6 *556:47 0.00011468
15 *1915:A *1915:B 4.69765e-05
*RES
1 *1908:Y *181:6 6.19 
2 *181:6 *1916:B2 1.96 
3 *181:6 *2185:A1 10.445 
4 *1908:Y *1915:B 10.8 
*END

*D_NET *182 0.000356895
*CONN
*I *1915:C I *D sky130_fd_sc_hd__nand3_4
*I *1909:Y O *D sky130_fd_sc_hd__nand2b_4
*CAP
1 *1915:C 4.16802e-05
2 *1909:Y 4.16802e-05
3 *1915:C *1909:A_N 9.53428e-06
4 *1915:C *1909:B 0.000164874
5 *1915:C *2173:A0 7.60965e-05
6 *1915:C *454:53 2.30292e-05
7 *1915:B *1915:C 0
*RES
1 *1909:Y *1915:C 5.045 
*END

*D_NET *183 0.00148374
*CONN
*I *1916:A1 I *D sky130_fd_sc_hd__a22oi_4
*I *1910:Y O *D sky130_fd_sc_hd__nand2_2
*CAP
1 *1916:A1 0.000259966
2 *1910:Y 0.000259966
3 *1916:A1 *1910:A 0.000237243
4 *1916:A1 *1916:A2 0
5 *1916:A1 *2185:A2 5.13029e-05
6 *1916:A1 *187:8 4.18603e-06
7 *1916:A1 *519:10 0.000201502
8 S[1] *1916:A1 0
9 *2185:A1 *1916:A1 5.12942e-05
10 *2304:A *1916:A1 0.000176647
11 *2320:A *1916:A1 8.57024e-05
12 *2339:A *1916:A1 0.000155928
*RES
1 *1910:Y *1916:A1 14.685 
*END

*D_NET *184 0.000284055
*CONN
*I *1916:A2 I *D sky130_fd_sc_hd__a22oi_4
*I *1911:X O *D sky130_fd_sc_hd__o21a_2
*CAP
1 *1916:A2 4.68728e-05
2 *1911:X 4.68728e-05
3 *1916:A2 *1910:A 0.000143266
4 *1916:A2 *187:8 0
5 *1916:A2 *189:14 4.7043e-05
6 *1916:A1 *1916:A2 0
*RES
1 *1911:X *1916:A2 8.835 
*END

*D_NET *185 0.000448587
*CONN
*I *1913:B1 I *D sky130_fd_sc_hd__o21ai_4
*I *1912:Y O *D sky130_fd_sc_hd__a21boi_2
*CAP
1 *1913:B1 0.000113681
2 *1912:Y 0.000113681
3 *1913:B1 *1913:A1 8.52845e-05
4 *1913:B1 *520:19 4.88478e-05
5 *1913:B1 *556:19 7.63125e-05
6 *1913:B1 *556:30 1.07797e-05
*RES
1 *1912:Y *1913:B1 9.885 
*END

*D_NET *186 0.00441079
*CONN
*I *1917:B1 I *D sky130_fd_sc_hd__o2111ai_4
*I *1964:B1 I *D sky130_fd_sc_hd__o21ai_2
*I *2185:B2 I *D sky130_fd_sc_hd__a22oi_2
*I *1913:Y O *D sky130_fd_sc_hd__o21ai_4
*CAP
1 *1917:B1 0
2 *1964:B1 0.000150749
3 *2185:B2 6.45057e-05
4 *1913:Y 0.000411125
5 *186:21 0.000437483
6 *186:6 0.000762364
7 *1964:B1 *2185:B1 0.00035352
8 *1964:B1 *190:10 0
9 *1964:B1 *435:23 8.53113e-06
10 *2185:B2 *1917:C1 8.65961e-05
11 *2185:B2 *2185:A2 0
12 *2185:B2 *2185:B1 7.22613e-05
13 *186:6 *1910:A 0.000383652
14 *186:6 *1913:A1 0.000159329
15 *186:6 *1917:C1 5.94029e-05
16 *186:6 *538:10 9.89283e-05
17 *186:21 *1917:C1 0
18 *186:21 *2185:B1 0.000540214
19 *186:21 *2186:B 0.000201503
20 S[5] *1964:B1 0.000116853
21 *1917:A2 *1964:B1 2.46007e-05
22 *1964:A1 *1964:B1 5.55458e-05
23 *2339:A *186:6 0.000423626
*RES
1 *1913:Y *186:6 11.02 
2 *186:6 *2185:B2 3.625 
3 *186:6 *186:21 6.585 
4 *186:21 *1964:B1 10.235 
5 *186:21 *1917:B1 1.6 
*END

*D_NET *187 0.00120611
*CONN
*I *1916:B1 I *D sky130_fd_sc_hd__a22oi_4
*I *2185:A2 I *D sky130_fd_sc_hd__a22oi_2
*I *1914:Y O *D sky130_fd_sc_hd__a21oi_2
*CAP
1 *1916:B1 0
2 *2185:A2 0.000107672
3 *1914:Y 0.000108995
4 *187:8 0.000216667
5 *2185:A2 *1917:C1 0.00023939
6 *187:8 *1914:A2 7.26629e-05
7 *187:8 *1917:C1 0.00015046
8 *187:8 *473:10 8.53255e-05
9 *187:8 *556:47 7.89767e-05
10 *1916:A1 *2185:A2 5.13029e-05
11 *1916:A1 *187:8 4.18603e-06
12 *1916:A2 *187:8 0
13 *2185:B2 *2185:A2 0
14 *2304:A *2185:A2 4.82863e-05
15 *2339:A *2185:A2 4.21889e-05
*RES
1 *1914:Y *187:8 7.275 
2 *187:8 *2185:A2 6.735 
3 *187:8 *1916:B1 3.6 
*END

*D_NET *188 0.00324317
*CONN
*I *1917:C1 I *D sky130_fd_sc_hd__o2111ai_4
*I *1915:Y O *D sky130_fd_sc_hd__nand3_4
*CAP
1 *1917:C1 0.00105119
2 *1915:Y 0.00105119
3 *1917:C1 *2185:B1 0.000135084
4 *1917:C1 *473:10 0.000268987
5 *1917:C1 *520:44 0.000128537
6 *1917:D1 *1917:C1 4.41506e-05
7 *2185:A2 *1917:C1 0.00023939
8 *2185:B2 *1917:C1 8.65961e-05
9 *2339:A *1917:C1 2.81759e-05
10 *186:6 *1917:C1 5.94029e-05
11 *186:21 *1917:C1 0
12 *187:8 *1917:C1 0.00015046
*RES
1 *1915:Y *1917:C1 23.625 
*END

*D_NET *189 0.00401442
*CONN
*I *1963:A I *D sky130_fd_sc_hd__nand4_2
*I *2184:A I *D sky130_fd_sc_hd__xnor2_2
*I *1916:Y O *D sky130_fd_sc_hd__a22oi_4
*CAP
1 *1963:A 0.000530815
2 *2184:A 2.78682e-05
3 *1916:Y 0.000367718
4 *189:14 0.000926401
5 *1963:A *1906:A1 8.26275e-05
6 *1963:A *1932:B1 3.26889e-05
7 *1963:A *2184:B 6.13486e-05
8 *1963:A *2403:A 4.82919e-05
9 *1963:A *449:47 0.0007513
10 *2184:A *1906:A1 3.26889e-05
11 *189:14 *1906:A1 0.000128242
12 *189:14 *1910:A 0
13 *189:14 *1911:A1 0.000161529
14 *189:14 *459:16 0.000152328
15 *189:14 *556:47 0.000169374
16 *1916:A2 *189:14 4.7043e-05
17 *1963:D *1963:A 5.30673e-05
18 *1964:A2 *1963:A 0.00030615
19 *2185:A1 *189:14 0.000134938
*RES
1 *1916:Y *189:14 13.655 
2 *189:14 *2184:A 2.215 
3 *189:14 *1963:A 13.705 
*END

*D_NET *190 0.00599528
*CONN
*I *1934:B I *D sky130_fd_sc_hd__nor2_4
*I *1935:A I *D sky130_fd_sc_hd__or2_4
*I *2187:B1 I *D sky130_fd_sc_hd__o2bb2a_2
*I *1917:Y O *D sky130_fd_sc_hd__o2111ai_4
*CAP
1 *1934:B 0.000228257
2 *1935:A 0
3 *2187:B1 0.000129695
4 *1917:Y 0.000321227
5 *190:29 0.00111957
6 *190:10 0.00134224
7 *1934:B *1934:A 0.000136406
8 *1934:B *1968:A 0
9 *1934:B *1968:C 0
10 *1934:B *2189:B1 0.000138551
11 *1934:B *2402:A 0.000109009
12 *1934:B *239:10 0
13 *2187:B1 *1965:B2 0.000201503
14 *2187:B1 *2187:B2 8.65905e-05
15 *2187:B1 *435:12 0.000190633
16 *2187:B1 *449:47 3.64998e-06
17 *190:10 *2188:B 2.78732e-05
18 *190:10 *2405:A 0.000324037
19 *190:10 *237:10 0
20 *190:10 *435:23 0
21 *190:10 *557:12 0
22 *190:29 *1929:B1_N 0
23 *190:29 *1933:D 5.92849e-05
24 *190:29 *1965:B2 0.000722651
25 *190:29 *2188:A 6.79087e-05
26 *190:29 *2402:A 0.000499089
27 *190:29 *199:14 9.52646e-05
28 *190:29 *201:8 8.73389e-06
29 *190:29 *239:10 0
30 S[5] *190:10 0
31 S[7] *190:10 0
32 *1917:A2 *190:10 0.000101325
33 *1964:A1 *190:10 8.17796e-05
34 *1964:B1 *190:10 0
*RES
1 *1917:Y *190:10 12.335 
2 *190:10 *2187:B1 5.17 
3 *190:10 *190:29 18.98 
4 *190:29 *1935:A 3.6 
5 *190:29 *1934:B 8.925 
*END

*D_NET *191 0.0012757
*CONN
*I *2183:A1 I *D sky130_fd_sc_hd__o22a_4
*I *1925:A1 I *D sky130_fd_sc_hd__o21a_2
*I *1918:X O *D sky130_fd_sc_hd__and2_2
*CAP
1 *2183:A1 0.000105658
2 *1925:A1 0.000195809
3 *1918:X 0.000100427
4 *191:10 0.000401894
5 *1925:A1 *1922:B1 1.22676e-05
6 *1925:A1 *1925:A2 8.69088e-05
7 *1925:A1 *1925:B1 0
8 *1925:A1 *194:14 0.000194227
9 *1925:A1 *434:10 0
10 *2183:A1 *2183:A2 8.40269e-05
11 *2183:A1 *2183:B2 2.16833e-05
12 *2183:A1 *194:14 4.65496e-06
13 *191:10 *1922:A2 2.11084e-05
14 *191:10 *1922:B1 4.70343e-05
15 *191:10 *435:12 0
*RES
1 *1918:X *191:10 5.43 
2 *191:10 *1925:A1 8.04 
3 *191:10 *2183:A1 5.535 
*END

*D_NET *192 0.000909689
*CONN
*I *1924:B I *D sky130_fd_sc_hd__nand3b_2
*I *1923:B I *D sky130_fd_sc_hd__and3b_2
*I *1919:Y O *D sky130_fd_sc_hd__nand2_2
*CAP
1 *1924:B 2.56208e-05
2 *1923:B 0.000146139
3 *1919:Y 9.69855e-05
4 *192:8 0.000268746
5 *1923:B *1923:C 1.4399e-05
6 *1923:B *1924:C 0.000141606
7 *1923:B *193:8 0.000100156
8 *1923:B *435:12 0
9 *1924:B *194:8 1.83847e-05
10 *192:8 *1919:B 9.76522e-05
*RES
1 *1919:Y *192:8 5.745 
2 *192:8 *1923:B 6.705 
3 *192:8 *1924:B 4.05 
*END

*D_NET *193 0.000861884
*CONN
*I *1924:C I *D sky130_fd_sc_hd__nand3b_2
*I *1923:C I *D sky130_fd_sc_hd__and3b_2
*I *1920:Y O *D sky130_fd_sc_hd__nand2b_2
*CAP
1 *1924:C 3.75612e-05
2 *1923:C 6.16518e-05
3 *1920:Y 5.16901e-05
4 *193:8 0.000150903
5 *1924:C *1919:B 5.16418e-05
6 *1924:C *554:39 8.59296e-05
7 *193:8 *435:12 0
8 *193:8 *554:39 0.000166346
9 *1923:B *1923:C 1.4399e-05
10 *1923:B *1924:C 0.000141606
11 *1923:B *193:8 0.000100156
*RES
1 *1920:Y *193:8 5.49 
2 *193:8 *1923:C 4.42875 
3 *193:8 *1924:C 5.235 
*END

*D_NET *194 0.00365669
*CONN
*I *1925:A2 I *D sky130_fd_sc_hd__o21a_2
*I *2183:A2 I *D sky130_fd_sc_hd__o22a_4
*I *1922:B1 I *D sky130_fd_sc_hd__a21oi_2
*I *1921:Y O *D sky130_fd_sc_hd__o21ai_2
*CAP
1 *1925:A2 3.30629e-05
2 *2183:A2 3.33962e-05
3 *1922:B1 0.000276418
4 *1921:Y 0.000547815
5 *194:14 0.000442216
6 *194:8 0.000713279
7 *1922:B1 *1922:A1 0.000119285
8 *1922:B1 *1933:B 0.000323226
9 *1922:B1 *195:8 4.99619e-05
10 *1922:B1 *435:12 0
11 *1925:A2 *1925:B1 3.68682e-05
12 *2183:A2 *2183:B2 0.000122331
13 *194:8 *1921:A2 7.78381e-06
14 *194:8 *1921:B1 1.1392e-05
15 *194:8 *1924:A_N 1.1392e-05
16 *194:8 *197:8 0.00035215
17 *194:14 *1925:B1 7.21296e-06
18 *194:14 *1933:B 0.000121401
19 *1924:B *194:8 1.83847e-05
20 *1925:A1 *1922:B1 1.22676e-05
21 *1925:A1 *1925:A2 8.69088e-05
22 *1925:A1 *194:14 0.000194227
23 *2183:A1 *2183:A2 8.40269e-05
24 *2183:A1 *194:14 4.65496e-06
25 *191:10 *1922:B1 4.70343e-05
*RES
1 *1921:Y *194:8 10.26 
2 *194:8 *194:14 3.555 
3 *194:14 *1922:B1 9.405 
4 *194:14 *2183:A2 4.74 
5 *194:8 *1925:A2 4.725 
*END

*D_NET *195 0.00116142
*CONN
*I *1933:A_N I *D sky130_fd_sc_hd__nand4b_4
*I *1963:B I *D sky130_fd_sc_hd__nand4_2
*I *1922:Y O *D sky130_fd_sc_hd__a21oi_2
*CAP
1 *1933:A_N 0
2 *1963:B 0.000301751
3 *1922:Y 0.000100544
4 *195:8 0.000402295
5 *1963:B *1966:B 0.000143244
6 *1963:B *201:23 0
7 *195:8 *1933:B 6.6564e-05
8 *1922:B1 *195:8 4.99619e-05
9 *1965:B1 *1963:B 2.59981e-05
10 *177:34 *1963:B 5.53249e-06
11 *177:43 *1963:B 6.5525e-05
*RES
1 *1922:Y *195:8 3.445 
2 *195:8 *1963:B 11.57 
3 *195:8 *1933:A_N 1.6 
*END

*D_NET *196 0.000439898
*CONN
*I *2183:B1 I *D sky130_fd_sc_hd__o22a_4
*I *1923:X O *D sky130_fd_sc_hd__and3b_2
*CAP
1 *2183:B1 0.000219949
2 *1923:X 0.000219949
*RES
1 *1923:X *2183:B1 6.41 
*END

*D_NET *197 0.00264681
*CONN
*I *1925:B1 I *D sky130_fd_sc_hd__o21a_2
*I *1933:B I *D sky130_fd_sc_hd__nand4b_4
*I *1924:Y O *D sky130_fd_sc_hd__nand3b_2
*CAP
1 *1925:B1 9.72466e-05
2 *1933:B 0.000472648
3 *1924:Y 0.000210058
4 *197:8 0.000779953
5 *1925:B1 *2182:A 9.54469e-05
6 *1925:B1 *434:10 0
7 *1933:B *1922:A1 3.00381e-05
8 *1933:B *2182:A 5.39961e-05
9 *1933:B *2183:B2 0
10 *1922:B1 *1933:B 0.000323226
11 *1925:A1 *1925:B1 0
12 *1925:A2 *1925:B1 3.68682e-05
13 *194:8 *197:8 0.00035215
14 *194:14 *1925:B1 7.21296e-06
15 *194:14 *1933:B 0.000121401
16 *195:8 *1933:B 6.6564e-05
*RES
1 *1924:Y *197:8 7.845 
2 *197:8 *1933:B 13.335 
3 *197:8 *1925:B1 5.685 
*END

*D_NET *198 0.000286929
*CONN
*I *2182:A I *D sky130_fd_sc_hd__xnor2_2
*I *1925:X O *D sky130_fd_sc_hd__o21a_2
*CAP
1 *2182:A 6.87428e-05
2 *1925:X 6.87428e-05
3 *2182:A *2183:B2 0
4 *2182:A *434:10 0
5 *1925:B1 *2182:A 9.54469e-05
6 *1933:B *2182:A 5.39961e-05
*RES
1 *1925:X *2182:A 8.835 
*END

*D_NET *199 0.00183271
*CONN
*I *1928:A2 I *D sky130_fd_sc_hd__o21bai_4
*I *1965:A2_N I *D sky130_fd_sc_hd__a2bb2oi_2
*I *1932:A1 I *D sky130_fd_sc_hd__o21ai_2
*I *1926:Y O *D sky130_fd_sc_hd__nor2_2
*CAP
1 *1928:A2 0.000132182
2 *1965:A2_N 0
3 *1932:A1 6.71134e-05
4 *1926:Y 3.37559e-05
5 *199:14 0.00022258
6 *199:10 0.000321405
7 *1928:A2 *201:8 9.29828e-05
8 *1932:A1 *1932:B1 0.000160658
9 *1932:A1 *2402:A 7.37282e-05
10 *1932:A1 *201:23 3.09233e-05
11 *199:10 *1929:B1_N 0.000141606
12 *199:10 *558:26 0.000141606
13 *199:14 *1929:B1_N 4.82863e-05
14 *199:14 *201:8 0.000107415
15 *199:14 *523:25 0.000163204
16 *190:29 *199:14 9.52646e-05
*RES
1 *1926:Y *199:10 7.235 
2 *199:10 *199:14 3.915 
3 *199:14 *1932:A1 7.745 
4 *199:14 *1965:A2_N 1.6 
5 *199:10 *1928:A2 3.895 
*END

*D_NET *200 0.00027631
*CONN
*I *1928:A1 I *D sky130_fd_sc_hd__o21bai_4
*I *1927:X O *D sky130_fd_sc_hd__and2_4
*CAP
1 *1928:A1 6.65218e-05
2 *1927:X 6.65218e-05
3 *1928:A1 *1927:A 0
4 *1928:A1 *466:17 0.000143266
*RES
1 *1927:X *1928:A1 8.835 
*END

*D_NET *201 0.00428225
*CONN
*I *1968:C I *D sky130_fd_sc_hd__nand3_4
*I *2189:A1_N I *D sky130_fd_sc_hd__o2bb2ai_2
*I *1933:C I *D sky130_fd_sc_hd__nand4b_4
*I *1932:B1 I *D sky130_fd_sc_hd__o21ai_2
*I *1928:Y O *D sky130_fd_sc_hd__o21bai_4
*CAP
1 *1968:C 0.00016088
2 *2189:A1_N 0
3 *1933:C 3.37454e-05
4 *1932:B1 0.000155562
5 *1928:Y 0.000280121
6 *201:42 0.000539195
7 *201:23 0.00068339
8 *201:8 0.000707013
9 *1932:B1 *1965:A1_N 0.000141606
10 *1932:B1 *2188:A 5.30673e-05
11 *1932:B1 *203:6 4.82863e-05
12 *1968:C *1968:A 0
13 *1968:C *2189:A2_N 3.83041e-05
14 *1968:C *438:10 8.65905e-05
15 *201:8 *1929:B1_N 3.83041e-05
16 *201:8 *523:25 0.000163204
17 *201:23 *1965:A1_N 2.30797e-05
18 *201:23 *1966:A 0
19 *201:23 *1966:B 0
20 *201:23 *2402:A 0
21 *201:42 *1934:A 3.98865e-05
22 *201:42 *2189:A2_N 8.65961e-05
23 *201:42 *2189:B2 0.000197269
24 *201:42 *2402:A 0.00015896
25 *201:42 *206:8 8.97832e-05
26 *201:42 *438:10 0.000124007
27 *1928:A2 *201:8 9.29828e-05
28 *1932:A1 *1932:B1 0.000160658
29 *1932:A1 *201:23 3.09233e-05
30 *1934:B *1968:C 0
31 *1963:A *1932:B1 3.26889e-05
32 *1963:B *201:23 0
33 *173:14 *1968:C 0
34 *190:29 *201:8 8.73389e-06
35 *199:14 *201:8 0.000107415
*RES
1 *1928:Y *201:8 8.535 
2 *201:8 *1932:B1 7.68 
3 *201:8 *201:23 4.44 
4 *201:23 *1933:C 4.05 
5 *201:23 *201:42 10.55 
6 *201:42 *2189:A1_N 1.6 
7 *201:42 *1968:C 8.54 
*END

*D_NET *202 0.000697064
*CONN
*I *1931:B1 I *D sky130_fd_sc_hd__o21ai_2
*I *1929:Y O *D sky130_fd_sc_hd__a21boi_2
*CAP
1 *1931:B1 0.00024129
2 *1929:Y 0.00024129
3 *1931:B1 *1929:A2 0.000159741
4 *1931:B1 *2209:A 0
5 *1931:B1 *2277:A1 0
6 *1931:B1 *2295:A 5.53249e-06
7 *1931:B1 *449:14 0
8 *1931:B1 *465:10 4.92096e-05
*RES
1 *1929:Y *1931:B1 11.265 
*END

*D_NET *203 0.000623339
*CONN
*I *1932:A2 I *D sky130_fd_sc_hd__o21ai_2
*I *1965:A1_N I *D sky130_fd_sc_hd__a2bb2oi_2
*I *1930:X O *D sky130_fd_sc_hd__a21bo_2
*CAP
1 *1932:A2 0
2 *1965:A1_N 5.00393e-05
3 *1930:X 9.67141e-05
4 *203:6 0.000146753
5 *1965:A1_N *1966:B 0
6 *1965:A1_N *2188:A 0.00011686
7 *1932:B1 *1965:A1_N 0.000141606
8 *1932:B1 *203:6 4.82863e-05
9 *201:23 *1965:A1_N 2.30797e-05
*RES
1 *1930:X *203:6 3.085 
2 *203:6 *1965:A1_N 7.49 
3 *203:6 *1932:A2 1.6 
*END

*D_NET *204 0.0012902
*CONN
*I *1933:D I *D sky130_fd_sc_hd__nand4b_4
*I *1931:Y O *D sky130_fd_sc_hd__o21ai_2
*CAP
1 *1933:D 0.000390299
2 *1931:Y 0.000390299
3 *1933:D *1931:A2 0.000308724
4 *1933:D *239:10 0.000141592
5 *190:29 *1933:D 5.92849e-05
*RES
1 *1931:Y *1933:D 13.08 
*END

*D_NET *205 0.00121489
*CONN
*I *2188:A I *D sky130_fd_sc_hd__xor2_2
*I *1932:Y O *D sky130_fd_sc_hd__o21ai_2
*CAP
1 *2188:A 0.000339942
2 *1932:Y 0.000339942
3 *2188:A *1965:B2 8.82473e-05
4 *2188:A *1966:B 0
5 *1932:B1 *2188:A 5.30673e-05
6 *1965:A1_N *2188:A 0.00011686
7 *1965:B1 *2188:A 0.000122337
8 *2187:A1_N *2188:A 8.65905e-05
9 *190:29 *2188:A 6.79087e-05
*RES
1 *1932:Y *2188:A 13.98 
*END

*D_NET *206 0.000990312
*CONN
*I *1934:A I *D sky130_fd_sc_hd__nor2_4
*I *1935:B I *D sky130_fd_sc_hd__or2_4
*I *1933:Y O *D sky130_fd_sc_hd__nand4b_4
*CAP
1 *1934:A 0.000155537
2 *1935:B 0
3 *1933:Y 5.26125e-05
4 *206:8 0.000208149
5 *1934:A *2402:A 9.5433e-05
6 *206:8 *2402:A 0.000212505
7 *1934:B *1934:A 0.000136406
8 *201:42 *1934:A 3.98865e-05
9 *201:42 *206:8 8.97832e-05
*RES
1 *1933:Y *206:8 6 
2 *206:8 *1935:B 3.6 
3 *206:8 *1934:A 7.53 
*END

*D_NET *207 0.00180719
*CONN
*I *1977:B I *D sky130_fd_sc_hd__nand3_2
*I *1978:A2 I *D sky130_fd_sc_hd__a31oi_2
*I *1967:B I *D sky130_fd_sc_hd__nand4_4
*I *1934:Y O *D sky130_fd_sc_hd__nor2_4
*CAP
1 *1977:B 0.000161397
2 *1978:A2 0
3 *1967:B 0.000250568
4 *1934:Y 0.000116325
5 *207:23 0.000264896
6 *207:10 0.000470393
7 *1967:B *1967:C 3.95724e-05
8 *1977:B *2197:A 0.000132721
9 *1977:B *240:10 5.93674e-05
10 *1977:B *253:12 0
11 *207:10 *1968:A 3.00381e-05
12 *207:23 *240:10 5.63405e-05
13 *1967:D *1967:B 8.65905e-05
14 *1977:C *1977:B 5.12772e-05
15 *1977:C *207:23 1.01661e-05
16 *173:27 *207:10 0
17 *173:38 *207:23 7.75412e-05
*RES
1 *1934:Y *207:10 5.43 
2 *207:10 *1967:B 7.515 
3 *207:10 *207:23 2.655 
4 *207:23 *1978:A2 3.6 
5 *207:23 *1977:B 7.785 
*END

*D_NET *208 0.000332842
*CONN
*I *2189:B1 I *D sky130_fd_sc_hd__o2bb2ai_2
*I *1935:X O *D sky130_fd_sc_hd__or2_4
*CAP
1 *2189:B1 6.89756e-05
2 *1935:X 6.89756e-05
3 *2189:B1 *1968:A 1.01661e-05
4 *2189:B1 *239:10 4.61744e-05
5 *1934:B *2189:B1 0.000138551
*RES
1 *1935:X *2189:B1 8.835 
*END

*D_NET *209 0.000633399
*CONN
*I *1942:B I *D sky130_fd_sc_hd__nand3b_4
*I *1936:Y O *D sky130_fd_sc_hd__nand2b_4
*CAP
1 *1942:B 0.000199065
2 *1936:Y 0.000199065
3 *1942:B *1936:A_N 5.05521e-05
4 *1942:B *449:53 0.000184717
*RES
1 *1936:Y *1942:B 11.175 
*END

*D_NET *210 0.000314583
*CONN
*I *1942:C I *D sky130_fd_sc_hd__nand3b_4
*I *1937:Y O *D sky130_fd_sc_hd__nand2_2
*CAP
1 *1942:C 4.40649e-05
2 *1937:Y 4.40649e-05
3 *1942:C *1938:A 3.39069e-05
4 *1942:C *1940:A 5.16348e-05
5 *1942:C *538:44 0.000140912
*RES
1 *1937:Y *1942:C 8.835 
*END

*D_NET *211 0.000674807
*CONN
*I *1940:A I *D sky130_fd_sc_hd__nand2_4
*I *1938:Y O *D sky130_fd_sc_hd__nand2_2
*CAP
1 *1940:A 0.000167302
2 *1938:Y 0.000167302
3 *1940:A *1938:A 2.78732e-05
4 *1940:A *1938:B 1.15399e-05
5 *1940:A *215:10 0.000121817
6 *1940:A *538:10 3.25831e-05
7 *1940:A *538:23 7.60634e-05
8 *1940:A *538:44 1.86911e-05
9 *1942:C *1940:A 5.16348e-05
*RES
1 *1938:Y *1940:A 10.74 
*END

*D_NET *212 0.00134547
*CONN
*I *1941:A I *D sky130_fd_sc_hd__nor2_2
*I *1973:A1 I *D sky130_fd_sc_hd__o22ai_2
*I *1943:A2 I *D sky130_fd_sc_hd__o21ai_4
*I *1939:Y O *D sky130_fd_sc_hd__nor2_4
*CAP
1 *1941:A 6.79817e-05
2 *1973:A1 0.000165269
3 *1943:A2 8.7721e-05
4 *1939:Y 6.79817e-05
5 *212:4 0.00025299
6 *1941:A *1939:B 1.20052e-05
7 *1941:A *2175:B1 8.8266e-05
8 *1943:A2 *215:10 8.53113e-06
9 *1943:A2 *215:14 2.05661e-05
10 *1943:A2 *223:20 0.000147309
11 *1943:A2 *223:43 4.77757e-05
12 *1973:A1 *1939:B 4.77719e-05
13 *1973:A1 *1973:A2 0.000197329
14 *1973:A1 *2175:B1 1.53053e-05
15 *1973:A1 *220:31 0
16 *1973:A1 *223:20 0
17 *1973:A1 *223:43 0.000118665
*RES
1 *1939:Y *212:4 1.6 
2 *212:4 *1943:A2 7.685 
3 *212:4 *1973:A1 9.395 
4 *1939:Y *1941:A 4.61 
*END

*D_NET *213 0.00257622
*CONN
*I *1941:B I *D sky130_fd_sc_hd__nor2_2
*I *1973:A2 I *D sky130_fd_sc_hd__o22ai_2
*I *1943:A1 I *D sky130_fd_sc_hd__o21ai_4
*I *1940:Y O *D sky130_fd_sc_hd__nand2_4
*CAP
1 *1941:B 0.000124464
2 *1973:A2 0.000294102
3 *1943:A1 5.53735e-05
4 *1940:Y 9.91401e-05
5 *213:12 0.000499464
6 *213:8 0.000373592
7 *1941:B *1938:A 0
8 *1941:B *1939:B 5.50989e-05
9 *1941:B *2175:B1 4.82919e-05
10 *1941:B *449:53 1.0183e-05
11 *1941:B *496:37 0
12 *1941:B *538:44 2.07184e-05
13 *1973:A2 *1938:A 0.000177151
14 *1973:A2 *1973:B2 1.37328e-05
15 *1973:A2 *223:20 0
16 *1973:A2 *223:43 5.83121e-06
17 *1973:A2 *496:37 3.06021e-05
18 *213:8 *1942:A_N 0.000131408
19 *213:8 *449:53 8.35126e-05
20 *213:8 *473:10 9.50342e-06
21 *213:8 *538:10 1.70935e-05
22 *213:8 *538:23 4.03932e-05
23 *213:8 *538:44 0.000242625
24 *213:12 *1937:A 4.66108e-05
25 *1973:A1 *1973:A2 0.000197329
*RES
1 *1940:Y *213:8 7.53 
2 *213:8 *213:12 4.175 
3 *213:12 *1943:A1 2.395 
4 *213:12 *1973:A2 11.285 
5 *213:8 *1941:B 6.195 
*END

*D_NET *214 0.00114902
*CONN
*I *2175:B1 I *D sky130_fd_sc_hd__a211o_2
*I *1941:Y O *D sky130_fd_sc_hd__nor2_2
*CAP
1 *2175:B1 0.000298318
2 *1941:Y 0.000298318
3 *2175:B1 *1939:B 0.000124358
4 *2175:B1 *2175:C1 4.66108e-05
5 *2175:B1 *220:10 5.12969e-06
6 *2175:B1 *220:31 0.000102775
7 *2175:B1 *223:43 0.000121643
8 *1941:A *2175:B1 8.8266e-05
9 *1941:B *2175:B1 4.82919e-05
10 *1973:A1 *2175:B1 1.53053e-05
*RES
1 *1941:Y *2175:B1 9.185 
*END

*D_NET *215 0.00378086
*CONN
*I *1943:B1 I *D sky130_fd_sc_hd__o21ai_4
*I *2175:A2 I *D sky130_fd_sc_hd__a211o_2
*I *1974:A1 I *D sky130_fd_sc_hd__a21oi_2
*I *2176:A1 I *D sky130_fd_sc_hd__a211o_4
*I *1942:Y O *D sky130_fd_sc_hd__nand3b_4
*CAP
1 *1943:B1 0
2 *2175:A2 0.000140842
3 *1974:A1 0.000216291
4 *2176:A1 7.58529e-05
5 *1942:Y 0.000264228
6 *215:42 0.00022286
7 *215:14 0.000571445
8 *215:10 0.000625547
9 *1974:A1 *1962:A1 0
10 *1974:A1 *1974:B1 0.000126474
11 *1974:A1 *553:23 5.83121e-06
12 *2175:A2 *2288:A 0
13 *2175:A2 *216:12 6.69608e-06
14 *2176:A1 *2176:B1 4.82863e-05
15 *2176:A1 *2176:C1 1.08758e-05
16 *2176:A1 *220:31 5.21623e-05
17 *2176:A1 *223:49 0.000122387
18 *215:10 *1938:A 4.89295e-05
19 *215:10 *1938:B 7.22354e-05
20 *215:10 *216:12 0.000141599
21 *215:10 *223:20 0.000149053
22 *215:14 *1962:A1 0
23 *215:14 *1974:B1 2.34423e-05
24 *215:14 *2288:A 0
25 *215:14 *220:31 0.000270647
26 *215:14 *223:20 0.00011852
27 *215:14 *223:43 0.000220761
28 *215:14 *246:8 2.4997e-05
29 *215:42 *216:12 6.41532e-05
30 *215:42 *223:20 5.83121e-06
31 *1940:A *215:10 0.000121817
32 *1943:A2 *215:10 8.53113e-06
33 *1943:A2 *215:14 2.05661e-05
*RES
1 *1942:Y *215:10 9.645 
2 *215:10 *215:14 6.93 
3 *215:14 *2176:A1 5.805 
4 *215:14 *1974:A1 7.32 
5 *215:10 *215:42 3.485 
6 *215:42 *2175:A2 7.94 
7 *215:42 *1943:B1 1.6 
*END

*D_NET *216 0.000707101
*CONN
*I *2436:A I *D sky130_fd_sc_hd__buf_2
*I *1950:B I *D sky130_fd_sc_hd__nor2_4
*I *1943:Y O *D sky130_fd_sc_hd__o21ai_4
*CAP
1 *2436:A 0
2 *1950:B 6.58873e-05
3 *1943:Y 0.00015267
4 *216:12 0.000218558
5 *1950:B *223:20 4.94474e-05
6 *216:12 *223:20 8.09021e-06
7 *2175:A2 *216:12 6.69608e-06
8 *215:10 *216:12 0.000141599
9 *215:42 *216:12 6.41532e-05
*RES
1 *1943:Y *216:12 8.63 
2 *216:12 *1950:B 2.74 
3 *216:12 *2436:A 1.6 
*END

*D_NET *217 0.000573209
*CONN
*I *1948:A1 I *D sky130_fd_sc_hd__o21bai_4
*I *1944:X O *D sky130_fd_sc_hd__and2_4
*CAP
1 *1948:A1 0.000150103
2 *1944:X 0.000150103
3 *1948:A1 *1945:B 1.89685e-05
4 *1948:A1 *1948:A2 0.000188502
5 *1948:A1 *450:29 0
6 *1948:A1 *526:32 6.55328e-05
7 *2327:A *1948:A1 0
*RES
1 *1944:X *1948:A1 11.13 
*END

*D_NET *218 0.000996011
*CONN
*I *1948:A2 I *D sky130_fd_sc_hd__o21bai_4
*I *1945:Y O *D sky130_fd_sc_hd__nor2_2
*CAP
1 *1948:A2 0.000339961
2 *1945:Y 0.000339961
3 *1948:A2 *1945:A 7.00889e-06
4 *1948:A2 *1945:B 7.00889e-06
5 *1948:A2 *453:24 6.5265e-05
6 *1948:A2 *453:30 4.83044e-05
7 *1948:A2 *526:47 0
8 *1948:A1 *1948:A2 0.000188502
*RES
1 *1945:Y *1948:A2 14.31 
*END

*D_NET *219 0.00175673
*CONN
*I *1947:B1 I *D sky130_fd_sc_hd__a21oi_2
*I *1949:A2 I *D sky130_fd_sc_hd__o211ai_2
*I *1946:Y O *D sky130_fd_sc_hd__o21ai_2
*CAP
1 *1947:B1 0.000237828
2 *1949:A2 0
3 *1946:Y 0.000357667
4 *219:10 0.000595496
5 *1947:B1 *1947:A1 7.89689e-05
6 *1947:B1 *1947:A2 0
7 *1947:B1 *1955:A1 8.09021e-06
8 *1947:B1 *1955:A2 0
9 *1947:B1 *2177:B 4.82863e-05
10 *1947:B1 *2376:A 0
11 *1947:B1 *453:8 0.000179235
12 *1947:B1 *518:20 1.16578e-05
13 *219:10 *1947:A2 0
14 *219:10 *2173:A1 2.66586e-05
15 *219:10 *2173:S 5.05521e-05
16 *219:10 *453:8 8.53113e-06
17 *219:10 *453:16 0.000137578
18 *219:10 *454:10 0
19 *219:10 *526:41 1.61831e-05
20 *219:10 *526:47 0
*RES
1 *1946:Y *219:10 8.85 
2 *219:10 *1949:A2 3.6 
3 *219:10 *1947:B1 8.58 
*END

*D_NET *220 0.00262294
*CONN
*I *1974:A2 I *D sky130_fd_sc_hd__a21oi_2
*I *2176:A2 I *D sky130_fd_sc_hd__a211o_4
*I *2175:A1 I *D sky130_fd_sc_hd__a211o_2
*I *1947:Y O *D sky130_fd_sc_hd__a21oi_2
*CAP
1 *1974:A2 0.000188812
2 *2176:A2 0
3 *2175:A1 0
4 *1947:Y 0.000308327
5 *220:31 0.000554314
6 *220:10 0.000673829
7 *1974:A2 *223:49 3.29947e-05
8 *220:10 *2177:B 0.000199486
9 *220:31 *2176:B1 4.82863e-05
10 *220:31 *223:43 3.47837e-05
11 *220:31 *223:49 8.12896e-06
12 *220:31 *246:8 0.000143266
13 *1973:A1 *220:31 0
14 *2175:B1 *220:10 5.12969e-06
15 *2175:B1 *220:31 0.000102775
16 *2176:A1 *220:31 5.21623e-05
17 *215:14 *220:31 0.000270647
*RES
1 *1947:Y *220:10 6.565 
2 *220:10 *2175:A1 1.6 
3 *220:10 *220:31 11.47 
4 *220:31 *2176:A2 1.6 
5 *220:31 *1974:A2 8.54 
*END

*D_NET *221 0.000278586
*CONN
*I *1949:C1 I *D sky130_fd_sc_hd__o211ai_2
*I *1948:Y O *D sky130_fd_sc_hd__o21bai_4
*CAP
1 *1949:C1 8.0033e-05
2 *1948:Y 8.0033e-05
3 *1949:C1 *2172:A 0
4 *1949:C1 *453:16 0
5 *1949:C1 *526:47 0.00011852
*RES
1 *1948:Y *1949:C1 8.835 
*END

*D_NET *222 0.000476498
*CONN
*I *1950:A I *D sky130_fd_sc_hd__nor2_4
*I *1949:Y O *D sky130_fd_sc_hd__o211ai_2
*CAP
1 *1950:A 0.000175802
2 *1949:Y 0.000175802
3 *1950:A *526:57 0.000124895
*RES
1 *1949:Y *1950:A 6.335 
*END

*D_NET *223 0.00783793
*CONN
*I *2176:C1 I *D sky130_fd_sc_hd__a211o_4
*I *2181:A1 I *D sky130_fd_sc_hd__a21oi_2
*I *1967:C I *D sky130_fd_sc_hd__nand4_4
*I *2175:C1 I *D sky130_fd_sc_hd__a211o_2
*I *1950:Y O *D sky130_fd_sc_hd__nor2_4
*CAP
1 *2176:C1 2.52896e-05
2 *2181:A1 6.03237e-05
3 *1967:C 0.00029928
4 *2175:C1 2.61242e-05
5 *1950:Y 0.000351032
6 *223:49 0.00233221
7 *223:43 0.0023821
8 *223:20 0.000761364
9 *1967:C *1967:A 7.69542e-05
10 *1967:C *434:10 3.05295e-05
11 *2181:A1 *1967:A 7.63204e-05
12 *2181:A1 *249:12 0
13 *2181:A1 *434:10 4.5783e-05
14 *223:43 *1962:A1 0
15 *223:43 *1973:B2 8.23457e-05
16 *223:43 *2288:A 0
17 *1943:A2 *223:20 0.000147309
18 *1943:A2 *223:43 4.77757e-05
19 *1950:B *223:20 4.94474e-05
20 *1967:B *1967:C 3.95724e-05
21 *1973:A1 *223:20 0
22 *1973:A1 *223:43 0.000118665
23 *1973:A2 *223:20 0
24 *1973:A2 *223:43 5.83121e-06
25 *1974:A2 *223:49 3.29947e-05
26 *2175:B1 *2175:C1 4.66108e-05
27 *2175:B1 *223:43 0.000121643
28 *2176:A1 *2176:C1 1.08758e-05
29 *2176:A1 *223:49 0.000122387
30 *215:10 *223:20 0.000149053
31 *215:14 *223:20 0.00011852
32 *215:14 *223:43 0.000220761
33 *215:42 *223:20 5.83121e-06
34 *216:12 *223:20 8.09021e-06
35 *220:31 *223:43 3.47837e-05
36 *220:31 *223:49 8.12896e-06
*RES
1 *1950:Y *223:20 16.425 
2 *223:20 *2175:C1 2.05 
3 *223:20 *223:43 15.26 
4 *223:43 *223:49 24.365 
5 *223:49 *1967:C 8.82 
6 *223:49 *2181:A1 5.235 
7 *223:43 *2176:C1 2.05 
*END

*D_NET *224 0.00168298
*CONN
*I *1953:A2 I *D sky130_fd_sc_hd__o21bai_4
*I *1951:Y O *D sky130_fd_sc_hd__nor2_2
*CAP
1 *1953:A2 0.000382406
2 *1951:Y 0.000382406
3 *1953:A2 *1951:B 8.65905e-05
4 *1953:A2 *1953:A1 3.64998e-06
5 *1953:A2 *1962:A2 0
6 *1953:A2 *1973:B1 0.000161529
7 *1953:A2 *2177:B 1.16578e-05
8 *1953:A2 *225:34 0
9 *1953:A2 *226:12 4.66108e-05
10 *1953:A2 *227:21 2.59926e-05
11 *1953:A2 *518:20 0.000335865
12 *1953:A2 *550:23 0.000237742
13 *2354:A *1953:A2 8.53113e-06
*RES
1 *1951:Y *1953:A2 15.825 
*END

*D_NET *225 0.00378662
*CONN
*I *1962:A2 I *D sky130_fd_sc_hd__o2111a_2
*I *1953:A1 I *D sky130_fd_sc_hd__o21bai_4
*I *1973:B1 I *D sky130_fd_sc_hd__o22ai_2
*I *1955:A1 I *D sky130_fd_sc_hd__o21a_2
*I *1952:X O *D sky130_fd_sc_hd__and2_4
*CAP
1 *1962:A2 0.000358387
2 *1953:A1 0.000140401
3 *1973:B1 0.000324895
4 *1955:A1 0.000309155
5 *1952:X 0
6 *225:34 0.000664442
7 *225:19 0.0005688
8 *225:6 0.000387406
9 *1955:A1 *1947:A1 0.000189214
10 *1955:A1 *1947:A2 0.000162332
11 *1955:A1 *2177:B 0
12 *1955:A1 *2288:A 0
13 *1962:A2 *2180:B 5.56629e-05
14 *1962:A2 *2288:A 4.43051e-05
15 *1962:A2 *226:16 0.000114305
16 *1973:B1 *1951:A 2.5177e-05
17 *1973:B1 *1951:B 2.16917e-05
18 *1973:B1 *1952:A 1.34503e-05
19 *1973:B1 *1973:B2 0.000101814
20 *225:19 *2177:B 0
21 *225:19 *2288:A 0
22 *225:19 *518:20 0
23 *225:19 *550:23 2.7881e-05
24 *225:34 *2288:A 0
25 *225:34 *550:23 6.00003e-05
26 *1947:B1 *1955:A1 8.09021e-06
27 *1953:A2 *1953:A1 3.64998e-06
28 *1953:A2 *1962:A2 0
29 *1953:A2 *1973:B1 0.000161529
30 *1953:A2 *225:34 0
31 *2354:A *1962:A2 4.40358e-05
*RES
1 *1952:X *225:6 3.6 
2 *225:6 *1955:A1 9.54 
3 *225:6 *225:19 1.38 
4 *225:19 *1973:B1 8.565 
5 *225:19 *225:34 2.91 
6 *225:34 *1953:A1 5.085 
7 *225:34 *1962:A2 10.185 
*END

*D_NET *226 0.00302923
*CONN
*I *2411:A I *D sky130_fd_sc_hd__buf_2
*I *1975:A I *D sky130_fd_sc_hd__nand2_2
*I *1962:C1 I *D sky130_fd_sc_hd__o2111a_2
*I *1953:Y O *D sky130_fd_sc_hd__o21bai_4
*CAP
1 *2411:A 0
2 *1975:A 0.00022946
3 *1962:C1 0
4 *1953:Y 0.000125267
5 *226:16 0.000726942
6 *226:12 0.00062275
7 *1975:A *1962:D1 8.51879e-05
8 *1975:A *1975:B 0.000331812
9 *1975:A *235:10 0.000342059
10 *226:12 *1955:B1 0.000137571
11 *226:12 *2180:A_N 9.50342e-06
12 *226:12 *2398:A 9.50114e-05
13 *226:16 *1962:B1 4.77719e-05
14 *226:16 *2401:A 8.88799e-05
15 S[2] *226:12 2.60986e-05
16 *1953:A2 *226:12 4.66108e-05
17 *1962:A2 *226:16 0.000114305
*RES
1 *1953:Y *226:12 8.54 
2 *226:12 *226:16 7.365 
3 *226:16 *1962:C1 1.6 
4 *226:16 *1975:A 11.48 
5 *226:12 *2411:A 1.6 
*END

*D_NET *227 0.00385467
*CONN
*I *1973:B2 I *D sky130_fd_sc_hd__o22ai_2
*I *1962:A1 I *D sky130_fd_sc_hd__o2111a_2
*I *1955:A2 I *D sky130_fd_sc_hd__o21a_2
*I *1954:Y O *D sky130_fd_sc_hd__o21ai_4
*CAP
1 *1973:B2 0.000189112
2 *1962:A1 0.000266524
3 *1955:A2 0.000139819
4 *1954:Y 7.92182e-05
5 *227:21 0.000756903
6 *227:8 0.000520304
7 *1955:A2 *1955:B1 8.6099e-05
8 *1955:A2 *2177:B 0
9 *1955:A2 *2376:A 0.000164679
10 *1955:A2 *518:20 4.70343e-05
11 *1962:A1 *1959:B1 0.00016163
12 *1962:A1 *2288:A 7.21296e-06
13 *1962:A1 *456:38 0.00018305
14 *1962:A1 *456:40 0.000183738
15 *1962:A1 *456:44 0.000183738
16 *1973:B2 *1951:A 1.08758e-05
17 *227:8 *1955:B1 0.000158163
18 *227:8 *2398:A 0.000105068
19 *227:8 *518:20 2.54779e-05
20 *227:21 *1951:A 3.66286e-05
21 *227:21 *1951:B 1.60203e-05
22 *227:21 *1952:A 0.000124007
23 *227:21 *2177:B 9.02174e-05
24 *227:21 *550:23 9.52646e-05
25 *1947:B1 *1955:A2 0
26 *1953:A2 *227:21 2.59926e-05
27 *1973:A2 *1973:B2 1.37328e-05
28 *1973:B1 *1973:B2 0.000101814
29 *1974:A1 *1962:A1 0
30 *215:14 *1962:A1 0
31 *223:43 *1962:A1 0
32 *223:43 *1973:B2 8.23457e-05
*RES
1 *1954:Y *227:8 6.51 
2 *227:8 *1955:A2 7.275 
3 *227:8 *227:21 7.28 
4 *227:21 *1962:A1 12.08 
5 *227:21 *1973:B2 5.08 
*END

*D_NET *228 0.000618986
*CONN
*I *2177:A I *D sky130_fd_sc_hd__xor2_2
*I *1955:X O *D sky130_fd_sc_hd__o21a_2
*CAP
1 *2177:A 0.000224676
2 *1955:X 0.000224676
3 *2177:A *515:10 0.000169635
4 *2316:A *2177:A 0
5 *2319:A *2177:A 0
*RES
1 *1955:X *2177:A 11.415 
*END

*D_NET *229 0.00198699
*CONN
*I *1960:A2 I *D sky130_fd_sc_hd__o21bai_4
*I *1961:A1 I *D sky130_fd_sc_hd__o21ai_2
*I *1976:A1 I *D sky130_fd_sc_hd__o22ai_4
*I *1956:X O *D sky130_fd_sc_hd__and2_4
*CAP
1 *1960:A2 0
2 *1961:A1 0.000154146
3 *1976:A1 9.35628e-05
4 *1956:X 0.000278935
5 *229:10 0.000247709
6 *229:8 0.000278935
7 *1961:A1 *1956:A 7.81221e-05
8 *1961:A1 *1957:B 4.77719e-05
9 *1961:A1 *1960:A1 4.77719e-05
10 *1961:A1 *1961:B1 1.53053e-05
11 *1961:A1 *233:10 3.09164e-05
12 *1961:A1 *456:30 3.75126e-05
13 *1961:A1 *456:36 0.000161984
14 *1961:A1 *577:8 0.00013046
15 *1976:A1 *233:10 1.15399e-05
16 *1976:A1 *233:14 0.000152452
17 *1976:A1 *456:36 0
18 *229:8 *1956:A 9.47017e-05
19 *229:8 *233:10 2.49909e-05
20 *229:8 *534:10 0.000100176
*RES
1 *1956:X *229:8 6.205 
2 *229:8 *229:10 2 
3 *229:10 *1976:A1 5.49 
4 *229:10 *1961:A1 8.265 
5 *229:8 *1960:A2 1.6 
*END

*D_NET *230 0.000689707
*CONN
*I *1960:A1 I *D sky130_fd_sc_hd__o21bai_4
*I *1957:Y O *D sky130_fd_sc_hd__nor2_2
*CAP
1 *1960:A1 0.000107993
2 *1957:Y 0.000107993
3 *1960:A1 *1957:B 0.000148864
4 *1960:A1 *1961:B1 4.63352e-05
5 *1960:A1 *577:8 0.00023075
6 *1961:A1 *1960:A1 4.77719e-05
*RES
1 *1957:Y *1960:A1 10.5 
*END

*D_NET *231 0.00209095
*CONN
*I *1976:A2 I *D sky130_fd_sc_hd__o22ai_4
*I *1959:B1 I *D sky130_fd_sc_hd__a21o_2
*I *1961:A2 I *D sky130_fd_sc_hd__o21ai_2
*I *1958:Y O *D sky130_fd_sc_hd__o21ai_4
*CAP
1 *1976:A2 8.34646e-05
2 *1959:B1 0.000213782
3 *1961:A2 0.000118436
4 *1958:Y 0
5 *231:19 0.000344621
6 *231:4 0.000165811
7 *1959:B1 *1962:B1 4.59407e-05
8 *1959:B1 *456:36 3.9442e-05
9 *1959:B1 *456:38 8.42239e-05
10 *1959:B1 *553:23 2.68526e-05
11 *1961:A2 *1958:A2 2.75145e-05
12 *1961:A2 *2288:A 0.000336837
13 *1961:A2 *456:36 0.000335177
14 *1976:A2 *1958:A2 6.50242e-05
15 *231:19 *1958:A2 4.21973e-05
16 *1962:A1 *1959:B1 0.00016163
*RES
1 *1958:Y *231:4 1.6 
2 *231:4 *1961:A2 9.98 
3 *231:4 *231:19 0.795 
4 *231:19 *1959:B1 10.49 
5 *231:19 *1976:A2 3.1 
*END

*D_NET *232 0.000328697
*CONN
*I *1962:B1 I *D sky130_fd_sc_hd__o2111a_2
*I *1959:X O *D sky130_fd_sc_hd__a21o_2
*CAP
1 *1962:B1 9.93879e-05
2 *1959:X 9.93879e-05
3 *1962:B1 *553:23 3.62086e-05
4 *1959:B1 *1962:B1 4.59407e-05
5 *226:16 *1962:B1 4.77719e-05
*RES
1 *1959:X *1962:B1 9.285 
*END

*D_NET *233 0.00335147
*CONN
*I *1961:B1 I *D sky130_fd_sc_hd__o21ai_2
*I *1975:B I *D sky130_fd_sc_hd__nand2_2
*I *1962:D1 I *D sky130_fd_sc_hd__o2111a_2
*I *1960:Y O *D sky130_fd_sc_hd__o21bai_4
*CAP
1 *1961:B1 0.000247812
2 *1975:B 0.000188141
3 *1962:D1 3.88661e-05
4 *1960:Y 4.21786e-05
5 *233:14 0.000361097
6 *233:10 0.000424081
7 *1961:B1 *1956:A 0.000183406
8 *1961:B1 *1957:B 0.000160115
9 *1961:B1 *456:22 3.60648e-06
10 *1961:B1 *456:30 4.77719e-05
11 *1961:B1 *456:36 8.64421e-05
12 *1961:B1 *588:10 0.000273026
13 *1975:B *1976:B1 0.000131168
14 *233:10 *1956:A 8.53113e-06
15 *233:10 *534:10 8.35068e-05
16 *233:14 *1976:B2 0.000208491
17 *233:14 *553:23 0.000164686
18 *233:14 *553:42 0
19 *1960:A1 *1961:B1 4.63352e-05
20 *1961:A1 *1961:B1 1.53053e-05
21 *1961:A1 *233:10 3.09164e-05
22 *1975:A *1962:D1 8.51879e-05
23 *1975:A *1975:B 0.000331812
24 *1976:A1 *233:10 1.15399e-05
25 *1976:A1 *233:14 0.000152452
26 *229:8 *233:10 2.49909e-05
*RES
1 *1960:Y *233:10 4.8825 
2 *233:10 *233:14 6.0575 
3 *233:14 *1962:D1 2.395 
4 *233:14 *1975:B 10.01 
5 *233:10 *1961:B1 10.0425 
*END

*D_NET *234 0.00150498
*CONN
*I *2178:B1 I *D sky130_fd_sc_hd__a21oi_2
*I *2179:B I *D sky130_fd_sc_hd__nand3_2
*I *1961:Y O *D sky130_fd_sc_hd__o21ai_2
*CAP
1 *2178:B1 9.43038e-05
2 *2179:B 0
3 *1961:Y 0.000463981
4 *234:12 0.000558284
5 *2178:B1 *2178:A1 4.82863e-05
6 *2178:B1 *2178:A2 4.21973e-05
7 *2178:B1 *2179:C 3.29384e-05
8 *234:12 *478:34 2.97004e-06
9 *234:12 *513:12 0
10 *234:12 *577:8 0.000122325
11 *234:12 *588:10 0.000135504
12 *2319:A *234:12 0
13 *2335:A *234:12 4.18603e-06
*RES
1 *1961:Y *234:12 13.115 
2 *234:12 *2179:B 1.6 
3 *234:12 *2178:B1 3.445 
*END

*D_NET *235 0.00479527
*CONN
*I *2181:A2 I *D sky130_fd_sc_hd__a21oi_2
*I *1967:A I *D sky130_fd_sc_hd__nand4_4
*I *1962:X O *D sky130_fd_sc_hd__o2111a_2
*CAP
1 *2181:A2 0
2 *1967:A 0.000139824
3 *1962:X 0.00201015
4 *235:10 0.00214997
5 *1967:A *434:10 0
6 *235:10 *249:12 0
7 *1967:C *1967:A 7.69542e-05
8 *1975:A *235:10 0.000342059
9 *2181:A1 *1967:A 7.63204e-05
*RES
1 *1962:X *235:10 26.475 
2 *235:10 *1967:A 6.45 
3 *235:10 *2181:A2 3.6 
*END

*D_NET *236 0.000664715
*CONN
*I *1966:B I *D sky130_fd_sc_hd__nand2_2
*I *1963:Y O *D sky130_fd_sc_hd__nand4_2
*CAP
1 *1966:B 0.00022809
2 *1963:Y 0.00022809
3 *1966:B *1966:A 6.52906e-05
4 *1963:B *1966:B 0.000143244
5 *1965:A1_N *1966:B 0
6 *2188:A *1966:B 0
7 *201:23 *1966:B 0
*RES
1 *1963:Y *1966:B 11.835 
*END

*D_NET *237 0.00224634
*CONN
*I *2187:A2_N I *D sky130_fd_sc_hd__o2bb2a_2
*I *1965:B2 I *D sky130_fd_sc_hd__a2bb2oi_2
*I *1964:Y O *D sky130_fd_sc_hd__o21ai_2
*CAP
1 *2187:A2_N 0
2 *1965:B2 0.000250178
3 *1964:Y 5.87792e-05
4 *237:10 0.000308958
5 *1965:B2 *2188:B 0.000269724
6 *237:10 *2188:B 4.43871e-06
7 *237:10 *435:23 5.13155e-05
8 *1965:B1 *1965:B2 0.000122337
9 *2187:A1_N *1965:B2 0.000168209
10 *2187:B1 *1965:B2 0.000201503
11 *2188:A *1965:B2 8.82473e-05
12 *190:10 *237:10 0
13 *190:29 *1965:B2 0.000722651
*RES
1 *1964:Y *237:10 6.725 
2 *237:10 *1965:B2 11.665 
3 *237:10 *2187:A2_N 1.6 
*END

*D_NET *238 0.000271801
*CONN
*I *1966:A I *D sky130_fd_sc_hd__nand2_2
*I *1965:Y O *D sky130_fd_sc_hd__a2bb2oi_2
*CAP
1 *1966:A 0.000103255
2 *1965:Y 0.000103255
3 *1966:B *1966:A 6.52906e-05
4 *201:23 *1966:A 0
*RES
1 *1965:Y *1966:A 9.09 
*END

*D_NET *239 0.00255384
*CONN
*I *1968:A I *D sky130_fd_sc_hd__nand3_4
*I *2189:A2_N I *D sky130_fd_sc_hd__o2bb2ai_2
*I *1966:Y O *D sky130_fd_sc_hd__nand2_2
*CAP
1 *1968:A 0.000413007
2 *2189:A2_N 5.05305e-05
3 *1966:Y 0.000541447
4 *239:10 0.00100498
5 *239:10 *1929:B1_N 0.000118527
6 *239:10 *1931:A2 5.21458e-05
7 *239:10 *449:14 0
8 *239:10 *558:35 2.03321e-05
9 *1933:D *239:10 0.000141592
10 *1934:B *1968:A 0
11 *1934:B *239:10 0
12 *1968:C *1968:A 0
13 *1968:C *2189:A2_N 3.83041e-05
14 *2189:B1 *1968:A 1.01661e-05
15 *2189:B1 *239:10 4.61744e-05
16 *190:29 *239:10 0
17 *201:42 *2189:A2_N 8.65961e-05
18 *207:10 *1968:A 3.00381e-05
*RES
1 *1966:Y *239:10 13.215 
2 *239:10 *2189:A2_N 4.74 
3 *239:10 *1968:A 10.005 
*END

*D_NET *240 0.00197079
*CONN
*I *1980:C I *D sky130_fd_sc_hd__nand4_2
*I *1972:C I *D sky130_fd_sc_hd__nand3_4
*I *2197:A I *D sky130_fd_sc_hd__nand4_2
*I *1967:Y O *D sky130_fd_sc_hd__nand4_4
*CAP
1 *1980:C 0
2 *1972:C 9.11742e-05
3 *2197:A 0.000193176
4 *1967:Y 0.000154134
5 *240:14 0.000440128
6 *240:10 0.000309912
7 *1972:C *1980:B 6.58423e-05
8 *1972:C *241:19 0
9 *2197:A *1979:A 0
10 *2197:A *250:8 9.2741e-05
11 *2197:A *253:12 0
12 *240:10 *1980:D 0.00011852
13 *240:14 *1980:B 2.75145e-05
14 *1977:B *2197:A 0.000132721
15 *1977:B *240:10 5.93674e-05
16 *1977:C *2197:A 0.000229217
17 *207:23 *240:10 5.63405e-05
*RES
1 *1967:Y *240:10 9.02 
2 *240:10 *240:14 2.19 
3 *240:14 *2197:A 10.355 
4 *240:14 *1972:C 3.1 
5 *240:10 *1980:C 1.6 
*END

*D_NET *241 0.00178668
*CONN
*I *2197:B I *D sky130_fd_sc_hd__nand4_2
*I *1980:B I *D sky130_fd_sc_hd__nand4_2
*I *1972:B I *D sky130_fd_sc_hd__nand3_4
*I *1968:Y O *D sky130_fd_sc_hd__nand3_4
*CAP
1 *2197:B 0.000143956
2 *1980:B 0.000199863
3 *1972:B 0
4 *1968:Y 0.000384164
5 *241:19 0.000417926
6 *241:10 0.000458271
7 *2197:B *1979:A 9.50342e-06
8 *2197:B *1981:B1 0
9 *241:10 *1980:A 0
10 *241:10 *244:27 0
11 *1972:C *1980:B 6.58423e-05
12 *1972:C *241:19 0
13 *1977:C *2197:B 0
14 *1977:C *241:10 0
15 *173:14 *241:10 1.22762e-05
16 *173:27 *241:10 6.73665e-05
17 *173:38 *241:10 0
18 *240:14 *1980:B 2.75145e-05
*RES
1 *1968:Y *241:10 11.825 
2 *241:10 *1972:B 1.6 
3 *241:10 *241:19 1.155 
4 *241:19 *1980:B 4.825 
5 *241:19 *2197:B 7.745 
*END

*D_NET *242 0.0017941
*CONN
*I *1971:A1 I *D sky130_fd_sc_hd__a21oi_4
*I *2193:B1 I *D sky130_fd_sc_hd__a21oi_2
*I *1969:Y O *D sky130_fd_sc_hd__o21ai_2
*CAP
1 *1971:A1 0.00030956
2 *2193:B1 0
3 *1969:Y 0.00024896
4 *242:8 0.00055852
5 *1971:A1 *468:14 0
6 *242:8 *2193:A1 0
7 *242:8 *2253:B1_N 0
8 *1969:A1 *242:8 9.24049e-05
9 *1970:A2 *1971:A1 0.000202095
10 *1970:B1 *1971:A1 8.09021e-06
11 *1971:A2 *1971:A1 0.000194595
12 *2281:B1 *1971:A1 5.92191e-05
13 *165:14 *1971:A1 0.000120655
14 *166:31 *1971:A1 0
*RES
1 *1969:Y *242:8 8.295 
2 *242:8 *2193:B1 3.6 
3 *242:8 *1971:A1 10.815 
*END

*D_NET *243 0.00105082
*CONN
*I *1971:B1 I *D sky130_fd_sc_hd__a21oi_4
*I *1970:X O *D sky130_fd_sc_hd__a31o_2
*CAP
1 *1971:B1 0.000352142
2 *1970:X 0.000352142
3 *1971:B1 *2274:A 4.82863e-05
4 *1971:B1 *244:14 0.00011686
5 *1971:B1 *468:10 6.34101e-06
6 *1971:B1 *468:12 1.52184e-05
7 *1970:A1 *1971:B1 3.09088e-05
8 *1970:A3 *1971:B1 8.65961e-05
9 *165:14 *1971:B1 4.23245e-05
*RES
1 *1970:X *1971:B1 13.095 
*END

*D_NET *244 0.00410347
*CONN
*I *2197:D I *D sky130_fd_sc_hd__nand4_2
*I *1972:A I *D sky130_fd_sc_hd__nand3_4
*I *2417:A I *D sky130_fd_sc_hd__buf_2
*I *1971:Y O *D sky130_fd_sc_hd__a21oi_4
*CAP
1 *2197:D 9.61167e-05
2 *1972:A 0
3 *2417:A 0.000108071
4 *1971:Y 0.000821472
5 *244:27 0.000206528
6 *244:14 0.00103995
7 *2197:D *1981:B1 0.00010506
8 *2197:D *442:12 1.83756e-05
9 *244:14 *2274:A 4.82919e-05
10 *244:14 *468:8 0.000195932
11 *244:14 *468:10 0.000294428
12 *244:14 *469:10 0.000237243
13 *244:14 *469:54 4.0843e-05
14 *244:14 *475:45 0.000278433
15 *244:14 *475:55 0.000163204
16 *1971:B1 *244:14 0.00011686
17 *1978:B1 *2197:D 8.47455e-05
18 *1978:B1 *2417:A 0.000117116
19 *1978:B1 *244:14 7.35813e-05
20 *1978:B1 *244:27 5.72091e-05
21 *120:8 *244:14 0
22 *241:10 *244:27 0
*RES
1 *1971:Y *244:14 23.255 
2 *244:14 *2417:A 3.79 
3 *244:14 *244:27 4.145 
4 *244:27 *1972:A 3.6 
5 *244:27 *2197:D 6.45 
*END

*D_NET *245 0.00300891
*CONN
*I *2418:A I *D sky130_fd_sc_hd__buf_4
*I *2410:A I *D sky130_fd_sc_hd__buf_4
*I *1981:B1 I *D sky130_fd_sc_hd__o22ai_4
*I *1972:Y O *D sky130_fd_sc_hd__nand3_4
*CAP
1 *2418:A 3.70869e-05
2 *2410:A 0.000132845
3 *1981:B1 0.000935002
4 *1972:Y 0.000900417
5 *245:24 0.000204517
6 *1981:B1 *1979:A 0
7 *1981:B1 *1982:B 0
8 *1981:B1 *2131:B2 9.16237e-05
9 *1981:B1 *2131:C1 0
10 *1981:B1 *252:10 5.50989e-05
11 *2410:A *2077:B1 0.000115839
12 *2410:A *2077:C1 0
13 *2410:A *2131:A2 6.5265e-05
14 *2410:A *2131:B2 5.50989e-05
15 *2410:A *252:23 5.53249e-06
16 *1978:B1 *1981:B1 0
17 *1981:A1 *245:24 0
18 *1981:A2 *245:24 2.75145e-05
19 *2077:A2 *2410:A 0.00015212
20 *2197:B *1981:B1 0
21 *2197:D *1981:B1 0.00010506
22 *2250:B1 *2418:A 4.82919e-05
23 *2250:B1 *245:24 0
24 *133:23 *1981:B1 0
25 *133:47 *2410:A 3.09233e-05
26 *141:18 *2418:A 1.91597e-05
27 *141:18 *245:24 2.75145e-05
*RES
1 *1972:Y *1981:B1 23.37 
2 *1981:B1 *245:24 2.41 
3 *245:24 *2410:A 9.785 
4 *245:24 *2418:A 2.395 
*END

*D_NET *246 0.000905054
*CONN
*I *1974:B1 I *D sky130_fd_sc_hd__a21oi_2
*I *2176:B1 I *D sky130_fd_sc_hd__a211o_4
*I *1973:Y O *D sky130_fd_sc_hd__o22ai_2
*CAP
1 *1974:B1 0.000131463
2 *2176:B1 9.73191e-06
3 *1973:Y 0.000103955
4 *246:8 0.000245151
5 *1974:A1 *1974:B1 0.000126474
6 *2176:A1 *2176:B1 4.82863e-05
7 *215:14 *1974:B1 2.34423e-05
8 *215:14 *246:8 2.4997e-05
9 *220:31 *2176:B1 4.82863e-05
10 *220:31 *246:8 0.000143266
*RES
1 *1973:Y *246:8 5.745 
2 *246:8 *2176:B1 4.05 
3 *246:8 *1974:B1 6.195 
*END

*D_NET *247 0.000770571
*CONN
*I *1976:B2 I *D sky130_fd_sc_hd__o22ai_4
*I *1974:Y O *D sky130_fd_sc_hd__a21oi_2
*CAP
1 *1976:B2 0.000210114
2 *1974:Y 0.000210114
3 *1976:B2 *553:23 5.65627e-05
4 *1976:B2 *553:42 8.52883e-05
5 *233:14 *1976:B2 0.000208491
*RES
1 *1974:Y *1976:B2 11.67 
*END

*D_NET *248 0.000840413
*CONN
*I *1976:B1 I *D sky130_fd_sc_hd__o22ai_4
*I *1975:Y O *D sky130_fd_sc_hd__nand2_2
*CAP
1 *1976:B1 0.000350468
2 *1975:Y 0.000350468
3 *1976:B1 *553:42 8.30853e-06
4 *1975:B *1976:B1 0.000131168
*RES
1 *1975:Y *1976:B1 12.705 
*END

*D_NET *249 0.00521727
*CONN
*I *1977:A I *D sky130_fd_sc_hd__nand3_2
*I *2181:B1 I *D sky130_fd_sc_hd__a21oi_2
*I *1978:A3 I *D sky130_fd_sc_hd__a31oi_2
*I *1976:Y O *D sky130_fd_sc_hd__o22ai_4
*CAP
1 *1977:A 0.00055087
2 *2181:B1 0
3 *1978:A3 0.000547809
4 *1976:Y 0.00123197
5 *249:12 0.000785094
6 *249:6 0.00202012
7 *1978:A3 *1980:D 3.31103e-05
8 *1978:A3 *434:10 4.82863e-05
9 *2181:A1 *249:12 0
10 *235:10 *249:12 0
*RES
1 *1976:Y *249:6 18.61 
2 *249:6 *249:12 7.675 
3 *249:12 *1978:A3 10 
4 *249:12 *2181:B1 1.6 
5 *249:6 *1977:A 9.91 
*END

*D_NET *250 0.00183352
*CONN
*I *2197:C I *D sky130_fd_sc_hd__nand4_2
*I *1979:A I *D sky130_fd_sc_hd__nand2_4
*I *1977:Y O *D sky130_fd_sc_hd__nand3_2
*CAP
1 *2197:C 5.12763e-05
2 *1979:A 0.000574961
3 *1977:Y 0.000192262
4 *250:8 0.0008185
5 *1979:A *1982:B 9.428e-05
6 *1979:A *1989:A2 0
7 *1981:B1 *1979:A 0
8 *2197:A *1979:A 0
9 *2197:A *250:8 9.2741e-05
10 *2197:B *1979:A 9.50342e-06
*RES
1 *1977:Y *250:8 4.825 
2 *250:8 *1979:A 15.65 
3 *250:8 *2197:C 2.395 
*END

*D_NET *251 0.000400108
*CONN
*I *1980:A I *D sky130_fd_sc_hd__nand4_2
*I *1978:Y O *D sky130_fd_sc_hd__a31oi_2
*CAP
1 *1980:A 0.000106633
2 *1978:Y 0.000106633
3 *1980:A *1980:D 4.82919e-05
4 *1977:C *1980:A 0.000138551
5 *241:10 *1980:A 0
*RES
1 *1978:Y *1980:A 9.285 
*END

*D_NET *252 0.00137214
*CONN
*I *2077:B1 I *D sky130_fd_sc_hd__o221ai_4
*I *1981:B2 I *D sky130_fd_sc_hd__o22ai_4
*I *2131:B1 I *D sky130_fd_sc_hd__o221ai_4
*I *1979:Y O *D sky130_fd_sc_hd__nand2_4
*CAP
1 *2077:B1 5.77155e-05
2 *1981:B2 0
3 *2131:B1 8.42005e-05
4 *1979:Y 0.000109734
5 *252:23 0.000101792
6 *252:10 0.000238011
7 *2077:B1 *2131:B2 0.000198279
8 *252:10 *2131:B2 3.09164e-05
9 *252:10 *2385:A 8.8266e-05
10 *252:23 *2131:B2 0.000130714
11 *1981:B1 *252:10 5.50989e-05
12 *2410:A *2077:B1 0.000115839
13 *2410:A *252:23 5.53249e-06
14 *133:23 *252:10 6.55328e-05
15 *133:32 *252:10 2.4997e-05
16 *133:32 *252:23 5.02217e-05
17 *133:47 *252:23 1.52862e-05
*RES
1 *1979:Y *252:10 6.285 
2 *252:10 *2131:B1 4.755 
3 *252:10 *252:23 1.635 
4 *252:23 *1981:B2 3.6 
5 *252:23 *2077:B1 6 
*END

*D_NET *253 0.00423957
*CONN
*I *2135:A2 I *D sky130_fd_sc_hd__a31oi_2
*I *2001:A2 I *D sky130_fd_sc_hd__a31oi_4
*I *2004:D I *D sky130_fd_sc_hd__nand4b_2
*I *1980:Y O *D sky130_fd_sc_hd__nand4_2
*CAP
1 *2135:A2 0.000586961
2 *2001:A2 1.83028e-05
3 *2004:D 0
4 *1980:Y 0.000837024
5 *253:25 0.000841163
6 *253:12 0.00107292
7 *2001:A2 *2001:B1 4.66108e-05
8 *2001:A2 *2145:A2 1.56428e-05
9 *2135:A2 *2021:D 0.000130714
10 *2135:A2 *2135:B1 5.96646e-05
11 *2135:A2 *290:8 0.000137571
12 *253:12 *1989:A2 0
13 *253:25 *2001:A3 0
14 *253:25 *2021:D 0.000162318
15 *253:25 *290:8 0.000139238
16 *1977:B *253:12 0
17 *2004:C *253:25 0.000140422
18 *2197:A *253:12 0
19 *141:18 *2135:A2 5.10137e-05
*RES
1 *1980:Y *253:12 19.01 
2 *253:12 *2004:D 1.6 
3 *253:12 *253:25 7.43 
4 *253:25 *2001:A2 4.05 
5 *253:25 *2135:A2 11.925 
*END

*D_NET *254 0.00818716
*CONN
*I *1989:A2 I *D sky130_fd_sc_hd__a21bo_2
*I *1982:B I *D sky130_fd_sc_hd__xor2_2
*I *2409:A I *D sky130_fd_sc_hd__buf_2
*I *2027:B1 I *D sky130_fd_sc_hd__o22ai_4
*I *1981:Y O *D sky130_fd_sc_hd__o22ai_4
*CAP
1 *1989:A2 0.000879779
2 *1982:B 0.00110653
3 *2409:A 0.000364922
4 *2027:B1 0.000861099
5 *1981:Y 0
6 *254:10 0.00196387
7 *254:4 0.000964594
8 *1982:B *2131:C1 0.000210839
9 *1982:B *2134:B 0.000233918
10 *1982:B *2385:A 5.3023e-05
11 *1989:A2 *2384:A 0.00041515
12 *2027:B1 *2022:A 9.65676e-05
13 *2027:B1 *2027:B2 0.000118207
14 *2027:B1 *2074:A1 4.65607e-05
15 *2027:B1 *2074:B1 2.11084e-05
16 *2027:B1 *339:6 2.64604e-05
17 *2409:A *2074:B1 0
18 *2409:A *2087:A1 5.4155e-06
19 *2409:A *2133:A2 8.65905e-05
20 *2409:A *2412:A 0.000236292
21 *2409:A *2419:A 1.22762e-05
22 *254:10 *2074:A2 0
23 *254:10 *2075:B 7.45794e-05
24 *254:10 *2076:B 0
25 *254:10 *2134:B 0
26 *254:10 *2135:B1 0
27 *254:10 *2145:A2 3.39151e-05
28 *254:10 *2419:A 6.95591e-05
29 *254:10 *391:8 0
30 *1979:A *1982:B 9.428e-05
31 *1979:A *1989:A2 0
32 *1981:B1 *1982:B 0
33 *1989:B1_N *1989:A2 2.41437e-05
34 *2001:A1 *254:10 0.000187485
35 *253:12 *1989:A2 0
*RES
1 *1981:Y *254:4 1.6 
2 *254:4 *254:10 13.625 
3 *254:10 *2027:B1 14.7 
4 *254:10 *2409:A 10.095 
5 *254:4 *1982:B 10.48 
6 *1982:B *1989:A2 21.305 
*END

*D_NET *255 0.000705102
*CONN
*I *1987:A1 I *D sky130_fd_sc_hd__o21bai_4
*I *1986:A_N I *D sky130_fd_sc_hd__nand3b_2
*I *1983:Y O *D sky130_fd_sc_hd__nor2_4
*CAP
1 *1987:A1 0
2 *1986:A_N 0.000195097
3 *1983:Y 7.83361e-05
4 *255:8 0.000273433
5 *1986:A_N *1983:B 6.9451e-05
6 *1986:A_N *1986:C 3.66303e-05
7 *1986:A_N *258:16 0
8 *255:8 *1983:B 5.21545e-05
*RES
1 *1983:Y *255:8 5.235 
2 *255:8 *1986:A_N 7.35 
3 *255:8 *1987:A1 3.6 
*END

*D_NET *256 0.000389326
*CONN
*I *1987:A2 I *D sky130_fd_sc_hd__o21bai_4
*I *1984:X O *D sky130_fd_sc_hd__and2_4
*CAP
1 *1987:A2 0.000117596
2 *1984:X 0.000117596
3 *1987:A2 *1983:B 0.000105841
4 *1987:A2 *259:8 4.82919e-05
*RES
1 *1984:X *1987:A2 9.795 
*END

*D_NET *257 0.000217872
*CONN
*I *1986:B I *D sky130_fd_sc_hd__nand3b_2
*I *1985:Y O *D sky130_fd_sc_hd__nand2_2
*CAP
1 *1986:B 7.89723e-05
2 *1985:Y 7.89723e-05
3 *1986:B *1983:B 8.66976e-06
4 *1986:B *1985:B 5.12575e-05
5 *1986:B *2212:A 0
*RES
1 *1985:Y *1986:B 8.835 
*END

*D_NET *258 0.00318961
*CONN
*I *1998:C I *D sky130_fd_sc_hd__and4_2
*I *1988:A I *D sky130_fd_sc_hd__nand2_2
*I *1999:B I *D sky130_fd_sc_hd__nand2_2
*I *1986:Y O *D sky130_fd_sc_hd__nand3b_2
*CAP
1 *1998:C 0
2 *1988:A 0.000106991
3 *1999:B 0
4 *1986:Y 0.000772808
5 *258:25 0.000189635
6 *258:16 0.000855451
7 *258:16 *1998:D 1.91597e-05
8 *258:16 *2212:A 3.45679e-05
9 *258:16 *2212:B 1.83756e-05
10 *258:16 *2214:C 0.000138799
11 *258:16 *270:10 5.16348e-05
12 *258:25 *1998:D 0.000429658
13 *258:25 *259:8 5.4155e-06
14 *1986:A_N *258:16 0
15 *1998:B *258:25 4.99619e-05
16 *2021:A *1988:A 0
17 *2215:A2 *258:16 1.03323e-05
18 *105:12 *258:16 0.000225836
19 *105:16 *258:16 4.66108e-05
20 *105:16 *258:25 0.000188312
21 *105:23 *258:25 4.60584e-05
*RES
1 *1986:Y *258:16 16.085 
2 *258:16 *1999:B 1.6 
3 *258:16 *258:25 4.26 
4 *258:25 *1988:A 7.235 
5 *258:25 *1998:C 1.6 
*END

*D_NET *259 0.00446147
*CONN
*I *1998:D I *D sky130_fd_sc_hd__and4_2
*I *2000:A I *D sky130_fd_sc_hd__and2_2
*I *2025:B2 I *D sky130_fd_sc_hd__a22oi_2
*I *1988:B I *D sky130_fd_sc_hd__nand2_2
*I *1987:Y O *D sky130_fd_sc_hd__o21bai_4
*CAP
1 *1998:D 0.000356148
2 *2000:A 9.33385e-05
3 *2025:B2 0
4 *1988:B 0.000268594
5 *1987:Y 0.000810918
6 *259:25 0.000199908
7 *259:12 0.000448013
8 *259:8 0.00123992
9 *2000:A *2000:B 0.000152328
10 *2000:A *2025:B1 8.49205e-05
11 *259:8 *2414:A 8.65905e-05
12 *259:12 *270:10 6.36578e-05
13 *259:25 *270:10 0.00011741
14 *259:25 *451:20 0
15 *1987:A2 *259:8 4.82919e-05
16 *1998:B *1998:D 2.30292e-05
17 *105:16 *1998:D 8.34281e-06
18 *105:16 *259:8 5.83121e-06
19 *258:16 *1998:D 1.91597e-05
20 *258:25 *1998:D 0.000429658
21 *258:25 *259:8 5.4155e-06
*RES
1 *1987:Y *259:8 13.105 
2 *259:8 *259:12 3.38 
3 *259:12 *1988:B 7.5 
4 *259:12 *259:25 4.4 
5 *259:25 *2025:B2 1.6 
6 *259:25 *2000:A 3.775 
7 *259:8 *1998:D 6.535 
*END

*D_NET *260 0.00135724
*CONN
*I *2021:B I *D sky130_fd_sc_hd__nor4_4
*I *1990:A I *D sky130_fd_sc_hd__xor2_2
*I *1988:Y O *D sky130_fd_sc_hd__nand2_2
*CAP
1 *2021:B 8.89257e-05
2 *1990:A 0.000283499
3 *1988:Y 0.000120758
4 *260:8 0.000493182
5 *1990:A *2001:A3 0
6 *1990:A *269:10 0
7 *2021:B *2004:A_N 0
8 *2021:B *274:10 0.000141599
9 *260:8 *274:10 2.75145e-05
10 *2021:A *1990:A 0.000122877
11 *2021:A *2021:B 2.05661e-05
12 *106:27 *1990:A 5.83169e-05
*RES
1 *1988:Y *260:8 5.43 
2 *260:8 *1990:A 8.685 
3 *260:8 *2021:B 5.745 
*END

*D_NET *261 0.000189331
*CONN
*I *1990:B I *D sky130_fd_sc_hd__xor2_2
*I *1989:X O *D sky130_fd_sc_hd__a21bo_2
*CAP
1 *1990:B 6.09617e-05
2 *1989:X 6.09617e-05
3 *1990:B *2384:A 0
4 *106:27 *1990:B 6.74079e-05
*RES
1 *1989:X *1990:B 6.98 
*END

*D_NET *262 0.00198408
*CONN
*I *1995:A_N I *D sky130_fd_sc_hd__nand3b_2
*I *1996:A1 I *D sky130_fd_sc_hd__o21bai_4
*I *1994:A I *D sky130_fd_sc_hd__nor2_2
*I *1991:Y O *D sky130_fd_sc_hd__nor2_4
*CAP
1 *1995:A_N 0.000266263
2 *1996:A1 0
3 *1994:A 0.000302024
4 *1991:Y 9.22024e-05
5 *262:27 0.000298145
6 *262:10 0.000426109
7 *1994:A *1994:B 0.000115444
8 *1994:A *1995:B 5.03301e-05
9 *1994:A *1996:B1_N 8.49205e-05
10 *1994:A *2025:A2 0.000158072
11 *1994:A *263:12 2.11084e-05
12 *1995:A_N *1993:A 0.000109533
13 *1995:A_N *1995:B 0
14 *1995:A_N *1995:C 0
15 *1995:A_N *263:12 0
16 *1995:A_N *451:20 0
17 *1995:A_N *464:24 5.53249e-06
18 *262:10 *1991:B 4.99619e-05
19 *262:27 *1991:B 0
20 *262:27 *1993:A 4.43871e-06
21 *262:27 *451:20 0
*RES
1 *1991:Y *262:10 4.92 
2 *262:10 *1994:A 9.015 
3 *262:10 *262:27 0.615 
4 *262:27 *1996:A1 3.6 
5 *262:27 *1995:A_N 8.175 
*END

*D_NET *263 0.00117196
*CONN
*I *1994:B I *D sky130_fd_sc_hd__nor2_2
*I *1996:A2 I *D sky130_fd_sc_hd__o21bai_4
*I *1992:X O *D sky130_fd_sc_hd__and2_4
*CAP
1 *1994:B 9.54242e-05
2 *1996:A2 2.08101e-05
3 *1992:X 0.000137525
4 *263:12 0.00025376
5 *1994:B *1995:B 0.000164874
6 *1994:B *1996:B1_N 8.49205e-05
7 *1994:B *2025:A2 1.61831e-05
8 *1994:B *2145:A2 1.46744e-05
9 *1994:B *267:6 0.000198945
10 *263:12 *1995:B 4.82919e-05
11 *1994:A *1994:B 0.000115444
12 *1994:A *263:12 2.11084e-05
13 *1995:A_N *263:12 0
*RES
1 *1992:X *263:12 7.94 
2 *263:12 *1996:A2 1.96 
3 *263:12 *1994:B 5.515 
*END

*D_NET *264 0.00133775
*CONN
*I *1995:B I *D sky130_fd_sc_hd__nand3b_2
*I *1993:Y O *D sky130_fd_sc_hd__nand2_2
*CAP
1 *1995:B 0.000218959
2 *1993:Y 0.000218959
3 *1995:B *1993:A 2.75145e-05
4 *1995:B *1995:C 0.000137571
5 *1995:B *2026:A2 9.3062e-06
6 *1995:B *2145:A2 0.000461941
7 *1994:A *1995:B 5.03301e-05
8 *1994:B *1995:B 0.000164874
9 *1995:A_N *1995:B 0
10 *263:12 *1995:B 4.82919e-05
*RES
1 *1993:Y *1995:B 13.695 
*END

*D_NET *265 0.000704785
*CONN
*I *2025:A2 I *D sky130_fd_sc_hd__a22oi_2
*I *1994:Y O *D sky130_fd_sc_hd__nor2_2
*CAP
1 *2025:A2 0.000206009
2 *1994:Y 0.000206009
3 *2025:A2 *451:20 0.000118513
4 *1994:A *2025:A2 0.000158072
5 *1994:B *2025:A2 1.61831e-05
*RES
1 *1994:Y *2025:A2 10.41 
*END

*D_NET *266 0.00115874
*CONN
*I *1997:A I *D sky130_fd_sc_hd__nand2_2
*I *2003:B1_N I *D sky130_fd_sc_hd__a21boi_2
*I *1995:Y O *D sky130_fd_sc_hd__nand3b_2
*CAP
1 *1997:A 0.000232462
2 *2003:B1_N 0
3 *1995:Y 0.000255392
4 *266:8 0.000487854
5 *1997:A *2003:A1 0.000173533
6 *1997:A *271:10 9.50342e-06
*RES
1 *1995:Y *266:8 5.17 
2 *266:8 *2003:B1_N 1.6 
3 *266:8 *1997:A 9.575 
*END

*D_NET *267 0.00254903
*CONN
*I *2003:A2 I *D sky130_fd_sc_hd__a21boi_2
*I *1997:B I *D sky130_fd_sc_hd__nand2_2
*I *2024:B1 I *D sky130_fd_sc_hd__o21ai_2
*I *1996:Y O *D sky130_fd_sc_hd__o21bai_4
*CAP
1 *2003:A2 0.000125729
2 *1997:B 3.55506e-05
3 *2024:B1 0.000288737
4 *1996:Y 3.54981e-05
5 *267:19 0.000288124
6 *267:6 0.000451079
7 *2003:A2 *2001:B1 2.75229e-05
8 *2003:A2 *2003:A1 0.000139238
9 *2003:A2 *2145:A2 0.00015806
10 *2003:A2 *274:10 0
11 *2024:B1 *2026:A2 0.000210246
12 *267:6 *2145:A2 0.000197269
13 *267:19 *2145:A2 0.000393029
14 *1994:B *267:6 0.000198945
*RES
1 *1996:Y *267:6 3.43 
2 *267:6 *2024:B1 11.57 
3 *267:6 *267:19 3.555 
4 *267:19 *1997:B 2.215 
5 *267:19 *2003:A2 8.72 
*END

*D_NET *268 0.00217874
*CONN
*I *2021:C I *D sky130_fd_sc_hd__nor4_4
*I *2002:A I *D sky130_fd_sc_hd__xor2_2
*I *2004:A_N I *D sky130_fd_sc_hd__nand4b_2
*I *1997:Y O *D sky130_fd_sc_hd__nand2_2
*CAP
1 *2021:C 0
2 *2002:A 0.000370017
3 *2004:A_N 0.000155174
4 *1997:Y 0.000253923
5 *268:23 0.000370017
6 *268:10 0.000409097
7 *2004:A_N *2001:A3 0.000100544
8 *2004:A_N *274:10 5.05437e-05
9 *268:10 *2001:A3 7.89689e-05
10 *268:10 *2001:B1 0.00039046
11 *268:10 *274:10 0
12 *2021:B *2004:A_N 0
*RES
1 *1997:Y *268:10 8.79 
2 *268:10 *2004:A_N 6.54 
3 *268:10 *268:23 2 
4 *268:23 *2002:A 6.895 
5 *268:23 *2021:C 1.6 
*END

*D_NET *269 0.00154056
*CONN
*I *2001:A3 I *D sky130_fd_sc_hd__a31oi_4
*I *2004:B I *D sky130_fd_sc_hd__nand4b_2
*I *1998:X O *D sky130_fd_sc_hd__and4_2
*CAP
1 *2001:A3 0.000183295
2 *2004:B 0
3 *1998:X 0.000374066
4 *269:10 0.000557361
5 *2001:A3 *2021:D 6.65066e-05
6 *1982:A *269:10 9.91257e-05
7 *1990:A *2001:A3 0
8 *1990:A *269:10 0
9 *1998:B *269:10 2.75145e-05
10 *2004:A_N *2001:A3 0.000100544
11 *2004:C *2001:A3 0
12 *2004:C *269:10 0
13 *2216:A *269:10 2.8185e-05
14 *2216:B *269:10 2.49909e-05
15 *253:25 *2001:A3 0
16 *268:10 *2001:A3 7.89689e-05
*RES
1 *1998:X *269:10 8.535 
2 *269:10 *2004:B 3.6 
3 *269:10 *2001:A3 7.785 
*END

*D_NET *270 0.00145765
*CONN
*I *2000:B I *D sky130_fd_sc_hd__and2_2
*I *2025:B1 I *D sky130_fd_sc_hd__a22oi_2
*I *1999:Y O *D sky130_fd_sc_hd__nand2_2
*CAP
1 *2000:B 0.000145068
2 *2025:B1 9.12127e-05
3 *1999:Y 0.000257567
4 *270:10 0.000493848
5 *2025:B1 *451:16 0
6 *270:10 *2026:A2 0
7 *270:10 *451:20 0
8 *2000:A *2000:B 0.000152328
9 *2000:A *2025:B1 8.49205e-05
10 *258:16 *270:10 5.16348e-05
11 *259:12 *270:10 6.36578e-05
12 *259:25 *270:10 0.00011741
*RES
1 *1999:Y *270:10 10.55 
2 *270:10 *2025:B1 3.1 
3 *270:10 *2000:B 4.135 
*END

*D_NET *271 0.00240713
*CONN
*I *2003:A1 I *D sky130_fd_sc_hd__a21boi_2
*I *2001:B1 I *D sky130_fd_sc_hd__a31oi_4
*I *2000:X O *D sky130_fd_sc_hd__and2_2
*CAP
1 *2003:A1 7.35122e-05
2 *2001:B1 0.00038929
3 *2000:X 0.000193182
4 *271:10 0.000655984
5 *2001:B1 *2145:A2 0.00026872
6 *2003:A1 *274:10 0
7 *271:10 *274:10 0
8 *1997:A *2003:A1 0.000173533
9 *1997:A *271:10 9.50342e-06
10 *2001:A1 *2001:B1 3.95724e-05
11 *2001:A2 *2001:B1 4.66108e-05
12 *2003:A2 *2001:B1 2.75229e-05
13 *2003:A2 *2003:A1 0.000139238
14 *268:10 *2001:B1 0.00039046
*RES
1 *2000:X *271:10 6.12 
2 *271:10 *2001:B1 12.465 
3 *271:10 *2003:A1 6 
*END

*D_NET *272 0.000205846
*CONN
*I *2002:B I *D sky130_fd_sc_hd__xor2_2
*I *2001:Y O *D sky130_fd_sc_hd__a31oi_4
*CAP
1 *2002:B 0.000102923
2 *2001:Y 0.000102923
3 *2002:B *2134:B 0
4 *2004:C *2002:B 0
*RES
1 *2001:Y *2002:B 7.235 
*END

*D_NET *273 0.00114174
*CONN
*I *2013:D I *D sky130_fd_sc_hd__nand4_2
*I *2023:A I *D sky130_fd_sc_hd__and2_2
*I *2012:B2 I *D sky130_fd_sc_hd__a22o_2
*I *2003:Y O *D sky130_fd_sc_hd__a21boi_2
*CAP
1 *2013:D 1.41735e-05
2 *2023:A 0
3 *2012:B2 0.000102407
4 *2003:Y 0.000228476
5 *273:21 0.000153389
6 *273:8 0.000470099
7 *2013:D *278:27 8.65961e-05
8 *2013:D *280:12 8.65961e-05
9 *273:8 *274:10 0
10 *273:21 *2013:A 0
11 *273:21 *2027:A1 0
*RES
1 *2003:Y *273:8 7.275 
2 *273:8 *2012:B2 5.085 
3 *273:8 *273:21 3.89 
4 *273:21 *2023:A 1.6 
5 *273:21 *2013:D 2.395 
*END

*D_NET *274 0.00256623
*CONN
*I *2013:A I *D sky130_fd_sc_hd__nand4_2
*I *2012:B1 I *D sky130_fd_sc_hd__a22o_2
*I *2004:Y O *D sky130_fd_sc_hd__nand4b_2
*CAP
1 *2013:A 0.000137044
2 *2012:B1 0
3 *2004:Y 0.000729774
4 *274:10 0.000866818
5 *2013:A *2014:B 6.26016e-05
6 *2013:A *2074:A2 9.80943e-06
7 *2013:A *278:27 4.66108e-05
8 *2013:A *278:33 0.000116151
9 *2013:A *280:29 3.25957e-05
10 *2013:A *393:18 0.00019637
11 *274:10 *2014:A 0
12 *274:10 *2021:D 0
13 *274:10 *280:29 5.53249e-06
14 *2003:A1 *274:10 0
15 *2003:A2 *274:10 0
16 *2004:A_N *274:10 5.05437e-05
17 *2021:A *274:10 0.000143266
18 *2021:B *274:10 0.000141599
19 *260:8 *274:10 2.75145e-05
20 *268:10 *274:10 0
21 *271:10 *274:10 0
22 *273:8 *274:10 0
23 *273:21 *2013:A 0
*RES
1 *2004:Y *274:10 15.57 
2 *274:10 *2012:B1 3.6 
3 *274:10 *2013:A 7.425 
*END

*D_NET *275 0.000667847
*CONN
*I *2007:A I *D sky130_fd_sc_hd__nor2_2
*I *2010:A1 I *D sky130_fd_sc_hd__o21bai_2
*I *2005:Y O *D sky130_fd_sc_hd__nor2_2
*CAP
1 *2007:A 0.000170882
2 *2010:A1 0
3 *2005:Y 6.04926e-05
4 *275:8 0.000231374
5 *2007:A *2007:B 8.47542e-05
6 *2007:A *464:14 0
7 *2007:A *464:20 0
8 *275:8 *2005:B 0.000116158
9 *275:8 *2007:B 4.18603e-06
10 *275:8 *462:19 0
*RES
1 *2005:Y *275:8 4.98 
2 *275:8 *2010:A1 3.6 
3 *275:8 *2007:A 6.795 
*END

*D_NET *276 0.000820686
*CONN
*I *2010:A2 I *D sky130_fd_sc_hd__o21bai_2
*I *2007:B I *D sky130_fd_sc_hd__nor2_2
*I *2006:X O *D sky130_fd_sc_hd__and2_2
*CAP
1 *2010:A2 0
2 *2007:B 0.000162566
3 *2006:X 0.000127757
4 *276:8 0.000290323
5 *2007:B *2008:B 0
6 *2007:B *462:19 0
7 *276:8 *2005:B 8.65905e-05
8 *276:8 *280:12 5.4155e-06
9 *276:8 *393:18 5.90938e-05
10 *2007:A *2007:B 8.47542e-05
11 *275:8 *2007:B 4.18603e-06
*RES
1 *2006:X *276:8 4.135 
2 *276:8 *2007:B 8.45 
3 *276:8 *2010:A2 1.6 
*END

*D_NET *277 0.00154993
*CONN
*I *2009:B I *D sky130_fd_sc_hd__nor2_2
*I *2024:A2 I *D sky130_fd_sc_hd__o21ai_2
*I *2008:A I *D sky130_fd_sc_hd__nand2_2
*I *2007:Y O *D sky130_fd_sc_hd__nor2_2
*CAP
1 *2009:B 9.2117e-05
2 *2024:A2 0.000153224
3 *2008:A 0
4 *2007:Y 0.000134323
5 *277:21 0.00046857
6 *277:8 0.000357552
7 *2009:B *2009:A 3.29384e-05
8 *2024:A2 *2009:A 9.80032e-06
9 *2024:A2 *2026:A1 4.82919e-05
10 *277:8 *2008:B 8.65961e-05
11 *277:21 *2008:B 0
12 *277:21 *2026:A1 7.3664e-05
13 *277:21 *2027:A1 0
14 *277:21 *278:12 6.23206e-05
15 *277:21 *296:10 3.05295e-05
*RES
1 *2007:Y *277:8 3.79 
2 *277:8 *2008:A 1.6 
3 *277:8 *277:21 8.125 
4 *277:21 *2024:A2 3.805 
5 *277:21 *2009:B 3.46 
*END

*D_NET *278 0.00277442
*CONN
*I *2023:B I *D sky130_fd_sc_hd__and2_2
*I *2013:B I *D sky130_fd_sc_hd__nand4_2
*I *2011:A I *D sky130_fd_sc_hd__nand2_2
*I *2012:A1 I *D sky130_fd_sc_hd__a22o_2
*I *2026:B1 I *D sky130_fd_sc_hd__o21ai_2
*I *2008:Y O *D sky130_fd_sc_hd__nand2_2
*CAP
1 *2023:B 0
2 *2013:B 0
3 *2011:A 0.000167464
4 *2012:A1 0
5 *2026:B1 0
6 *2008:Y 0.000122399
7 *278:33 0.000217107
8 *278:27 0.000136872
9 *278:19 0.000145451
10 *278:12 0.000180621
11 *2011:A *2011:B 0.000161262
12 *2011:A *2014:A 2.96334e-05
13 *2011:A *280:29 1.2818e-05
14 *278:12 *2027:A1 9.60047e-05
15 *278:12 *296:10 7.58604e-05
16 *278:19 *280:12 0.000352161
17 *278:19 *393:18 0.000203402
18 *278:27 *2013:C 9.53428e-06
19 *278:27 *280:12 6.07328e-05
20 *278:27 *280:29 0.000102611
21 *278:27 *393:18 0.000253593
22 *278:33 *280:29 0.00013521
23 *2013:A *278:27 4.66108e-05
24 *2013:A *278:33 0.000116151
25 *2013:D *278:27 8.65961e-05
26 *277:21 *278:12 6.23206e-05
*RES
1 *2008:Y *278:12 8.54 
2 *278:12 *2026:B1 1.6 
3 *278:12 *278:19 3.21 
4 *278:19 *278:27 3.69 
5 *278:27 *278:33 5.635 
6 *278:33 *2012:A1 1.6 
7 *278:33 *2011:A 4.48 
8 *278:27 *2013:B 1.6 
9 *278:19 *2023:B 1.6 
*END

*D_NET *279 0.000525185
*CONN
*I *2027:A1 I *D sky130_fd_sc_hd__o22ai_4
*I *2009:Y O *D sky130_fd_sc_hd__nor2_2
*CAP
1 *2027:A1 0.00021459
2 *2009:Y 0.00021459
3 *2027:A1 *2027:A2 0
4 *273:21 *2027:A1 0
5 *277:21 *2027:A1 0
6 *278:12 *2027:A1 9.60047e-05
*RES
1 *2009:Y *2027:A1 10.875 
*END

*D_NET *280 0.00293534
*CONN
*I *2011:B I *D sky130_fd_sc_hd__nand2_2
*I *2012:A2 I *D sky130_fd_sc_hd__a22o_2
*I *2013:C I *D sky130_fd_sc_hd__nand4_2
*I *2010:Y O *D sky130_fd_sc_hd__o21bai_2
*CAP
1 *2011:B 3.65223e-05
2 *2012:A2 0
3 *2013:C 1.85694e-05
4 *2010:Y 0.000317008
5 *280:29 0.000179078
6 *280:12 0.000478133
7 *2011:B *2014:A 5.30673e-05
8 *280:12 *2026:A2 4.66826e-05
9 *280:12 *2074:A2 0.000581093
10 *280:12 *393:18 9.75161e-05
11 *280:29 *2014:A 0
12 *280:29 *2022:A 0
13 *280:29 *2074:A2 0.000163199
14 *2011:A *2011:B 0.000161262
15 *2011:A *280:29 1.2818e-05
16 *2013:A *280:29 3.25957e-05
17 *2013:D *280:12 8.65961e-05
18 *274:10 *280:29 5.53249e-06
19 *276:8 *280:12 5.4155e-06
20 *278:19 *280:12 0.000352161
21 *278:27 *2013:C 9.53428e-06
22 *278:27 *280:12 6.07328e-05
23 *278:27 *280:29 0.000102611
24 *278:33 *280:29 0.00013521
*RES
1 *2010:Y *280:12 10.81 
2 *280:12 *2013:C 1.96 
3 *280:12 *280:29 7.75375 
4 *280:29 *2012:A2 1.6 
5 *280:29 *2011:B 3.06625 
*END

*D_NET *281 0.00122053
*CONN
*I *2021:D I *D sky130_fd_sc_hd__nor4_4
*I *2011:Y O *D sky130_fd_sc_hd__nand2_2
*CAP
1 *2021:D 0.00030765
2 *2011:Y 0.00030765
3 *2021:D *2014:A 1.71013e-05
4 *2021:D *290:8 0.000228591
5 *2001:A3 *2021:D 6.65066e-05
6 *2135:A2 *2021:D 0.000130714
7 *253:25 *2021:D 0.000162318
8 *274:10 *2021:D 0
*RES
1 *2011:Y *2021:D 15.21 
*END

*D_NET *282 0.000601984
*CONN
*I *2014:A I *D sky130_fd_sc_hd__nand2_2
*I *2012:X O *D sky130_fd_sc_hd__a22o_2
*CAP
1 *2014:A 0.000251091
2 *2012:X 0.000251091
3 *2014:A *2022:A 0
4 *2011:A *2014:A 2.96334e-05
5 *2011:B *2014:A 5.30673e-05
6 *2021:D *2014:A 1.71013e-05
7 *274:10 *2014:A 0
8 *280:29 *2014:A 0
*RES
1 *2012:X *2014:A 11.085 
*END

*D_NET *283 0.00027932
*CONN
*I *2014:B I *D sky130_fd_sc_hd__nand2_2
*I *2013:Y O *D sky130_fd_sc_hd__nand4_2
*CAP
1 *2014:B 3.69825e-05
2 *2013:Y 3.69825e-05
3 *2014:B *2074:A2 0.00012657
4 *2014:B *393:18 1.61831e-05
5 *2013:A *2014:B 6.26016e-05
*RES
1 *2013:Y *2014:B 4.7 
*END

*D_NET *284 0.00317942
*CONN
*I *2041:B2 I *D sky130_fd_sc_hd__o22a_2
*I *2019:A1 I *D sky130_fd_sc_hd__o21ba_2
*I *2036:B1 I *D sky130_fd_sc_hd__o2bb2ai_2
*I *2015:X O *D sky130_fd_sc_hd__and2_4
*CAP
1 *2041:B2 0.000156884
2 *2019:A1 0.000171328
3 *2036:B1 0.000201769
4 *2015:X 0.000210271
5 *284:23 0.000403249
6 *284:8 0.000487078
7 *2019:A1 *2019:B1_N 7.27003e-05
8 *2019:A1 *288:12 0.000196197
9 *2019:A1 *463:10 0.000121817
10 *2036:B1 *2018:A2 5.96203e-05
11 *2036:B1 *2036:A1_N 8.40213e-05
12 *2036:B1 *288:12 0.000315139
13 *2036:B1 *289:25 8.65961e-05
14 *2036:B1 *598:12 6.27438e-05
15 *2041:B2 *288:12 3.57349e-05
16 *2041:B2 *308:8 0.000124007
17 *284:8 *2015:A 7.08554e-05
18 *284:8 *2015:B 2.83579e-05
19 *284:23 *2018:A2 3.52241e-05
20 *284:23 *288:12 0.000186092
21 *284:23 *539:26 6.97358e-05
*RES
1 *2015:X *284:8 6.12 
2 *284:8 *2036:B1 8.76 
3 *284:8 *284:23 4.4 
4 *284:23 *2019:A1 5.515 
5 *284:23 *2041:B2 4.48 
*END

*D_NET *285 0.0010163
*CONN
*I *2019:A2 I *D sky130_fd_sc_hd__o21ba_2
*I *2016:Y O *D sky130_fd_sc_hd__nor2_2
*CAP
1 *2019:A2 0.000232305
2 *2016:Y 0.000232305
3 *2019:A2 *2016:B 0.000108156
4 *2019:A2 *2017:A1 0.000125262
5 *2019:A2 *2019:B1_N 0.000141599
6 *2019:A2 *2028:B 0.000164679
7 *2019:A2 *539:10 1.19928e-05
8 *2019:A2 *539:26 0
*RES
1 *2016:Y *2019:A2 12.3 
*END

*D_NET *286 0.00211148
*CONN
*I *2041:B1 I *D sky130_fd_sc_hd__o22a_2
*I *2018:B1 I *D sky130_fd_sc_hd__a21oi_2
*I *2036:B2 I *D sky130_fd_sc_hd__o2bb2ai_2
*I *2017:Y O *D sky130_fd_sc_hd__o21ai_4
*CAP
1 *2041:B1 0
2 *2018:B1 4.89032e-05
3 *2036:B2 0.000134491
4 *2017:Y 0.000247527
5 *286:12 0.000380501
6 *286:10 0.000444633
7 *2018:B1 *2038:B1 9.4087e-05
8 *2018:B1 *287:8 0.000199833
9 *2036:B2 *2038:B1 0
10 *2036:B2 *288:12 0
11 *2036:B2 *289:25 2.11084e-05
12 *2036:B2 *464:12 5.93844e-05
13 *2036:B2 *598:12 4.82863e-05
14 *286:10 *464:10 7.75325e-05
15 *286:10 *539:6 0.000150334
16 *286:10 *539:10 2.68464e-05
17 *286:12 *288:12 0
18 *286:12 *464:10 6.57118e-05
19 *286:12 *464:12 6.23375e-05
20 *2340:A *286:10 4.99619e-05
*RES
1 *2017:Y *286:10 8.955 
2 *286:10 *286:12 3.93 
3 *286:12 *2036:B2 6.3 
4 *286:12 *2018:B1 5.43 
5 *286:10 *2041:B1 3.6 
*END

*D_NET *287 0.00602674
*CONN
*I *2065:A1 I *D sky130_fd_sc_hd__o211ai_2
*I *2037:B1 I *D sky130_fd_sc_hd__a211o_4
*I *2020:A I *D sky130_fd_sc_hd__nor2_2
*I *2072:A I *D sky130_fd_sc_hd__nor4_4
*I *2042:A1 I *D sky130_fd_sc_hd__o21ai_2
*I *2018:Y O *D sky130_fd_sc_hd__a21oi_2
*CAP
1 *2065:A1 0
2 *2037:B1 0
3 *2020:A 0.000450539
4 *2072:A 0.000338992
5 *2042:A1 0
6 *2018:Y 0.000605521
7 *287:38 0.000670575
8 *287:21 0.000650615
9 *287:19 0.000249078
10 *287:8 0.000763012
11 *2020:A *2034:A1 0.0001249
12 *2020:A *2034:B1 4.99619e-05
13 *2020:A *2037:A2 0.000108137
14 *2072:A *2072:B 5.84828e-05
15 *2072:A *2072:C 7.35813e-05
16 *2072:A *296:10 0.000206123
17 *287:8 *2035:A1 0.000237249
18 *287:8 *2038:B1 8.4546e-05
19 *287:8 *300:37 9.80943e-06
20 *287:8 *302:25 0.000335497
21 *287:19 *2042:B1 5.05521e-05
22 *287:19 *296:27 0.000175207
23 *287:19 *300:37 2.75145e-05
24 *287:19 *309:10 0.00016063
25 *287:21 *296:10 0.000175214
26 *287:21 *296:27 8.53113e-06
27 *287:38 *2037:C1 4.82863e-05
28 *287:38 *2039:B 0.000164352
29 *2018:B1 *287:8 0.000199833
*RES
1 *2018:Y *287:8 12.07 
2 *287:8 *2042:A1 1.6 
3 *287:8 *287:19 5.975 
4 *287:19 *287:21 2.145 
5 *287:21 *2072:A 10.26 
6 *287:21 *287:38 6.245 
7 *287:38 *2020:A 8.89 
8 *287:38 *2037:B1 1.6 
9 *287:19 *2065:A1 3.6 
*END

*D_NET *288 0.00391098
*CONN
*I *2020:B I *D sky130_fd_sc_hd__nor2_2
*I *2072:D I *D sky130_fd_sc_hd__nor4_4
*I *2019:X O *D sky130_fd_sc_hd__o21ba_2
*CAP
1 *2020:B 0
2 *2072:D 0.000748276
3 *2019:X 0.000509185
4 *288:12 0.00125746
5 *2072:D *1991:A 0
6 *2072:D *2072:C 0.000354719
7 *2072:D *2399:A 7.58604e-05
8 *288:12 *1991:A 0
9 *288:12 *2038:B1 0.000117825
10 *288:12 *2150:A 0
11 *288:12 *289:12 0.000114492
12 *288:12 *464:12 0
13 *2019:A1 *288:12 0.000196197
14 *2036:B1 *288:12 0.000315139
15 *2036:B2 *288:12 0
16 *2041:B2 *288:12 3.57349e-05
17 *284:23 *288:12 0.000186092
18 *286:12 *288:12 0
*RES
1 *2019:X *288:12 13.98 
2 *288:12 *2072:D 16.29 
3 *288:12 *2020:B 3.6 
*END

*D_NET *289 0.00519284
*CONN
*I *2028:A I *D sky130_fd_sc_hd__xor2_4
*I *2040:C1 I *D sky130_fd_sc_hd__o211a_2
*I *2037:A2 I *D sky130_fd_sc_hd__a211o_4
*I *2036:A1_N I *D sky130_fd_sc_hd__o2bb2ai_2
*I *2020:Y O *D sky130_fd_sc_hd__nor2_2
*CAP
1 *2028:A 0.000260613
2 *2040:C1 4.77651e-05
3 *2037:A2 0.000170194
4 *2036:A1_N 4.764e-05
5 *2020:Y 0.000104801
6 *289:40 0.000469635
7 *289:25 0.000481156
8 *289:12 0.000302147
9 *2028:A *2031:A2 5.98004e-06
10 *2028:A *2032:A1 6.5525e-05
11 *2028:A *2300:A 4.35648e-05
12 *2028:A *2388:A 0.000124895
13 *2028:A *298:19 4.9968e-05
14 *2028:A *298:45 0.000133075
15 *2028:A *540:10 0.000307296
16 *2028:A *561:51 0.000187073
17 *2036:A1_N *1991:A 0.000122325
18 *2036:A1_N *598:12 1.33293e-05
19 *2037:A2 *2034:A1 1.16578e-05
20 *2037:A2 *2034:A2 0.00011852
21 *2037:A2 *2034:B1 4.82863e-05
22 *2037:A2 *302:12 4.99619e-05
23 *2040:C1 *2041:A1 0.000196376
24 *2040:C1 *308:8 0.000111909
25 *289:12 *1991:A 0
26 *289:25 *1991:A 0.000188957
27 *289:25 *598:12 7.70705e-05
28 *289:40 *2034:A2 0.000394225
29 *289:40 *2035:A1 0.000117832
30 *289:40 *2038:A1 1.01661e-05
31 *289:40 *2039:A 0.000139238
32 *289:40 *298:19 0.000217345
33 *289:40 *302:12 0
34 *289:40 *540:10 0.000159964
35 *2020:A *2037:A2 0.000108137
36 *2036:B1 *2036:A1_N 8.40213e-05
37 *2036:B1 *289:25 8.65961e-05
38 *2036:B2 *289:25 2.11084e-05
39 *288:12 *289:12 0.000114492
*RES
1 *2020:Y *289:12 7.43 
2 *289:12 *2036:A1_N 3.1 
3 *289:12 *289:25 5.555 
4 *289:25 *2037:A2 7.515 
5 *289:25 *289:40 6.48 
6 *289:40 *2040:C1 5.43 
7 *289:40 *2028:A 11.205 
*END

*D_NET *290 0.00285085
*CONN
*I *2022:A I *D sky130_fd_sc_hd__inv_2
*I *2075:A I *D sky130_fd_sc_hd__and2_4
*I *2076:B I *D sky130_fd_sc_hd__nand2_2
*I *2021:Y O *D sky130_fd_sc_hd__nor4_4
*CAP
1 *2022:A 0.000345114
2 *2075:A 0
3 *2076:B 4.70031e-05
4 *2021:Y 0.000302305
5 *290:12 0.000288755
6 *290:8 0.000889171
7 *2022:A *2386:A 0
8 *2022:A *337:16 7.1635e-05
9 *2076:B *2075:B 0.000163985
10 *2004:C *290:8 0.000140912
11 *2014:A *2022:A 0
12 *2021:D *290:8 0.000228591
13 *2027:B1 *2022:A 9.65676e-05
14 *2135:A2 *290:8 0.000137571
15 *253:25 *290:8 0.000139238
16 *254:10 *2076:B 0
17 *280:29 *2022:A 0
*RES
1 *2021:Y *290:8 11.355 
2 *290:8 *290:12 5.555 
3 *290:12 *2076:B 7.745 
4 *290:12 *2075:A 1.6 
5 *290:8 *2022:A 10.215 
*END

*D_NET *291 0.000393606
*CONN
*I *2027:B2 I *D sky130_fd_sc_hd__o22ai_4
*I *2022:Y O *D sky130_fd_sc_hd__inv_2
*CAP
1 *2027:B2 0.000137699
2 *2022:Y 0.000137699
3 *2027:B1 *2027:B2 0.000118207
*RES
1 *2022:Y *2027:B2 6.065 
*END

*D_NET *292 0.000275017
*CONN
*I *2027:A2 I *D sky130_fd_sc_hd__o22ai_4
*I *2023:X O *D sky130_fd_sc_hd__and2_2
*CAP
1 *2027:A2 0.000137508
2 *2023:X 0.000137508
3 *2027:A2 *296:10 0
4 *2027:A1 *2027:A2 0
*RES
1 *2023:X *2027:A2 9.285 
*END

*D_NET *293 0.000448025
*CONN
*I *2026:A1 I *D sky130_fd_sc_hd__o21ai_2
*I *2024:Y O *D sky130_fd_sc_hd__o21ai_2
*CAP
1 *2026:A1 7.44942e-05
2 *2024:Y 7.44942e-05
3 *2026:A1 *2008:B 1.01661e-05
4 *2026:A1 *2009:A 3.00381e-05
5 *2026:A1 *2026:A2 0.000136877
6 *2024:A2 *2026:A1 4.82919e-05
7 *277:21 *2026:A1 7.3664e-05
*RES
1 *2024:Y *2026:A1 9.54 
*END

*D_NET *294 0.001698
*CONN
*I *2026:A2 I *D sky130_fd_sc_hd__o21ai_2
*I *2025:Y O *D sky130_fd_sc_hd__a22oi_2
*CAP
1 *2026:A2 0.000484918
2 *2025:Y 0.000484918
3 *2026:A2 *1995:C 9.59969e-05
4 *2026:A2 *2008:B 5.53249e-06
5 *2026:A2 *393:18 4.66826e-05
6 *2026:A2 *451:20 7.36484e-05
7 *2026:A2 *462:19 0.000103192
8 *1995:B *2026:A2 9.3062e-06
9 *2024:B1 *2026:A2 0.000210246
10 *2026:A1 *2026:A2 0.000136877
11 *270:10 *2026:A2 0
12 *280:12 *2026:A2 4.66826e-05
*RES
1 *2025:Y *2026:A2 17.79 
*END

*D_NET *295 0.00256877
*CONN
*I *2074:A2 I *D sky130_fd_sc_hd__a21oi_2
*I *2026:Y O *D sky130_fd_sc_hd__o21ai_2
*CAP
1 *2074:A2 0.000671931
2 *2026:Y 0.000671931
3 *2074:A2 *2386:A 4.99619e-05
4 *2074:A2 *337:16 0.000187537
5 *2074:A2 *393:18 0.000106736
6 *2013:A *2074:A2 9.80943e-06
7 *2014:B *2074:A2 0.00012657
8 *254:10 *2074:A2 0
9 *280:12 *2074:A2 0.000581093
10 *280:29 *2074:A2 0.000163199
*RES
1 *2026:Y *2074:A2 20.325 
*END

*D_NET *296 0.00526756
*CONN
*I *2064:A I *D sky130_fd_sc_hd__nand2_2
*I *2415:A I *D sky130_fd_sc_hd__buf_2
*I *2052:A1 I *D sky130_fd_sc_hd__a211o_4
*I *2430:A I *D sky130_fd_sc_hd__buf_2
*I *2375:A I *D sky130_fd_sc_hd__buf_6
*I *2027:Y O *D sky130_fd_sc_hd__o22ai_4
*CAP
1 *2064:A 0.000203088
2 *2415:A 0.000280105
3 *2052:A1 0
4 *2430:A 0.000107379
5 *2375:A 1.71225e-05
6 *2027:Y 0.000566202
7 *296:35 0.000164428
8 *296:31 0.000471141
9 *296:27 0.000624971
10 *296:10 0.000871221
11 *2064:A *2043:A 4.82863e-05
12 *2064:A *2051:A 4.99619e-05
13 *2064:A *2053:B 4.22057e-05
14 *2064:A *318:6 2.30292e-05
15 *2064:A *505:10 5.30318e-05
16 *2375:A *2065:A2 8.65905e-05
17 *2375:A *2065:C1 5.05437e-05
18 *2415:A *2052:C1 2.97004e-06
19 *2415:A *2054:A 0
20 *2415:A *2054:B 8.34426e-05
21 *2415:A *2063:A 0.000196571
22 *2415:A *2390:A 0
23 *2430:A *2032:B1_N 0
24 *296:10 *2065:C1 2.24423e-05
25 *296:10 *2072:C 0
26 *296:10 *303:8 0
27 *296:27 *2053:B 2.75145e-05
28 *296:27 *2054:B 5.53249e-06
29 *296:27 *2065:A2 0
30 *296:27 *2065:C1 5.00699e-05
31 *296:27 *300:30 0
32 *296:27 *309:10 0
33 *296:31 *2052:B1 0.0002954
34 *296:31 *2052:C1 8.08153e-06
35 *296:31 *2054:B 0.000208976
36 *296:31 *2066:A2 1.86911e-05
37 *296:31 *309:10 1.71013e-05
38 *2027:A2 *296:10 0
39 *2072:A *296:10 0.000206123
40 *277:21 *296:10 3.05295e-05
41 *278:12 *296:10 7.58604e-05
42 *287:19 *296:27 0.000175207
43 *287:21 *296:10 0.000175214
44 *287:21 *296:27 8.53113e-06
*RES
1 *2027:Y *296:10 14.205 
2 *296:10 *2375:A 4.395 
3 *296:10 *296:27 7.52 
4 *296:27 *296:31 6.44 
5 *296:31 *296:35 2.795 
6 *296:35 *2430:A 3.46 
7 *296:35 *2052:A1 1.6 
8 *296:31 *2415:A 9.27 
9 *296:27 *2064:A 5.62 
*END

*D_NET *297 0.00067357
*CONN
*I *2031:A1 I *D sky130_fd_sc_hd__o21ba_2
*I *2032:A1 I *D sky130_fd_sc_hd__o21bai_4
*I *2029:Y O *D sky130_fd_sc_hd__nor2_2
*CAP
1 *2031:A1 2.43002e-05
2 *2032:A1 6.09054e-05
3 *2029:Y 8.36313e-05
4 *297:8 0.000168837
5 *2031:A1 *2300:A 2.75145e-05
6 *2032:A1 *2031:A2 0.000163992
7 *2032:A1 *495:10 0
8 *2032:A1 *540:10 2.66939e-05
9 *297:8 *2029:B 1.22762e-05
10 *297:8 *495:10 0
11 *297:8 *540:10 3.98952e-05
12 S[21] *297:8 0
13 *2028:A *2032:A1 6.5525e-05
*RES
1 *2029:Y *297:8 5.235 
2 *297:8 *2032:A1 5.745 
3 *297:8 *2031:A1 4.05 
*END

*D_NET *298 0.00338143
*CONN
*I *2032:A2 I *D sky130_fd_sc_hd__o21bai_4
*I *2031:A2 I *D sky130_fd_sc_hd__o21ba_2
*I *2040:A1 I *D sky130_fd_sc_hd__o211a_2
*I *2041:A2 I *D sky130_fd_sc_hd__o22a_2
*I *2035:A1 I *D sky130_fd_sc_hd__o21ai_2
*I *2030:X O *D sky130_fd_sc_hd__and2_4
*CAP
1 *2032:A2 7.79233e-05
2 *2031:A2 5.51066e-05
3 *2040:A1 0.000131618
4 *2041:A2 9.39795e-05
5 *2035:A1 9.72769e-05
6 *2030:X 0
7 *298:45 0.0002345
8 *298:21 0.000225597
9 *298:19 0.000200472
10 *298:6 0.00019628
11 *2031:A2 *299:10 0.000141606
12 *2031:A2 *495:12 0
13 *2035:A1 *2038:A1 9.56283e-05
14 *2035:A1 *302:25 0.0001249
15 *2040:A1 *2041:A1 0.000288828
16 *2040:A1 *2044:A2_N 0
17 *2040:A1 *299:31 0.000194838
18 *2040:A1 *308:8 1.1733e-05
19 *2041:A2 *2041:A1 0.000119756
20 *2041:A2 *308:8 1.03423e-05
21 *298:19 *2038:A1 0.000103449
22 *298:45 *2038:A1 1.22762e-05
23 *298:45 *299:10 3.98782e-05
24 *2028:A *2031:A2 5.98004e-06
25 *2028:A *298:19 4.9968e-05
26 *2028:A *298:45 0.000133075
27 *2032:A1 *2031:A2 0.000163992
28 *287:8 *2035:A1 0.000237249
29 *289:40 *2035:A1 0.000117832
30 *289:40 *298:19 0.000217345
*RES
1 *2030:X *298:6 3.6 
2 *298:6 *2035:A1 7.155 
3 *298:6 *298:19 3.165 
4 *298:19 *298:21 2 
5 *298:21 *2041:A2 3.085 
6 *298:21 *2040:A1 5.15125 
7 *298:19 *298:45 4.43 
8 *298:45 *2031:A2 7.745 
9 *298:45 *2032:A2 2.755 
*END

*D_NET *299 0.00392562
*CONN
*I *2067:A1 I *D sky130_fd_sc_hd__o31a_2
*I *2044:B1 I *D sky130_fd_sc_hd__o2bb2ai_2
*I *2038:A1 I *D sky130_fd_sc_hd__o21ai_2
*I *2031:X O *D sky130_fd_sc_hd__o21ba_2
*CAP
1 *2067:A1 0.000244793
2 *2044:B1 2.08101e-05
3 *2038:A1 0.0002765
4 *2031:X 0.000143712
5 *299:31 0.000792834
6 *299:10 0.000947444
7 *2038:A1 *2033:B1 4.92014e-05
8 *2038:A1 *2040:B1 3.67779e-05
9 *2038:A1 *301:12 0
10 *2038:A1 *301:40 0
11 *2038:A1 *302:12 8.53113e-06
12 *2067:A1 *2052:C1 0
13 *2067:A1 *2064:B 0
14 *2067:A1 *2067:A2 9.38151e-05
15 *2067:A1 *2067:A3 8.65905e-05
16 *2067:A1 *2067:B1 4.18603e-06
17 *299:10 *2033:B1 1.94723e-05
18 *299:10 *2040:B1 6.36578e-05
19 *299:10 *2300:A 8.65961e-05
20 *299:10 *495:12 3.26735e-05
21 *299:31 *2067:A2 7.67415e-06
22 *299:31 *307:6 0.000124007
23 *299:31 *307:19 0.000275548
24 *299:31 *308:8 1.29523e-05
25 *2031:A2 *299:10 0.000141606
26 *2035:A1 *2038:A1 9.56283e-05
27 *2040:A1 *299:31 0.000194838
28 *289:40 *2038:A1 1.01661e-05
29 *298:19 *2038:A1 0.000103449
30 *298:45 *2038:A1 1.22762e-05
31 *298:45 *299:10 3.98782e-05
*RES
1 *2031:X *299:10 7.305 
2 *299:10 *2038:A1 9.555 
3 *299:10 *299:31 9.02 
4 *299:31 *2044:B1 1.96 
5 *299:31 *2067:A1 9.425 
*END

*D_NET *300 0.00285511
*CONN
*I *2042:B1 I *D sky130_fd_sc_hd__o21ai_2
*I *2065:C1 I *D sky130_fd_sc_hd__o211ai_2
*I *2035:B1 I *D sky130_fd_sc_hd__o21ai_2
*I *2040:B1 I *D sky130_fd_sc_hd__o211a_2
*I *2032:Y O *D sky130_fd_sc_hd__o21bai_4
*CAP
1 *2042:B1 4.01423e-05
2 *2065:C1 0.000345483
3 *2035:B1 0
4 *2040:B1 8.1412e-05
5 *2032:Y 0.000479338
6 *300:37 0.000494447
7 *300:30 0.000506747
8 *2040:B1 *2033:B1 0.000180675
9 *2040:B1 *2041:A1 4.66108e-05
10 *2040:B1 *308:8 2.75145e-05
11 *2065:C1 *2065:A2 0.000120036
12 *2065:C1 *2065:B1 2.30292e-05
13 *2065:C1 *2073:A3 4.99619e-05
14 *2065:C1 *303:8 0
15 *300:30 *2032:B1_N 1.4389e-05
16 *300:30 *2044:A1_N 4.11194e-05
17 *300:30 *2053:A 0
18 *300:30 *2054:B 0
19 *300:30 *2065:A2 1.22762e-05
20 *300:30 *2389:A 0
21 *300:30 *303:8 9.50342e-06
22 *300:37 *302:25 7.10578e-05
23 *2038:A1 *2040:B1 3.67779e-05
24 *2375:A *2065:C1 5.05437e-05
25 *287:8 *300:37 9.80943e-06
26 *287:19 *2042:B1 5.05521e-05
27 *287:19 *300:37 2.75145e-05
28 *296:10 *2065:C1 2.24423e-05
29 *296:27 *2065:C1 5.00699e-05
30 *296:27 *300:30 0
31 *299:10 *2040:B1 6.36578e-05
*RES
1 *2032:Y *2040:B1 9.795 
2 *2032:Y *300:30 12.02 
3 *300:30 *2035:B1 1.6 
4 *300:30 *300:37 1.83 
5 *300:37 *2065:C1 11.99 
6 *300:37 *2042:B1 2.395 
*END

*D_NET *301 0.00381436
*CONN
*I *2041:A1 I *D sky130_fd_sc_hd__o22a_2
*I *2040:A2 I *D sky130_fd_sc_hd__o211a_2
*I *2035:A2 I *D sky130_fd_sc_hd__o21ai_2
*I *2034:B1 I *D sky130_fd_sc_hd__a21oi_2
*I *2033:Y O *D sky130_fd_sc_hd__o21ai_2
*CAP
1 *2041:A1 0.000107297
2 *2040:A2 0
3 *2035:A2 4.3765e-05
4 *2034:B1 0.000197245
5 *2033:Y 0.000284133
6 *301:40 0.00017529
7 *301:12 0.000355086
8 *301:8 0.000466202
9 *2034:B1 *2034:A2 0
10 *2034:B1 *2037:A1 0.000141626
11 *2034:B1 *2389:A 0
12 *2034:B1 *302:12 0.000296088
13 *2034:B1 *302:25 0.000123225
14 *2034:B1 *464:12 0
15 *2035:A2 *302:25 3.95698e-05
16 *2041:A1 *2044:A2_N 0
17 *2041:A1 *308:8 4.9969e-05
18 *301:8 *2030:A 3.74161e-05
19 *301:8 *2033:A1 8.65905e-05
20 *301:8 *2033:A2 2.05056e-05
21 *301:8 *2033:B1 0.000115455
22 *301:12 *2389:A 0.000179015
23 *301:12 *302:12 0
24 *301:40 *2033:B1 0.000137578
25 *301:40 *2389:A 0.000208484
26 *2020:A *2034:B1 4.99619e-05
27 *2037:A2 *2034:B1 4.82863e-05
28 *2038:A1 *301:12 0
29 *2038:A1 *301:40 0
30 *2040:A1 *2041:A1 0.000288828
31 *2040:B1 *2041:A1 4.66108e-05
32 *2040:C1 *2041:A1 0.000196376
33 *2041:A2 *2041:A1 0.000119756
*RES
1 *2033:Y *301:8 8.19 
2 *301:8 *301:12 4.145 
3 *301:12 *2034:B1 11.12 
4 *301:12 *2035:A2 2.41 
5 *301:8 *301:40 4.4 
6 *301:40 *2040:A2 1.6 
7 *301:40 *2041:A1 5.515 
*END

*D_NET *302 0.00256213
*CONN
*I *2042:A2 I *D sky130_fd_sc_hd__o21ai_2
*I *2065:A2 I *D sky130_fd_sc_hd__o211ai_2
*I *2038:A2 I *D sky130_fd_sc_hd__o21ai_2
*I *2034:Y O *D sky130_fd_sc_hd__a21oi_2
*CAP
1 *2042:A2 0
2 *2065:A2 0.000282263
3 *2038:A2 0
4 *2034:Y 0.000163851
5 *302:25 0.000456221
6 *302:12 0.000337809
7 *2065:A2 *303:8 0
8 *302:12 *2039:A 5.4256e-05
9 *2034:B1 *302:12 0.000296088
10 *2034:B1 *302:25 0.000123225
11 *2035:A1 *302:25 0.0001249
12 *2035:A2 *302:25 3.95698e-05
13 *2037:A2 *302:12 4.99619e-05
14 *2038:A1 *302:12 8.53113e-06
15 *2065:C1 *2065:A2 0.000120036
16 *2375:A *2065:A2 8.65905e-05
17 *287:8 *302:25 0.000335497
18 *289:40 *302:12 0
19 *296:27 *2065:A2 0
20 *300:30 *2065:A2 1.22762e-05
21 *300:37 *302:25 7.10578e-05
22 *301:12 *302:12 0
*RES
1 *2034:Y *302:12 9.725 
2 *302:12 *2038:A2 1.6 
3 *302:12 *302:25 5.07 
4 *302:25 *2065:A2 10.46 
5 *302:25 *2042:A2 1.6 
*END

*D_NET *303 0.00182083
*CONN
*I *2037:C1 I *D sky130_fd_sc_hd__a211o_4
*I *2072:C I *D sky130_fd_sc_hd__nor4_4
*I *2035:Y O *D sky130_fd_sc_hd__o21ai_2
*CAP
1 *2037:C1 2.22788e-05
2 *2072:C 0.000380327
3 *2035:Y 0.000200248
4 *303:8 0.000602854
5 *2072:C *2037:A1 0
6 *2072:C *2072:B 0
7 *303:8 *2037:A1 0
8 *303:8 *2039:B 7.89689e-05
9 *303:8 *2389:A 5.00612e-05
10 *2065:A2 *303:8 0
11 *2065:C1 *303:8 0
12 *2072:A *2072:C 7.35813e-05
13 *2072:D *2072:C 0.000354719
14 *287:38 *2037:C1 4.82863e-05
15 *296:10 *2072:C 0
16 *296:10 *303:8 0
17 *300:30 *303:8 9.50342e-06
*RES
1 *2035:Y *303:8 7.53 
2 *303:8 *2072:C 10.185 
3 *303:8 *2037:C1 4.05 
*END

*D_NET *304 0.000857089
*CONN
*I *2038:B1 I *D sky130_fd_sc_hd__o21ai_2
*I *2036:Y O *D sky130_fd_sc_hd__o2bb2ai_2
*CAP
1 *2038:B1 0.000280315
2 *2036:Y 0.000280315
3 *2018:B1 *2038:B1 9.4087e-05
4 *2036:B2 *2038:B1 0
5 *287:8 *2038:B1 8.4546e-05
6 *288:12 *2038:B1 0.000117825
*RES
1 *2036:Y *2038:B1 12.135 
*END

*D_NET *305 0.000795255
*CONN
*I *2039:B I *D sky130_fd_sc_hd__nand2_4
*I *2037:X O *D sky130_fd_sc_hd__a211o_4
*CAP
1 *2039:B 0.000230752
2 *2037:X 0.000230752
3 *2039:B *2037:A1 3.47668e-05
4 *2039:B *2389:A 5.56629e-05
5 *287:38 *2039:B 0.000164352
6 *303:8 *2039:B 7.89689e-05
*RES
1 *2037:X *2039:B 11.355 
*END

*D_NET *306 0.000361644
*CONN
*I *2039:A I *D sky130_fd_sc_hd__nand2_4
*I *2038:Y O *D sky130_fd_sc_hd__o21ai_2
*CAP
1 *2039:A 7.03136e-05
2 *2038:Y 7.03136e-05
3 *2039:A *598:12 2.75229e-05
4 *289:40 *2039:A 0.000139238
5 *302:12 *2039:A 5.4256e-05
*RES
1 *2038:Y *2039:A 9.285 
*END

*D_NET *307 0.00276682
*CONN
*I *2063:A I *D sky130_fd_sc_hd__and3_2
*I *2052:A2 I *D sky130_fd_sc_hd__a211o_4
*I *2044:A2_N I *D sky130_fd_sc_hd__o2bb2ai_2
*I *2040:X O *D sky130_fd_sc_hd__o211a_2
*CAP
1 *2063:A 0.0004265
2 *2052:A2 0
3 *2044:A2_N 3.55506e-05
4 *2040:X 3.00116e-05
5 *307:19 0.0005692
6 *307:6 0.000208262
7 *2044:A2_N *2044:B2 0
8 *2063:A *2054:B 0.000163992
9 *2063:A *2068:A1 0.00036523
10 *307:6 *308:8 3.94592e-05
11 *307:19 *2053:A 3.45588e-05
12 *307:19 *2054:B 0.000159964
13 *307:19 *2067:A2 4.9253e-06
14 *307:19 *308:8 5.69446e-05
15 S[22] *2063:A 7.60965e-05
16 *2040:A1 *2044:A2_N 0
17 *2041:A1 *2044:A2_N 0
18 *2415:A *2063:A 0.000196571
19 *299:31 *307:6 0.000124007
20 *299:31 *307:19 0.000275548
*RES
1 *2040:X *307:6 2.74 
2 *307:6 *2044:A2_N 2.215 
3 *307:6 *307:19 6.41 
4 *307:19 *2052:A2 3.6 
5 *307:19 *2063:A 14.115 
*END

*D_NET *308 0.00294733
*CONN
*I *2067:A2 I *D sky130_fd_sc_hd__o31a_2
*I *2044:B2 I *D sky130_fd_sc_hd__o2bb2ai_2
*I *2041:X O *D sky130_fd_sc_hd__o22a_2
*CAP
1 *2067:A2 0.000173084
2 *2044:B2 2.08101e-05
3 *2041:X 0.000864091
4 *308:8 0.00105799
5 *2067:A2 *2066:A2 0.000158066
6 *2067:A2 *2067:A3 3.54536e-05
7 *308:8 *2053:A 8.65905e-05
8 *2040:A1 *308:8 1.1733e-05
9 *2040:B1 *308:8 2.75145e-05
10 *2040:C1 *308:8 0.000111909
11 *2041:A1 *308:8 4.9969e-05
12 *2041:A2 *308:8 1.03423e-05
13 *2041:B2 *308:8 0.000124007
14 *2044:A2_N *2044:B2 0
15 *2067:A1 *2067:A2 9.38151e-05
16 *299:31 *2067:A2 7.67415e-06
17 *299:31 *308:8 1.29523e-05
18 *307:6 *308:8 3.94592e-05
19 *307:19 *2067:A2 4.9253e-06
20 *307:19 *308:8 5.69446e-05
*RES
1 *2041:X *308:8 12.415 
2 *308:8 *2044:B2 1.96 
3 *308:8 *2067:A2 5.17 
*END

*D_NET *309 0.00224305
*CONN
*I *2066:A2 I *D sky130_fd_sc_hd__o21ai_2
*I *2043:A I *D sky130_fd_sc_hd__inv_2
*I *2042:Y O *D sky130_fd_sc_hd__o21ai_2
*CAP
1 *2066:A2 0.000384163
2 *2043:A 9.73191e-06
3 *2042:Y 0.000323409
4 *309:10 0.000717304
5 *2043:A *2053:B 4.82863e-05
6 *2066:A2 *2052:B1 7.23602e-05
7 *2066:A2 *2052:C1 9.14049e-05
8 *2066:A2 *2067:A3 0.000126567
9 *2066:A2 *2069:A2 6.12198e-05
10 *2066:A2 *480:18 5.83121e-06
11 *2066:A2 *480:42 0
12 *309:10 *2054:B 0
13 *309:10 *2065:B1 0
14 *2064:A *2043:A 4.82863e-05
15 *2067:A2 *2066:A2 0.000158066
16 *287:19 *309:10 0.00016063
17 *296:27 *309:10 0
18 *296:31 *2066:A2 1.86911e-05
19 *296:31 *309:10 1.71013e-05
*RES
1 *2042:Y *309:10 8.7 
2 *309:10 *2043:A 4.05 
3 *309:10 *2066:A2 9.945 
*END

*D_NET *310 0.000775306
*CONN
*I *2052:B1 I *D sky130_fd_sc_hd__a211o_4
*I *2043:Y O *D sky130_fd_sc_hd__inv_2
*CAP
1 *2052:B1 0.00011775
2 *2043:Y 0.00011775
3 *2052:B1 *2052:C1 0.000123759
4 *2052:B1 *2053:B 4.82863e-05
5 *2066:A2 *2052:B1 7.23602e-05
6 *296:31 *2052:B1 0.0002954
*RES
1 *2043:Y *2052:B1 11.07 
*END

*D_NET *311 0.000391145
*CONN
*I *2053:A I *D sky130_fd_sc_hd__nand2_2
*I *2044:Y O *D sky130_fd_sc_hd__o2bb2ai_2
*CAP
1 *2053:A 9.68456e-05
2 *2044:Y 9.68456e-05
3 *2053:A *2054:B 7.63047e-05
4 *300:30 *2053:A 0
5 *307:19 *2053:A 3.45588e-05
6 *308:8 *2053:A 8.65905e-05
*RES
1 *2044:Y *2053:A 9.63 
*END

*D_NET *312 0.00248919
*CONN
*I *2049:A1 I *D sky130_fd_sc_hd__o21ba_2
*I *2048:A_N I *D sky130_fd_sc_hd__nand3b_4
*I *2050:A2 I *D sky130_fd_sc_hd__o21bai_4
*I *2045:Y O *D sky130_fd_sc_hd__nor2_4
*CAP
1 *2049:A1 0.000342543
2 *2048:A_N 0
3 *2050:A2 0.000246094
4 *2045:Y 5.43406e-05
5 *312:25 0.000363837
6 *312:8 0.000321728
7 *2049:A1 *2046:A 1.91597e-05
8 *2049:A1 *2046:B 4.98311e-05
9 *2049:A1 *2048:C 0.000108089
10 *2049:A1 *2049:A2 7.84691e-05
11 *2049:A1 *315:18 1.47347e-05
12 *2049:A1 *500:25 1.57678e-05
13 *2050:A2 *2047:B 0.000198945
14 *2050:A2 *2048:B 0.000137454
15 *2050:A2 *2432:A 0.0001113
16 *2050:A2 *474:10 1.71013e-05
17 *2050:A2 *474:16 0.00017806
18 *2050:A2 *474:20 3.09233e-05
19 *312:8 *2432:A 7.89767e-05
20 *312:8 *474:8 4.43871e-06
21 *312:8 *474:10 7.07879e-05
22 *312:25 *2046:A 4.66108e-05
*RES
1 *2045:Y *312:8 5.235 
2 *312:8 *2050:A2 9.825 
3 *312:8 *312:25 2.45 
4 *312:25 *2048:A_N 1.6 
5 *312:25 *2049:A1 7.705 
*END

*D_NET *313 0.00204519
*CONN
*I *2050:A1 I *D sky130_fd_sc_hd__o21bai_4
*I *2049:A2 I *D sky130_fd_sc_hd__o21ba_2
*I *2046:X O *D sky130_fd_sc_hd__and2_4
*CAP
1 *2050:A1 3.19225e-05
2 *2049:A2 0.000457775
3 *2046:X 0.000198325
4 *313:6 0.000688022
5 *2049:A2 *2046:B 8.49205e-05
6 *2049:A2 *2048:C 1.91597e-05
7 *2049:A2 *315:18 0.000160641
8 *2049:A2 *500:25 5.39541e-05
9 *2050:A1 *474:16 3.86529e-05
10 *2050:A1 *541:21 3.86529e-05
11 *313:6 *2046:B 0.0001947
12 *2049:A1 *2049:A2 7.84691e-05
*RES
1 *2046:X *313:6 4.12 
2 *313:6 *2049:A2 7.75 
3 *313:6 *2050:A1 6.47 
*END

*D_NET *314 0.000664525
*CONN
*I *2048:B I *D sky130_fd_sc_hd__nand3b_4
*I *2047:Y O *D sky130_fd_sc_hd__nand2_2
*CAP
1 *2048:B 0.000211939
2 *2047:Y 0.000211939
3 *2048:B *542:10 0.000103192
4 *2050:A2 *2048:B 0.000137454
5 *2342:A *2048:B 0
*RES
1 *2047:Y *2048:B 11.52 
*END

*D_NET *315 0.00316352
*CONN
*I *2413:A I *D sky130_fd_sc_hd__buf_2
*I *2071:B1 I *D sky130_fd_sc_hd__o2111ai_4
*I *2048:Y O *D sky130_fd_sc_hd__nand3b_4
*CAP
1 *2413:A 0
2 *2071:B1 0.000418247
3 *2048:Y 0.000292806
4 *315:18 0.000711053
5 *2071:B1 *2062:A2 0.000127195
6 *2071:B1 *2068:C1 0
7 *2071:B1 *2069:B1 0.000320827
8 *2071:B1 *2071:A1 0.000116853
9 *2071:B1 *2071:A2 2.01259e-05
10 *2071:B1 *2071:C1 0
11 *2071:B1 *2073:A1 0.000174839
12 *2071:B1 *2073:A3 7.55531e-06
13 *2071:B1 *2386:A 5.39961e-05
14 *2071:B1 *324:14 0.000119762
15 *2071:B1 *506:14 1.94723e-05
16 *315:18 *2048:C 0.000132759
17 *315:18 *2050:B1_N 0.000136884
18 *315:18 *2070:B 1.16578e-05
19 *315:18 *317:12 0.000243067
20 *315:18 *480:6 3.1835e-05
21 *2049:A1 *315:18 1.47347e-05
22 *2049:A2 *315:18 0.000160641
23 *2342:A *315:18 4.92096e-05
*RES
1 *2048:Y *315:18 13.34 
2 *315:18 *2071:B1 18.54 
3 *315:18 *2413:A 1.6 
*END

*D_NET *316 0.00205409
*CONN
*I *2067:A3 I *D sky130_fd_sc_hd__o31a_2
*I *2066:A1 I *D sky130_fd_sc_hd__o21ai_2
*I *2049:X O *D sky130_fd_sc_hd__o21ba_2
*CAP
1 *2067:A3 7.86434e-05
2 *2066:A1 0.000578876
3 *2049:X 0.000500233
4 *2066:A1 *2063:B 5.71242e-05
5 *2066:A1 *2064:B 0.000187071
6 *2066:A1 *2068:B1 0.000142262
7 *2066:A1 *2069:A1 9.50342e-06
8 *2066:A1 *2070:A 1.58213e-05
9 *2066:A1 *329:10 5.56629e-05
10 *2066:A1 *500:25 5.37074e-05
11 *2067:A3 *2069:A2 0.00012657
12 *2066:A2 *2067:A3 0.000126567
13 *2067:A1 *2067:A3 8.65905e-05
14 *2067:A2 *2067:A3 3.54536e-05
*RES
1 *2049:X *2066:A1 15.84 
2 *2066:A1 *2067:A3 6.185 
*END

*D_NET *317 0.00331043
*CONN
*I *2435:A I *D sky130_fd_sc_hd__buf_2
*I *2071:D1 I *D sky130_fd_sc_hd__o2111ai_4
*I *2050:Y O *D sky130_fd_sc_hd__o21bai_4
*CAP
1 *2435:A 3.52229e-05
2 *2071:D1 0.000367056
3 *2050:Y 0.000510771
4 *317:12 0.00091305
5 *2071:D1 *2051:A 0
6 *2071:D1 *2064:B 9.8858e-05
7 *2071:D1 *2065:B1 0
8 *2071:D1 *2069:A1 2.69097e-05
9 *2071:D1 *2071:C1 9.24127e-05
10 *2071:D1 *2073:A3 8.8266e-05
11 *2071:D1 *2386:A 4.82863e-05
12 *2071:D1 *505:6 7.49327e-05
13 *2071:D1 *505:10 0.000272984
14 *317:12 *2068:C1 0.000203762
15 *317:12 *2070:B 8.49205e-05
16 *317:12 *480:6 8.22234e-06
17 S[19] *2071:D1 7.99094e-05
18 S[19] *2435:A 4.70475e-05
19 S[19] *317:12 0.000114753
20 *315:18 *317:12 0.000243067
*RES
1 *2050:Y *317:12 13.625 
2 *317:12 *2071:D1 14.39 
3 *317:12 *2435:A 2.38375 
*END

*D_NET *318 0.00115573
*CONN
*I *2052:C1 I *D sky130_fd_sc_hd__a211o_4
*I *2053:B I *D sky130_fd_sc_hd__nand2_2
*I *2051:Y O *D sky130_fd_sc_hd__nand2_2
*CAP
1 *2052:C1 0.000191964
2 *2053:B 9.66199e-05
3 *2051:Y 2.37813e-05
4 *318:6 0.000312365
5 *2052:C1 *2051:A 0
6 *2052:C1 *2054:A 0
7 *2052:C1 *2067:B1 0.000115464
8 *2043:A *2053:B 4.82863e-05
9 *2052:B1 *2052:C1 0.000123759
10 *2052:B1 *2053:B 4.82863e-05
11 *2064:A *2053:B 4.22057e-05
12 *2064:A *318:6 2.30292e-05
13 *2066:A2 *2052:C1 9.14049e-05
14 *2067:A1 *2052:C1 0
15 *2415:A *2052:C1 2.97004e-06
16 *296:27 *2053:B 2.75145e-05
17 *296:31 *2052:C1 8.08153e-06
*RES
1 *2051:Y *318:6 2.05 
2 *318:6 *2053:B 3.445 
3 *318:6 *2052:C1 9.98 
*END

*D_NET *319 0.000299575
*CONN
*I *2054:A I *D sky130_fd_sc_hd__nand2_4
*I *2052:X O *D sky130_fd_sc_hd__a211o_4
*CAP
1 *2054:A 0.000149788
2 *2052:X 0.000149788
3 *2054:A *2064:B 0
4 *2054:A *2068:A1 0
5 *2054:A *329:10 0
6 *2052:C1 *2054:A 0
7 *2415:A *2054:A 0
*RES
1 *2052:X *2054:A 9.6 
*END

*D_NET *320 0.00145617
*CONN
*I *2054:B I *D sky130_fd_sc_hd__nand2_4
*I *2053:Y O *D sky130_fd_sc_hd__nand2_2
*CAP
1 *2054:B 0.000317813
2 *2053:Y 0.000317813
3 *2054:B *2044:A1_N 0
4 *2054:B *2300:A 0.000122337
5 *2053:A *2054:B 7.63047e-05
6 *2063:A *2054:B 0.000163992
7 *2415:A *2054:B 8.34426e-05
8 *296:27 *2054:B 5.53249e-06
9 *296:31 *2054:B 0.000208976
10 *300:30 *2054:B 0
11 *307:19 *2054:B 0.000159964
12 *309:10 *2054:B 0
*RES
1 *2053:Y *2054:B 14.82 
*END

*D_NET *321 0.000404549
*CONN
*I *2057:A1 I *D sky130_fd_sc_hd__o21ba_2
*I *2058:A2 I *D sky130_fd_sc_hd__o21bai_4
*I *2055:Y O *D sky130_fd_sc_hd__nor2_2
*CAP
1 *2057:A1 0
2 *2058:A2 6.68463e-05
3 *2055:Y 3.17314e-05
4 *321:6 9.85777e-05
5 *2058:A2 *2057:A2 8.97486e-05
6 *2058:A2 *322:10 1.71013e-05
7 *2058:A2 *542:12 2.34423e-05
8 *2058:A2 *542:14 7.71016e-05
*RES
1 *2055:Y *321:6 2.05 
2 *321:6 *2058:A2 7.745 
3 *321:6 *2057:A1 1.6 
*END

*D_NET *322 0.00147898
*CONN
*I *2434:A I *D sky130_fd_sc_hd__buf_4
*I *2058:A1 I *D sky130_fd_sc_hd__o21bai_4
*I *2057:A2 I *D sky130_fd_sc_hd__o21ba_2
*I *2056:X O *D sky130_fd_sc_hd__and2_4
*CAP
1 *2434:A 8.37414e-05
2 *2058:A1 9.17107e-05
3 *2057:A2 0.000104279
4 *2056:X 1.17533e-05
5 *322:10 0.000312526
6 *322:6 0.000212031
7 *2057:A2 *2057:B1_N 0
8 *2057:A2 *2060:A1 0
9 *2057:A2 *2060:A2 0
10 *2057:A2 *542:14 0
11 *2058:A1 *2059:A2 0.000158965
12 *2434:A *474:36 0.000186388
13 *2434:A *504:10 0.000134938
14 *322:6 *474:36 4.82863e-05
15 *322:6 *504:10 2.75145e-05
16 *322:10 *2057:B1_N 0
17 *322:10 *474:36 0
18 *322:10 *542:12 0
19 *2058:A2 *2057:A2 8.97486e-05
20 *2058:A2 *322:10 1.71013e-05
*RES
1 *2056:X *322:6 2.05 
2 *322:6 *322:10 3.89 
3 *322:10 *2057:A2 5.745 
4 *322:10 *2058:A1 5.445 
5 *322:6 *2434:A 4.135 
*END

*D_NET *323 0.00038623
*CONN
*I *2073:B1 I *D sky130_fd_sc_hd__a31oi_2
*I *2057:X O *D sky130_fd_sc_hd__o21ba_2
*CAP
1 *2073:B1 0.000193115
2 *2057:X 0.000193115
*RES
1 *2057:X *2073:B1 6.2 
*END

*D_NET *324 0.0022533
*CONN
*I *2416:A I *D sky130_fd_sc_hd__buf_2
*I *2071:C1 I *D sky130_fd_sc_hd__o2111ai_4
*I *2058:Y O *D sky130_fd_sc_hd__o21bai_4
*CAP
1 *2416:A 0
2 *2071:C1 0.000185719
3 *2058:Y 0.000538065
4 *324:14 0.000723784
5 *2071:C1 *2386:A 0
6 *324:14 *2059:A2 0.000155418
7 *324:14 *2061:A1 0.000137571
8 *324:14 *2062:A2 3.31103e-05
9 *324:14 *2062:B1 8.57024e-05
10 *324:14 *2068:C1 7.36562e-05
11 *324:14 *506:14 4.82919e-05
12 *324:14 *506:22 5.98073e-05
13 *2071:B1 *2071:C1 0
14 *2071:B1 *324:14 0.000119762
15 *2071:D1 *2071:C1 9.24127e-05
*RES
1 *2058:Y *324:14 15.725 
2 *324:14 *2071:C1 8.975 
3 *324:14 *2416:A 1.6 
*END

*D_NET *325 0.00237766
*CONN
*I *2061:A2 I *D sky130_fd_sc_hd__o21a_2
*I *2062:A2 I *D sky130_fd_sc_hd__o21ai_2
*I *2071:A2 I *D sky130_fd_sc_hd__o2111ai_4
*I *2060:B1 I *D sky130_fd_sc_hd__a21o_2
*I *2059:Y O *D sky130_fd_sc_hd__o21ai_2
*CAP
1 *2061:A2 0
2 *2062:A2 0.000135628
3 *2071:A2 6.41268e-05
4 *2060:B1 0.000115907
5 *2059:Y 5.5803e-05
6 *325:29 0.000245897
7 *325:23 0.000271016
8 *325:8 0.000396583
9 *2060:B1 *2060:A1 0
10 *2060:B1 *2061:A1 0
11 *2060:B1 *2073:A1 1.22676e-05
12 *2060:B1 *2073:A2 0.000141599
13 *2060:B1 *2074:B1 4.7043e-05
14 *2060:B1 *337:10 1.01661e-05
15 *2062:A2 *2061:A1 0.000184703
16 *2062:A2 *2071:A1 2.34345e-05
17 *2062:A2 *2073:A1 1.01661e-05
18 *2062:A2 *2073:A3 0.00010978
19 *2062:A2 *506:22 0
20 *2071:A2 *2073:A3 9.60785e-05
21 *325:8 *2060:A1 0
22 *325:8 *2073:A1 3.39069e-05
23 *325:23 *2061:A1 2.75145e-05
24 *325:23 *2073:A2 5.05437e-05
25 *325:29 *2061:A1 6.10014e-05
26 *325:29 *2061:B1 1.26548e-05
27 *325:29 *2068:C1 9.14049e-05
28 *2071:B1 *2062:A2 0.000127195
29 *2071:B1 *2071:A2 2.01259e-05
30 *324:14 *2062:A2 3.31103e-05
*RES
1 *2059:Y *325:8 4.725 
2 *325:8 *2060:B1 6.45 
3 *325:8 *325:23 5.21 
4 *325:23 *325:29 5.38 
5 *325:29 *2071:A2 3.01 
6 *325:29 *2062:A2 9.695 
7 *325:23 *2061:A2 1.6 
*END

*D_NET *326 0.000415
*CONN
*I *2073:A2 I *D sky130_fd_sc_hd__a31oi_2
*I *2060:X O *D sky130_fd_sc_hd__a21o_2
*CAP
1 *2073:A2 0.000102881
2 *2060:X 0.000102881
3 *2073:A2 *337:10 1.70935e-05
4 *2060:B1 *2073:A2 0.000141599
5 *325:23 *2073:A2 5.05437e-05
*RES
1 *2060:X *2073:A2 9.63 
*END

*D_NET *327 0.0019016
*CONN
*I *2068:C1 I *D sky130_fd_sc_hd__a211oi_4
*I *2061:X O *D sky130_fd_sc_hd__o21a_2
*CAP
1 *2068:C1 0.00044057
2 *2061:X 0.00044057
3 *2068:C1 *2061:A1 2.54523e-05
4 *2068:C1 *2061:B1 0.000245199
5 *2068:C1 *2063:C 0.000173191
6 *2068:C1 *2069:A1 0
7 *2068:C1 *2069:B1 0
8 *2068:C1 *2386:A 0.000135312
9 S[19] *2068:C1 7.24866e-05
10 *2071:B1 *2068:C1 0
11 *317:12 *2068:C1 0.000203762
12 *324:14 *2068:C1 7.36562e-05
13 *325:29 *2068:C1 9.14049e-05
*RES
1 *2061:X *2068:C1 18.135 
*END

*D_NET *328 0.000717058
*CONN
*I *2069:B1 I *D sky130_fd_sc_hd__a21oi_2
*I *2062:Y O *D sky130_fd_sc_hd__o21ai_2
*CAP
1 *2069:B1 0.000105413
2 *2062:Y 0.000105413
3 S[19] *2069:B1 0.000185405
4 *2068:C1 *2069:B1 0
5 *2071:B1 *2069:B1 0.000320827
*RES
1 *2062:Y *2069:B1 10.875 
*END

*D_NET *329 0.00175055
*CONN
*I *2068:A2 I *D sky130_fd_sc_hd__a211oi_4
*I *2064:B I *D sky130_fd_sc_hd__nand2_2
*I *2063:X O *D sky130_fd_sc_hd__and3_2
*CAP
1 *2068:A2 0
2 *2064:B 0.000167471
3 *2063:X 0.000173141
4 *329:10 0.000340612
5 *2064:B *2051:A 0
6 *2064:B *2069:A1 0.000180787
7 *2064:B *480:18 6.03272e-05
8 *329:10 *2063:B 0.00015562
9 *329:10 *2063:C 3.72916e-05
10 *329:10 *2068:A1 0.000293712
11 *329:10 *2390:A 0
12 *2054:A *2064:B 0
13 *2054:A *329:10 0
14 *2066:A1 *2064:B 0.000187071
15 *2066:A1 *329:10 5.56629e-05
16 *2067:A1 *2064:B 0
17 *2071:D1 *2064:B 9.8858e-05
*RES
1 *2063:X *329:10 8.67 
2 *329:10 *2064:B 8.325 
3 *329:10 *2068:A2 3.6 
*END

*D_NET *330 0.00108411
*CONN
*I *2069:A1 I *D sky130_fd_sc_hd__a21oi_2
*I *2064:Y O *D sky130_fd_sc_hd__nand2_2
*CAP
1 *2069:A1 0.00029949
2 *2064:Y 0.00029949
3 *2069:A1 *2063:B 3.09164e-05
4 *2069:A1 *2063:C 3.49911e-05
5 *2069:A1 *2069:A2 8.23457e-05
6 *2069:A1 *2386:A 2.24423e-05
7 *2069:A1 *480:6 6.97118e-05
8 *2069:A1 *480:18 2.75229e-05
9 *2064:B *2069:A1 0.000180787
10 *2066:A1 *2069:A1 9.50342e-06
11 *2068:C1 *2069:A1 0
12 *2071:D1 *2069:A1 2.69097e-05
*RES
1 *2064:Y *2069:A1 13.125 
*END

*D_NET *331 0.00178648
*CONN
*I *2073:A3 I *D sky130_fd_sc_hd__a31oi_2
*I *2065:Y O *D sky130_fd_sc_hd__o211ai_2
*CAP
1 *2073:A3 0.000529593
2 *2065:Y 0.000529593
3 *2073:A3 *2061:A1 0.000116158
4 *2073:A3 *2065:B1 0.000164874
5 *2073:A3 *2072:B 5.05437e-05
6 *2073:A3 *2073:A1 4.40812e-05
7 *2062:A2 *2073:A3 0.00010978
8 *2065:C1 *2073:A3 4.99619e-05
9 *2071:A2 *2073:A3 9.60785e-05
10 *2071:B1 *2073:A3 7.55531e-06
11 *2071:D1 *2073:A3 8.8266e-05
*RES
1 *2065:Y *2073:A3 16.65 
*END

*D_NET *332 0.000369585
*CONN
*I *2068:B1 I *D sky130_fd_sc_hd__a211oi_4
*I *2066:Y O *D sky130_fd_sc_hd__o21ai_2
*CAP
1 *2068:B1 5.44017e-05
2 *2066:Y 5.44017e-05
3 *2068:B1 *2063:B 0.00011852
4 *2066:A1 *2068:B1 0.000142262
*RES
1 *2066:Y *2068:B1 7.3775 
*END

*D_NET *333 0.000666297
*CONN
*I *2069:A2 I *D sky130_fd_sc_hd__a21oi_2
*I *2067:X O *D sky130_fd_sc_hd__o31a_2
*CAP
1 *2069:A2 0.000181916
2 *2067:X 0.000181916
3 *2069:A2 *480:18 3.23284e-05
4 *2066:A2 *2069:A2 6.12198e-05
5 *2067:A3 *2069:A2 0.00012657
6 *2069:A1 *2069:A2 8.23457e-05
*RES
1 *2067:X *2069:A2 6.755 
*END

*D_NET *334 0.000249952
*CONN
*I *2070:A I *D sky130_fd_sc_hd__nor2_4
*I *2068:Y O *D sky130_fd_sc_hd__a211oi_4
*CAP
1 *2070:A 6.53491e-05
2 *2068:Y 6.53491e-05
3 *2070:A *2063:C 4.32126e-05
4 S[19] *2070:A 6.02202e-05
5 *2066:A1 *2070:A 1.58213e-05
*RES
1 *2068:Y *2070:A 8.7225 
*END

*D_NET *335 0.000717356
*CONN
*I *2070:B I *D sky130_fd_sc_hd__nor2_4
*I *2069:Y O *D sky130_fd_sc_hd__a21oi_2
*CAP
1 *2070:B 0.000164233
2 *2069:Y 0.000164233
3 *2070:B *480:6 1.74678e-05
4 *2070:B *500:12 0
5 *2070:B *506:14 0.000104309
6 S[19] *2070:B 0.000170535
7 *315:18 *2070:B 1.16578e-05
8 *317:12 *2070:B 8.49205e-05
*RES
1 *2069:Y *2070:B 11.67 
*END

*D_NET *336 0.000802631
*CONN
*I *2072:B I *D sky130_fd_sc_hd__nor4_4
*I *2071:Y O *D sky130_fd_sc_hd__o2111ai_4
*CAP
1 *2072:B 0.000346802
2 *2071:Y 0.000346802
3 *2072:B *2386:A 0
4 *2072:A *2072:B 5.84828e-05
5 *2072:C *2072:B 0
6 *2073:A3 *2072:B 5.05437e-05
*RES
1 *2071:Y *2072:B 12.66 
*END

*D_NET *337 0.00320176
*CONN
*I *2074:A1 I *D sky130_fd_sc_hd__a21oi_2
*I *2076:A I *D sky130_fd_sc_hd__nand2_2
*I *2075:B I *D sky130_fd_sc_hd__and2_4
*I *2072:Y O *D sky130_fd_sc_hd__nor4_4
*CAP
1 *2074:A1 6.20424e-05
2 *2076:A 3.60707e-05
3 *2075:B 7.40199e-05
4 *2072:Y 0.000851581
5 *337:16 0.000314034
6 *337:10 0.00111757
7 *2076:A *393:18 4.74237e-05
8 *337:10 *2074:B1 0
9 *337:10 *2386:A 0
10 *337:16 *393:18 0.000127467
11 *2022:A *337:16 7.1635e-05
12 *2027:B1 *2074:A1 4.65607e-05
13 *2060:B1 *337:10 1.01661e-05
14 *2073:A2 *337:10 1.70935e-05
15 *2074:A2 *337:16 0.000187537
16 *2076:B *2075:B 0.000163985
17 *254:10 *2075:B 7.45794e-05
*RES
1 *2072:Y *337:10 14.61 
2 *337:10 *337:16 7.01 
3 *337:16 *2075:B 7.745 
4 *337:16 *2076:A 2.41 
5 *337:10 *2074:A1 4.74 
*END

*D_NET *338 0.000771772
*CONN
*I *2074:B1 I *D sky130_fd_sc_hd__a21oi_2
*I *2073:Y O *D sky130_fd_sc_hd__a31oi_2
*CAP
1 *2074:B1 0.000318718
2 *2073:Y 0.000318718
3 *2074:B1 *2060:A1 3.86607e-05
4 *2074:B1 *2412:A 0
5 *2074:B1 *339:6 2.75229e-05
6 *2027:B1 *2074:B1 2.11084e-05
7 *2060:B1 *2074:B1 4.7043e-05
8 *2409:A *2074:B1 0
9 *337:10 *2074:B1 0
*RES
1 *2073:Y *2074:B1 13.11 
*END

*D_NET *339 0.00228185
*CONN
*I *2412:A I *D sky130_fd_sc_hd__buf_2
*I *2374:A I *D sky130_fd_sc_hd__buf_6
*I *2074:Y O *D sky130_fd_sc_hd__a21oi_2
*CAP
1 *2412:A 0.000157156
2 *2374:A 0.000234743
3 *2074:Y 0.000241961
4 *339:6 0.000633861
5 *2374:A *2087:A2 0.000581093
6 *2374:A *2132:A1 5.30673e-05
7 *2374:A *2132:B1 4.67945e-05
8 *2374:A *2419:A 1.08758e-05
9 *2374:A *390:6 1.03423e-05
10 *2412:A *2133:A2 0
11 *339:6 *2419:A 2.16833e-05
12 *2027:B1 *339:6 2.64604e-05
13 *2074:B1 *2412:A 0
14 *2074:B1 *339:6 2.75229e-05
15 *2409:A *2412:A 0.000236292
*RES
1 *2074:Y *339:6 4.465 
2 *339:6 *2374:A 7.945 
3 *339:6 *2412:A 8.81 
*END

*D_NET *340 0.000972166
*CONN
*I *2077:C1 I *D sky130_fd_sc_hd__o221ai_4
*I *2075:X O *D sky130_fd_sc_hd__and2_4
*CAP
1 *2077:C1 0.000321005
2 *2075:X 0.000321005
3 *2077:C1 *2131:B2 0
4 *2077:C1 *2131:C1 1.26548e-05
5 *2077:C1 *2135:B1 0.0003175
6 *2410:A *2077:C1 0
*RES
1 *2075:X *2077:C1 13.305 
*END

*D_NET *341 0.000600105
*CONN
*I *2130:B I *D sky130_fd_sc_hd__nor2_4
*I *2419:A I *D sky130_fd_sc_hd__buf_2
*I *2076:Y O *D sky130_fd_sc_hd__nand2_2
*CAP
1 *2130:B 0
2 *2419:A 0.000121554
3 *2076:Y 5.71675e-05
4 *341:6 0.000178722
5 *2419:A *2133:A2 0
6 *2419:A *2135:B1 0
7 *2419:A *393:18 5.72091e-05
8 *341:6 *393:18 7.10578e-05
9 *2374:A *2419:A 1.08758e-05
10 *2409:A *2419:A 1.22762e-05
11 *254:10 *2419:A 6.95591e-05
12 *339:6 *2419:A 2.16833e-05
*RES
1 *2076:Y *341:6 2.74 
2 *341:6 *2419:A 8.45 
3 *341:6 *2130:B 1.6 
*END

*D_NET *342 0.00429908
*CONN
*I *2099:A2 I *D sky130_fd_sc_hd__a21boi_2
*I *2086:A2 I *D sky130_fd_sc_hd__a21o_2
*I *2085:A1 I *D sky130_fd_sc_hd__a21oi_2
*I *2116:A1 I *D sky130_fd_sc_hd__a21oi_4
*I *2077:Y O *D sky130_fd_sc_hd__o221ai_4
*CAP
1 *2099:A2 9.19684e-05
2 *2086:A2 0.0002584
3 *2085:A1 0.000141123
4 *2116:A1 0
5 *2077:Y 0.000676831
6 *342:36 0.000424417
7 *342:23 0.000440524
8 *342:10 0.000902182
9 *2085:A1 *2085:B1 4.82863e-05
10 *2085:A1 *2096:A2 3.00381e-05
11 *2085:A1 *2115:A 8.49205e-05
12 *2085:A1 *2422:A 0.000124895
13 *2086:A2 *2086:B1 0.000198934
14 *2099:A2 *361:6 5.30673e-05
15 *342:10 *2077:A1 4.47125e-05
16 *342:10 *2116:A2 4.18603e-06
17 *342:10 *2116:B1 0
18 *342:23 *2087:B1 1.89097e-05
19 *342:23 *2099:A1 0
20 *342:23 *2115:B 7.47145e-05
21 *342:23 *2116:A2 0.0001023
22 *342:23 *2116:B1 0
23 *342:36 *2099:A1 0
24 *342:36 *2115:B 0.000131408
25 *2421:A *342:10 0
26 *110:26 *342:10 0.000275553
27 *129:41 *342:10 0
28 *140:12 *342:10 1.0183e-05
29 *140:16 *342:10 0.000161529
*RES
1 *2077:Y *342:10 15.93 
2 *342:10 *2116:A1 3.6 
3 *342:10 *342:23 4.74 
4 *342:23 *2085:A1 6.465 
5 *342:23 *342:36 3.635 
6 *342:36 *2086:A2 5.5 
7 *342:36 *2099:A2 3.355 
*END

*D_NET *343 0.000750899
*CONN
*I *2082:A_N I *D sky130_fd_sc_hd__nand3b_2
*I *2081:A_N I *D sky130_fd_sc_hd__and3b_2
*I *2083:A1 I *D sky130_fd_sc_hd__o21bai_2
*I *2078:Y O *D sky130_fd_sc_hd__nor2_2
*CAP
1 *2082:A_N 3.43947e-05
2 *2081:A_N 4.50596e-05
3 *2083:A1 0
4 *2078:Y 0.000114045
5 *343:8 0.000124709
6 *2081:A_N *2079:B 0.000131401
7 *2081:A_N *2081:B 0
8 *2081:A_N *2083:A2 6.5525e-05
9 *2082:A_N *2080:A 5.77162e-05
10 *343:8 *2078:B 3.09164e-05
11 *343:8 *2079:B 0.000141599
12 *343:8 *2081:B 0
13 *343:8 *2083:A2 5.53249e-06
*RES
1 *2078:Y *343:8 5.49 
2 *343:8 *2083:A1 3.6 
3 *343:8 *2081:A_N 5.235 
4 *2078:Y *2082:A_N 3.995 
*END

*D_NET *344 0.000526233
*CONN
*I *2083:A2 I *D sky130_fd_sc_hd__o21bai_2
*I *2079:X O *D sky130_fd_sc_hd__and2_2
*CAP
1 *2083:A2 0.000170229
2 *2079:X 0.000170229
3 *2083:A2 *2079:B 2.75145e-05
4 *2083:A2 *2081:B 4.70256e-05
5 S[24] *2083:A2 4.01778e-05
6 *2081:A_N *2083:A2 6.5525e-05
7 *343:8 *2083:A2 5.53249e-06
*RES
1 *2079:X *2083:A2 10.065 
*END

*D_NET *345 0.00129803
*CONN
*I *2082:B I *D sky130_fd_sc_hd__nand3b_2
*I *2081:B I *D sky130_fd_sc_hd__and3b_2
*I *2080:Y O *D sky130_fd_sc_hd__nand2_2
*CAP
1 *2082:B 0
2 *2081:B 0.000283442
3 *2080:Y 7.42579e-05
4 *345:6 0.0003577
5 *2081:B *2078:B 0
6 *2081:B *2079:B 0
7 *2081:B *2082:C 4.82919e-05
8 *2081:B *2096:A1 0.000197407
9 *2081:B *475:25 4.82863e-05
10 *345:6 *2080:A 6.26945e-05
11 *345:6 *2082:C 8.57024e-05
12 *345:6 *2100:A1 4.66108e-05
13 *345:6 *347:12 4.66108e-05
14 S[24] *2081:B 0
15 *2081:A_N *2081:B 0
16 *2083:A2 *2081:B 4.70256e-05
17 *2344:A *2081:B 0
18 *343:8 *2081:B 0
*RES
1 *2080:Y *345:6 3.43 
2 *345:6 *2081:B 11.45 
3 *345:6 *2082:B 1.6 
*END

*D_NET *346 0.00159822
*CONN
*I *2096:A1 I *D sky130_fd_sc_hd__o21ai_2
*I *2081:X O *D sky130_fd_sc_hd__and3b_2
*CAP
1 *2096:A1 0.000373029
2 *2081:X 0.000373029
3 *2096:A1 *2082:C 0.000180682
4 *2096:A1 *2095:B 1.44259e-05
5 *2096:A1 *2097:B 0.00013687
6 *2096:A1 *2392:A 7.97734e-05
7 *2096:A1 *347:12 8.08439e-05
8 *2096:A1 *349:10 1.15688e-05
9 *2096:A1 *358:28 5.83121e-06
10 *2096:A1 *507:23 0.000132096
11 *2081:B *2096:A1 0.000197407
12 *2344:A *2096:A1 1.26626e-05
*RES
1 *2081:X *2096:A1 16.695 
*END

*D_NET *347 0.00146665
*CONN
*I *2100:A1 I *D sky130_fd_sc_hd__a21oi_2
*I *2084:A I *D sky130_fd_sc_hd__nand2_2
*I *2095:C I *D sky130_fd_sc_hd__nand3b_2
*I *2082:Y O *D sky130_fd_sc_hd__nand3b_2
*CAP
1 *2100:A1 0.000271229
2 *2084:A 0.000143044
3 *2095:C 0
4 *2082:Y 0
5 *347:12 0.00021936
6 *347:4 0.000347544
7 *2084:A *2095:A_N 4.66108e-05
8 *2084:A *2095:B 0
9 *2084:A *2393:A 6.18267e-05
10 *2100:A1 *2080:A 1.19928e-05
11 *2100:A1 *2080:B 0
12 *2100:A1 *355:8 0
13 *2100:A1 *543:12 2.66586e-05
14 *2100:A1 *543:16 2.50702e-05
15 *347:12 *2392:A 0.000139245
16 *2096:A1 *347:12 8.08439e-05
17 *345:6 *2100:A1 4.66108e-05
18 *345:6 *347:12 4.66108e-05
*RES
1 *2082:Y *347:4 1.6 
2 *347:4 *347:12 6.085 
3 *347:12 *2095:C 1.6 
4 *347:12 *2084:A 4.15 
5 *347:4 *2100:A1 5.965 
*END

*D_NET *348 0.0011276
*CONN
*I *2084:B I *D sky130_fd_sc_hd__nand2_2
*I *2083:Y O *D sky130_fd_sc_hd__o21bai_2
*CAP
1 *2084:B 0.000376417
2 *2083:Y 0.000376417
3 *2084:B *2392:A 1.1561e-05
4 *2084:B *2393:A 0
5 *2084:B *358:14 0.000354673
6 *2084:B *358:20 8.53113e-06
7 *2084:B *475:35 0
8 *2084:B *543:12 0
*RES
1 *2083:Y *2084:B 13.305 
*END

*D_NET *349 0.00352052
*CONN
*I *2098:A I *D sky130_fd_sc_hd__nor2_2
*I *2086:B1 I *D sky130_fd_sc_hd__a21o_2
*I *2115:A I *D sky130_fd_sc_hd__or3b_2
*I *2085:B1 I *D sky130_fd_sc_hd__a21oi_2
*I *2087:B1 I *D sky130_fd_sc_hd__o211ai_2
*I *2084:Y O *D sky130_fd_sc_hd__nand2_2
*CAP
1 *2098:A 0
2 *2086:B1 7.08045e-05
3 *2115:A 3.38563e-05
4 *2085:B1 2.41635e-05
5 *2087:B1 0.000255282
6 *2084:Y 0.000357137
7 *349:47 7.08045e-05
8 *349:31 5.80197e-05
9 *349:12 0.000329318
10 *349:10 0.000431174
11 *2086:B1 *351:10 2.11084e-05
12 *2087:B1 *2087:C1 8.57024e-05
13 *2087:B1 *2115:B 3.05295e-05
14 *2087:B1 *2116:A2 4.43871e-06
15 *2087:B1 *2422:A 7.27196e-05
16 *2087:B1 *389:14 2.86914e-05
17 *349:10 *2095:B 0.00012068
18 *349:10 *2096:A2 0.000356796
19 *349:10 *2097:B 9.5433e-05
20 *349:10 *2115:B 4.43871e-06
21 *349:10 *2392:A 0
22 *349:10 *2393:A 0.00030615
23 *349:10 *358:28 0.000187501
24 *349:12 *2085:A2 0
25 *349:12 *2088:B 0
26 *349:12 *2096:A2 0.000114492
27 *349:12 *2115:B 9.86611e-05
28 *2085:A1 *2085:B1 4.82863e-05
29 *2085:A1 *2115:A 8.49205e-05
30 *2086:A2 *2086:B1 0.000198934
31 *2096:A1 *349:10 1.15688e-05
32 *342:23 *2087:B1 1.89097e-05
*RES
1 *2084:Y *349:10 12.18 
2 *349:10 *349:12 2.145 
3 *349:12 *2087:B1 7.89 
4 *349:12 *349:31 2 
5 *349:31 *2085:B1 2.05 
6 *349:31 *2115:A 2.395 
7 *349:10 *349:47 2 
8 *349:47 *2086:B1 3.43 
9 *349:47 *2098:A 1.6 
*END

*D_NET *350 0.00119645
*CONN
*I *2096:A2 I *D sky130_fd_sc_hd__o21ai_2
*I *2085:Y O *D sky130_fd_sc_hd__a21oi_2
*CAP
1 *2096:A2 0.000196431
2 *2085:Y 0.000196431
3 *2096:A2 *2086:A1 0
4 *2096:A2 *2088:B 0
5 *2096:A2 *2095:B 0.000162325
6 *2096:A2 *351:10 0.000139933
7 *2085:A1 *2096:A2 3.00381e-05
8 *349:10 *2096:A2 0.000356796
9 *349:12 *2096:A2 0.000114492
*RES
1 *2085:Y *2096:A2 13.11 
*END

*D_NET *351 0.00154199
*CONN
*I *2095:B I *D sky130_fd_sc_hd__nand3b_2
*I *2088:A I *D sky130_fd_sc_hd__and2_2
*I *2086:X O *D sky130_fd_sc_hd__a21o_2
*CAP
1 *2095:B 0.000291982
2 *2088:A 6.56056e-05
3 *2086:X 0.000103649
4 *351:10 0.000461236
5 *2088:A *2392:A 9.66021e-05
6 *2095:B *2097:A 0
7 *2095:B *2097:B 6.44425e-05
8 *351:10 *2088:B 0
9 *2084:A *2095:B 0
10 *2086:B1 *351:10 2.11084e-05
11 *2096:A1 *2095:B 1.44259e-05
12 *2096:A2 *2095:B 0.000162325
13 *2096:A2 *351:10 0.000139933
14 *349:10 *2095:B 0.00012068
*RES
1 *2086:X *351:10 5.685 
2 *351:10 *2088:A 5.085 
3 *351:10 *2095:B 9.405 
*END

*D_NET *352 0.000825766
*CONN
*I *2088:B I *D sky130_fd_sc_hd__and2_2
*I *2087:Y O *D sky130_fd_sc_hd__o211ai_2
*CAP
1 *2088:B 0.000366746
2 *2087:Y 0.000366746
3 *2088:B *2055:A 0
4 *2088:B *2085:A2 3.05295e-05
5 *2088:B *2086:A1 3.4222e-05
6 *2088:B *2392:A 2.75229e-05
7 *2088:B *2422:A 0
8 *2096:A2 *2088:B 0
9 *349:12 *2088:B 0
10 *351:10 *2088:B 0
*RES
1 *2087:Y *2088:B 13.62 
*END

*D_NET *353 0.000924843
*CONN
*I *2091:A1 I *D sky130_fd_sc_hd__o21ba_2
*I *2089:Y O *D sky130_fd_sc_hd__nor2_2
*CAP
1 *2091:A1 0.000308058
2 *2089:Y 0.000308058
3 *2091:A1 *2089:B 4.65607e-05
4 *2091:A1 *2093:A1 0
5 *2091:A1 *2093:B1 0.0001249
6 *2091:A1 *2094:A1 8.89751e-05
7 *2091:A1 *2100:A2 4.82919e-05
*RES
1 *2089:Y *2091:A1 12.645 
*END

*D_NET *354 0.000561926
*CONN
*I *2091:A2 I *D sky130_fd_sc_hd__o21ba_2
*I *2094:A1 I *D sky130_fd_sc_hd__o21bai_2
*I *2090:X O *D sky130_fd_sc_hd__and2_4
*CAP
1 *2091:A2 0
2 *2094:A1 9.43796e-05
3 *2090:X 0.0001012
4 *354:8 0.000195579
5 *2094:A1 *2093:A1 0
6 *2094:A1 *475:29 8.17924e-05
7 *354:8 *355:8 0
8 *2091:A1 *2094:A1 8.89751e-05
*RES
1 *2090:X *354:8 3.1 
2 *354:8 *2094:A1 8 
3 *354:8 *2091:A2 1.6 
*END

*D_NET *355 0.000854808
*CONN
*I *2100:B1 I *D sky130_fd_sc_hd__a21oi_2
*I *2094:B1_N I *D sky130_fd_sc_hd__o21bai_2
*I *2091:X O *D sky130_fd_sc_hd__o21ba_2
*CAP
1 *2100:B1 0
2 *2094:B1_N 7.96752e-05
3 *2091:X 0.00014931
4 *355:8 0.000228985
5 *2094:B1_N *2091:B1_N 0.000183036
6 *2094:B1_N *2100:A2 0.000116853
7 *2094:B1_N *2393:A 2.75538e-05
8 *2094:B1_N *358:14 4.82863e-05
9 *355:8 *2091:B1_N 2.11084e-05
10 *2100:A1 *355:8 0
11 *354:8 *355:8 0
*RES
1 *2091:X *355:8 3.61 
2 *355:8 *2094:B1_N 8.195 
3 *355:8 *2100:B1 1.6 
*END

*D_NET *356 0.00123406
*CONN
*I *2094:A2 I *D sky130_fd_sc_hd__o21bai_2
*I *2093:B1 I *D sky130_fd_sc_hd__a21o_2
*I *2092:Y O *D sky130_fd_sc_hd__o21ai_2
*CAP
1 *2094:A2 0
2 *2093:B1 0.000167997
3 *2092:Y 9.39221e-05
4 *356:14 0.000261919
5 *2093:B1 *2089:B 0
6 *2093:B1 *2100:A2 0.000107424
7 *356:14 *2091:B1_N 0.000140905
8 *356:14 *2092:A1 8.40213e-05
9 *356:14 *2092:A2 4.66742e-05
10 *356:14 *2100:A2 1.47256e-05
11 *356:14 *475:29 0.000160658
12 *356:14 *508:10 3.09164e-05
13 *2091:A1 *2093:B1 0.0001249
*RES
1 *2092:Y *356:14 8.735 
2 *356:14 *2093:B1 5.185 
3 *356:14 *2094:A2 1.6 
*END

*D_NET *357 0.00114123
*CONN
*I *2100:A2 I *D sky130_fd_sc_hd__a21oi_2
*I *2093:X O *D sky130_fd_sc_hd__a21o_2
*CAP
1 *2100:A2 0.00037119
2 *2093:X 0.00037119
3 *2100:A2 *2393:A 6.74079e-05
4 *2100:A2 *358:14 4.41506e-05
5 *2091:A1 *2100:A2 4.82919e-05
6 *2093:B1 *2100:A2 0.000107424
7 *2094:B1_N *2100:A2 0.000116853
8 *356:14 *2100:A2 1.47256e-05
*RES
1 *2093:X *2100:A2 12.7575 
*END

*D_NET *358 0.00356738
*CONN
*I *2095:A_N I *D sky130_fd_sc_hd__nand3b_2
*I *2096:B1 I *D sky130_fd_sc_hd__o21ai_2
*I *2098:B I *D sky130_fd_sc_hd__nor2_2
*I *2115:B I *D sky130_fd_sc_hd__or3b_2
*I *2094:Y O *D sky130_fd_sc_hd__o21bai_2
*CAP
1 *2095:A_N 1.65033e-05
2 *2096:B1 0
3 *2098:B 0
4 *2115:B 8.84346e-05
5 *2094:Y 0.000472474
6 *358:28 0.000310096
7 *358:20 0.000405896
8 *358:14 0.000673211
9 *2095:A_N *2393:A 2.49909e-05
10 *2115:B *2099:A1 0
11 *358:14 *2392:A 0.000301198
12 *358:20 *2392:A 0.000204456
13 *358:20 *475:35 0
14 *358:28 *2099:A1 0
15 *358:28 *2392:A 3.47837e-05
16 *2084:A *2095:A_N 4.66108e-05
17 *2084:B *358:14 0.000354673
18 *2084:B *358:20 8.53113e-06
19 *2087:B1 *2115:B 3.05295e-05
20 *2094:B1_N *358:14 4.82863e-05
21 *2096:A1 *358:28 5.83121e-06
22 *2100:A2 *358:14 4.41506e-05
23 *342:23 *2115:B 7.47145e-05
24 *342:36 *2115:B 0.000131408
25 *349:10 *2115:B 4.43871e-06
26 *349:10 *358:28 0.000187501
27 *349:12 *2115:B 9.86611e-05
*RES
1 *2094:Y *358:14 13.02 
2 *358:14 *358:20 5.54 
3 *358:20 *358:28 6.74 
4 *358:28 *2115:B 6.255 
5 *358:28 *2098:B 3.6 
6 *358:20 *2096:B1 1.6 
7 *358:14 *2095:A_N 4.05 
*END

*D_NET *359 0.00023845
*CONN
*I *2097:A I *D sky130_fd_sc_hd__nand2_2
*I *2095:Y O *D sky130_fd_sc_hd__nand3b_2
*CAP
1 *2097:A 8.61526e-05
2 *2095:Y 8.61526e-05
3 *2097:A *2097:B 4.99619e-05
4 *2097:A *2393:A 1.61831e-05
5 *2095:B *2097:A 0
*RES
1 *2095:Y *2097:A 4.7 
*END

*D_NET *360 0.000702248
*CONN
*I *2097:B I *D sky130_fd_sc_hd__nand2_2
*I *2096:Y O *D sky130_fd_sc_hd__o21ai_2
*CAP
1 *2097:B 0.000112954
2 *2096:Y 0.000112954
3 *2097:B *2393:A 0.000129633
4 *2095:B *2097:B 6.44425e-05
5 *2096:A1 *2097:B 0.00013687
6 *2097:A *2097:B 4.99619e-05
7 *349:10 *2097:B 9.5433e-05
*RES
1 *2096:Y *2097:B 10.785 
*END

*D_NET *361 0.00117527
*CONN
*I *2099:B1_N I *D sky130_fd_sc_hd__a21boi_2
*I *2128:A I *D sky130_fd_sc_hd__nand3_4
*I *2098:Y O *D sky130_fd_sc_hd__nor2_2
*CAP
1 *2099:B1_N 2.03254e-05
2 *2128:A 0.000124578
3 *2098:Y 0.000181036
4 *361:6 0.000325939
5 *2099:B1_N *362:6 4.82919e-05
6 *2128:A *2099:A1 0
7 *2128:A *2116:B1 0.000143501
8 *2128:A *2128:B 0.000105841
9 *2128:A *369:20 8.6099e-05
10 *361:6 *362:6 8.65905e-05
11 *2099:A2 *361:6 5.30673e-05
*RES
1 *2098:Y *361:6 4.465 
2 *361:6 *2128:A 9.53 
3 *361:6 *2099:B1_N 2.05 
*END

*D_NET *362 0.00118375
*CONN
*I *2108:A_N I *D sky130_fd_sc_hd__nand3b_4
*I *2107:A1 I *D sky130_fd_sc_hd__o21bai_2
*I *2099:Y O *D sky130_fd_sc_hd__a21boi_2
*CAP
1 *2108:A_N 3.17759e-05
2 *2107:A1 0.000142759
3 *2099:Y 0.000171724
4 *362:6 0.000346259
5 *2107:A1 *2109:B 0
6 *2107:A1 *363:18 4.18603e-06
7 *2107:A1 *369:14 0
8 *2107:A1 *475:35 0
9 *2108:A_N *369:20 7.66083e-05
10 *362:6 *369:20 0.000275553
11 *2099:B1_N *362:6 4.82919e-05
12 *361:6 *362:6 8.65905e-05
*RES
1 *2099:Y *362:6 5.5 
2 *362:6 *2107:A1 8 
3 *362:6 *2108:A_N 2.395 
*END

*D_NET *363 0.00167192
*CONN
*I *2101:A I *D sky130_fd_sc_hd__inv_2
*I *2107:A2 I *D sky130_fd_sc_hd__o21bai_2
*I *2117:A1 I *D sky130_fd_sc_hd__a21boi_2
*I *2100:Y O *D sky130_fd_sc_hd__a21oi_2
*CAP
1 *2101:A 0
2 *2107:A2 0
3 *2117:A1 0.000276766
4 *2100:Y 0.000296308
5 *363:18 0.000364284
6 *363:12 0.000383826
7 *2117:A1 *2109:A 4.92062e-05
8 *2117:A1 *2117:A2 4.82919e-05
9 *2117:A1 *379:10 2.75229e-05
10 *363:12 *2393:A 8.97642e-05
11 *363:12 *369:10 0
12 *363:12 *475:29 0
13 *363:12 *475:35 6.43964e-05
14 *363:18 *2109:B 6.73665e-05
15 *363:18 *475:35 0
16 *2107:A1 *363:18 4.18603e-06
*RES
1 *2100:Y *363:12 11.105 
2 *363:12 *363:18 5.89 
3 *363:18 *2117:A1 6.325 
4 *363:18 *2107:A2 1.6 
5 *363:12 *2101:A 1.6 
*END

*D_NET *364 0.0010338
*CONN
*I *2108:B I *D sky130_fd_sc_hd__nand3b_4
*I *2101:Y O *D sky130_fd_sc_hd__inv_2
*CAP
1 *2108:B 0.000335704
2 *2101:Y 0.000335704
3 *2108:B *2106:B 0
4 *2108:B *2109:A 2.49909e-05
5 *2108:B *369:10 0.000127247
6 *2108:B *369:14 0.000210151
7 *2108:B *379:10 0
*RES
1 *2101:Y *2108:B 12.705 
*END

*D_NET *365 0.000799126
*CONN
*I *2105:A1 I *D sky130_fd_sc_hd__o21bai_2
*I *2104:A I *D sky130_fd_sc_hd__or3b_4
*I *2102:Y O *D sky130_fd_sc_hd__nor2_2
*CAP
1 *2105:A1 1.85694e-05
2 *2104:A 0.000108755
3 *2102:Y 4.38189e-05
4 *365:6 0.000171144
5 *2104:A *2102:A 5.0751e-05
6 *2104:A *2102:B 7.35813e-05
7 *2104:A *2104:B 0.000163985
8 *2105:A1 *2102:A 9.53428e-06
9 *2105:A1 *2102:B 0
10 *2105:A1 *368:12 0
11 *365:6 *2102:A 2.11084e-05
12 *365:6 *2102:B 0.00013788
13 S[26] *2104:A 0
14 *2311:A *2104:A 0
*RES
1 *2102:Y *365:6 3.085 
2 *365:6 *2104:A 8.63 
3 *365:6 *2105:A1 1.96 
*END

*D_NET *366 0.000703575
*CONN
*I *2105:A2 I *D sky130_fd_sc_hd__o21bai_2
*I *2104:B I *D sky130_fd_sc_hd__or3b_4
*I *2103:X O *D sky130_fd_sc_hd__and2_2
*CAP
1 *2105:A2 0
2 *2104:B 0.000144342
3 *2103:X 6.86374e-05
4 *366:8 0.000212979
5 *2104:B *2106:A 1.22762e-05
6 *2104:B *367:10 5.93757e-05
7 *2104:B *471:10 0
8 *366:8 *2106:A 4.19797e-05
9 S[26] *2104:B 0
10 S[26] *366:8 0
11 *2104:A *2104:B 0.000163985
*RES
1 *2103:X *366:8 4.98 
2 *366:8 *2104:B 6.795 
3 *366:8 *2105:A2 3.6 
*END

*D_NET *367 0.00151002
*CONN
*I *2106:A I *D sky130_fd_sc_hd__and2_2
*I *2117:B1_N I *D sky130_fd_sc_hd__a21boi_2
*I *2104:X O *D sky130_fd_sc_hd__or3b_4
*CAP
1 *2106:A 0.000146309
2 *2117:B1_N 5.51875e-05
3 *2104:X 9.33442e-05
4 *367:10 0.00029484
5 *2106:A *2103:A 0.000119762
6 *2106:A *2103:B 0.000120655
7 *2106:A *2104:C_N 2.23922e-05
8 *2106:A *471:10 3.57768e-05
9 *2106:A *509:12 0.000138331
10 *2117:B1_N *2102:A 5.4354e-05
11 *2117:B1_N *368:12 0.000155491
12 *367:10 *2104:C_N 0.00015995
13 *2104:B *2106:A 1.22762e-05
14 *2104:B *367:10 5.93757e-05
15 *366:8 *2106:A 4.19797e-05
*RES
1 *2104:X *367:10 5.94 
2 *367:10 *2117:B1_N 5.085 
3 *367:10 *2106:A 7.485 
*END

*D_NET *368 0.00119187
*CONN
*I *2106:B I *D sky130_fd_sc_hd__and2_2
*I *2117:A2 I *D sky130_fd_sc_hd__a21boi_2
*I *2105:Y O *D sky130_fd_sc_hd__o21bai_2
*CAP
1 *2106:B 0.000105632
2 *2117:A2 0.000115836
3 *2105:Y 0.000141044
4 *368:12 0.000362511
5 *2106:B *2102:A 5.39718e-05
6 *2106:B *2103:B 2.84224e-05
7 *2106:B *369:10 0
8 *2106:B *379:10 0
9 *2106:B *494:23 1.34361e-05
10 *368:12 *2102:A 1.17409e-05
11 *368:12 *2102:B 0.000155497
12 *2105:A1 *368:12 0
13 *2108:B *2106:B 0
14 *2117:A1 *2117:A2 4.82919e-05
15 *2117:B1_N *368:12 0.000155491
*RES
1 *2105:Y *368:12 4.945 
2 *368:12 *2117:A2 3.43 
3 *368:12 *2106:B 7.745 
*END

*D_NET *369 0.00355592
*CONN
*I *2107:B1_N I *D sky130_fd_sc_hd__o21bai_2
*I *2108:C I *D sky130_fd_sc_hd__nand3b_4
*I *2115:C_N I *D sky130_fd_sc_hd__or3b_2
*I *2128:B I *D sky130_fd_sc_hd__nand3_4
*I *2106:X O *D sky130_fd_sc_hd__and2_2
*CAP
1 *2107:B1_N 0
2 *2108:C 0.000100713
3 *2115:C_N 0.00018415
4 *2128:B 5.47447e-05
5 *2106:X 0.000289391
6 *369:20 0.000608398
7 *369:14 0.000556452
8 *369:10 0.000375627
9 *2115:C_N *2116:B1 6.27438e-05
10 *2128:B *475:35 0.000105841
11 *369:10 *2109:A 0.000143409
12 *369:10 *2109:B 7.12228e-06
13 *369:10 *2394:A 1.70935e-05
14 *369:14 *2109:B 7.81954e-05
15 *369:14 *379:10 0
16 *369:20 *475:35 9.05377e-05
17 *2106:B *369:10 0
18 *2107:A1 *369:14 0
19 *2108:A_N *369:20 7.66083e-05
20 *2108:B *369:10 0.000127247
21 *2108:B *369:14 0.000210151
22 *2128:A *2128:B 0.000105841
23 *2128:A *369:20 8.6099e-05
24 *362:6 *369:20 0.000275553
25 *363:12 *369:10 0
*RES
1 *2106:X *369:10 8.865 
2 *369:10 *369:14 4.655 
3 *369:14 *369:20 9.17 
4 *369:20 *2128:B 5.745 
5 *369:20 *2115:C_N 6.465 
6 *369:14 *2108:C 3.1 
7 *369:10 *2107:B1_N 3.6 
*END

*D_NET *370 0.000586747
*CONN
*I *2109:A I *D sky130_fd_sc_hd__nand2_2
*I *2107:Y O *D sky130_fd_sc_hd__o21bai_2
*CAP
1 *2109:A 0.000114948
2 *2107:Y 0.000114948
3 *2109:A *2109:B 0.000139245
4 *2108:B *2109:A 2.49909e-05
5 *2117:A1 *2109:A 4.92062e-05
6 *369:10 *2109:A 0.000143409
*RES
1 *2107:Y *2109:A 10.08 
*END

*D_NET *371 0.000539042
*CONN
*I *2109:B I *D sky130_fd_sc_hd__nand2_2
*I *2108:Y O *D sky130_fd_sc_hd__nand3b_4
*CAP
1 *2109:B 0.000123556
2 *2108:Y 0.000123556
3 *2107:A1 *2109:B 0
4 *2109:A *2109:B 0.000139245
5 *363:18 *2109:B 6.73665e-05
6 *369:10 *2109:B 7.12228e-06
7 *369:14 *2109:B 7.81954e-05
*RES
1 *2108:Y *2109:B 10.62 
*END

*D_NET *372 0.00115357
*CONN
*I *2112:A1 I *D sky130_fd_sc_hd__o21ba_2
*I *2113:A I *D sky130_fd_sc_hd__or3b_2
*I *2110:Y O *D sky130_fd_sc_hd__nor2_2
*CAP
1 *2112:A1 0
2 *2113:A 0.000406628
3 *2110:Y 1.867e-05
4 *372:6 0.000425298
5 *2113:A *2110:A 4.60584e-05
6 *2113:A *2112:A2 4.99619e-05
7 *2113:A *2113:C_N 0.000122325
8 *2113:A *375:10 5.30673e-05
9 *2113:A *547:10 0
10 *372:6 *2110:A 2.30292e-05
11 *2347:A *2113:A 8.53113e-06
*RES
1 *2110:Y *372:6 2.05 
2 *372:6 *2113:A 12.785 
3 *372:6 *2112:A1 1.6 
*END

*D_NET *373 0.00223589
*CONN
*I *2112:A2 I *D sky130_fd_sc_hd__o21ba_2
*I *2113:B I *D sky130_fd_sc_hd__or3b_2
*I *2111:X O *D sky130_fd_sc_hd__and2_4
*CAP
1 *2112:A2 0.000415176
2 *2113:B 0.000345877
3 *2111:X 0
4 *373:4 0.000761053
5 *2112:A2 *2110:A 8.8266e-05
6 *2112:A2 *2111:B 6.83659e-05
7 *2112:A2 *471:10 2.61015e-05
8 *2112:A2 *471:12 0.000268973
9 *2113:B *2129:A1 4.7043e-05
10 *2113:B *2129:A2 0.000165076
11 *2113:B *2129:B1 0
12 *2113:B *471:10 0
13 *2113:B *511:12 0
14 S[27] *2112:A2 0
15 *2113:A *2112:A2 4.99619e-05
*RES
1 *2111:X *373:4 1.6 
2 *373:4 *2113:B 11.69 
3 *373:4 *2112:A2 12.995 
*END

*D_NET *374 0.000854124
*CONN
*I *2114:A I *D sky130_fd_sc_hd__nor2b_4
*I *2129:A1 I *D sky130_fd_sc_hd__o21a_2
*I *2112:X O *D sky130_fd_sc_hd__o21ba_2
*CAP
1 *2114:A 5.27517e-05
2 *2129:A1 0.000147375
3 *2112:X 0.000109127
4 *374:6 0.000309253
5 *2114:A *511:12 1.08758e-05
6 *2129:A1 *511:12 4.70256e-05
7 *374:6 *2110:A 0.000122331
8 *374:6 *511:12 8.34281e-06
9 *2113:B *2129:A1 4.7043e-05
*RES
1 *2112:X *374:6 3.085 
2 *374:6 *2129:A1 8.12 
3 *374:6 *2114:A 2.665 
*END

*D_NET *375 0.00166079
*CONN
*I *2114:B_N I *D sky130_fd_sc_hd__nor2b_4
*I *2129:B1 I *D sky130_fd_sc_hd__o21a_2
*I *2113:X O *D sky130_fd_sc_hd__or3b_2
*CAP
1 *2114:B_N 0
2 *2129:B1 0.000122257
3 *2113:X 0.000333982
4 *375:10 0.00045624
5 *2129:B1 *2119:A2 3.09233e-05
6 *2129:B1 *2121:A2 0
7 *2129:B1 *2121:B1 8.02765e-05
8 *2129:B1 *2129:A2 0.000158472
9 *2129:B1 *2395:A 0.000163199
10 *375:10 *2119:A2 0.000140912
11 *375:10 *2120:A 4.80285e-05
12 *375:10 *2120:B 0
13 *375:10 *2121:A2 0
14 *375:10 *2121:B1 1.07797e-05
15 *375:10 *2129:A2 3.84331e-05
16 *375:10 *379:10 2.42236e-05
17 *2113:A *375:10 5.30673e-05
18 *2113:B *2129:B1 0
*RES
1 *2113:X *375:10 9.03 
2 *375:10 *2129:B1 7.23 
3 *375:10 *2114:B_N 3.6 
*END

*D_NET *376 0.00137928
*CONN
*I *2119:B1_N I *D sky130_fd_sc_hd__o21bai_2
*I *2120:B I *D sky130_fd_sc_hd__nand2_2
*I *2128:C I *D sky130_fd_sc_hd__nand3_4
*I *2114:Y O *D sky130_fd_sc_hd__nor2b_4
*CAP
1 *2119:B1_N 0
2 *2120:B 0.000105221
3 *2128:C 0.000170076
4 *2114:Y 0.000165259
5 *376:18 0.000368336
6 *376:12 0.000258298
7 *2120:B *2121:A2 6.55406e-05
8 *2120:B *475:35 0
9 *2128:C *2119:A2 0
10 *376:12 *2119:A2 4.471e-05
11 *376:18 *2119:A2 0.000153554
12 *376:18 *2121:B1 4.82863e-05
13 *375:10 *2120:B 0
*RES
1 *2114:Y *376:12 4.6 
2 *376:12 *376:18 2.295 
3 *376:18 *2128:C 4.135 
4 *376:18 *2120:B 7.745 
5 *376:12 *2119:B1_N 1.6 
*END

*D_NET *377 0.00106199
*CONN
*I *2116:B1 I *D sky130_fd_sc_hd__a21oi_4
*I *2115:X O *D sky130_fd_sc_hd__or3b_2
*CAP
1 *2116:B1 0.00039162
2 *2115:X 0.00039162
3 *2116:B1 *2099:A1 7.25036e-05
4 *2116:B1 *475:35 0
5 *2115:C_N *2116:B1 6.27438e-05
6 *2128:A *2116:B1 0.000143501
7 *342:10 *2116:B1 0
8 *342:23 *2116:B1 0
*RES
1 *2115:X *2116:B1 14.07 
*END

*D_NET *378 0.00112112
*CONN
*I *2121:A1 I *D sky130_fd_sc_hd__o21ai_2
*I *2119:A1 I *D sky130_fd_sc_hd__o21bai_2
*I *2116:Y O *D sky130_fd_sc_hd__a21oi_4
*CAP
1 *2121:A1 3.69383e-05
2 *2119:A1 0.000116451
3 *2116:Y 0.000243349
4 *378:10 0.000396738
5 *2119:A1 *2121:A2 0
6 *2119:A1 *475:35 0
7 *2121:A1 *390:6 3.23663e-05
8 *378:10 *390:6 0.000295281
*RES
1 *2116:Y *378:10 6.91 
2 *378:10 *2119:A1 7.49 
3 *378:10 *2121:A1 2.395 
*END

*D_NET *379 0.00193308
*CONN
*I *2118:A I *D sky130_fd_sc_hd__inv_2
*I *2120:A I *D sky130_fd_sc_hd__nand2_2
*I *2129:A2 I *D sky130_fd_sc_hd__o21a_2
*I *2117:Y O *D sky130_fd_sc_hd__a21boi_2
*CAP
1 *2118:A 0
2 *2120:A 0.000116001
3 *2129:A2 0.000197005
4 *2117:Y 0.000320316
5 *379:23 0.000116001
6 *379:10 0.000517321
7 *2129:A2 *2119:A2 0.000159964
8 *2129:A2 *2395:A 4.47209e-05
9 *2129:A2 *471:10 0
10 *379:10 *2103:B 0
11 *379:10 *471:10 0
12 *379:10 *546:8 0
13 *2106:B *379:10 0
14 *2108:B *379:10 0
15 *2113:B *2129:A2 0.000165076
16 *2117:A1 *379:10 2.75229e-05
17 *2129:B1 *2129:A2 0.000158472
18 *369:14 *379:10 0
19 *375:10 *2120:A 4.80285e-05
20 *375:10 *2129:A2 3.84331e-05
21 *375:10 *379:10 2.42236e-05
*RES
1 *2117:Y *379:10 8.745 
2 *379:10 *2129:A2 9.27 
3 *379:10 *379:23 2 
4 *379:23 *2120:A 3.43 
5 *379:23 *2118:A 1.6 
*END

*D_NET *380 0.00092939
*CONN
*I *2119:A2 I *D sky130_fd_sc_hd__o21bai_2
*I *2118:Y O *D sky130_fd_sc_hd__inv_2
*CAP
1 *2119:A2 0.000199664
2 *2118:Y 0.000199664
3 *2128:C *2119:A2 0
4 *2129:A2 *2119:A2 0.000159964
5 *2129:B1 *2119:A2 3.09233e-05
6 *375:10 *2119:A2 0.000140912
7 *376:12 *2119:A2 4.471e-05
8 *376:18 *2119:A2 0.000153554
*RES
1 *2118:Y *2119:A2 11.625 
*END

*D_NET *381 0.000523679
*CONN
*I *2121:B1 I *D sky130_fd_sc_hd__o21ai_2
*I *2119:Y O *D sky130_fd_sc_hd__o21bai_2
*CAP
1 *2121:B1 0.000133866
2 *2119:Y 0.000133866
3 *2121:B1 *2121:A2 8.70923e-05
4 *2121:B1 *2395:A 1.61831e-05
5 *2121:B1 *390:6 1.33293e-05
6 *2129:B1 *2121:B1 8.02765e-05
7 *375:10 *2121:B1 1.07797e-05
8 *376:18 *2121:B1 4.82863e-05
*RES
1 *2119:Y *2121:B1 10.335 
*END

*D_NET *382 0.000617393
*CONN
*I *2121:A2 I *D sky130_fd_sc_hd__o21ai_2
*I *2120:Y O *D sky130_fd_sc_hd__nand2_2
*CAP
1 *2121:A2 0.00023238
2 *2120:Y 0.00023238
3 *2119:A1 *2121:A2 0
4 *2120:B *2121:A2 6.55406e-05
5 *2121:B1 *2121:A2 8.70923e-05
6 *2129:B1 *2121:A2 0
7 *375:10 *2121:A2 0
*RES
1 *2120:Y *2121:A2 11.07 
*END

*D_NET *383 0.00259417
*CONN
*I *2124:A1 I *D sky130_fd_sc_hd__o21bai_2
*I *2126:A I *D sky130_fd_sc_hd__or3b_2
*I *2125:A I *D sky130_fd_sc_hd__nor3b_2
*I *2122:Y O *D sky130_fd_sc_hd__nor2_2
*CAP
1 *2124:A1 0
2 *2126:A 8.11445e-05
3 *2125:A 0
4 *2122:Y 0.000179541
5 *383:20 0.000298221
6 *383:8 0.000396617
7 *2126:A *2126:C_N 8.49205e-05
8 *2126:A *2147:A1 6.88543e-05
9 *2126:A *2428:A 4.77757e-05
10 *2126:A *460:29 0.000269904
11 *383:8 *2122:B 6.31625e-05
12 *383:8 *2123:A 4.77757e-05
13 *383:8 *384:6 2.66586e-05
14 *383:8 *455:12 0.000479125
15 *383:8 *513:22 0.000251388
16 *383:20 *2125:B 3.68682e-05
17 *383:20 *2126:C_N 0
18 *383:20 *2147:A1 2.04101e-05
19 *383:20 *385:14 0
20 *383:20 *457:12 0.000137578
21 *383:20 *457:22 8.53113e-06
22 *383:20 *460:29 9.5694e-05
*RES
1 *2122:Y *383:8 7.495 
2 *383:8 *383:20 8.275 
3 *383:20 *2125:A 1.6 
4 *383:20 *2126:A 4.48 
5 *383:8 *2124:A1 1.6 
*END

*D_NET *384 0.00148884
*CONN
*I *2126:B I *D sky130_fd_sc_hd__or3b_2
*I *2125:B I *D sky130_fd_sc_hd__nor3b_2
*I *2124:A2 I *D sky130_fd_sc_hd__o21bai_2
*I *2123:X O *D sky130_fd_sc_hd__and2_2
*CAP
1 *2126:B 0.000200018
2 *2125:B 6.05751e-05
3 *2124:A2 2.78682e-05
4 *2123:X 0
5 *384:6 0.000252264
6 *384:4 0.000363839
7 *2124:A2 *513:22 3.26889e-05
8 *2125:B *2125:C_N 0
9 *2125:B *385:14 4.40899e-05
10 *2126:B *2126:C_N 6.10014e-05
11 *2126:B *385:14 2.37321e-05
12 *2126:B *387:8 6.02123e-05
13 *2126:B *455:23 2.25161e-05
14 *2126:B *460:29 0.000157555
15 *384:6 *385:14 8.65905e-05
16 *384:6 *513:22 3.23663e-05
17 *383:8 *384:6 2.66586e-05
18 *383:20 *2125:B 3.68682e-05
*RES
1 *2123:X *384:4 1.6 
2 *384:4 *384:6 2.175 
3 *384:6 *2124:A2 2.215 
4 *384:6 *2125:B 6.98 
5 *384:4 *2126:B 9.23 
*END

*D_NET *385 0.00282753
*CONN
*I *2127:A I *D sky130_fd_sc_hd__nand2_2
*I *2137:A1 I *D sky130_fd_sc_hd__a21o_2
*I *2154:A I *D sky130_fd_sc_hd__and4_2
*I *2124:Y O *D sky130_fd_sc_hd__o21bai_2
*CAP
1 *2127:A 0.000180792
2 *2137:A1 0
3 *2154:A 2.08101e-05
4 *2124:Y 0.000572341
5 *385:23 0.000396736
6 *385:14 0.000809095
7 *2127:A *2127:B 8.46125e-05
8 *2127:A *387:53 2.86975e-05
9 *2127:A *395:6 4.1527e-05
10 *385:14 *2126:C_N 0.00013521
11 *385:14 *2142:A2 0
12 *385:14 *2144:A 5.83121e-06
13 *385:14 *2292:A 0.000175848
14 *385:14 *387:8 0
15 *385:14 *387:12 1.47347e-05
16 *385:14 *460:10 0
17 *385:14 *513:22 5.30673e-05
18 *385:23 *2137:B1 1.52352e-05
19 *385:23 *2138:B 4.66108e-05
20 *385:23 *387:12 6.32751e-05
21 *385:23 *387:53 2.86975e-05
22 *2125:B *385:14 4.40899e-05
23 *2126:B *385:14 2.37321e-05
24 *383:20 *385:14 0
25 *384:6 *385:14 8.65905e-05
*RES
1 *2124:Y *385:14 16.13 
2 *385:14 *2154:A 1.96 
3 *385:14 *385:23 2.865 
4 *385:23 *2137:A1 1.6 
5 *385:23 *2127:A 4.6 
*END

*D_NET *386 0.00173356
*CONN
*I *2146:A1 I *D sky130_fd_sc_hd__o21ai_2
*I *2147:A1 I *D sky130_fd_sc_hd__o21ai_2
*I *2125:Y O *D sky130_fd_sc_hd__nor3b_2
*CAP
1 *2146:A1 6.94631e-05
2 *2147:A1 0.000484167
3 *2125:Y 0.000414703
4 *2146:A1 *2146:A2 1.23437e-05
5 *2146:A1 *2147:A2 7.56981e-05
6 *2146:A1 *2147:B1 6.31104e-05
7 *2146:A1 *2397:A 2.44416e-05
8 *2147:A1 *1983:A 4.82863e-05
9 *2147:A1 *2126:C_N 8.49205e-05
10 *2147:A1 *2428:A 0.000160314
11 *2147:A1 *456:12 0.00015997
12 *2147:A1 *456:22 2.39481e-05
13 *2147:A1 *460:29 2.29321e-05
14 *2126:A *2147:A1 6.88543e-05
15 *383:20 *2147:A1 2.04101e-05
*RES
1 *2125:Y *2147:A1 14.55 
2 *2147:A1 *2146:A1 9.345 
*END

*D_NET *387 0.00400191
*CONN
*I *2127:B I *D sky130_fd_sc_hd__nand2_2
*I *2137:A2 I *D sky130_fd_sc_hd__a21o_2
*I *2154:B I *D sky130_fd_sc_hd__and4_2
*I *2165:A2 I *D sky130_fd_sc_hd__o211a_2
*I *2157:A2 I *D sky130_fd_sc_hd__o21a_2
*I *2126:X O *D sky130_fd_sc_hd__or3b_2
*CAP
1 *2127:B 2.35052e-05
2 *2137:A2 0
3 *2154:B 2.11331e-05
4 *2165:A2 6.489e-05
5 *2157:A2 2.11447e-05
6 *2126:X 0.000383018
7 *387:53 0.000150184
8 *387:14 0.000176762
9 *387:12 0.000221337
10 *387:8 0.000619173
11 *2127:B *2137:B1 0.000122701
12 *2154:B *2144:A 2.92496e-05
13 *2154:B *2292:A 5.16348e-05
14 *2157:A2 *2140:B 4.66108e-05
15 *2157:A2 *401:14 5.83121e-06
16 *2165:A2 *2165:B1 0.000180689
17 *2165:A2 *400:10 1.53032e-05
18 *2165:A2 *416:10 7.55391e-05
19 *387:8 *2138:B 0.000134509
20 *387:8 *2292:A 0
21 *387:8 *2367:A 0.000189529
22 *387:8 *2397:A 0.000253074
23 *387:8 *404:12 0
24 *387:8 *455:23 5.33085e-05
25 *387:12 *2138:B 5.83121e-06
26 *387:12 *2144:A 3.57349e-05
27 *387:12 *413:12 5.83121e-06
28 *387:14 *2140:B 0.000313857
29 *387:14 *2144:A 4.66108e-05
30 *387:14 *401:14 2.16917e-05
31 *387:14 *401:27 0.000307728
32 *387:14 *413:12 5.8825e-05
33 *387:53 *2137:B1 8.64421e-05
34 *2126:B *387:8 6.02123e-05
35 *2127:A *2127:B 8.46125e-05
36 *2127:A *387:53 2.86975e-05
37 *385:14 *387:8 0
38 *385:14 *387:12 1.47347e-05
39 *385:23 *387:12 6.32751e-05
40 *385:23 *387:53 2.86975e-05
*RES
1 *2126:X *387:8 12.63 
2 *387:8 *387:12 4.175 
3 *387:12 *387:14 3.9 
4 *387:14 *2157:A2 2.05 
5 *387:14 *2165:A2 7.745 
6 *387:12 *2154:B 6.215 
7 *387:8 *387:53 4.4 
8 *387:53 *2137:A2 1.6 
9 *387:53 *2127:B 2.74 
*END

*D_NET *388 0.00115379
*CONN
*I *2136:B1 I *D sky130_fd_sc_hd__a21oi_4
*I *2145:A1 I *D sky130_fd_sc_hd__o21bai_2
*I *2127:Y O *D sky130_fd_sc_hd__nand2_2
*CAP
1 *2136:B1 0
2 *2145:A1 0.000274639
3 *2127:Y 0.000128442
4 *388:8 0.000403081
5 *2145:A1 *2145:A2 3.95724e-05
6 *2145:A1 *2145:B1_N 1.14169e-05
7 *2145:A1 *2146:A2 0.00011852
8 *2145:A1 *2147:A2 4.57056e-05
9 *2145:A1 *404:12 2.60986e-05
10 *388:8 *395:23 9.50342e-06
11 *388:8 *404:12 9.68132e-05
*RES
1 *2127:Y *388:8 6 
2 *388:8 *2145:A1 8.835 
3 *388:8 *2136:B1 3.6 
*END

*D_NET *389 0.00223678
*CONN
*I *2130:A I *D sky130_fd_sc_hd__nor2_4
*I *2132:A2 I *D sky130_fd_sc_hd__o21a_4
*I *2133:A1 I *D sky130_fd_sc_hd__o21ai_2
*I *2128:Y O *D sky130_fd_sc_hd__nand3_4
*CAP
1 *2130:A 1.96262e-05
2 *2132:A2 0
3 *2133:A1 0.000126257
4 *2128:Y 0.000647819
5 *389:14 0.00075445
6 *2130:A *2135:B1 3.00381e-05
7 *2133:A1 *2133:A2 7.37195e-05
8 *2133:A1 *2133:B1 0.000116853
9 *389:14 *2087:A1 0.0001249
10 *389:14 *2087:C1 0.000124007
11 *389:14 *2099:A1 0.000132977
12 *389:14 *2133:A2 3.69334e-05
13 *389:14 *491:15 2.05056e-05
14 *2087:B1 *389:14 2.86914e-05
*RES
1 *2128:Y *389:14 13.65 
2 *389:14 *2133:A1 6.195 
3 *389:14 *2132:A2 3.6 
4 *2133:A1 *2130:A 3.65 
*END

*D_NET *390 0.00394658
*CONN
*I *2133:B1 I *D sky130_fd_sc_hd__o21ai_2
*I *2132:B1 I *D sky130_fd_sc_hd__o21a_4
*I *2129:X O *D sky130_fd_sc_hd__o21a_2
*CAP
1 *2133:B1 7.50006e-05
2 *2132:B1 0.000162547
3 *2129:X 0.00133188
4 *390:6 0.00156942
5 *2133:B1 *2133:A2 0
6 *390:6 *2132:A1 0.000122155
7 *390:6 *2395:A 0.00012657
8 *390:6 *452:22 4.40446e-05
9 *2121:A1 *390:6 3.23663e-05
10 *2121:B1 *390:6 1.33293e-05
11 *2133:A1 *2133:B1 0.000116853
12 *2374:A *2132:B1 4.67945e-05
13 *2374:A *390:6 1.03423e-05
14 *378:10 *390:6 0.000295281
*RES
1 *2129:X *390:6 18.265 
2 *390:6 *2132:B1 3.7 
3 *390:6 *2133:B1 7.235 
*END

*D_NET *391 0.00176699
*CONN
*I *2429:A I *D sky130_fd_sc_hd__buf_2
*I *2131:C1 I *D sky130_fd_sc_hd__o221ai_4
*I *2130:Y O *D sky130_fd_sc_hd__nor2_4
*CAP
1 *2429:A 2.60222e-05
2 *2131:C1 0.000220559
3 *2130:Y 0.000145221
4 *391:8 0.000391802
5 *2131:C1 *2131:B2 0
6 *2131:C1 *2134:B 0.00010479
7 *2131:C1 *2135:A3 0.000116158
8 *2131:C1 *2135:B1 0.000137578
9 *2429:A *2135:A3 2.49909e-05
10 *391:8 *2135:B1 0.000319174
11 *1981:B1 *2131:C1 0
12 *1982:B *2131:C1 0.000210839
13 *2077:C1 *2131:C1 1.26548e-05
14 *141:18 *2131:C1 5.72004e-05
15 *254:10 *391:8 0
*RES
1 *2130:Y *391:8 7.275 
2 *391:8 *2131:C1 9.57 
3 *391:8 *2429:A 4.05 
*END

*D_NET *392 0.00571178
*CONN
*I *2155:A1 I *D sky130_fd_sc_hd__a21boi_2
*I *2136:A1 I *D sky130_fd_sc_hd__a21oi_4
*I *2134:B I *D sky130_fd_sc_hd__nand2_8
*I *2131:Y O *D sky130_fd_sc_hd__o221ai_4
*CAP
1 *2155:A1 0.000213327
2 *2136:A1 0.000154557
3 *2134:B 0.00192276
4 *2131:Y 0.00180765
5 *392:26 0.000482994
6 *2134:B *2135:A3 0.000117832
7 *2134:B *2385:A 5.53249e-06
8 *2136:A1 *2136:A2 0.000124407
9 *2136:A1 *393:20 1.07797e-05
10 *2136:A1 *536:10 0.000163199
11 *2155:A1 *2155:A2 2.68721e-05
12 *2155:A1 *393:20 0.000178512
13 *392:26 *2134:A 8.49205e-05
14 *1982:B *2134:B 0.000233918
15 *2001:A1 *2134:B 7.97252e-05
16 *2002:B *2134:B 0
17 *2131:C1 *2134:B 0.00010479
18 *254:10 *2134:B 0
*RES
1 *2131:Y *2134:B 36.3 
2 *2134:B *392:26 5.43 
3 *392:26 *2136:A1 6.975 
4 *392:26 *2155:A1 8.235 
*END

*D_NET *393 0.00754465
*CONN
*I *2155:A2 I *D sky130_fd_sc_hd__a21boi_2
*I *2134:A I *D sky130_fd_sc_hd__nand2_8
*I *2136:A2 I *D sky130_fd_sc_hd__a21oi_4
*I *2132:X O *D sky130_fd_sc_hd__o21a_4
*CAP
1 *2155:A2 1.89378e-05
2 *2134:A 0.000109202
3 *2136:A2 0.000110257
4 *2132:X 0.00216911
5 *393:20 0.00031747
6 *393:18 0.00228606
7 *2134:A *395:6 3.00381e-05
8 *2136:A2 *1991:A 0.000160665
9 *2136:A2 *536:10 4.35348e-05
10 *2155:A2 *1991:A 7.70828e-05
11 *393:18 *2005:B 9.66021e-05
12 *393:18 *2006:A 5.0751e-05
13 *393:18 *2133:A2 0
14 *393:18 *2135:B1 8.53113e-06
15 *393:18 *537:16 1.99619e-05
16 *393:20 *1991:A 0.000338219
17 *2013:A *393:18 0.00019637
18 *2014:B *393:18 1.61831e-05
19 *2026:A2 *393:18 4.66826e-05
20 *2074:A2 *393:18 0.000106736
21 *2076:A *393:18 4.74237e-05
22 *2136:A1 *2136:A2 0.000124407
23 *2136:A1 *393:20 1.07797e-05
24 *2155:A1 *2155:A2 2.68721e-05
25 *2155:A1 *393:20 0.000178512
26 *2419:A *393:18 5.72091e-05
27 *276:8 *393:18 5.90938e-05
28 *278:19 *393:18 0.000203402
29 *278:27 *393:18 0.000253593
30 *280:12 *393:18 9.75161e-05
31 *337:16 *393:18 0.000127467
32 *341:6 *393:18 7.10578e-05
33 *392:26 *2134:A 8.49205e-05
*RES
1 *2132:X *393:18 36.79 
2 *393:18 *393:20 3.93 
3 *393:20 *2136:A2 6.63 
4 *393:20 *2134:A 5.445 
5 *393:18 *2155:A2 4.47 
*END

*D_NET *394 0.0021773
*CONN
*I *2135:B1 I *D sky130_fd_sc_hd__a31oi_2
*I *2133:Y O *D sky130_fd_sc_hd__o21ai_2
*CAP
1 *2135:B1 0.000566912
2 *2133:Y 0.000566912
3 *2135:B1 *2133:A2 0
4 *2077:C1 *2135:B1 0.0003175
5 *2130:A *2135:B1 3.00381e-05
6 *2131:C1 *2135:B1 0.000137578
7 *2135:A2 *2135:B1 5.96646e-05
8 *2419:A *2135:B1 0
9 *141:18 *2135:B1 0.000170991
10 *254:10 *2135:B1 0
11 *391:8 *2135:B1 0.000319174
12 *393:18 *2135:B1 8.53113e-06
*RES
1 *2133:Y *2135:B1 19.17 
*END

*D_NET *395 0.00348882
*CONN
*I *2160:A1 I *D sky130_fd_sc_hd__a21o_2
*I *2167:A1 I *D sky130_fd_sc_hd__a21boi_2
*I *2162:A I *D sky130_fd_sc_hd__nand4_4
*I *2156:A I *D sky130_fd_sc_hd__nand2_2
*I *2137:B1 I *D sky130_fd_sc_hd__a21o_2
*I *2134:Y O *D sky130_fd_sc_hd__nand2_8
*CAP
1 *2160:A1 3.15298e-05
2 *2167:A1 0
3 *2162:A 0.000154068
4 *2156:A 0
5 *2137:B1 0.0001287
6 *2134:Y 0.000248584
7 *395:40 0.000268969
8 *395:27 0.000361941
9 *395:23 0.000468245
10 *395:6 0.00056696
11 *2160:A1 *2155:B1_N 9.47972e-06
12 *2160:A1 *2160:B1 6.69608e-06
13 *2160:A1 *413:43 3.64998e-06
14 *2162:A *2162:B 0.000120655
15 *2162:A *2162:D 0
16 *2162:A *2171:A2 4.82863e-05
17 *2162:A *2292:A 0.000201393
18 *2162:A *413:12 3.09233e-05
19 *395:23 *404:12 0.000139238
20 *395:27 *2162:D 2.86975e-05
21 *395:27 *413:19 1.09281e-05
22 *395:27 *413:21 5.4155e-06
23 *395:27 *413:43 9.02466e-05
24 *395:40 *413:19 0.000239605
25 *395:40 *537:16 1.91597e-05
26 *2127:A *395:6 4.1527e-05
27 *2127:B *2137:B1 0.000122701
28 *2134:A *395:6 3.00381e-05
29 *385:23 *2137:B1 1.52352e-05
30 *387:53 *2137:B1 8.64421e-05
31 *388:8 *395:23 9.50342e-06
*RES
1 *2134:Y *395:6 5.5 
2 *395:6 *2137:B1 4.135 
3 *395:6 *395:23 7.525 
4 *395:23 *395:27 3.48 
5 *395:27 *2156:A 1.6 
6 *395:27 *395:40 2.74125 
7 *395:40 *2162:A 9.14 
8 *395:40 *2167:A1 1.6 
9 *395:23 *2160:A1 2.05 
*END

*D_NET *396 0.00593076
*CONN
*I *2145:A2 I *D sky130_fd_sc_hd__o21bai_2
*I *2135:Y O *D sky130_fd_sc_hd__a31oi_2
*CAP
1 *2145:A2 0.00208177
2 *2135:Y 0.00208177
3 *2145:A2 *1993:A 1.61831e-05
4 *1994:B *2145:A2 1.46744e-05
5 *1995:B *2145:A2 0.000461941
6 *2001:A1 *2145:A2 0.000168213
7 *2001:A2 *2145:A2 1.56428e-05
8 *2001:B1 *2145:A2 0.00026872
9 *2003:A2 *2145:A2 0.00015806
10 *2145:A1 *2145:A2 3.95724e-05
11 *254:10 *2145:A2 3.39151e-05
12 *267:6 *2145:A2 0.000197269
13 *267:19 *2145:A2 0.000393029
*RES
1 *2135:Y *2145:A2 35.55 
*END

*D_NET *397 0.000819545
*CONN
*I *2146:A2 I *D sky130_fd_sc_hd__o21ai_2
*I *2138:A_N I *D sky130_fd_sc_hd__and2b_4
*I *2136:Y O *D sky130_fd_sc_hd__a21oi_4
*CAP
1 *2146:A2 9.51884e-05
2 *2138:A_N 7.55109e-05
3 *2136:Y 2.84747e-05
4 *397:6 0.000199174
5 *2138:A_N *536:10 3.88917e-05
6 *2146:A2 *2145:B1_N 4.82863e-05
7 *2146:A2 *2146:B1 2.23611e-05
8 *2146:A2 *2147:A2 4.82919e-05
9 *2146:A2 *404:12 0.00011686
10 *397:6 *536:10 1.56428e-05
11 *2145:A1 *2146:A2 0.00011852
12 *2146:A1 *2146:A2 1.23437e-05
*RES
1 *2136:Y *397:6 2.05 
2 *397:6 *2138:A_N 2.755 
3 *397:6 *2146:A2 8.285 
*END

*D_NET *398 0.000414448
*CONN
*I *2138:B I *D sky130_fd_sc_hd__and2b_4
*I *2137:X O *D sky130_fd_sc_hd__a21o_2
*CAP
1 *2138:B 9.88616e-05
2 *2137:X 9.88616e-05
3 *2138:B *2397:A 2.97746e-05
4 *385:23 *2138:B 4.66108e-05
5 *387:8 *2138:B 0.000134509
6 *387:12 *2138:B 5.83121e-06
*RES
1 *2137:X *2138:B 9.285 
*END

*D_NET *399 0.00400011
*CONN
*I *2143:A1 I *D sky130_fd_sc_hd__o21bai_2
*I *2142:A1 I *D sky130_fd_sc_hd__o21ba_2
*I *2141:A I *D sky130_fd_sc_hd__or3b_2
*I *2139:Y O *D sky130_fd_sc_hd__nor2_2
*CAP
1 *2143:A1 0
2 *2142:A1 0.000376695
3 *2141:A 0.000220218
4 *2139:Y 0.00042267
5 *399:12 0.000609817
6 *399:10 0.000435574
7 *2141:A *2141:B 0.000187924
8 *2141:A *401:10 2.75145e-05
9 *2141:A *549:10 0.000468171
10 *2142:A1 *2141:B 4.38278e-05
11 *2142:A1 *2142:A2 9.37731e-05
12 *2142:A1 *2143:B1_N 0.000139933
13 *2142:A1 *400:29 1.48096e-05
14 *2142:A1 *403:10 3.96284e-05
15 *2142:A1 *451:16 2.31724e-05
16 *2142:A1 *460:10 1.94636e-05
17 *2142:A1 *514:23 8.53113e-06
18 *399:10 *2139:B 0.000286366
19 *399:10 *2141:B 8.08153e-06
20 *399:10 *537:16 8.8266e-05
21 *399:10 *549:10 0.000413153
22 *399:12 *2141:B 1.949e-05
23 *399:12 *549:10 5.30352e-05
24 *2338:A *399:10 0
*RES
1 *2139:Y *399:10 12.84 
2 *399:10 *399:12 0.615 
3 *399:12 *2141:A 10.2 
4 *399:12 *2142:A1 13 
5 *399:10 *2143:A1 3.6 
*END

*D_NET *400 0.00335786
*CONN
*I *2143:A2 I *D sky130_fd_sc_hd__o21bai_2
*I *2141:B I *D sky130_fd_sc_hd__or3b_2
*I *2142:A2 I *D sky130_fd_sc_hd__o21ba_2
*I *2140:X O *D sky130_fd_sc_hd__and2_2
*CAP
1 *2143:A2 2.08101e-05
2 *2141:B 0.000447238
3 *2142:A2 0.000125208
4 *2140:X 0.000386302
5 *400:29 0.000625111
6 *400:10 0.000668572
7 *2141:B *549:10 0
8 *2142:A2 *2143:B1_N 2.60986e-05
9 *2142:A2 *2292:A 0
10 *2142:A2 *401:10 1.52945e-05
11 *2142:A2 *451:16 2.11084e-05
12 *2142:A2 *460:10 6.55406e-05
13 *400:10 *2144:B 0
14 *400:10 *2165:B1 7.1932e-06
15 *400:10 *401:10 0.000111522
16 *400:10 *403:10 0
17 *400:10 *416:10 7.23602e-05
18 *400:10 *462:8 0.0001249
19 *400:29 *403:10 0.00015896
20 *2141:A *2141:B 0.000187924
21 *2142:A1 *2141:B 4.38278e-05
22 *2142:A1 *2142:A2 9.37731e-05
23 *2142:A1 *400:29 1.48096e-05
24 *2165:A2 *400:10 1.53032e-05
25 *2314:A *2141:B 9.84372e-05
26 *2315:A *2141:B 0
27 *385:14 *2142:A2 0
28 *399:10 *2141:B 8.08153e-06
29 *399:12 *2141:B 1.949e-05
*RES
1 *2140:X *400:10 9.945 
2 *400:10 *2142:A2 6.555 
3 *400:10 *400:29 4.535 
4 *400:29 *2141:B 14.765 
5 *400:29 *2143:A2 1.96 
*END

*D_NET *401 0.00421359
*CONN
*I *2165:B1 I *D sky130_fd_sc_hd__o211a_2
*I *2144:A I *D sky130_fd_sc_hd__nand2_2
*I *2154:C I *D sky130_fd_sc_hd__and4_2
*I *2157:B1 I *D sky130_fd_sc_hd__o21a_2
*I *2141:X O *D sky130_fd_sc_hd__or3b_2
*CAP
1 *2165:B1 0.000108439
2 *2144:A 0.000170852
3 *2154:C 0
4 *2157:B1 1.45824e-05
5 *2141:X 0.000555136
6 *401:27 0.000328047
7 *401:14 0.000199295
8 *401:10 0.000691093
9 *2144:A *2292:A 1.97849e-05
10 *2144:A *413:12 0.000137578
11 *2144:A *462:8 2.75229e-05
12 *2165:B1 *2139:B 0
13 *2165:B1 *2165:A1 0.000183043
14 *2165:B1 *402:10 2.22288e-05
15 *401:10 *2141:C_N 1.56428e-05
16 *401:10 *2143:B1_N 0.000176873
17 *401:10 *2289:A 7.60965e-05
18 *401:10 *402:10 0.000111422
19 *401:10 *514:23 0.000305519
20 *401:10 *549:10 0
21 *401:27 *2154:D 2.75229e-05
22 S[29] *401:10 1.17701e-05
23 *2141:A *401:10 2.75145e-05
24 *2142:A2 *401:10 1.52945e-05
25 *2154:B *2144:A 2.92496e-05
26 *2157:A2 *401:14 5.83121e-06
27 *2165:A2 *2165:B1 0.000180689
28 *2337:A *401:10 0.000236246
29 *385:14 *2144:A 5.83121e-06
30 *387:12 *2144:A 3.57349e-05
31 *387:14 *2144:A 4.66108e-05
32 *387:14 *401:14 2.16917e-05
33 *387:14 *401:27 0.000307728
34 *400:10 *2165:B1 7.1932e-06
35 *400:10 *401:10 0.000111522
*RES
1 *2141:X *401:10 15.405 
2 *401:10 *401:14 2.45 
3 *401:14 *2157:B1 1.96 
4 *401:14 *401:27 3.675 
5 *401:27 *2154:C 1.6 
6 *401:27 *2144:A 9.245 
7 *401:10 *2165:B1 6.81 
*END

*D_NET *402 0.00181856
*CONN
*I *2165:A1 I *D sky130_fd_sc_hd__o211a_2
*I *2157:A1 I *D sky130_fd_sc_hd__o21a_2
*I *2142:X O *D sky130_fd_sc_hd__o21ba_2
*CAP
1 *2165:A1 0.000113185
2 *2157:A1 0
3 *2142:X 0.000174132
4 *402:10 0.000287316
5 *2165:A1 *2139:B 5.72091e-05
6 *2165:A1 *2140:A 4.65821e-05
7 *2165:A1 *2165:C1 3.7445e-05
8 *2165:A1 *462:8 0.000124231
9 *2165:A1 *549:10 1.82476e-05
10 *402:10 *2142:B1_N 2.11084e-05
11 *402:10 *2396:A 6.55328e-05
12 *402:10 *549:10 2.63122e-05
13 S[29] *402:10 0.000290289
14 *2165:B1 *2165:A1 0.000183043
15 *2165:B1 *402:10 2.22288e-05
16 *2337:A *402:10 0.000240274
17 *401:10 *402:10 0.000111422
*RES
1 *2142:X *402:10 9.51 
2 *402:10 *2157:A1 3.6 
3 *402:10 *2165:A1 7.37625 
*END

*D_NET *403 0.00197497
*CONN
*I *2144:B I *D sky130_fd_sc_hd__nand2_2
*I *2154:D I *D sky130_fd_sc_hd__and4_2
*I *2143:Y O *D sky130_fd_sc_hd__o21bai_2
*CAP
1 *2144:B 0.000182578
2 *2154:D 3.58834e-05
3 *2143:Y 0.000352037
4 *403:10 0.000570498
5 *2144:B *2140:A 4.66108e-05
6 *2144:B *2140:B 0.000157602
7 *2144:B *2292:A 0.000223957
8 *2144:B *462:8 1.91597e-05
9 *403:10 *2292:A 0.000160529
10 *2142:A1 *403:10 3.96284e-05
11 *400:10 *2144:B 0
12 *400:10 *403:10 0
13 *400:29 *403:10 0.00015896
14 *401:27 *2154:D 2.75229e-05
*RES
1 *2143:Y *403:10 10.23 
2 *403:10 *2154:D 4.05 
3 *403:10 *2144:B 7.86 
*END

*D_NET *404 0.00212826
*CONN
*I *2145:B1_N I *D sky130_fd_sc_hd__o21bai_2
*I *2146:B1 I *D sky130_fd_sc_hd__o21ai_2
*I *2144:Y O *D sky130_fd_sc_hd__nand2_2
*CAP
1 *2145:B1_N 6.15391e-05
2 *2146:B1 0.000163246
3 *2144:Y 0.000422642
4 *404:12 0.000647427
5 *2145:B1_N *2147:A2 2.23589e-05
6 *404:12 *462:8 0.000349972
7 *2145:A1 *2145:B1_N 1.14169e-05
8 *2145:A1 *404:12 2.60986e-05
9 *2146:A2 *2145:B1_N 4.82863e-05
10 *2146:A2 *2146:B1 2.23611e-05
11 *2146:A2 *404:12 0.00011686
12 *387:8 *404:12 0
13 *388:8 *404:12 9.68132e-05
14 *395:23 *404:12 0.000139238
*RES
1 *2144:Y *404:12 14.525 
2 *404:12 *2146:B1 4.045 
3 *404:12 *2145:B1_N 3.115 
*END

*D_NET *405 0.000563986
*CONN
*I *2147:A2 I *D sky130_fd_sc_hd__o21ai_2
*I *2145:Y O *D sky130_fd_sc_hd__o21bai_2
*CAP
1 *2147:A2 0.000185966
2 *2145:Y 0.000185966
3 *2145:A1 *2147:A2 4.57056e-05
4 *2145:B1_N *2147:A2 2.23589e-05
5 *2146:A1 *2147:A2 7.56981e-05
6 *2146:A2 *2147:A2 4.82919e-05
*RES
1 *2145:Y *2147:A2 10.665 
*END

*D_NET *406 0.000254785
*CONN
*I *2147:B1 I *D sky130_fd_sc_hd__o21ai_2
*I *2146:Y O *D sky130_fd_sc_hd__o21ai_2
*CAP
1 *2147:B1 3.80302e-05
2 *2146:Y 3.80302e-05
3 *2147:B1 *2397:A 0.000115614
4 *2146:A1 *2147:B1 6.31104e-05
*RES
1 *2146:Y *2147:B1 8.58 
*END

*D_NET *407 0.00126556
*CONN
*I *2150:A I *D sky130_fd_sc_hd__or3b_2
*I *2151:A1 I *D sky130_fd_sc_hd__o21ba_2
*I *2152:A1 I *D sky130_fd_sc_hd__o21bai_2
*I *2148:Y O *D sky130_fd_sc_hd__nor2_2
*CAP
1 *2150:A 0.00025821
2 *2151:A1 0.000267879
3 *2152:A1 6.93162e-06
4 *2148:Y 6.93162e-06
5 *407:16 0.000526089
6 *2150:A *2028:B 3.64998e-06
7 *2150:A *2148:B 4.6368e-06
8 *2150:A *2150:B 6.69608e-06
9 *2150:A *411:8 0
10 *2151:A1 *2148:B 4.57183e-05
11 *2151:A1 *2151:A2 6.83538e-05
12 *2151:A1 *2151:B1_N 3.70488e-05
13 *2152:A1 *2148:B 3.34183e-05
14 *288:12 *2150:A 0
*RES
1 *2148:Y *2152:A1 3.65 
2 *2148:Y *407:16 1.6 
3 *407:16 *2151:A1 5.86 
4 *407:16 *2150:A 9.515 
*END

*D_NET *408 0.00142895
*CONN
*I *2151:A2 I *D sky130_fd_sc_hd__o21ba_2
*I *2152:A2 I *D sky130_fd_sc_hd__o21bai_2
*I *2150:B I *D sky130_fd_sc_hd__or3b_2
*I *2149:X O *D sky130_fd_sc_hd__and2_2
*CAP
1 *2151:A2 0.000185875
2 *2152:A2 0
3 *2150:B 0.000115331
4 *2149:X 0.000155278
5 *408:23 0.000185875
6 *408:10 0.00027061
7 *2150:B *409:10 9.60582e-07
8 *2150:B *411:8 0.000117832
9 *2150:B *551:10 1.34361e-05
10 *2151:A2 *2148:B 8.49205e-05
11 *2151:A2 *2151:B1_N 0.000116639
12 *408:10 *2149:B 8.48064e-05
13 *408:10 *551:10 2.23407e-05
14 *2150:A *2150:B 6.69608e-06
15 *2151:A1 *2151:A2 6.83538e-05
*RES
1 *2149:X *408:10 5.775 
2 *408:10 *2150:B 5.685 
3 *408:10 *408:23 2 
4 *408:23 *2152:A2 1.6 
5 *408:23 *2151:A2 5.185 
*END

*D_NET *409 0.00520016
*CONN
*I *2162:B I *D sky130_fd_sc_hd__nand4_4
*I *2165:C1 I *D sky130_fd_sc_hd__o211a_2
*I *2166:C1 I *D sky130_fd_sc_hd__o211a_2
*I *2153:A I *D sky130_fd_sc_hd__nand2_2
*I *2150:X O *D sky130_fd_sc_hd__or3b_2
*CAP
1 *2162:B 9.72037e-05
2 *2165:C1 0.000415614
3 *2166:C1 0.000147105
4 *2153:A 0.000192113
5 *2150:X 0.000141153
6 *409:46 0.000707658
7 *409:29 0.000763265
8 *409:10 0.000754586
9 *2153:A *2153:B 0.000141542
10 *2153:A *411:8 9.5433e-05
11 *2162:B *2158:A 0.000232116
12 *2165:C1 *2140:A 7.26034e-05
13 *2165:C1 *2168:B 8.71079e-05
14 *2165:C1 *2208:B2 7.36562e-05
15 *2165:C1 *2292:A 0
16 *2165:C1 *423:10 0.000122737
17 *2165:C1 *462:8 1.17309e-05
18 *2166:C1 *2166:B1 0.000177527
19 *2166:C1 *2399:A 3.63243e-05
20 *409:10 *411:8 0.000175207
21 *409:29 *2166:B1 4.08514e-05
22 *409:29 *2169:B 0.000101022
23 *409:29 *2399:A 8.41242e-05
24 *409:46 *2166:A2 0.00010957
25 *409:46 *2168:B 1.34361e-05
26 *409:46 *2171:A1 0.000160651
27 *409:46 *2208:B2 8.67663e-05
28 *2150:B *409:10 9.60582e-07
29 *2162:A *2162:B 0.000120655
30 *2165:A1 *2165:C1 3.7445e-05
*RES
1 *2150:X *409:10 6.195 
2 *409:10 *2153:A 7.17 
3 *409:10 *409:29 7.295 
4 *409:29 *2166:C1 4.39 
5 *409:29 *409:46 6.485 
6 *409:46 *2165:C1 10.5 
7 *409:46 *2162:B 6.135 
*END

*D_NET *410 0.0023696
*CONN
*I *2170:A I *D sky130_fd_sc_hd__or2_2
*I *2166:A1 I *D sky130_fd_sc_hd__o211a_2
*I *2169:A I *D sky130_fd_sc_hd__nor2_2
*I *2151:X O *D sky130_fd_sc_hd__o21ba_2
*CAP
1 *2170:A 2.18567e-05
2 *2166:A1 4.84193e-05
3 *2169:A 6.18735e-05
4 *2151:X 0.000141145
5 *410:12 0.000161993
6 *410:10 0.000214701
7 *2166:A1 *2166:B1 0.000149043
8 *2166:A1 *2169:B 0.000120655
9 *2166:A1 *2399:A 0.000258822
10 *2169:A *2171:A2 9.50342e-06
11 *2169:A *2208:B2 0.000108432
12 *2169:A *2292:A 0.000206116
13 *2170:A *516:10 4.80285e-05
14 *2170:A *551:10 8.49205e-05
15 *410:10 *2151:B1_N 2.76356e-05
16 *410:10 *2208:B1 0.000185405
17 *410:10 *2208:B2 4.47897e-05
18 *410:10 *2292:A 0.000273709
19 *410:12 *2208:B2 6.73424e-05
20 *410:12 *2292:A 0.00013521
*RES
1 *2151:X *410:10 7.56 
2 *410:10 *410:12 1.635 
3 *410:12 *2169:A 6 
4 *410:12 *2166:A1 5.9925 
5 *410:10 *2170:A 4.395 
*END

*D_NET *411 0.00165948
*CONN
*I *2153:B I *D sky130_fd_sc_hd__nand2_2
*I *2162:C I *D sky130_fd_sc_hd__nand4_4
*I *2152:Y O *D sky130_fd_sc_hd__o21bai_2
*CAP
1 *2153:B 8.70647e-05
2 *2162:C 0.000132882
3 *2152:Y 0.00022425
4 *411:8 0.000444196
5 *2162:C *2160:B1 0
6 *2162:C *2162:D 9.50342e-06
7 *2162:C *2169:B 0
8 *2162:C *2292:A 0
9 *411:8 *2169:B 0
10 *411:8 *2292:A 0
11 *411:8 *551:10 0.000231571
12 *2150:A *411:8 0
13 *2150:B *411:8 0.000117832
14 *2153:A *2153:B 0.000141542
15 *2153:A *411:8 9.5433e-05
16 *409:10 *411:8 0.000175207
*RES
1 *2152:Y *411:8 9.57 
2 *411:8 *2162:C 5.745 
3 *411:8 *2153:B 5.445 
*END

*D_NET *412 0.0010103
*CONN
*I *2159:B1 I *D sky130_fd_sc_hd__o21ai_2
*I *2160:B1 I *D sky130_fd_sc_hd__a21o_2
*I *2153:Y O *D sky130_fd_sc_hd__nand2_2
*CAP
1 *2159:B1 0.000114366
2 *2160:B1 0.000308595
3 *2153:Y 3.61979e-05
4 *412:6 0.000459158
5 *2160:B1 *2155:B1_N 8.52883e-05
6 *2160:A1 *2160:B1 6.69608e-06
7 *2162:C *2160:B1 0
*RES
1 *2153:Y *412:6 2.05 
2 *412:6 *2160:B1 10.325 
3 *412:6 *2159:B1 3.085 
*END

*D_NET *413 0.0031814
*CONN
*I *2155:B1_N I *D sky130_fd_sc_hd__a21boi_2
*I *2160:A2 I *D sky130_fd_sc_hd__a21o_2
*I *2156:B I *D sky130_fd_sc_hd__nand2_2
*I *2162:D I *D sky130_fd_sc_hd__nand4_4
*I *2167:A2 I *D sky130_fd_sc_hd__a21boi_2
*I *2154:X O *D sky130_fd_sc_hd__and4_2
*CAP
1 *2155:B1_N 8.50876e-05
2 *2160:A2 1.56502e-05
3 *2156:B 0
4 *2162:D 0.000192736
5 *2167:A2 0
6 *2154:X 0.000252995
7 *413:43 0.000148684
8 *413:21 0.000206518
9 *413:19 0.000106935
10 *413:12 0.000298203
11 *2155:B1_N *537:16 0.000273267
12 *2162:D *2158:A 2.68526e-05
13 *413:12 *2140:B 4.82863e-05
14 *413:12 *2292:A 0.000259075
15 *413:19 *537:16 0.000313341
16 *413:43 *537:16 0.000237802
17 *2144:A *413:12 0.000137578
18 *2160:A1 *2155:B1_N 9.47972e-06
19 *2160:A1 *413:43 3.64998e-06
20 *2160:B1 *2155:B1_N 8.52883e-05
21 *2162:A *2162:D 0
22 *2162:A *413:12 3.09233e-05
23 *2162:C *2162:D 9.50342e-06
24 *387:12 *413:12 5.83121e-06
25 *387:14 *413:12 5.8825e-05
26 *395:27 *2162:D 2.86975e-05
27 *395:27 *413:19 1.09281e-05
28 *395:27 *413:21 5.4155e-06
29 *395:27 *413:43 9.02466e-05
30 *395:40 *413:19 0.000239605
*RES
1 *2154:X *413:12 10.76 
2 *413:12 *2167:A2 1.6 
3 *413:12 *413:19 2.865 
4 *413:19 *413:21 0.36 
5 *413:21 *2162:D 8.9 
6 *413:21 *2156:B 1.6 
7 *413:19 *413:43 2.175 
8 *413:43 *2160:A2 1.96 
9 *413:43 *2155:B1_N 4.12 
*END

*D_NET *414 0.000723366
*CONN
*I *2159:A1 I *D sky130_fd_sc_hd__o21ai_2
*I *2155:Y O *D sky130_fd_sc_hd__a21boi_2
*CAP
1 *2159:A1 0.000163902
2 *2155:Y 0.000163902
3 *2159:A1 *1991:A 0
4 *2159:A1 *2161:B1 0.000185411
5 *2159:A1 *2399:A 0.000210151
*RES
1 *2155:Y *2159:A1 11.13 
*END

*D_NET *415 0.00172915
*CONN
*I *2168:A I *D sky130_fd_sc_hd__nand2_2
*I *2156:Y O *D sky130_fd_sc_hd__nand2_2
*CAP
1 *2168:A 0.000496203
2 *2156:Y 0.000496203
3 *2168:A *2166:A2 4.61595e-05
4 *2168:A *2167:B1_N 2.75229e-05
5 *2168:A *416:10 9.54399e-05
6 *2168:A *461:12 0.000143266
7 *2168:A *537:16 0.000424354
*RES
1 *2156:Y *2168:A 14.805 
*END

*D_NET *416 0.00339512
*CONN
*I *2166:A2 I *D sky130_fd_sc_hd__o211a_2
*I *2158:A I *D sky130_fd_sc_hd__inv_2
*I *2157:X O *D sky130_fd_sc_hd__o21a_2
*CAP
1 *2166:A2 0.000159411
2 *2158:A 0.000545289
3 *2157:X 0.00021329
4 *416:10 0.00091799
5 *2166:A2 *2168:B 5.4003e-05
6 *2166:A2 *422:29 0
7 *2166:A2 *461:12 0.000337458
8 *416:10 *2139:B 0
9 *416:10 *2140:A 0.000136884
10 *416:10 *2140:B 4.82863e-05
11 *416:10 *2168:B 0.000129735
12 *416:10 *2292:A 0
13 *416:10 *423:10 0.000159964
14 *416:10 *461:12 3.47757e-05
15 *2162:B *2158:A 0.000232116
16 *2162:D *2158:A 2.68526e-05
17 *2165:A2 *416:10 7.55391e-05
18 *2168:A *2166:A2 4.61595e-05
19 *2168:A *416:10 9.54399e-05
20 *400:10 *416:10 7.23602e-05
21 *409:46 *2166:A2 0.00010957
*RES
1 *2157:X *416:10 9.255 
2 *416:10 *2158:A 11.565 
3 *416:10 *2166:A2 8.85 
*END

*D_NET *417 0.000831146
*CONN
*I *2159:A2 I *D sky130_fd_sc_hd__o21ai_2
*I *2161:A1 I *D sky130_fd_sc_hd__o21ai_4
*I *2158:Y O *D sky130_fd_sc_hd__inv_2
*CAP
1 *2159:A2 0.000257937
2 *2161:A1 2.09808e-05
3 *2158:Y 0.000112947
4 *417:6 0.000391865
5 *2159:A2 *2161:B1 4.7416e-05
*RES
1 *2158:Y *417:6 3.085 
2 *417:6 *2161:A1 1.96 
3 *417:6 *2159:A2 9.515 
*END

*D_NET *418 0.000480724
*CONN
*I *2161:B1 I *D sky130_fd_sc_hd__o21ai_4
*I *2159:Y O *D sky130_fd_sc_hd__o21ai_2
*CAP
1 *2161:B1 0.00011723
2 *2159:Y 0.00011723
3 *2161:B1 *2399:A 1.34361e-05
4 *2159:A1 *2161:B1 0.000185411
5 *2159:A2 *2161:B1 4.7416e-05
*RES
1 *2159:Y *2161:B1 10.05 
*END

*D_NET *419 0.000204989
*CONN
*I *2161:A2 I *D sky130_fd_sc_hd__o21ai_4
*I *2160:X O *D sky130_fd_sc_hd__a21o_2
*CAP
1 *2161:A2 0.000102495
2 *2160:X 0.000102495
*RES
1 *2160:X *2161:A2 8.835 
*END

*D_NET *420 0.000439144
*CONN
*I *2171:A2 I *D sky130_fd_sc_hd__a22oi_4
*I *2162:Y O *D sky130_fd_sc_hd__nand4_4
*CAP
1 *2171:A2 6.55397e-05
2 *2162:Y 6.55397e-05
3 *2171:A2 *2208:B2 0.000140905
4 *2171:A2 *2292:A 0.00010937
5 *2162:A *2171:A2 4.82863e-05
6 *2169:A *2171:A2 9.50342e-06
*RES
1 *2162:Y *2171:A2 9.285 
*END

*D_NET *421 0.000773296
*CONN
*I *2208:A2_N I *D sky130_fd_sc_hd__o2bb2ai_4
*I *2164:B I *D sky130_fd_sc_hd__xnor2_2
*I *2163:X O *D sky130_fd_sc_hd__xor2_2
*CAP
1 *2208:A2_N 0
2 *2164:B 0.000101964
3 *2163:X 0.000180303
4 *421:8 0.000282267
5 *2164:B *2164:A 0
6 *2164:B *461:12 0
7 *421:8 *2164:A 0
8 *421:8 *517:8 0
9 *2318:A *2164:B 7.38415e-05
10 *2318:A *421:8 0.00013492
*RES
1 *2163:X *421:8 7.53 
2 *421:8 *2164:B 5.745 
3 *421:8 *2208:A2_N 3.6 
*END

*D_NET *422 0.00237198
*CONN
*I *2169:B I *D sky130_fd_sc_hd__nor2_2
*I *2166:B1 I *D sky130_fd_sc_hd__o211a_2
*I *2170:B I *D sky130_fd_sc_hd__or2_2
*I *2164:Y O *D sky130_fd_sc_hd__xnor2_2
*CAP
1 *2169:B 0.000150481
2 *2166:B1 6.79696e-05
3 *2170:B 0
4 *2164:Y 0.000168111
5 *422:29 0.000316862
6 *422:16 0.000266524
7 *2166:B1 *2399:A 4.81845e-05
8 *2169:B *2292:A 0.000185398
9 *2169:B *2399:A 3.83194e-05
10 *422:16 *2208:B2 0
11 *422:16 *461:12 0.000187064
12 *422:16 *516:10 8.39357e-05
13 *422:16 *551:10 4.99619e-05
14 *422:29 *2208:B2 0.000155928
15 *422:29 *461:12 0
16 *422:29 *516:10 2.75145e-05
17 *422:29 *551:10 3.66286e-05
18 *2162:C *2169:B 0
19 *2166:A1 *2166:B1 0.000149043
20 *2166:A1 *2169:B 0.000120655
21 *2166:A2 *422:29 0
22 *2166:C1 *2166:B1 0.000177527
23 *2352:A *422:16 0
24 *409:29 *2166:B1 4.08514e-05
25 *409:29 *2169:B 0.000101022
26 *411:8 *2169:B 0
*RES
1 *2164:Y *422:16 9.695 
2 *422:16 *2170:B 1.6 
3 *422:16 *422:29 6.34 
4 *422:29 *2166:B1 4.135 
5 *422:29 *2169:B 9.575 
*END

*D_NET *423 0.000932972
*CONN
*I *2168:B I *D sky130_fd_sc_hd__nand2_2
*I *2167:B1_N I *D sky130_fd_sc_hd__a21boi_2
*I *2165:X O *D sky130_fd_sc_hd__o211a_2
*CAP
1 *2168:B 5.74583e-05
2 *2167:B1_N 1.37561e-05
3 *2165:X 6.92385e-05
4 *423:10 0.000140453
5 *2167:B1_N *537:16 2.75229e-05
6 *423:10 *2140:A 3.00381e-05
7 *2165:C1 *2168:B 8.71079e-05
8 *2165:C1 *423:10 0.000122737
9 *2166:A2 *2168:B 5.4003e-05
10 *2168:A *2167:B1_N 2.75229e-05
11 *409:46 *2168:B 1.34361e-05
12 *416:10 *2168:B 0.000129735
13 *416:10 *423:10 0.000159964
*RES
1 *2165:X *423:10 5.94 
2 *423:10 *2167:B1_N 4.05 
3 *423:10 *2168:B 5.745 
*END

*D_NET *424 0.000495061
*CONN
*I *2171:A1 I *D sky130_fd_sc_hd__a22oi_4
*I *2166:X O *D sky130_fd_sc_hd__o211a_2
*CAP
1 *2171:A1 9.14814e-05
2 *2166:X 9.14814e-05
3 *2171:A1 *2171:B2 6.16904e-05
4 *2171:A1 *2208:B2 8.97564e-05
5 *409:46 *2171:A1 0.000160651
*RES
1 *2166:X *2171:A1 9.885 
*END

*D_NET *425 0.00211403
*CONN
*I *2208:B2 I *D sky130_fd_sc_hd__o2bb2ai_4
*I *2167:Y O *D sky130_fd_sc_hd__a21boi_2
*CAP
1 *2208:B2 0.000480579
2 *2167:Y 0.000480579
3 *2208:B2 *2208:B1 0.000293726
4 *2208:B2 *2292:A 9.1566e-05
5 *2208:B2 *461:12 0
6 *2165:C1 *2208:B2 7.36562e-05
7 *2169:A *2208:B2 0.000108432
8 *2171:A1 *2208:B2 8.97564e-05
9 *2171:A2 *2208:B2 0.000140905
10 *409:46 *2208:B2 8.67663e-05
11 *410:10 *2208:B2 4.47897e-05
12 *410:12 *2208:B2 6.73424e-05
13 *422:16 *2208:B2 0
14 *422:29 *2208:B2 0.000155928
*RES
1 *2167:Y *2208:B2 19.83 
*END

*D_NET *426 0.000287458
*CONN
*I *2171:B1 I *D sky130_fd_sc_hd__a22oi_4
*I *2168:Y O *D sky130_fd_sc_hd__nand2_2
*CAP
1 *2171:B1 4.51027e-05
2 *2168:Y 4.51027e-05
3 *2171:B1 *2400:A 5.63405e-05
4 *2171:B1 *461:12 0.000140912
*RES
1 *2168:Y *2171:B1 8.835 
*END

*D_NET *427 0.00105038
*CONN
*I *2171:B2 I *D sky130_fd_sc_hd__a22oi_4
*I *2169:Y O *D sky130_fd_sc_hd__nor2_2
*CAP
1 *2171:B2 0.000494345
2 *2169:Y 0.000494345
3 *2171:A1 *2171:B2 6.16904e-05
*RES
1 *2169:Y *2171:B2 9.305 
*END

*D_NET *428 0.000697169
*CONN
*I *2208:B1 I *D sky130_fd_sc_hd__o2bb2ai_4
*I *2170:X O *D sky130_fd_sc_hd__or2_2
*CAP
1 *2208:B1 7.84719e-05
2 *2170:X 7.84719e-05
3 *2208:B1 *2292:A 6.10941e-05
4 *2208:B2 *2208:B1 0.000293726
5 *410:10 *2208:B1 0.000185405
*RES
1 *2170:X *2208:B1 10.62 
*END

*D_NET *429 0.000342512
*CONN
*I *2174:B I *D sky130_fd_sc_hd__xnor2_2
*I *2173:X O *D sky130_fd_sc_hd__mux2_1
*CAP
1 *2174:B 0.000171256
2 *2173:X 0.000171256
*RES
1 *2173:X *2174:B 5.735 
*END

*D_NET *430 0.00140153
*CONN
*I *2177:B I *D sky130_fd_sc_hd__xor2_2
*I *2175:X O *D sky130_fd_sc_hd__a211o_2
*CAP
1 *2177:B 0.000431342
2 *2175:X 0.000431342
3 *2177:B *2398:A 4.82863e-05
4 *2177:B *518:20 0.000140912
5 *1947:B1 *2177:B 4.82863e-05
6 *1953:A2 *2177:B 1.16578e-05
7 *1955:A1 *2177:B 0
8 *1955:A2 *2177:B 0
9 *220:10 *2177:B 0.000199486
10 *225:19 *2177:B 0
11 *227:21 *2177:B 9.02174e-05
*RES
1 *2175:X *2177:B 13.8725 
*END

*D_NET *431 0.00359319
*CONN
*I *2179:C I *D sky130_fd_sc_hd__nand3_2
*I *2178:A2 I *D sky130_fd_sc_hd__a21oi_2
*I *2176:X O *D sky130_fd_sc_hd__a211o_4
*CAP
1 *2179:C 4.46695e-05
2 *2178:A2 0.000162929
3 *2176:X 0.000931982
4 *431:12 0.00113958
5 *2178:A2 *2178:A1 0.000201503
6 *2178:A2 *2180:A_N 0.000160635
7 *2179:C *2180:A_N 0.000114024
8 *2179:C *2180:B 3.00381e-05
9 *431:12 *1953:B1_N 0.000139933
10 *431:12 *1954:A1 7.89269e-05
11 *431:12 *2180:A_N 0
12 *431:12 *478:34 0.000138578
13 *431:12 *550:8 0.000150229
14 *431:12 *550:23 4.01778e-05
15 S[2] *431:12 0.000184853
16 *2178:B1 *2178:A2 4.21973e-05
17 *2178:B1 *2179:C 3.29384e-05
18 *2319:A *431:12 0
19 *2335:A *431:12 0
*RES
1 *2176:X *431:12 19.85 
2 *431:12 *2178:A2 5.17 
3 *431:12 *2179:C 3.1 
*END

*D_NET *432 0.00150825
*CONN
*I *2180:A_N I *D sky130_fd_sc_hd__nand2b_4
*I *2178:Y O *D sky130_fd_sc_hd__a21oi_2
*CAP
1 *2180:A_N 0.000365018
2 *2178:Y 0.000365018
3 *2180:A_N *2180:B 9.80032e-06
4 *2180:A_N *2398:A 0.000208484
5 *2180:A_N *513:12 7.00115e-05
6 *2180:A_N *518:20 1.07797e-05
7 S[2] *2180:A_N 6.95335e-05
8 *2178:A2 *2180:A_N 0.000160635
9 *2179:C *2180:A_N 0.000114024
10 *2335:A *2180:A_N 0.000125439
11 *2354:A *2180:A_N 0
12 *226:12 *2180:A_N 9.50342e-06
13 *431:12 *2180:A_N 0
*RES
1 *2178:Y *2180:A_N 14.085 
*END

*D_NET *433 0.001224
*CONN
*I *2180:B I *D sky130_fd_sc_hd__nand2b_4
*I *2179:Y O *D sky130_fd_sc_hd__nand3_2
*CAP
1 *2180:B 0.000428043
2 *2179:Y 0.000428043
3 *2180:B *1960:B1_N 6.65066e-05
4 *2180:B *2288:A 0
5 *2180:B *513:12 0
6 *1962:A2 *2180:B 5.56629e-05
7 *2179:C *2180:B 3.00381e-05
8 *2180:A_N *2180:B 9.80032e-06
9 *2335:A *2180:B 8.49205e-05
10 *2354:A *2180:B 0.000120985
*RES
1 *2179:Y *2180:B 15.195 
*END

*D_NET *434 0.00257974
*CONN
*I *2189:B2 I *D sky130_fd_sc_hd__o2bb2ai_2
*I *2182:B I *D sky130_fd_sc_hd__xnor2_2
*I *2183:B2 I *D sky130_fd_sc_hd__o22a_4
*I *2181:Y O *D sky130_fd_sc_hd__a21oi_2
*CAP
1 *2189:B2 0.000306144
2 *2182:B 0
3 *2183:B2 0.000285623
4 *2181:Y 0.000362201
5 *434:25 0.000306144
6 *434:10 0.000647825
7 *2189:B2 *2402:A 0.000205917
8 *1925:A1 *434:10 0
9 *1925:B1 *434:10 0
10 *1933:B *2183:B2 0
11 *1967:A *434:10 0
12 *1967:C *434:10 3.05295e-05
13 *1978:A3 *434:10 4.82863e-05
14 *2181:A1 *434:10 4.5783e-05
15 *2182:A *2183:B2 0
16 *2182:A *434:10 0
17 *2183:A1 *2183:B2 2.16833e-05
18 *2183:A2 *2183:B2 0.000122331
19 *201:42 *2189:B2 0.000197269
*RES
1 *2181:Y *434:10 10.02 
2 *434:10 *2183:B2 8.115 
3 *434:10 *434:25 2 
4 *434:25 *2182:B 1.6 
5 *434:25 *2189:B2 7.915 
*END

*D_NET *435 0.00397223
*CONN
*I *2184:B I *D sky130_fd_sc_hd__xnor2_2
*I *2185:B1 I *D sky130_fd_sc_hd__a22oi_2
*I *2187:B2 I *D sky130_fd_sc_hd__o2bb2a_2
*I *2183:X O *D sky130_fd_sc_hd__o22a_4
*CAP
1 *2184:B 4.34192e-05
2 *2185:B1 0.000314244
3 *2187:B2 5.74818e-05
4 *2183:X 0.000478439
5 *435:23 0.000505883
6 *435:12 0.000684141
7 *2184:B *1906:A1 9.2741e-05
8 *2184:B *2403:A 4.82919e-05
9 *2185:B1 *2403:A 9.52156e-05
10 *2185:B1 *449:47 8.08153e-06
11 *435:12 *554:10 0
12 *435:12 *554:39 0
13 *435:23 *2188:B 0
14 *435:23 *449:47 4.92014e-05
15 *435:23 *554:10 0
16 S[5] *2185:B1 1.15688e-05
17 *1917:C1 *2185:B1 0.000135084
18 *1917:D1 *2185:B1 8.40213e-05
19 *1922:B1 *435:12 0
20 *1923:B *435:12 0
21 *1963:A *2184:B 6.13486e-05
22 *1964:B1 *2185:B1 0.00035352
23 *1964:B1 *435:23 8.53113e-06
24 *2185:B2 *2185:B1 7.22613e-05
25 *2186:A *2185:B1 0
26 *2187:B1 *2187:B2 8.65905e-05
27 *2187:B1 *435:12 0.000190633
28 *186:21 *2185:B1 0.000540214
29 *190:10 *435:23 0
30 *191:10 *435:12 0
31 *193:8 *435:12 0
32 *237:10 *435:23 5.13155e-05
*RES
1 *2183:X *435:12 12.89 
2 *435:12 *2187:B2 2.395 
3 *435:12 *435:23 4.655 
4 *435:23 *2185:B1 13.335 
5 *435:23 *2184:B 5.085 
*END

*D_NET *436 0.000812552
*CONN
*I *2186:B I *D sky130_fd_sc_hd__xnor2_2
*I *2185:Y O *D sky130_fd_sc_hd__a22oi_2
*CAP
1 *2186:B 0.000223827
2 *2185:Y 0.000223827
3 *2186:B *519:10 7.06865e-05
4 *2186:B *554:10 3.83026e-05
5 *2186:A *2186:B 1.73877e-05
6 *2320:A *2186:B 9.50342e-06
7 *2355:A *2186:B 2.75145e-05
8 *186:21 *2186:B 0.000201503
*RES
1 *2185:Y *2186:B 11.115 
*END

*D_NET *437 0.000661674
*CONN
*I *2188:B I *D sky130_fd_sc_hd__xor2_2
*I *2187:X O *D sky130_fd_sc_hd__o2bb2a_2
*CAP
1 *2188:B 8.41412e-05
2 *2187:X 8.41412e-05
3 *1965:B2 *2188:B 0.000269724
4 *2187:A1_N *2188:B 0.000191355
5 *190:10 *2188:B 2.78732e-05
6 *237:10 *2188:B 4.43871e-06
7 *435:23 *2188:B 0
*RES
1 *2187:X *2188:B 8.6825 
*END

*D_NET *438 0.00709943
*CONN
*I *2193:A1 I *D sky130_fd_sc_hd__a21oi_2
*I *2190:B I *D sky130_fd_sc_hd__xnor2_2
*I *2191:B1 I *D sky130_fd_sc_hd__a22o_2
*I *2189:Y O *D sky130_fd_sc_hd__o2bb2ai_2
*CAP
1 *2193:A1 0.000525183
2 *2190:B 3.55506e-05
3 *2191:B1 3.96385e-05
4 *2189:Y 0.00114727
5 *438:23 0.00107562
6 *438:10 0.0017018
7 *2193:A1 *2256:A1 0.000183738
8 *2193:A1 *2406:A 8.53113e-06
9 *2193:A1 *468:14 0.000429857
10 *438:10 *2209:A 0
11 *438:10 *2274:B 0
12 *438:10 *2275:A1 0.000493693
13 *438:10 *2277:A1 0
14 *438:10 *2295:A 0.000183634
15 *438:10 *449:14 0.000138808
16 *438:10 *449:96 0
17 *438:10 *475:55 5.83121e-06
18 *438:10 *528:10 0.000164059
19 *1968:C *438:10 8.65905e-05
20 *1969:A1 *2193:A1 9.05377e-05
21 *2190:A *2193:A1 7.22354e-05
22 *2191:A2 *2191:B1 1.26548e-05
23 *2191:A2 *438:10 1.1561e-05
24 *2191:B2 *2191:B1 6.47594e-05
25 *2191:B2 *438:10 4.92128e-05
26 *2257:A *2190:B 0
27 *2257:A *2193:A1 6.47326e-05
28 *2257:A *438:23 6.96579e-05
29 *2262:A *2191:B1 9.37731e-05
30 *2262:A *438:10 5.4003e-05
31 *2262:B *438:23 4.7101e-05
32 *2329:A *438:10 0
33 *145:6 *2193:A1 3.23955e-05
34 *149:6 *438:23 2.76356e-05
35 *153:10 *438:23 1.20373e-05
36 *154:25 *438:10 0
37 *154:25 *438:23 5.33172e-05
38 *201:42 *438:10 0.000124007
39 *242:8 *2193:A1 0
*RES
1 *2189:Y *438:10 25.695 
2 *438:10 *2191:B1 4.98 
3 *438:10 *438:23 8.315 
4 *438:23 *2190:B 2.215 
5 *438:23 *2193:A1 16.145 
*END

*D_NET *439 0.000354951
*CONN
*I *2192:B I *D sky130_fd_sc_hd__xnor2_2
*I *2191:X O *D sky130_fd_sc_hd__a22o_2
*CAP
1 *2192:B 0.000177475
2 *2191:X 0.000177475
*RES
1 *2191:X *2192:B 5.735 
*END

*D_NET *440 0.00213876
*CONN
*I *2194:B I *D sky130_fd_sc_hd__xor2_2
*I *2195:A2 I *D sky130_fd_sc_hd__o21ai_2
*I *2193:Y O *D sky130_fd_sc_hd__a21oi_2
*CAP
1 *2194:B 0.000182964
2 *2195:A2 6.26052e-05
3 *2193:Y 0.000599164
4 *440:6 0.000844734
5 *2194:A *2194:B 0.000219442
6 *2194:A *440:6 0.000119762
7 *2196:A *2195:A2 5.53249e-06
8 *2273:B *2195:A2 9.37731e-05
9 *161:12 *2195:A2 1.07797e-05
*RES
1 *2193:Y *440:6 8.26 
2 *440:6 *2195:A2 6.98 
3 *440:6 *2194:B 2.7375 
*END

*D_NET *441 0.000427874
*CONN
*I *2196:B I *D sky130_fd_sc_hd__xor2_2
*I *2195:Y O *D sky130_fd_sc_hd__o21ai_2
*CAP
1 *2196:B 0.000177146
2 *2195:Y 0.000177146
3 *2196:A *2196:B 7.35813e-05
*RES
1 *2195:Y *2196:B 4.3375 
*END

*D_NET *442 0.00646598
*CONN
*I *2200:B1 I *D sky130_fd_sc_hd__a22o_2
*I *2199:B I *D sky130_fd_sc_hd__xor2_2
*I *2203:A1 I *D sky130_fd_sc_hd__a21o_2
*I *2198:A I *D sky130_fd_sc_hd__nand2_2
*I *2197:Y O *D sky130_fd_sc_hd__nand4_2
*CAP
1 *2200:B1 8.20332e-05
2 *2199:B 0.000215015
3 *2203:A1 0.000266534
4 *2198:A 9.71884e-06
5 *2197:Y 0.00113972
6 *442:18 0.000486743
7 *442:14 0.000425505
8 *442:12 0.00122176
9 *2198:A *2384:A 4.82919e-05
10 *2199:B *475:35 6.14433e-05
11 *2199:B *533:18 4.85494e-05
12 *2200:B1 *533:40 3.26889e-05
13 *2203:A1 *475:35 0.00035675
14 *442:18 *475:35 0.000208976
15 *2197:D *442:12 1.83756e-05
16 *2198:B *2198:A 4.82919e-05
17 *2198:B *442:18 1.03755e-05
18 *2199:A *2199:B 0.00028939
19 *2199:A *442:18 9.3062e-06
20 *2200:A2 *2200:B1 4.47209e-05
21 *2231:B *2200:B1 0
22 *2231:B *442:12 0.000271964
23 *2234:B *442:18 0.000117832
24 *2235:B2 *2203:A1 9.37731e-05
25 *2244:A1 *442:12 3.79763e-05
26 *2244:A2 *442:12 8.65961e-05
27 *2248:B *2203:A1 7.23533e-05
28 *2249:C *2203:A1 0.000419718
29 *135:10 *2200:B1 8.49205e-05
30 *135:10 *442:12 9.80032e-06
31 *135:25 *442:18 7.64192e-05
32 *135:44 *2203:A1 0.000163221
33 *135:44 *442:18 7.21296e-06
*RES
1 *2197:Y *442:12 15.64 
2 *442:12 *442:14 2 
3 *442:14 *442:18 4.89 
4 *442:18 *2198:A 4.05 
5 *442:18 *2203:A1 13.14 
6 *442:14 *2199:B 7.0625 
7 *442:12 *2200:B1 3.445 
*END

*D_NET *443 0.00042096
*CONN
*I *2202:A2 I *D sky130_fd_sc_hd__o211ai_2
*I *2198:Y O *D sky130_fd_sc_hd__nand2_2
*CAP
1 *2202:A2 0.000132625
2 *2198:Y 0.000132625
3 *2202:A2 *2384:A 0.000107424
4 *2202:B1 *2202:A2 4.82863e-05
*RES
1 *2198:Y *2202:A2 5.735 
*END

*D_NET *444 0.000579969
*CONN
*I *2201:B I *D sky130_fd_sc_hd__xnor2_2
*I *2200:X O *D sky130_fd_sc_hd__a22o_2
*CAP
1 *2201:B 0.000238565
2 *2200:X 0.000238565
3 *2201:B *2234:C 0
4 *2201:B *533:40 5.84694e-05
5 *2227:A2 *2201:B 0
6 *119:14 *2201:B 4.43682e-05
7 *119:23 *2201:B 0
*RES
1 *2200:X *2201:B 11.085 
*END

*D_NET *445 0.000540077
*CONN
*I *2204:B I *D sky130_fd_sc_hd__xor2_2
*I *2202:Y O *D sky130_fd_sc_hd__o211ai_2
*CAP
1 *2204:B 0.000191435
2 *2202:Y 0.000191435
3 *2204:B *2384:A 4.38278e-05
4 *2202:A1 *2204:B 5.4003e-05
5 *118:28 *2204:B 5.93761e-05
*RES
1 *2202:Y *2204:B 9.14 
*END

*D_NET *446 0.00129816
*CONN
*I *2206:B1 I *D sky130_fd_sc_hd__a22oi_2
*I *2205:D I *D sky130_fd_sc_hd__and4_2
*I *2203:X O *D sky130_fd_sc_hd__a21o_2
*CAP
1 *2206:B1 0.000126355
2 *2205:D 0
3 *2203:X 0.000260124
4 *446:12 0.000386479
5 *446:12 *2207:A 4.43871e-06
6 *446:12 *475:35 0
7 *2205:B *2206:B1 0.000157418
8 *2205:C *2206:B1 4.47209e-05
9 *2206:A1 *2206:B1 0
10 *2250:A4 *446:12 0.000164874
11 *110:16 *2206:B1 0.0001249
12 *110:16 *446:12 2.88519e-05
13 *128:35 *446:12 0
*RES
1 *2203:X *446:12 9.23 
2 *446:12 *2205:D 1.6 
3 *446:12 *2206:B1 4.6 
*END

*D_NET *447 0.000347619
*CONN
*I *2207:A I *D sky130_fd_sc_hd__nor2_4
*I *2205:X O *D sky130_fd_sc_hd__and4_2
*CAP
1 *2207:A 0.000166838
2 *2205:X 0.000166838
3 *2207:A *2207:B 0
4 *110:16 *2207:A 9.50342e-06
5 *446:12 *2207:A 4.43871e-06
*RES
1 *2205:X *2207:A 9.72 
*END

*D_NET *448 0.000416518
*CONN
*I *2207:B I *D sky130_fd_sc_hd__nor2_4
*I *2206:Y O *D sky130_fd_sc_hd__a22oi_2
*CAP
1 *2207:B 0.000128468
2 *2206:Y 0.000128468
3 *2207:B *2219:C_N 0
4 *2205:C *2207:B 2.30292e-05
5 *2206:A1 *2207:B 4.99619e-05
6 *2207:A *2207:B 0
7 *110:16 *2207:B 8.65905e-05
*RES
1 *2206:Y *2207:B 9.63 
*END

*D_NET *449 0.017588
*CONN
*I *2268:A I *D sky130_fd_sc_hd__nand2_2
*I *2278:A1 I *D sky130_fd_sc_hd__o21ai_4
*I *2277:A1 I *D sky130_fd_sc_hd__a21oi_4
*I *2259:A I *D sky130_fd_sc_hd__nand2_2
*I *1914:A1 I *D sky130_fd_sc_hd__a21oi_2
*I *1919:A I *D sky130_fd_sc_hd__nand2_2
*I *1937:A I *D sky130_fd_sc_hd__nand2_2
*I *2284:A I *D sky130_fd_sc_hd__nand2_2
*I *2209:Y O *D sky130_fd_sc_hd__inv_8
*CAP
1 *2268:A 0.00116994
2 *2278:A1 0.00124397
3 *2277:A1 0.000400998
4 *2259:A 0
5 *1914:A1 0
6 *1919:A 0.000663344
7 *1937:A 0.000100761
8 *2284:A 0
9 *2209:Y 0.000655111
10 *449:96 0.000536642
11 *449:53 0.00101643
12 *449:47 0.00152141
13 *449:24 0.00193837
14 *449:14 0.0012628
15 *1919:A *1919:B 0.000110315
16 *1919:A *2291:A 8.57024e-05
17 *1919:A *519:10 8.53113e-06
18 *1919:A *519:21 0.00012904
19 *2268:A *2268:B 0.000203178
20 *2268:A *2269:A 0.000238919
21 *2268:A *2278:A2 0.000198934
22 *2277:A1 *2209:A 9.50342e-06
23 *2277:A1 *465:10 0
24 *2277:A1 *465:12 0
25 *2277:A1 *528:28 4.82919e-05
26 *449:14 *1927:A 0.000383698
27 *449:14 *1931:A2 5.21627e-05
28 *449:14 *2258:B 9.24127e-05
29 *449:14 *2283:B 7.66083e-05
30 *449:14 *2295:A 0.000241479
31 *449:14 *465:10 0.00016881
32 *449:14 *465:12 0.000156842
33 *449:14 *558:8 0.000147943
34 *449:14 *558:26 0.000147083
35 *449:14 *558:35 7.75325e-05
36 *449:24 *2283:B 0.000453593
37 *449:24 *2284:B 4.40812e-05
38 *449:24 *2287:A2 0.000151672
39 *449:24 *2402:A 4.82863e-05
40 *449:24 *521:12 0.000116158
41 *449:24 *557:45 0.000238919
42 *449:47 *1914:A2 5.05437e-05
43 *449:47 *2403:A 5.16418e-05
44 *449:47 *521:12 9.50342e-06
45 *449:47 *554:10 0.000113972
46 *449:53 *1914:A2 1.70935e-05
47 *449:53 *1921:A1 0
48 *449:53 *1942:A_N 7.63204e-05
49 *449:53 *458:12 0
50 *449:53 *473:10 0.000118504
51 *449:96 *2209:A 0.000108329
52 *1931:B1 *2277:A1 0
53 *1931:B1 *449:14 0
54 *1941:B *449:53 1.0183e-05
55 *1942:B *449:53 0.000184717
56 *1963:A *449:47 0.0007513
57 *1970:A2 *2268:A 0
58 *2185:B1 *449:47 8.08153e-06
59 *2187:B1 *449:47 3.64998e-06
60 *2279:A1 *2268:A 4.43682e-05
61 *2279:A2 *2268:A 4.66108e-05
62 *2279:B1 *2268:A 0.000232111
63 *2281:C1 *2268:A 6.14838e-05
64 *2282:A *2268:A 0.000387885
65 *2286:B *449:24 8.65961e-05
66 *2325:A *449:14 0
67 *163:10 *2268:A 6.65973e-05
68 *165:14 *2268:A 0
69 *166:31 *2268:A 5.16418e-05
70 *169:8 *2268:A 0.000120359
71 *169:27 *2268:A 0.000192125
72 *173:14 *2268:A 0.000102539
73 *173:14 *2278:A1 0.000201508
74 *173:14 *449:14 8.08153e-06
75 *177:34 *449:47 2.46089e-05
76 *178:23 *449:47 0
77 *213:8 *449:53 8.35126e-05
78 *213:12 *1937:A 4.66108e-05
79 *239:10 *449:14 0
80 *435:23 *449:47 4.92014e-05
81 *438:10 *2277:A1 0
82 *438:10 *449:14 0.000138808
83 *438:10 *449:96 0
*RES
1 *2209:Y *449:14 22.7 
2 *449:14 *449:24 13.865 
3 *449:24 *2284:A 3.6 
4 *449:24 *449:47 24.75 
5 *449:47 *449:53 10.48 
6 *449:53 *1937:A 3.085 
7 *449:53 *1919:A 16.655 
8 *449:47 *1914:A1 1.6 
9 *449:14 *2259:A 1.6 
10 *2209:Y *449:96 4.98 
11 *449:96 *2277:A1 9.555 
12 *449:96 *2278:A1 5.43 
13 *2278:A1 *2268:A 29.595 
*END

*D_NET *450 0.00252265
*CONN
*I *2172:A I *D sky130_fd_sc_hd__xor2_2
*I *1948:B1_N I *D sky130_fd_sc_hd__o21bai_4
*I *2173:A1 I *D sky130_fd_sc_hd__mux2_1
*I *1946:B1 I *D sky130_fd_sc_hd__o21ai_2
*I *2301:X O *D sky130_fd_sc_hd__clkdlybuf4s25_1
*CAP
1 *2172:A 8.39474e-05
2 *1948:B1_N 0.000342039
3 *2173:A1 7.42228e-05
4 *1946:B1 0
5 *2301:X 0.000357228
6 *450:29 0.000643397
7 *450:6 0.00021404
8 *1948:B1_N *453:16 4.82863e-05
9 *1948:B1_N *453:24 0.000235573
10 *2172:A *2376:A 0
11 *2173:A1 *2173:S 4.60584e-05
12 *2173:A1 *526:41 1.16578e-05
13 *450:6 *526:32 0.000122337
14 *450:6 *526:41 0.000150653
15 *450:29 *526:32 3.1835e-05
16 *1948:A1 *450:29 0
17 *1949:C1 *2172:A 0
18 *2327:A *2172:A 6.5265e-05
19 *2327:A *450:29 6.9451e-05
20 *219:10 *2173:A1 2.66586e-05
*RES
1 *2301:X *450:6 4.12 
2 *450:6 *1946:B1 1.6 
3 *450:6 *2173:A1 3.085 
4 *2301:X *450:29 6.975 
5 *450:29 *1948:B1_N 9.345 
6 *450:29 *2172:A 5.49 
*END

*D_NET *451 0.00543911
*CONN
*I *2025:A1 I *D sky130_fd_sc_hd__a22oi_2
*I *1995:C I *D sky130_fd_sc_hd__nand3b_2
*I *1996:B1_N I *D sky130_fd_sc_hd__o21bai_4
*I *2302:X O *D sky130_fd_sc_hd__clkdlybuf4s25_1
*CAP
1 *2025:A1 0
2 *1995:C 0.000156128
3 *1996:B1_N 1.8095e-05
4 *2302:X 0.00187526
5 *451:20 0.000255405
6 *451:16 0.00195645
7 *451:16 *1991:A 8.5841e-05
8 *451:16 *1991:B 6.66464e-05
9 *451:16 *2142:B1_N 0.000122325
10 *451:16 *456:12 0.000263108
11 *1994:A *1996:B1_N 8.49205e-05
12 *1994:B *1996:B1_N 8.49205e-05
13 *1995:A_N *1995:C 0
14 *1995:A_N *451:20 0
15 *1995:B *1995:C 0.000137571
16 *2025:A2 *451:20 0.000118513
17 *2025:B1 *451:16 0
18 *2026:A2 *1995:C 9.59969e-05
19 *2026:A2 *451:20 7.36484e-05
20 *2142:A1 *451:16 2.31724e-05
21 *2142:A2 *451:16 2.11084e-05
22 *259:25 *451:20 0
23 *262:27 *451:20 0
24 *270:10 *451:20 0
*RES
1 *2302:X *451:16 24.985 
2 *451:16 *451:20 3.89 
3 *451:20 *1996:B1_N 4.395 
4 *451:20 *1995:C 6.9 
5 *451:16 *2025:A1 1.6 
*END

*D_NET *452 0.00162932
*CONN
*I *2422:A I *D sky130_fd_sc_hd__buf_2
*I *2423:A I *D sky130_fd_sc_hd__buf_2
*I *2132:A1 I *D sky130_fd_sc_hd__o21a_4
*I *2374:X O *D sky130_fd_sc_hd__buf_6
*CAP
1 *2422:A 0.000321971
2 *2423:A 0
3 *2132:A1 4.25144e-05
4 *2374:X 0.000210317
5 *452:22 0.000489773
6 *2132:A1 *2087:A2 3.23663e-05
7 *2422:A *2116:A2 2.37234e-05
8 *2422:A *490:8 3.45679e-05
9 *452:22 *2087:A2 0
10 *452:22 *2116:A2 5.72091e-05
11 *2085:A1 *2422:A 0.000124895
12 *2087:B1 *2422:A 7.27196e-05
13 *2088:B *2422:A 0
14 *2374:A *2132:A1 5.30673e-05
15 *390:6 *2132:A1 0.000122155
16 *390:6 *452:22 4.40446e-05
*RES
1 *2374:X *2132:A1 5.03 
2 *2374:X *452:22 6.375 
3 *452:22 *2423:A 3.6 
4 *452:22 *2422:A 9.315 
*END

*D_NET *453 0.00301981
*CONN
*I *1947:A1 I *D sky130_fd_sc_hd__a21oi_2
*I *1949:B1 I *D sky130_fd_sc_hd__o211ai_2
*I *2366:A I *D sky130_fd_sc_hd__buf_6
*I *1946:A1 I *D sky130_fd_sc_hd__o21ai_2
*I *1944:A I *D sky130_fd_sc_hd__and2_4
*I *1945:A I *D sky130_fd_sc_hd__nor2_2
*I *2288:X O *D sky130_fd_sc_hd__buf_6
*CAP
1 *1947:A1 8.05295e-05
2 *1949:B1 2.12116e-05
3 *2366:A 0
4 *1946:A1 0
5 *1944:A 0
6 *1945:A 0.000245913
7 *2288:X 0.000162212
8 *453:30 0.000393814
9 *453:24 0.000353467
10 *453:16 0.000337059
11 *453:8 0.000234387
12 *1945:A *1945:B 0
13 *1949:B1 *526:57 4.82863e-05
14 *453:8 *2376:A 0
15 *453:16 *526:47 4.70343e-05
16 *453:24 *526:47 9.24049e-05
17 *453:30 *2173:A0 0
18 *453:30 *526:47 5.53249e-06
19 *1947:B1 *1947:A1 7.89689e-05
20 *1947:B1 *453:8 0.000179235
21 *1948:A2 *1945:A 7.00889e-06
22 *1948:A2 *453:24 6.5265e-05
23 *1948:A2 *453:30 4.83044e-05
24 *1948:B1_N *453:16 4.82863e-05
25 *1948:B1_N *453:24 0.000235573
26 *1949:C1 *453:16 0
27 *1955:A1 *1947:A1 0.000189214
28 *219:10 *453:8 8.53113e-06
29 *219:10 *453:16 0.000137578
*RES
1 *2288:X *453:8 5.745 
2 *453:8 *453:16 5.135 
3 *453:16 *453:24 7.115 
4 *453:24 *453:30 2.7 
5 *453:30 *1945:A 7.485 
6 *453:30 *1944:A 3.6 
7 *453:24 *1946:A1 3.6 
8 *453:16 *2366:A 1.6 
9 *453:8 *1949:B1 4.05 
10 *2288:X *1947:A1 9.285 
*END

*D_NET *454 0.00257985
*CONN
*I *1909:A_N I *D sky130_fd_sc_hd__nand2b_4
*I *2173:A0 I *D sky130_fd_sc_hd__mux2_1
*I *1908:B I *D sky130_fd_sc_hd__nand2b_4
*I *1913:A2 I *D sky130_fd_sc_hd__o21ai_4
*I *1912:A1 I *D sky130_fd_sc_hd__a21boi_2
*I *2366:X O *D sky130_fd_sc_hd__buf_6
*CAP
1 *1909:A_N 1.85694e-05
2 *2173:A0 0.000155344
3 *1908:B 3.39263e-05
4 *1913:A2 0
5 *1912:A1 0.000205525
6 *2366:X 0.000263445
7 *454:53 0.00025594
8 *454:18 0.000300723
9 *454:16 0.000297236
10 *454:10 0.000513584
11 *1909:A_N *1909:B 0
12 *1912:A1 *556:6 4.77757e-05
13 *1912:A1 *556:15 3.75126e-05
14 *2173:A0 *1909:B 6.12198e-05
15 *454:10 *2174:A 0
16 *454:18 *2210:A 6.55328e-05
17 *454:53 *1909:B 4.21666e-05
18 *1915:A *454:16 0.000116158
19 *1915:A *454:53 5.83121e-06
20 *1915:C *1909:A_N 9.53428e-06
21 *1915:C *2173:A0 7.60965e-05
22 *1915:C *454:53 2.30292e-05
23 *2321:A *1912:A1 0
24 *2357:A *1912:A1 5.06989e-05
25 *219:10 *454:10 0
26 *453:30 *2173:A0 0
*RES
1 *2366:X *454:10 8.07 
2 *454:10 *454:16 3.21 
3 *454:16 *454:18 1.89 
4 *454:18 *1912:A1 7.35 
5 *454:18 *1913:A2 3.6 
6 *454:16 *1908:B 4.05 
7 *454:10 *454:53 3.485 
8 *454:53 *2173:A0 8.555 
9 *454:53 *1909:A_N 1.96 
*END

*D_NET *455 0.00283756
*CONN
*I *2367:A I *D sky130_fd_sc_hd__buf_8
*I *2428:A I *D sky130_fd_sc_hd__buf_2
*I *2123:A I *D sky130_fd_sc_hd__and2_2
*I *2289:X O *D sky130_fd_sc_hd__buf_6
*CAP
1 *2367:A 0.00016048
2 *2428:A 2.93758e-05
3 *2123:A 1.02819e-05
4 *2289:X 0.000446049
5 *455:23 0.0003023
6 *455:12 0.000568776
7 *2123:A *2122:B 4.77757e-05
8 *2367:A *2397:A 8.30853e-06
9 *2367:A *456:12 8.40213e-05
10 *2428:A *460:29 6.60042e-05
11 *455:12 *2289:A 3.31103e-05
12 *455:12 *513:22 7.67415e-06
13 *455:12 *548:12 5.16418e-05
14 *455:23 *2126:C_N 0
15 *455:23 *548:12 2.14129e-05
16 *2126:A *2428:A 4.77757e-05
17 *2126:B *455:23 2.25161e-05
18 *2147:A1 *2428:A 0.000160314
19 *383:8 *2123:A 4.77757e-05
20 *383:8 *455:12 0.000479125
21 *387:8 *2367:A 0.000189529
22 *387:8 *455:23 5.33085e-05
*RES
1 *2289:X *455:12 10.11 
2 *455:12 *2123:A 4.05 
3 *455:12 *455:23 2.145 
4 *455:23 *2428:A 5.085 
5 *455:23 *2367:A 6.795 
*END

*D_NET *456 0.00797241
*CONN
*I *1983:A I *D sky130_fd_sc_hd__nor2_4
*I *1956:A I *D sky130_fd_sc_hd__and2_4
*I *1957:A I *D sky130_fd_sc_hd__nor2_2
*I *1958:A1 I *D sky130_fd_sc_hd__o21ai_4
*I *1959:A1 I *D sky130_fd_sc_hd__a21o_2
*I *1954:A1 I *D sky130_fd_sc_hd__o21ai_4
*I *1951:A I *D sky130_fd_sc_hd__nor2_2
*I *1952:A I *D sky130_fd_sc_hd__and2_4
*I *2367:X O *D sky130_fd_sc_hd__buf_8
*CAP
1 *1983:A 9.6229e-05
2 *1956:A 0.000189363
3 *1957:A 0
4 *1958:A1 0.000223292
5 *1959:A1 5.15838e-05
6 *1954:A1 9.63689e-05
7 *1951:A 3.58265e-05
8 *1952:A 2.55567e-05
9 *2367:X 0.000275604
10 *456:44 0.00013668
11 *456:40 0.000227626
12 *456:38 0.000240957
13 *456:36 0.000582395
14 *456:30 0.000331643
15 *456:22 0.000633024
16 *456:12 0.000709543
17 *1952:A *1951:B 8.57024e-05
18 *1956:A *534:10 0.000158536
19 *1958:A1 *1958:A2 0.000235573
20 *1958:A1 *518:20 5.90938e-05
21 *1959:A1 *553:6 3.64998e-06
22 *1959:A1 *553:23 1.19928e-05
23 *1983:A *460:29 0.000134018
24 *456:12 *2397:A 8.64421e-05
25 *456:22 *1987:B1_N 0.000108305
26 *456:22 *2122:A 0.000115614
27 *456:22 *2288:A 0
28 *456:22 *588:10 5.20968e-05
29 *456:30 *2288:A 0
30 *456:36 *2288:A 3.13459e-05
31 *456:36 *577:8 1.34594e-05
32 *456:36 *588:10 6.51872e-05
33 *456:38 *2288:A 0.000181103
34 *456:40 *2288:A 9.87538e-05
35 *456:44 *2288:A 9.59969e-05
36 *1959:B1 *456:36 3.9442e-05
37 *1959:B1 *456:38 8.42239e-05
38 *1961:A1 *1956:A 7.81221e-05
39 *1961:A1 *456:30 3.75126e-05
40 *1961:A1 *456:36 0.000161984
41 *1961:A2 *456:36 0.000335177
42 *1961:B1 *1956:A 0.000183406
43 *1961:B1 *456:22 3.60648e-06
44 *1961:B1 *456:30 4.77719e-05
45 *1961:B1 *456:36 8.64421e-05
46 *1962:A1 *456:38 0.00018305
47 *1962:A1 *456:40 0.000183738
48 *1962:A1 *456:44 0.000183738
49 *1973:B1 *1951:A 2.5177e-05
50 *1973:B1 *1952:A 1.34503e-05
51 *1973:B2 *1951:A 1.08758e-05
52 *1976:A1 *456:36 0
53 *2147:A1 *1983:A 4.82863e-05
54 *2147:A1 *456:12 0.00015997
55 *2147:A1 *456:22 2.39481e-05
56 *2367:A *456:12 8.40213e-05
57 *227:21 *1951:A 3.66286e-05
58 *227:21 *1952:A 0.000124007
59 *229:8 *1956:A 9.47017e-05
60 *233:10 *1956:A 8.53113e-06
61 *431:12 *1954:A1 7.89269e-05
62 *451:16 *456:12 0.000263108
*RES
1 *2367:X *456:12 10.095 
2 *456:12 *456:22 6.9525 
3 *456:22 *456:30 3.4775 
4 *456:30 *456:36 8.525 
5 *456:36 *456:38 3.93 
6 *456:38 *456:40 2.145 
7 *456:40 *456:44 4.145 
8 *456:44 *1952:A 2.74 
9 *456:44 *1951:A 2.41 
10 *456:40 *1954:A1 5.43 
11 *456:38 *1959:A1 4.41 
12 *456:36 *1958:A1 7.515 
13 *456:30 *1957:A 1.6 
14 *456:22 *1956:A 8.1525 
15 *456:12 *1983:A 5.775 
*END

*D_NET *457 0.00570766
*CONN
*I *2289:A I *D sky130_fd_sc_hd__buf_6
*I *2427:A I *D sky130_fd_sc_hd__buf_2
*I *2288:A I *D sky130_fd_sc_hd__buf_6
*I *2290:X O *D sky130_fd_sc_hd__buf_8
*CAP
1 *2289:A 0.000109025
2 *2427:A 0.000134598
3 *2288:A 0.000915984
4 *2290:X 0.000241917
5 *457:22 0.00134006
6 *457:12 0.000640416
7 *2288:A *1947:A2 6.65066e-05
8 *2288:A *1960:B1_N 0.000163019
9 *2288:A *513:12 0
10 *2289:A *513:22 4.66108e-05
11 *2289:A *514:23 0.000163199
12 *2427:A *535:8 0.000350251
13 *457:12 *2125:C_N 0.00011686
14 *457:12 *2290:A 3.59238e-05
15 *457:12 *513:12 2.07184e-05
16 *457:22 *513:12 0.000130742
17 *457:22 *535:8 8.65905e-05
18 *457:22 *548:12 9.43751e-05
19 *1955:A1 *2288:A 0
20 *1961:A2 *2288:A 0.000336837
21 *1962:A1 *2288:A 7.21296e-06
22 *1962:A2 *2288:A 4.43051e-05
23 *2175:A2 *2288:A 0
24 *2180:B *2288:A 0
25 *2364:A *2288:A 0
26 *215:14 *2288:A 0
27 *223:43 *2288:A 0
28 *225:19 *2288:A 0
29 *225:34 *2288:A 0
30 *383:20 *457:12 0.000137578
31 *383:20 *457:22 8.53113e-06
32 *401:10 *2289:A 7.60965e-05
33 *455:12 *2289:A 3.31103e-05
34 *456:22 *2288:A 0
35 *456:30 *2288:A 0
36 *456:36 *2288:A 3.13459e-05
37 *456:38 *2288:A 0.000181103
38 *456:40 *2288:A 9.87538e-05
39 *456:44 *2288:A 9.59969e-05
*RES
1 *2290:X *457:12 8.025 
2 *457:12 *457:22 7.82 
3 *457:22 *2288:A 24.605 
4 *457:22 *2427:A 4.81 
5 *457:12 *2289:A 6.465 
*END

*D_NET *458 0.00252703
*CONN
*I *1918:A I *D sky130_fd_sc_hd__and2_2
*I *1922:A1 I *D sky130_fd_sc_hd__a21oi_2
*I *1921:A1 I *D sky130_fd_sc_hd__o21ai_2
*I *1920:B I *D sky130_fd_sc_hd__nand2b_2
*I *2368:A I *D sky130_fd_sc_hd__buf_6
*I *2291:X O *D sky130_fd_sc_hd__clkbuf_2
*CAP
1 *1918:A 0
2 *1922:A1 0.000131493
3 *1921:A1 0.000168139
4 *1920:B 0.000243541
5 *2368:A 2.08101e-05
6 *2291:X 0
7 *458:44 0.000251112
8 *458:12 0.000371285
9 *458:6 0.000394693
10 *1920:B *554:25 0.0001249
11 *1921:A1 *2291:A 0.00013994
12 *1921:A1 *519:10 0
13 *1922:A1 *1922:A2 0.000163199
14 *1922:A1 *554:25 2.55546e-05
15 *2368:A *554:25 0
16 *458:12 *459:10 2.75145e-05
17 *458:12 *519:10 0
18 *458:44 *554:25 0.000315527
19 *1922:B1 *1922:A1 0.000119285
20 *1933:B *1922:A1 3.00381e-05
21 *449:53 *1921:A1 0
22 *449:53 *458:12 0
*RES
1 *2291:X *458:6 3.6 
2 *458:6 *458:12 5.555 
3 *458:12 *2368:A 1.96 
4 *458:12 *1920:B 3.775 
5 *458:6 *1921:A1 6.705 
6 *1920:B *458:44 4.465 
7 *458:44 *1922:A1 4.84 
8 *458:44 *1918:A 1.6 
*END

*D_NET *459 0.0082828
*CONN
*I *2287:A1 I *D sky130_fd_sc_hd__o21ai_4
*I *2285:A I *D sky130_fd_sc_hd__and2_2
*I *1936:B I *D sky130_fd_sc_hd__nand2b_4
*I *1906:A1 I *D sky130_fd_sc_hd__a21o_2
*I *1910:A I *D sky130_fd_sc_hd__nand2_2
*I *1911:A1 I *D sky130_fd_sc_hd__o21a_2
*I *2368:X O *D sky130_fd_sc_hd__buf_6
*CAP
1 *2287:A1 0.000488598
2 *2285:A 0
3 *1936:B 0
4 *1906:A1 0.000722927
5 *1910:A 0.000737511
6 *1911:A1 8.59029e-05
7 *2368:X 0.00012995
8 *459:79 0.000577574
9 *459:16 0.000884669
10 *459:14 0.000965497
11 *459:10 0.000400241
12 *1910:A *519:10 0
13 *1910:A *556:47 0
14 *1911:A1 *1911:A2 4.99619e-05
15 *1911:A1 *1911:B1 7.08676e-05
16 *1911:A1 *520:44 5.39673e-05
17 *2287:A1 *2284:B 2.75229e-05
18 *2287:A1 *2287:A2 7.35813e-05
19 *2287:A1 *2287:B1 0.000394699
20 *2287:A1 *521:12 6.65725e-05
21 *459:10 *519:10 0
22 *459:14 *1914:B1 0
23 *459:14 *519:10 0
24 *459:79 *1906:A2 0.000200699
25 *459:79 *557:12 9.50342e-06
26 S[1] *1910:A 0
27 S[7] *2287:A1 5.83121e-06
28 S[7] *459:79 7.73272e-05
29 *1907:A2 *2287:A1 3.57349e-05
30 *1907:A2 *459:79 4.82863e-05
31 *1916:A1 *1910:A 0.000237243
32 *1916:A2 *1910:A 0.000143266
33 *1917:D1 *1910:A 0
34 *1963:A *1906:A1 8.26275e-05
35 *1964:A2 *1906:A1 8.67294e-05
36 *2184:A *1906:A1 3.26889e-05
37 *2184:B *1906:A1 9.2741e-05
38 *2185:A1 *1910:A 5.42473e-05
39 *2304:A *1910:A 4.92096e-05
40 *2357:A *1910:A 6.97034e-05
41 *177:6 *2287:A1 7.66083e-05
42 *177:12 *1910:A 0
43 *177:12 *2287:A1 0.000283896
44 *178:8 *2287:A1 3.58131e-05
45 *178:23 *459:79 7.73409e-05
46 *186:6 *1910:A 0.000383652
47 *189:14 *1906:A1 0.000128242
48 *189:14 *1910:A 0
49 *189:14 *1911:A1 0.000161529
50 *189:14 *459:16 0.000152328
51 *458:12 *459:10 2.75145e-05
*RES
1 *2368:X *459:10 5.685 
2 *459:10 *459:14 6.44 
3 *459:14 *459:16 1.485 
4 *459:16 *1911:A1 4.24 
5 *459:16 *1910:A 22.005 
6 *459:14 *1906:A1 10.27 
7 *459:10 *1936:B 3.6 
8 *1906:A1 *459:79 8.45 
9 *459:79 *2285:A 1.6 
10 *459:79 *2287:A1 12.1 
*END

*D_NET *460 0.00687047
*CONN
*I *2414:A I *D sky130_fd_sc_hd__buf_2
*I *2291:A I *D sky130_fd_sc_hd__clkbuf_2
*I *2290:A I *D sky130_fd_sc_hd__buf_8
*I *2292:X O *D sky130_fd_sc_hd__buf_6
*CAP
1 *2414:A 2.2372e-05
2 *2291:A 0.00115692
3 *2290:A 8.71451e-05
4 *2292:X 0.000197928
5 *460:29 0.00232101
6 *460:10 0.00142679
7 *2291:A *1919:B 0
8 *2291:A *2214:C 0.000248261
9 *2291:A *2215:B1_N 0.000141592
10 *2291:A *481:10 5.73362e-05
11 *2414:A *481:10 3.1835e-05
12 *460:10 *514:23 0
13 *1919:A *2291:A 8.57024e-05
14 *1921:A1 *2291:A 0.00013994
15 *1983:A *460:29 0.000134018
16 *2126:A *460:29 0.000269904
17 *2126:B *460:29 0.000157555
18 *2142:A1 *460:10 1.94636e-05
19 *2142:A2 *460:10 6.55406e-05
20 *2147:A1 *460:29 2.29321e-05
21 *2214:A_N *2291:A 0
22 *2215:A2 *2291:A 0
23 *2428:A *460:29 6.60042e-05
24 *259:8 *2414:A 8.65905e-05
25 *383:20 *460:29 9.5694e-05
26 *385:14 *460:10 0
27 *457:12 *2290:A 3.59238e-05
*RES
1 *2292:X *460:10 9.02 
2 *460:10 *2290:A 3.22 
3 *460:10 *460:29 20.375 
4 *460:29 *2291:A 24.645 
5 *460:29 *2414:A 4.395 
*END

*D_NET *461 0.00609335
*CONN
*I *2016:A I *D sky130_fd_sc_hd__nor2_2
*I *2017:A1 I *D sky130_fd_sc_hd__o21ai_4
*I *2369:A I *D sky130_fd_sc_hd__buf_2
*I *2163:A I *D sky130_fd_sc_hd__xor2_2
*I *2139:A I *D sky130_fd_sc_hd__nor2_2
*I *2140:A I *D sky130_fd_sc_hd__and2_2
*I *2293:X O *D sky130_fd_sc_hd__clkbuf_2
*CAP
1 *2016:A 0
2 *2017:A1 0.000102954
3 *2369:A 0.000452151
4 *2163:A 0
5 *2139:A 0
6 *2140:A 0.0002059
7 *2293:X 0.000321454
8 *461:55 0.000312456
9 *461:36 0.000452151
10 *461:12 0.000935076
11 *461:8 0.000841127
12 *2017:A1 *2016:B 0.000125262
13 *2140:A *2139:B 0
14 *2140:A *462:8 0.000316417
15 *461:8 *2292:A 0
16 *461:8 *517:8 0
17 *461:12 *2163:B 0.00011852
18 *461:12 *2292:A 0
19 *461:12 *2400:A 0
20 *461:12 *2408:A 7.46921e-05
21 *461:12 *517:8 0
22 *461:55 *2292:A 0.000393024
23 S[30] *461:12 0
24 carryOut *461:12 0.000140711
25 *2019:A2 *2017:A1 0.000125262
26 *2144:B *2140:A 4.66108e-05
27 *2164:B *461:12 0
28 *2165:A1 *2140:A 4.65821e-05
29 *2165:C1 *2140:A 7.26034e-05
30 *2166:A2 *461:12 0.000337458
31 *2168:A *461:12 0.000143266
32 *2171:B1 *461:12 0.000140912
33 *2208:B2 *461:12 0
34 *416:10 *2140:A 0.000136884
35 *416:10 *461:12 3.47757e-05
36 *422:16 *461:12 0.000187064
37 *422:29 *461:12 0
38 *423:10 *2140:A 3.00381e-05
*RES
1 *2293:X *461:8 5.49 
2 *461:8 *461:12 16.875 
3 *461:12 *2140:A 9.165 
4 *461:12 *2139:A 3.6 
5 *461:8 *461:36 2 
6 *461:36 *2163:A 1.6 
7 *461:36 *2369:A 8.26 
8 *2293:X *461:55 6.19 
9 *461:55 *2017:A1 4.135 
10 *461:55 *2016:A 1.6 
*END

*D_NET *462 0.00493931
*CONN
*I *2009:A I *D sky130_fd_sc_hd__nor2_2
*I *2008:B I *D sky130_fd_sc_hd__nand2_2
*I *2010:B1_N I *D sky130_fd_sc_hd__o21bai_2
*I *2024:A1 I *D sky130_fd_sc_hd__o21ai_2
*I *2303:X O *D sky130_fd_sc_hd__clkdlybuf4s25_1
*CAP
1 *2009:A 7.34305e-05
2 *2008:B 0.000182461
3 *2010:B1_N 0
4 *2024:A1 7.34305e-05
5 *2303:X 0.00137562
6 *462:19 0.000312324
7 *462:8 0.00150549
8 *462:8 *2005:A 4.47209e-05
9 *462:8 *464:20 0.000119631
10 *462:19 *2005:B 0
11 *2007:B *2008:B 0
12 *2007:B *462:19 0
13 *2009:B *2009:A 3.29384e-05
14 *2024:A2 *2009:A 9.80032e-06
15 *2026:A1 *2008:B 1.01661e-05
16 *2026:A1 *2009:A 3.00381e-05
17 *2026:A2 *2008:B 5.53249e-06
18 *2026:A2 *462:19 0.000103192
19 *2140:A *462:8 0.000316417
20 *2144:A *462:8 2.75229e-05
21 *2144:B *462:8 1.91597e-05
22 *2165:A1 *462:8 0.000124231
23 *2165:C1 *462:8 1.17309e-05
24 *275:8 *462:19 0
25 *277:8 *2008:B 8.65961e-05
26 *277:21 *2008:B 0
27 *400:10 *462:8 0.0001249
28 *404:12 *462:8 0.000349972
*RES
1 *2303:X *462:8 23.455 
2 *462:8 *2024:A1 1.6 
3 *462:8 *462:19 4.595 
4 *462:19 *2010:B1_N 3.6 
5 *462:19 *2008:B 6.795 
6 *2024:A1 *2009:A 4.7 
*END

*D_NET *463 0.00651784
*CONN
*I *2015:A I *D sky130_fd_sc_hd__and2_4
*I *2018:A1 I *D sky130_fd_sc_hd__a21oi_2
*I *2149:A I *D sky130_fd_sc_hd__and2_2
*I *1991:A I *D sky130_fd_sc_hd__nor2_4
*I *2148:A I *D sky130_fd_sc_hd__nor2_2
*I *2369:X O *D sky130_fd_sc_hd__buf_2
*CAP
1 *2015:A 4.21591e-05
2 *2018:A1 8.0838e-05
3 *2149:A 0.000155183
4 *1991:A 0.00126729
5 *2148:A 0
6 *2369:X 0.000225441
7 *463:42 0.000236021
8 *463:16 0.00136979
9 *463:12 0.000199025
10 *463:10 0.000364125
11 *1991:A *1991:B 0.000204766
12 *1991:A *2028:B 0.000120344
13 *1991:A *2036:A2_N 3.50152e-06
14 *1991:A *2399:A 0
15 *1991:A *464:12 7.34286e-05
16 *1991:A *464:14 0.000387345
17 *1991:A *464:20 0.00010506
18 *1991:A *464:24 0
19 *1991:A *536:14 0.000127181
20 *1991:A *598:12 3.26223e-06
21 *2015:A *2015:B 4.89295e-05
22 *2018:A1 *2018:A2 8.64421e-05
23 *463:10 *2028:B 7.34286e-05
24 *463:12 *2028:B 0.00010141
25 *463:16 *2028:B 7.71016e-05
26 *2019:A1 *463:10 0.000121817
27 *2036:A1_N *1991:A 0.000122325
28 *2072:D *1991:A 0
29 *2136:A2 *1991:A 0.000160665
30 *2155:A2 *1991:A 7.70828e-05
31 *2159:A1 *1991:A 0
32 *284:8 *2015:A 7.08554e-05
33 *288:12 *1991:A 0
34 *289:12 *1991:A 0
35 *289:25 *1991:A 0.000188957
36 *393:20 *1991:A 0.000338219
37 *451:16 *1991:A 8.5841e-05
*RES
1 *2369:X *463:10 7.065 
2 *463:10 *463:12 2.145 
3 *463:12 *463:16 3.89 
4 *463:16 *2148:A 1.6 
5 *463:16 *1991:A 33.08 
6 *463:12 *463:42 2 
7 *463:42 *2149:A 3.775 
8 *463:42 *2018:A1 3.085 
9 *463:10 *2015:A 4.74 
*END

*D_NET *464 0.00619055
*CONN
*I *2029:A I *D sky130_fd_sc_hd__nor2_2
*I *2030:A I *D sky130_fd_sc_hd__and2_4
*I *2033:A1 I *D sky130_fd_sc_hd__o21ai_2
*I *2034:A1 I *D sky130_fd_sc_hd__a21oi_2
*I *2006:A I *D sky130_fd_sc_hd__and2_2
*I *2005:A I *D sky130_fd_sc_hd__nor2_2
*I *1992:A I *D sky130_fd_sc_hd__and2_4
*I *1993:A I *D sky130_fd_sc_hd__nand2_2
*I *2294:X O *D sky130_fd_sc_hd__dlygate4sd1_1
*CAP
1 *2029:A 9.06979e-05
2 *2030:A 8.12594e-06
3 *2033:A1 3.21514e-05
4 *2034:A1 3.35335e-05
5 *2006:A 2.90027e-05
6 *2005:A 3.70735e-05
7 *1992:A 0
8 *1993:A 0.000155997
9 *2294:X 5.74818e-05
10 *464:69 4.02774e-05
11 *464:24 0.000423226
12 *464:20 0.000486161
13 *464:14 0.000563759
14 *464:12 0.000609816
15 *464:10 0.000474697
16 *464:8 0.000399492
17 *1993:A *1991:B 0
18 *1993:A *536:14 0
19 *2006:A *537:16 7.35813e-05
20 *2029:A *2029:B 3.50033e-05
21 *2029:A *2388:A 0.000124816
22 *2029:A *540:10 3.67779e-05
23 *2030:A *2033:A2 4.82919e-05
24 *2033:A1 *2033:A2 0.000123225
25 *2034:A1 *2034:A2 4.99619e-05
26 *464:8 *561:51 8.65905e-05
27 *464:10 *2034:A2 1.52184e-05
28 *464:10 *2388:A 3.68769e-05
29 *464:10 *540:10 0.000317508
30 *464:12 *2034:A2 0.000283514
31 *464:20 *2005:B 0
32 *464:24 *536:14 0
33 *1991:A *464:12 7.34286e-05
34 *1991:A *464:14 0.000387345
35 *1991:A *464:20 0.00010506
36 *1991:A *464:24 0
37 *1995:A_N *1993:A 0.000109533
38 *1995:A_N *464:24 5.53249e-06
39 *1995:B *1993:A 2.75145e-05
40 *2007:A *464:14 0
41 *2007:A *464:20 0
42 *2020:A *2034:A1 0.0001249
43 *2034:B1 *464:12 0
44 *2036:B2 *464:12 5.93844e-05
45 *2037:A2 *2034:A1 1.16578e-05
46 *2145:A2 *1993:A 1.61831e-05
47 *2340:A *2029:A 0
48 *2340:A *464:10 0
49 *2341:A *2029:A 4.80285e-05
50 *262:27 *1993:A 4.43871e-06
51 *286:10 *464:10 7.75325e-05
52 *286:12 *464:10 6.57118e-05
53 *286:12 *464:12 6.23375e-05
54 *288:12 *464:12 0
55 *301:8 *2030:A 3.74161e-05
56 *301:8 *2033:A1 8.65905e-05
57 *393:18 *2006:A 5.0751e-05
58 *462:8 *2005:A 4.47209e-05
59 *462:8 *464:20 0.000119631
*RES
1 *2294:X *464:8 4.395 
2 *464:8 *464:10 6.99 
3 *464:10 *464:12 6.225 
4 *464:12 *464:14 8.01 
5 *464:14 *464:20 5.975 
6 *464:20 *464:24 6.185 
7 *464:24 *1993:A 6.795 
8 *464:24 *1992:A 3.6 
9 *464:20 *2005:A 2.395 
10 *464:14 *2006:A 4.74 
11 *464:12 *2034:A1 4.74 
12 *464:10 *464:69 2 
13 *464:69 *2033:A1 2.74 
14 *464:69 *2030:A 2.05 
15 *464:8 *2029:A 6.03 
*END

*D_NET *465 0.00246312
*CONN
*I *2209:A I *D sky130_fd_sc_hd__inv_8
*I *1931:A1 I *D sky130_fd_sc_hd__o21ai_2
*I *1929:A1 I *D sky130_fd_sc_hd__a21boi_2
*I *2370:A I *D sky130_fd_sc_hd__buf_6
*I *1927:A I *D sky130_fd_sc_hd__and2_4
*I *2295:X O *D sky130_fd_sc_hd__buf_6
*CAP
1 *2209:A 9.42897e-05
2 *1931:A1 0.000148094
3 *1929:A1 0
4 *2370:A 0
5 *1927:A 0.000211292
6 *2295:X 4.05263e-05
7 *465:12 0.00028422
8 *465:10 0.000154296
9 *465:6 0.000175699
10 *1927:A *1927:B 4.82863e-05
11 *1927:A *1930:A1 8.57024e-05
12 *1927:A *466:17 0
13 *1931:A1 *1931:A2 0.000188069
14 *2209:A *2295:A 0
15 *465:6 *1931:A2 8.40213e-05
16 *1928:A1 *1927:A 0
17 *1931:B1 *2209:A 0
18 *1931:B1 *465:10 4.92096e-05
19 *2277:A1 *2209:A 9.50342e-06
20 *2277:A1 *465:10 0
21 *2277:A1 *465:12 0
22 *173:14 *1931:A1 7.22354e-05
23 *173:14 *2209:A 0
24 *438:10 *2209:A 0
25 *449:14 *1927:A 0.000383698
26 *449:14 *465:10 0.00016881
27 *449:14 *465:12 0.000156842
28 *449:96 *2209:A 0.000108329
*RES
1 *2295:X *465:6 2.395 
2 *465:6 *465:10 4.145 
3 *465:10 *465:12 1.89 
4 *465:12 *1927:A 8.835 
5 *465:12 *2370:A 3.6 
6 *465:10 *1929:A1 3.6 
7 *465:6 *1931:A1 3.43 
8 *1931:A1 *2209:A 9.09 
*END

*D_NET *466 0.0050209
*CONN
*I *1930:A1 I *D sky130_fd_sc_hd__a21bo_2
*I *2258:A I *D sky130_fd_sc_hd__nand2_2
*I *2261:A1 I *D sky130_fd_sc_hd__o21a_4
*I *2283:B I *D sky130_fd_sc_hd__nand2b_4
*I *2260:B I *D sky130_fd_sc_hd__nand2b_4
*I *1926:A I *D sky130_fd_sc_hd__nor2_2
*I *2370:X O *D sky130_fd_sc_hd__buf_6
*CAP
1 *1930:A1 0.000293407
2 *2258:A 5.10944e-05
3 *2261:A1 0
4 *2283:B 0.000249013
5 *2260:B 9.82875e-05
6 *1926:A 0.000203856
7 *2370:X 0
8 *466:36 0.000301106
9 *466:21 0.00019359
10 *466:19 0.000142802
11 *466:17 0.000580298
12 *466:4 0.000442249
13 *1930:A1 *1927:B 3.7712e-05
14 *1930:A1 *1930:A2 5.05437e-05
15 *2260:B *559:8 9.91257e-05
16 *2283:B *2259:B 4.99619e-05
17 *466:19 *2261:B1 8.53113e-06
18 *466:19 *524:10 0.000130714
19 *466:21 *2261:B1 0.000164679
20 *466:36 *2259:B 4.82863e-05
21 *466:36 *2261:A2 3.74161e-05
22 *1927:A *1930:A1 8.57024e-05
23 *1927:A *466:17 0
24 *1928:A1 *466:17 0.000143266
25 *2263:B *2283:B 8.8266e-05
26 *2263:B *466:36 0.000146408
27 *2263:C *2260:B 6.28765e-05
28 *2263:C *466:21 1.15688e-05
29 *2325:A *1930:A1 2.49909e-05
30 *2325:A *2260:B 0.000183043
31 *2325:A *466:17 2.23922e-05
32 *2325:A *466:19 0.000152127
33 *2325:A *466:21 0.000177568
34 *2329:A *2260:B 0
35 *2329:A *466:17 0
36 *2329:A *466:19 0
37 *2360:A *2260:B 0.000163204
38 *149:6 *2258:A 4.66108e-05
39 *449:14 *2283:B 7.66083e-05
40 *449:24 *2283:B 0.000453593
*RES
1 *2370:X *466:4 1.6 
2 *466:4 *1926:A 4.48 
3 *466:4 *466:17 6.44 
4 *466:17 *466:19 1.89 
5 *466:19 *466:21 2.145 
6 *466:21 *2260:B 7.23 
7 *466:21 *466:36 3.485 
8 *466:36 *2283:B 7.585 
9 *466:36 *2261:A1 1.6 
10 *466:19 *2258:A 4.395 
11 *466:17 *1930:A1 8.205 
*END

*D_NET *467 0.00313529
*CONN
*I *2225:A I *D sky130_fd_sc_hd__and2_4
*I *2224:A I *D sky130_fd_sc_hd__nor2_2
*I *2226:A I *D sky130_fd_sc_hd__nand2_2
*I *2371:A I *D sky130_fd_sc_hd__buf_6
*I *2296:X O *D sky130_fd_sc_hd__buf_4
*CAP
1 *2225:A 0.000182842
2 *2224:A 0.000145385
3 *2226:A 0
4 *2371:A 2.08101e-05
5 *2296:X 0.000169489
6 *467:29 0.000145385
7 *467:27 0.000711762
8 *467:12 0.00071922
9 *2224:A *2224:B 6.75558e-05
10 *2224:A *2379:A 0.000276441
11 *2225:A *2225:B 4.99619e-05
12 *2225:A *530:10 4.94404e-05
13 *467:12 *469:10 8.5841e-05
14 *467:12 *475:45 6.28843e-05
15 *467:12 *533:18 0
16 *467:27 *2379:A 0
17 *467:27 *469:10 0.000110549
18 *467:27 *527:12 1.4399e-05
19 *2227:A2 *2225:A 0
20 *2228:B *2224:A 0.000279787
21 *2228:B *2225:A 0
22 *119:14 *2225:A 4.35348e-05
*RES
1 *2296:X *467:12 8.81 
2 *467:12 *2371:A 1.96 
3 *467:12 *467:27 10.055 
4 *467:27 *467:29 2 
5 *467:29 *2226:A 1.6 
6 *467:29 *2224:A 6.325 
7 *467:27 *2225:A 6.885 
*END

*D_NET *468 0.00840756
*CONN
*I *2255:A1 I *D sky130_fd_sc_hd__a21boi_2
*I *2229:A I *D sky130_fd_sc_hd__nor2_2
*I *2274:A I *D sky130_fd_sc_hd__and2_4
*I *2276:A1 I *D sky130_fd_sc_hd__a21oi_2
*I *2251:A I *D sky130_fd_sc_hd__nor2_2
*I *2252:A I *D sky130_fd_sc_hd__and2_4
*I *2256:A1 I *D sky130_fd_sc_hd__o21ai_2
*I *2371:X O *D sky130_fd_sc_hd__buf_6
*CAP
1 *2255:A1 0.000137182
2 *2229:A 0.000183179
3 *2274:A 0.00021954
4 *2276:A1 0.000145288
5 *2251:A 0.000162557
6 *2252:A 3.55506e-05
7 *2256:A1 0.00032654
8 *2371:X 0.000103197
9 *468:29 0.000900209
10 *468:14 0.00118606
11 *468:12 0.000642588
12 *468:10 0.000541026
13 *468:8 0.000405166
14 *2229:A *2229:B 9.53428e-06
15 *2229:A *529:8 0.000106359
16 *2229:A *529:14 3.00381e-05
17 *2251:A *2252:B 0.000121522
18 *2251:A *560:28 5.53249e-06
19 *2255:A1 *2255:A2 3.26889e-05
20 *2255:A1 *2256:A2 9.91257e-05
21 *2255:A1 *560:8 2.57174e-05
22 *2256:A1 *2406:A 5.92191e-05
23 *2274:A *2274:B 3.00381e-05
24 *468:29 *2252:B 2.11084e-05
25 *468:29 *2253:B1_N 5.05437e-05
26 *1969:A2 *468:29 9.70988e-05
27 *1969:B1 *468:29 1.56428e-05
28 *1970:A2 *468:10 0
29 *1970:B1 *2276:A1 0.000316415
30 *1970:B1 *468:10 0.0001032
31 *1970:B1 *468:12 9.50036e-05
32 *1971:A1 *468:14 0
33 *1971:B1 *2274:A 4.82863e-05
34 *1971:B1 *468:10 6.34101e-06
35 *1971:B1 *468:12 1.52184e-05
36 *2190:A *2256:A1 7.63282e-05
37 *2190:A *468:14 0.000150631
38 *2193:A1 *2256:A1 0.000183738
39 *2193:A1 *468:14 0.000429857
40 *2193:A2 *468:14 0
41 *2253:A2 *2252:A 0
42 *2253:A2 *468:29 4.65515e-05
43 *2254:A2 *2251:A 0
44 *2280:D1 *468:12 0.000116165
45 *2280:D1 *468:14 8.53113e-06
46 *147:12 *2256:A1 0.000179737
47 *165:14 *2274:A 9.87211e-05
48 *166:12 *468:14 0
49 *166:25 *2276:A1 0.000237406
50 *169:12 *468:12 6.45236e-05
51 *244:14 *2274:A 4.82919e-05
52 *244:14 *468:8 0.000195932
53 *244:14 *468:10 0.000294428
*RES
1 *2371:X *468:8 6 
2 *468:8 *468:10 3.675 
3 *468:10 *468:12 4.185 
4 *468:12 *468:14 6.99 
5 *468:14 *2256:A1 8.85 
6 *468:14 *468:29 10.385 
7 *468:29 *2252:A 2.215 
8 *468:29 *2251:A 8.375 
9 *468:12 *2276:A1 7.86 
10 *468:10 *2274:A 7.845 
11 *468:8 *2229:A 6.825 
12 *2256:A1 *2255:A1 6.005 
*END

*D_NET *469 0.00494566
*CONN
*I *2230:A I *D sky130_fd_sc_hd__and2_2
*I *2232:A1 I *D sky130_fd_sc_hd__o21ai_2
*I *2271:A1 I *D sky130_fd_sc_hd__o21a_4
*I *2267:B I *D sky130_fd_sc_hd__nand2b_2
*I *2269:A I *D sky130_fd_sc_hd__nand2_2
*I *2297:X O *D sky130_fd_sc_hd__clkbuf_2
*CAP
1 *2230:A 0
2 *2232:A1 0.000159279
3 *2271:A1 0.000432258
4 *2267:B 0
5 *2269:A 0.000346994
6 *2297:X 0.000584764
7 *469:54 0.000280889
8 *469:12 0.000380198
9 *469:10 0.000928616
10 *2232:A1 *2232:A2 0.000131646
11 *2232:A1 *529:14 9.50342e-06
12 *2269:A *527:12 1.43521e-05
13 *2269:A *527:31 0
14 *2271:A1 *2271:A2 9.02259e-05
15 *2271:A1 *2271:B1 0
16 *2271:A1 *527:21 0.000112622
17 *2271:A1 *529:8 0.000198945
18 *2271:A1 *544:10 0
19 *469:10 *527:12 2.67022e-05
20 *469:12 *527:12 1.94805e-05
21 *469:54 *475:45 8.8266e-05
22 *469:54 *475:55 0.000163204
23 *1970:A2 *2269:A 0
24 *2268:A *2269:A 0.000238919
25 *2272:B *2269:A 0
26 *2330:A *2271:A1 2.04694e-05
27 *121:10 *2232:A1 0
28 *121:10 *469:54 0.000164874
29 *162:14 *2269:A 0
30 *163:10 *2269:A 7.89767e-05
31 *244:14 *469:10 0.000237243
32 *244:14 *469:54 4.0843e-05
33 *467:12 *469:10 8.5841e-05
34 *467:27 *469:10 0.000110549
*RES
1 *2297:X *469:10 11.73 
2 *469:10 *469:12 0.615 
3 *469:12 *2269:A 10.215 
4 *469:12 *2267:B 3.6 
5 *469:10 *2271:A1 13.405 
6 *2297:X *469:54 4.825 
7 *469:54 *2232:A1 7.94 
8 *469:54 *2230:A 1.6 
*END

*D_NET *470 0.00153815
*CONN
*I *2089:A I *D sky130_fd_sc_hd__nor2_2
*I *2090:A I *D sky130_fd_sc_hd__and2_4
*I *2372:A I *D sky130_fd_sc_hd__buf_8
*I *2092:A1 I *D sky130_fd_sc_hd__o21ai_2
*I *2298:X O *D sky130_fd_sc_hd__buf_6
*CAP
1 *2089:A 0
2 *2090:A 8.68428e-05
3 *2372:A 0
4 *2092:A1 8.71363e-05
5 *2298:X 0.000119683
6 *470:29 0.000252313
7 *470:18 0.000198018
8 *2090:A *2090:B 0.000187071
9 *2090:A *471:10 0
10 *2092:A1 *2092:A2 7.5277e-05
11 *2092:A1 *475:25 0.000160635
12 *470:18 *2092:A2 5.30673e-05
13 *470:29 *2090:B 2.14129e-05
14 *470:29 *2092:A2 6.6564e-05
15 *470:29 *471:10 0
16 *470:29 *545:10 5.23362e-05
17 *470:29 *545:12 9.37731e-05
18 *356:14 *2092:A1 8.40213e-05
*RES
1 *2298:X *2092:A1 5.72 
2 *2298:X *470:18 2.395 
3 *470:18 *2372:A 1.6 
4 *470:18 *470:29 5.375 
5 *470:29 *2090:A 5.745 
6 *470:29 *2089:A 3.6 
*END

*D_NET *471 0.00842387
*CONN
*I *2110:A I *D sky130_fd_sc_hd__nor2_2
*I *2111:A I *D sky130_fd_sc_hd__and2_4
*I *2217:A I *D sky130_fd_sc_hd__nor2_2
*I *2223:A1 I *D sky130_fd_sc_hd__o21ai_2
*I *2220:A I *D sky130_fd_sc_hd__and2_4
*I *2221:A I *D sky130_fd_sc_hd__nor2_2
*I *2218:A I *D sky130_fd_sc_hd__and2_4
*I *2372:X O *D sky130_fd_sc_hd__buf_8
*CAP
1 *2110:A 0.000247551
2 *2111:A 2.61242e-05
3 *2217:A 0
4 *2223:A1 5.66833e-05
5 *2220:A 6.85093e-05
6 *2221:A 0.000243977
7 *2218:A 2.9058e-05
8 *2372:X 0.000825193
9 *471:39 0.000534638
10 *471:37 0.000598953
11 *471:31 0.000543845
12 *471:16 0.000352812
13 *471:12 0.00025893
14 *471:10 0.00120552
15 *2110:A *2112:B1_N 2.16917e-05
16 *2110:A *511:12 2.49909e-05
17 *2111:A *2111:B 4.66108e-05
18 *2218:A *2218:B 8.65905e-05
19 *2220:A *555:10 3.00381e-05
20 *2221:A *2221:B 0
21 *2221:A *2383:A 7.62408e-05
22 *2223:A1 *2223:A2 4.99619e-05
23 *2223:A1 *531:10 3.00381e-05
24 *471:10 *2090:B 0
25 *471:10 *2093:A1 0
26 *471:10 *2103:B 0.000266612
27 *471:10 *2104:C_N 0.000182342
28 *471:10 *2113:C_N 0.000163019
29 *471:10 *494:23 0.000111096
30 *471:10 *509:12 0.000108322
31 *471:10 *511:12 4.21314e-05
32 *471:10 *546:8 0.000252275
33 *471:10 *547:10 0
34 *471:12 *2111:B 0
35 *471:12 *511:12 0.000326639
36 *471:16 *511:12 0.00011852
37 *471:31 *2217:B 0.000103192
38 *471:31 *2218:B 0.000231774
39 *471:31 *566:10 0.000142669
40 *471:37 *2217:B 5.53249e-06
41 *471:37 *2382:A 0
42 *471:39 *531:10 0
43 S[14] *2220:A 3.64998e-06
44 S[14] *2221:A 4.49498e-05
45 S[15] *471:37 0.000177886
46 S[16] *2221:A 0
47 S[18] *471:37 2.38193e-05
48 S[18] *471:39 6.55328e-05
49 *2090:A *471:10 0
50 *2104:B *471:10 0
51 *2106:A *471:10 3.57768e-05
52 *2112:A2 *2110:A 8.8266e-05
53 *2112:A2 *471:10 2.61015e-05
54 *2112:A2 *471:12 0.000268973
55 *2113:A *2110:A 4.60584e-05
56 *2113:B *471:10 0
57 *2129:A2 *471:10 0
58 *2219:A *471:37 1.01661e-05
59 *2219:B *471:37 7.52529e-05
60 *2313:A *471:16 0
61 *2332:A *471:37 0
62 *2347:A *471:10 0
63 *2356:A *471:39 0
64 *2363:A *471:37 0
65 *372:6 *2110:A 2.30292e-05
66 *374:6 *2110:A 0.000122331
67 *379:10 *471:10 0
68 *470:29 *471:10 0
*RES
1 *2372:X *471:10 21.165 
2 *471:10 *471:12 3.93 
3 *471:12 *471:16 3.89 
4 *471:16 *2218:A 2.395 
5 *471:16 *471:31 8.06 
6 *471:31 *471:37 6.78 
7 *471:37 *471:39 3.93 
8 *471:39 *2221:A 7.935 
9 *471:39 *2220:A 4.74 
10 *471:37 *2223:A1 4.74 
11 *471:31 *2217:A 3.6 
12 *471:12 *2111:A 4.05 
13 *471:10 *2110:A 8.205 
*END

*D_NET *472 0.00233076
*CONN
*I *2373:A I *D sky130_fd_sc_hd__buf_8
*I *2432:A I *D sky130_fd_sc_hd__buf_2
*I *2299:X O *D sky130_fd_sc_hd__buf_8
*CAP
1 *2373:A 0
2 *2432:A 0.000430566
3 *2299:X 0.000182364
4 *472:10 0.00061293
5 *2432:A *2078:B 0
6 *2432:A *2079:A 0
7 *2432:A *474:8 0
8 *472:10 *2391:A 0.000498567
9 S[23] *2432:A 0
10 S[24] *2432:A 0
11 *2050:A2 *2432:A 0.0001113
12 *2343:A *472:10 0.000416053
13 *312:8 *2432:A 7.89767e-05
*RES
1 *2299:X *472:10 8.035 
2 *472:10 *2432:A 12.875 
3 *472:10 *2373:A 1.6 
*END

*D_NET *473 0.00238714
*CONN
*I *1942:A_N I *D sky130_fd_sc_hd__nand3b_4
*I *1940:B I *D sky130_fd_sc_hd__nand2_4
*I *2304:X O *D sky130_fd_sc_hd__clkdlybuf4s25_1
*CAP
1 *1942:A_N 0.000310041
2 *1940:B 0
3 *2304:X 0.000357161
4 *473:10 0.000667201
5 *473:10 *1914:A2 0
6 *473:10 *538:10 0.000314141
7 *1917:C1 *473:10 0.000268987
8 *2339:A *473:10 4.85494e-05
9 *187:8 *473:10 8.53255e-05
10 *213:8 *1942:A_N 0.000131408
11 *213:8 *473:10 9.50342e-06
12 *449:53 *1942:A_N 7.63204e-05
13 *449:53 *473:10 0.000118504
*RES
1 *2304:X *473:10 12.84 
2 *473:10 *1940:B 3.6 
3 *473:10 *1942:A_N 8.805 
*END

*D_NET *474 0.0045608
*CONN
*I *2045:A I *D sky130_fd_sc_hd__nor2_4
*I *2046:A I *D sky130_fd_sc_hd__and2_4
*I *2047:A I *D sky130_fd_sc_hd__nand2_2
*I *2431:A I *D sky130_fd_sc_hd__buf_2
*I *2056:A I *D sky130_fd_sc_hd__and2_4
*I *2059:A1 I *D sky130_fd_sc_hd__o21ai_2
*I *2060:A1 I *D sky130_fd_sc_hd__a21o_2
*I *2373:X O *D sky130_fd_sc_hd__buf_8
*CAP
1 *2045:A 0.000112238
2 *2046:A 3.96651e-05
3 *2047:A 0
4 *2431:A 0
5 *2056:A 0
6 *2059:A1 0
7 *2060:A1 0.000262359
8 *2373:X 0.000152159
9 *474:36 0.000681898
10 *474:26 0.000593291
11 *474:20 0.000293036
12 *474:16 0.000241057
13 *474:10 0.000223243
14 *474:8 0.000326201
15 *2045:A *2045:B 8.65961e-05
16 *2045:A *475:25 2.54431e-05
17 *2046:A *2046:B 0.000121437
18 *2060:A1 *2057:B1_N 5.42303e-05
19 *2060:A1 *2060:A2 4.99619e-05
20 *2060:A1 *2073:A1 0
21 *2060:A1 *506:22 5.16418e-05
22 *474:8 *2045:B 7.21296e-06
23 *474:8 *2299:A 0
24 *474:8 *542:10 0
25 *474:10 *2045:B 6.0236e-05
26 *474:16 *2045:B 8.66976e-06
27 *474:16 *541:21 0
28 *474:20 *541:8 0
29 *474:20 *541:21 0
30 *474:20 *542:10 0
31 *474:26 *2055:A 7.81954e-05
32 *474:26 *542:10 0.000200648
33 *474:36 *2055:A 2.7881e-05
34 *474:36 *504:10 0.000113782
35 *474:36 *506:14 0
36 *474:36 *506:22 9.50342e-06
37 *474:36 *542:10 9.50342e-06
38 *474:36 *542:12 5.16418e-05
39 *2049:A1 *2046:A 1.91597e-05
40 *2050:A1 *474:16 3.86529e-05
41 *2050:A2 *474:10 1.71013e-05
42 *2050:A2 *474:16 0.00017806
43 *2050:A2 *474:20 3.09233e-05
44 *2057:A2 *2060:A1 0
45 *2060:B1 *2060:A1 0
46 *2074:B1 *2060:A1 3.86607e-05
47 *2432:A *474:8 0
48 *2434:A *474:36 0.000186388
49 *312:8 *474:8 4.43871e-06
50 *312:8 *474:10 7.07879e-05
51 *312:25 *2046:A 4.66108e-05
52 *322:6 *474:36 4.82863e-05
53 *322:10 *474:36 0
54 *325:8 *2060:A1 0
*RES
1 *2373:X *474:8 6 
2 *474:8 *474:10 1.89 
3 *474:10 *474:16 2.7 
4 *474:16 *474:20 3.89 
5 *474:20 *474:26 5.885 
6 *474:26 *474:36 10.24 
7 *474:36 *2060:A1 8.07 
8 *474:36 *2059:A1 3.6 
9 *474:26 *2056:A 3.6 
10 *474:20 *2431:A 1.6 
11 *474:16 *2047:A 3.6 
12 *474:10 *2046:A 4.74 
13 *474:8 *2045:A 5.445 
*END

*D_NET *475 0.014751
*CONN
*I *2298:A I *D sky130_fd_sc_hd__buf_6
*I *2426:A I *D sky130_fd_sc_hd__buf_2
*I *2296:A I *D sky130_fd_sc_hd__buf_4
*I *2297:A I *D sky130_fd_sc_hd__clkbuf_2
*I *2425:A I *D sky130_fd_sc_hd__buf_2
*I *2295:A I *D sky130_fd_sc_hd__buf_6
*I *2299:A I *D sky130_fd_sc_hd__buf_8
*I *2300:X O *D sky130_fd_sc_hd__buf_8
*CAP
1 *2298:A 0
2 *2426:A 0
3 *2296:A 2.32329e-05
4 *2297:A 0
5 *2425:A 0
6 *2295:A 0.000377432
7 *2299:A 9.64959e-05
8 *2300:X 5.47511e-05
9 *475:55 0.00102878
10 *475:45 0.000887386
11 *475:35 0.00238342
12 *475:29 0.00242297
13 *475:25 0.00137672
14 *475:8 0.00122914
15 *2296:A *533:18 2.75145e-05
16 *2299:A *542:10 0
17 *475:25 *2045:B 5.05521e-05
18 *475:25 *2079:B 4.60584e-05
19 *475:25 *2092:A2 2.36716e-05
20 *475:25 *507:12 6.19997e-05
21 *475:25 *508:10 2.15594e-05
22 *475:29 *2091:B1_N 9.50114e-05
23 *475:29 *2093:A1 0
24 *475:29 *2393:A 0
25 *475:35 *2099:A1 0
26 *475:35 *2235:A2 8.70923e-05
27 *475:35 *2239:A1 3.31282e-05
28 *475:35 *2393:A 7.73272e-05
29 *475:55 *2232:A2 9.50342e-06
30 *475:55 *2274:B 0.000201508
31 *475:55 *2275:A1 2.75229e-05
32 *475:55 *529:14 0.000185411
33 S[24] *475:25 0.000541118
34 *1931:B1 *2295:A 5.53249e-06
35 *2045:A *475:25 2.54431e-05
36 *2081:B *475:25 4.82863e-05
37 *2084:B *475:35 0
38 *2092:A1 *475:25 0.000160635
39 *2094:A1 *475:29 8.17924e-05
40 *2107:A1 *475:35 0
41 *2116:B1 *475:35 0
42 *2119:A1 *475:35 0
43 *2120:B *475:35 0
44 *2128:B *475:35 0.000105841
45 *2199:A *475:35 0
46 *2199:B *475:35 6.14433e-05
47 *2203:A1 *475:35 0.00035675
48 *2209:A *2295:A 0
49 *2231:A *475:35 0
50 *2233:A1 *475:35 0
51 *2235:B1 *475:35 0
52 *2235:B2 *475:35 9.54469e-05
53 *2248:B *475:35 7.4027e-05
54 *2249:A *475:35 0.000157595
55 *2249:C *475:35 1.73877e-05
56 *2342:A *2299:A 6.35535e-05
57 *120:8 *475:45 0
58 *120:8 *475:55 0
59 *129:41 *475:35 4.78859e-05
60 *129:54 *475:35 5.11148e-06
61 *139:14 *475:35 0.000244952
62 *173:14 *2295:A 0.00011852
63 *244:14 *475:45 0.000278433
64 *244:14 *475:55 0.000163204
65 *356:14 *475:29 0.000160658
66 *358:20 *475:35 0
67 *363:12 *475:29 0
68 *363:12 *475:35 6.43964e-05
69 *363:18 *475:35 0
70 *369:20 *475:35 9.05377e-05
71 *438:10 *2295:A 0.000183634
72 *438:10 *475:55 5.83121e-06
73 *442:18 *475:35 0.000208976
74 *446:12 *475:35 0
75 *449:14 *2295:A 0.000241479
76 *467:12 *475:45 6.28843e-05
77 *469:54 *475:45 8.8266e-05
78 *469:54 *475:55 0.000163204
79 *474:8 *2299:A 0
*RES
1 *2300:X *475:8 2.41 
2 *475:8 *2299:A 7.49 
3 *475:8 *475:25 19.625 
4 *475:25 *475:29 7.97 
5 *475:29 *475:35 43.64 
6 *475:35 *475:45 6.965 
7 *475:45 *475:55 16.9 
8 *475:55 *2295:A 13.22 
9 *475:55 *2425:A 1.6 
10 *475:45 *2297:A 1.6 
11 *475:35 *2296:A 4.05 
12 *475:29 *2426:A 1.6 
13 *475:25 *2298:A 3.6 
*END

*D_NET *476 0.000305404
*CONN
*I *2087:A1 I *D sky130_fd_sc_hd__o211ai_2
*I *2409:X O *D sky130_fd_sc_hd__buf_2
*CAP
1 *2087:A1 8.75441e-05
2 *2409:X 8.75441e-05
3 *2409:A *2087:A1 5.4155e-06
4 *389:14 *2087:A1 0.0001249
*RES
1 *2409:X *2087:A1 5.045 
*END

*D_NET *477 0.00096251
*CONN
*I *2131:B2 I *D sky130_fd_sc_hd__o221ai_4
*I *2410:X O *D sky130_fd_sc_hd__buf_4
*CAP
1 *2131:B2 0.000227939
2 *2410:X 0.000227939
3 *1981:B1 *2131:B2 9.16237e-05
4 *2077:B1 *2131:B2 0.000198279
5 *2077:C1 *2131:B2 0
6 *2131:C1 *2131:B2 0
7 *2410:A *2131:B2 5.50989e-05
8 *141:18 *2131:B2 0
9 *252:10 *2131:B2 3.09164e-05
10 *252:23 *2131:B2 0.000130714
*RES
1 *2410:X *2131:B2 12.915 
*END

*D_NET *478 0.00324121
*CONN
*I *2179:A I *D sky130_fd_sc_hd__nand3_2
*I *2178:A1 I *D sky130_fd_sc_hd__a21oi_2
*I *1955:B1 I *D sky130_fd_sc_hd__o21a_2
*I *2411:X O *D sky130_fd_sc_hd__buf_2
*CAP
1 *2179:A 0
2 *2178:A1 6.25708e-05
3 *1955:B1 0.000305741
4 *2411:X 0.000601661
5 *478:34 0.00035849
6 *1955:B1 *1953:B1_N 1.86433e-05
7 *1955:B1 *2376:A 0.000166346
8 *1955:B1 *2398:A 4.62491e-05
9 *1955:B1 *2401:A 1.56428e-05
10 *1955:B1 *515:10 0.000520509
11 *478:34 *2401:A 9.2741e-05
12 S[2] *1955:B1 0.000279444
13 *1955:A2 *1955:B1 8.6099e-05
14 *2178:A2 *2178:A1 0.000201503
15 *2178:B1 *2178:A1 4.82863e-05
16 *2319:A *478:34 0
17 *226:12 *1955:B1 0.000137571
18 *227:8 *1955:B1 0.000158163
19 *234:12 *478:34 2.97004e-06
20 *431:12 *478:34 0.000138578
*RES
1 *2411:X *1955:B1 17.745 
2 *2411:X *478:34 10.505 
3 *478:34 *2178:A1 3.43 
4 *478:34 *2179:A 1.6 
*END

*D_NET *479 0.000747502
*CONN
*I *2133:A2 I *D sky130_fd_sc_hd__o21ai_2
*I *2412:X O *D sky130_fd_sc_hd__buf_2
*CAP
1 *2133:A2 0.000275129
2 *2412:X 0.000275129
3 *2133:A1 *2133:A2 7.37195e-05
4 *2133:B1 *2133:A2 0
5 *2135:B1 *2133:A2 0
6 *2409:A *2133:A2 8.65905e-05
7 *2412:A *2133:A2 0
8 *2419:A *2133:A2 0
9 *389:14 *2133:A2 3.69334e-05
10 *393:18 *2133:A2 0
*RES
1 *2412:X *2133:A2 11.67 
*END

*D_NET *480 0.00520449
*CONN
*I *2073:A1 I *D sky130_fd_sc_hd__a31oi_2
*I *2066:B1 I *D sky130_fd_sc_hd__o21ai_2
*I *2063:B I *D sky130_fd_sc_hd__and3_2
*I *2051:A I *D sky130_fd_sc_hd__nand2_2
*I *2067:B1 I *D sky130_fd_sc_hd__o31a_2
*I *2413:X O *D sky130_fd_sc_hd__buf_2
*CAP
1 *2073:A1 0.000258955
2 *2066:B1 0
3 *2063:B 0.00023467
4 *2051:A 6.96382e-05
5 *2067:B1 0.000159481
6 *2413:X 0
7 *480:42 0.00025548
8 *480:18 0.000677104
9 *480:6 0.000775333
10 *480:4 0.000565493
11 *2051:A *2065:B1 8.53113e-06
12 *2063:B *2063:C 0.000505893
13 *2073:A1 *2061:A1 0
14 *2073:A1 *2071:A1 0.000162325
15 *2073:A1 *506:14 0.000471287
16 *2052:C1 *2051:A 0
17 *2052:C1 *2067:B1 0.000115464
18 *2060:A1 *2073:A1 0
19 *2060:B1 *2073:A1 1.22676e-05
20 *2062:A2 *2073:A1 1.01661e-05
21 *2064:A *2051:A 4.99619e-05
22 *2064:B *2051:A 0
23 *2064:B *480:18 6.03272e-05
24 *2066:A1 *2063:B 5.71242e-05
25 *2066:A2 *480:18 5.83121e-06
26 *2066:A2 *480:42 0
27 *2067:A1 *2067:B1 4.18603e-06
28 *2068:B1 *2063:B 0.00011852
29 *2069:A1 *2063:B 3.09164e-05
30 *2069:A1 *480:6 6.97118e-05
31 *2069:A1 *480:18 2.75229e-05
32 *2069:A2 *480:18 3.23284e-05
33 *2070:B *480:6 1.74678e-05
34 *2071:B1 *2073:A1 0.000174839
35 *2071:D1 *2051:A 0
36 *2073:A3 *2073:A1 4.40812e-05
37 *315:18 *480:6 3.1835e-05
38 *317:12 *480:6 8.22234e-06
39 *325:8 *2073:A1 3.39069e-05
40 *329:10 *2063:B 0.00015562
*RES
1 *2413:X *480:4 1.6 
2 *480:4 *480:6 3.555 
3 *480:6 *480:18 7.085 
4 *480:18 *2067:B1 6.12 
5 *480:18 *2051:A 4.665 
6 *480:6 *480:42 0.36 
7 *480:42 *2063:B 12.575 
8 *480:42 *2066:B1 1.6 
9 *480:4 *2073:A1 13.55 
*END

*D_NET *481 0.00162358
*CONN
*I *2212:B I *D sky130_fd_sc_hd__and2_4
*I *2211:B I *D sky130_fd_sc_hd__nor2_8
*I *2213:B I *D sky130_fd_sc_hd__nand2_2
*I *2414:X O *D sky130_fd_sc_hd__buf_2
*CAP
1 *2212:B 2.56379e-05
2 *2211:B 0.000115651
3 *2213:B 2.69617e-05
4 *2414:X 0.000144628
5 *481:14 0.000247921
6 *481:10 0.000275575
7 *2211:B *2211:A 2.49909e-05
8 *2213:B *2211:A 3.69354e-05
9 *481:10 *2214:C 3.09233e-05
10 *481:14 *2212:A 0
11 *481:14 *2214:C 0.000183745
12 *481:14 *534:10 0
13 *2214:A_N *2211:B 5.34747e-05
14 *2214:B *2211:B 0.000299625
15 *2214:B *2213:B 4.99619e-05
16 *2291:A *481:10 5.73362e-05
17 *2414:A *481:10 3.1835e-05
18 *258:16 *2212:B 1.83756e-05
*RES
1 *2414:X *481:10 6.03 
2 *481:10 *481:14 4.145 
3 *481:14 *2213:B 2.41 
4 *481:14 *2211:B 4.825 
5 *481:10 *2212:B 4.05 
*END

*D_NET *482 0.00178007
*CONN
*I *2068:A1 I *D sky130_fd_sc_hd__a211oi_4
*I *2415:X O *D sky130_fd_sc_hd__buf_2
*CAP
1 *2068:A1 0.000560563
2 *2415:X 0.000560563
3 *2068:A1 *2390:A 0
4 *2054:A *2068:A1 0
5 *2063:A *2068:A1 0.00036523
6 *329:10 *2068:A1 0.000293712
*RES
1 *2415:X *2068:A1 16.245 
*END

*D_NET *483 0.000984939
*CONN
*I *2062:B1 I *D sky130_fd_sc_hd__o21ai_2
*I *2061:B1 I *D sky130_fd_sc_hd__o21a_2
*I *2416:X O *D sky130_fd_sc_hd__buf_2
*CAP
1 *2062:B1 6.65807e-05
2 *2061:B1 0.000107598
3 *2416:X 0
4 *483:4 0.000174179
5 *2061:B1 *2061:A1 0
6 *2061:B1 *2386:A 0.000293025
7 *2068:C1 *2061:B1 0.000245199
8 *324:14 *2062:B1 8.57024e-05
9 *325:29 *2061:B1 1.26548e-05
*RES
1 *2416:X *483:4 1.6 
2 *483:4 *2061:B1 9.02 
3 *483:4 *2062:B1 2.755 
*END

*D_NET *484 0.00110147
*CONN
*I *2017:B1 I *D sky130_fd_sc_hd__o21ai_4
*I *2019:B1_N I *D sky130_fd_sc_hd__o21ba_2
*I *2305:X O *D sky130_fd_sc_hd__clkdlybuf4s25_1
*CAP
1 *2017:B1 2.15064e-05
2 *2019:B1_N 0.000147577
3 *2305:X 0.00019678
4 *484:8 0.000365863
5 *2017:B1 *539:10 4.77757e-05
6 *2019:B1_N *2028:B 2.42236e-05
7 *484:8 *2028:B 8.34426e-05
8 *2019:A1 *2019:B1_N 7.27003e-05
9 *2019:A2 *2019:B1_N 0.000141599
*RES
1 *2305:X *484:8 7.02 
2 *484:8 *2019:B1_N 6.885 
3 *484:8 *2017:B1 4.05 
*END

*D_NET *485 0.00120101
*CONN
*I *1980:D I *D sky130_fd_sc_hd__nand4_2
*I *2417:X O *D sky130_fd_sc_hd__buf_2
*CAP
1 *1980:D 0.000456412
2 *2417:X 0.000456412
3 *1978:A3 *1980:D 3.31103e-05
4 *1978:B1 *1980:D 8.8266e-05
5 *1980:A *1980:D 4.82919e-05
6 *240:10 *1980:D 0.00011852
*RES
1 *2417:X *1980:D 13.17 
*END

*D_NET *486 0.000548926
*CONN
*I *2077:B2 I *D sky130_fd_sc_hd__o221ai_4
*I *2418:X O *D sky130_fd_sc_hd__buf_4
*CAP
1 *2077:B2 0.000142948
2 *2418:X 0.000142948
3 *2077:B2 *2131:A2 0.000179008
4 *1981:A1 *2077:B2 0
5 *2077:A2 *2077:B2 8.40213e-05
6 *110:26 *2077:B2 0
*RES
1 *2418:X *2077:B2 10.14 
*END

*D_NET *487 0.00164381
*CONN
*I *2087:A2 I *D sky130_fd_sc_hd__o211ai_2
*I *2419:X O *D sky130_fd_sc_hd__buf_2
*CAP
1 *2087:A2 0.000515176
2 *2419:X 0.000515176
3 *2132:A1 *2087:A2 3.23663e-05
4 *2374:A *2087:A2 0.000581093
5 *452:22 *2087:A2 0
*RES
1 *2419:X *2087:A2 14.55 
*END

*D_NET *488 0.000202709
*CONN
*I *2077:A1 I *D sky130_fd_sc_hd__o221ai_4
*I *2420:X O *D sky130_fd_sc_hd__buf_4
*CAP
1 *2077:A1 5.48523e-05
2 *2420:X 5.48523e-05
3 *140:16 *2077:A1 4.82919e-05
4 *342:10 *2077:A1 4.47125e-05
*RES
1 *2420:X *2077:A1 4.34 
*END

*D_NET *489 0.0010707
*CONN
*I *2131:A2 I *D sky130_fd_sc_hd__o221ai_4
*I *2421:X O *D sky130_fd_sc_hd__buf_4
*CAP
1 *2131:A2 0.000327923
2 *2421:X 0.000327923
3 *2077:A2 *2131:A2 8.52172e-05
4 *2077:B2 *2131:A2 0.000179008
5 *2410:A *2131:A2 6.5265e-05
6 *110:26 *2131:A2 0
7 *110:28 *2131:A2 0
8 *133:32 *2131:A2 4.40556e-05
9 *133:47 *2131:A2 4.13092e-05
*RES
1 *2421:X *2131:A2 14.055 
*END

*D_NET *490 0.000366591
*CONN
*I *2086:A1 I *D sky130_fd_sc_hd__a21o_2
*I *2085:A2 I *D sky130_fd_sc_hd__a21oi_2
*I *2422:X O *D sky130_fd_sc_hd__buf_2
*CAP
1 *2086:A1 4.39095e-05
2 *2085:A2 2.61909e-05
3 *2422:X 6.35353e-05
4 *490:8 0.000133636
5 *2088:B *2085:A2 3.05295e-05
6 *2088:B *2086:A1 3.4222e-05
7 *2096:A2 *2086:A1 0
8 *2422:A *490:8 3.45679e-05
9 *349:12 *2085:A2 0
*RES
1 *2422:X *490:8 4.395 
2 *490:8 *2085:A2 4.215 
3 *490:8 *2086:A1 4.47 
*END

*D_NET *491 0.00171104
*CONN
*I *2099:A1 I *D sky130_fd_sc_hd__a21boi_2
*I *2116:A2 I *D sky130_fd_sc_hd__a21oi_4
*I *2087:C1 I *D sky130_fd_sc_hd__o211ai_2
*I *2423:X O *D sky130_fd_sc_hd__buf_2
*CAP
1 *2099:A1 0.000360008
2 *2116:A2 9.64637e-05
3 *2087:C1 5.03317e-05
4 *2423:X 0
5 *491:15 0.000491411
6 *491:4 8.52719e-05
7 *2087:B1 *2087:C1 8.57024e-05
8 *2087:B1 *2116:A2 4.43871e-06
9 *2115:B *2099:A1 0
10 *2116:B1 *2099:A1 7.25036e-05
11 *2128:A *2099:A1 0
12 *2422:A *2116:A2 2.37234e-05
13 *342:10 *2116:A2 4.18603e-06
14 *342:23 *2099:A1 0
15 *342:23 *2116:A2 0.0001023
16 *342:36 *2099:A1 0
17 *358:28 *2099:A1 0
18 *389:14 *2087:C1 0.000124007
19 *389:14 *2099:A1 0.000132977
20 *389:14 *491:15 2.05056e-05
21 *452:22 *2116:A2 5.72091e-05
22 *475:35 *2099:A1 0
*RES
1 *2423:X *491:4 1.6 
2 *491:4 *2087:C1 3.1 
3 *491:4 *491:15 0.45 
4 *491:15 *2116:A2 8.255 
5 *491:15 *2099:A1 11.195 
*END

*D_NET *492 0.00129034
*CONN
*I *2061:A1 I *D sky130_fd_sc_hd__o21a_2
*I *2062:A1 I *D sky130_fd_sc_hd__o21ai_2
*I *2424:X O *D sky130_fd_sc_hd__buf_2
*CAP
1 *2061:A1 0.000158582
2 *2062:A1 0.000247426
3 *2424:X 8.88432e-05
4 *2061:A1 *2386:A 0
5 *2062:A1 *2071:A1 8.40269e-05
6 *2062:A1 *2424:A 4.05358e-05
7 *2062:A1 *506:14 0.000118527
8 *2060:B1 *2061:A1 0
9 *2061:B1 *2061:A1 0
10 *2062:A2 *2061:A1 0.000184703
11 *2068:C1 *2061:A1 2.54523e-05
12 *2073:A1 *2061:A1 0
13 *2073:A3 *2061:A1 0.000116158
14 *324:14 *2061:A1 0.000137571
15 *325:23 *2061:A1 2.75145e-05
16 *325:29 *2061:A1 6.10014e-05
*RES
1 *2424:X *2062:A1 9.375 
2 *2062:A1 *2061:A1 11.835 
*END

*D_NET *493 0.00118922
*CONN
*I *2275:A1 I *D sky130_fd_sc_hd__o21ai_2
*I *2425:X O *D sky130_fd_sc_hd__buf_2
*CAP
1 *2275:A1 0.000230105
2 *2425:X 0.000230105
3 *2275:A1 *2274:B 0
4 *2275:A1 *528:10 3.25831e-05
5 *2275:A1 *528:21 0.000175214
6 *2275:A1 *528:32 0
7 *2278:B1 *2275:A1 0
8 *438:10 *2275:A1 0.000493693
9 *475:55 *2275:A1 2.75229e-05
*RES
1 *2425:X *2275:A1 13.365 
*END

*D_NET *494 0.00366577
*CONN
*I *2103:A I *D sky130_fd_sc_hd__and2_2
*I *2102:A I *D sky130_fd_sc_hd__nor2_2
*I *2093:A1 I *D sky130_fd_sc_hd__a21o_2
*I *2426:X O *D sky130_fd_sc_hd__buf_2
*CAP
1 *2103:A 7.94876e-05
2 *2102:A 0.000428316
3 *2093:A1 0.000183092
4 *2426:X 0.000249759
5 *494:23 0.000857849
6 *494:6 0.000782897
7 *2093:A1 *2090:B 0.000210151
8 *2102:A *2102:B 1.10767e-05
9 *2102:A *2103:B 9.54399e-05
10 *2103:A *2103:B 0
11 *2103:A *509:12 1.56632e-05
12 *494:6 *2394:A 5.05521e-05
13 *494:23 *2103:B 7.4027e-05
14 *494:23 *2394:A 0.00018171
15 *2091:A1 *2093:A1 0
16 *2094:A1 *2093:A1 0
17 *2104:A *2102:A 5.0751e-05
18 *2105:A1 *2102:A 9.53428e-06
19 *2106:A *2103:A 0.000119762
20 *2106:B *2102:A 5.39718e-05
21 *2106:B *494:23 1.34361e-05
22 *2117:B1_N *2102:A 5.4354e-05
23 *365:6 *2102:A 2.11084e-05
24 *368:12 *2102:A 1.17409e-05
25 *471:10 *2093:A1 0
26 *471:10 *494:23 0.000111096
27 *475:29 *2093:A1 0
*RES
1 *2426:X *494:6 4.465 
2 *494:6 *2093:A1 9.275 
3 *494:6 *494:23 8.03 
4 *494:23 *2102:A 9.585 
5 *494:23 *2103:A 5.1 
*END

*D_NET *495 0.00268292
*CONN
*I *2031:B1_N I *D sky130_fd_sc_hd__o21ba_2
*I *2032:B1_N I *D sky130_fd_sc_hd__o21bai_4
*I *2033:B1 I *D sky130_fd_sc_hd__o21ai_2
*I *2306:X O *D sky130_fd_sc_hd__clkdlybuf4s25_1
*CAP
1 *2031:B1_N 0
2 *2032:B1_N 0.000208939
3 *2033:B1 0.000363265
4 *2306:X 0.000198589
5 *495:12 0.000634419
6 *495:10 0.000260804
7 *2033:B1 *2033:A2 0.000122331
8 *2033:B1 *2389:A 0.00011843
9 *495:10 *2388:A 9.27495e-05
10 *495:10 *2389:A 5.53249e-06
11 *495:12 *2389:A 7.63282e-05
12 S[21] *495:10 5.2089e-05
13 *2031:A2 *495:12 0
14 *2032:A1 *495:10 0
15 *2038:A1 *2033:B1 4.92014e-05
16 *2040:B1 *2033:B1 0.000180675
17 *2430:A *2032:B1_N 0
18 *297:8 *495:10 0
19 *299:10 *2033:B1 1.94723e-05
20 *299:10 *495:12 3.26735e-05
21 *300:30 *2032:B1_N 1.4389e-05
22 *301:8 *2033:B1 0.000115455
23 *301:40 *2033:B1 0.000137578
*RES
1 *2306:X *495:10 6.72 
2 *495:10 *495:12 1.635 
3 *495:12 *2033:B1 11.685 
4 *495:12 *2032:B1_N 6.48 
5 *495:10 *2031:B1_N 3.6 
*END

*D_NET *496 0.00471036
*CONN
*I *1985:A I *D sky130_fd_sc_hd__nand2_2
*I *1939:A I *D sky130_fd_sc_hd__nor2_4
*I *1938:A I *D sky130_fd_sc_hd__nand2_2
*I *1984:A I *D sky130_fd_sc_hd__and2_4
*I *2427:X O *D sky130_fd_sc_hd__buf_2
*CAP
1 *1985:A 6.98619e-05
2 *1939:A 0
3 *1938:A 0.000238521
4 *1984:A 4.86841e-05
5 *2427:X 0
6 *496:37 0.00145784
7 *496:19 0.00158342
8 *496:4 0.000342928
9 *1938:A *1939:B 7.89689e-05
10 *1938:A *538:44 0
11 *1984:A *1986:C 4.77757e-05
12 *1984:A *535:8 8.91916e-05
13 *1985:A *577:8 7.54285e-05
14 *496:19 *1957:B 1.08056e-05
15 *496:19 *1985:B 6.5525e-05
16 *496:19 *1986:C 0.000271475
17 *496:37 *1957:B 1.1477e-05
18 *1940:A *1938:A 2.78732e-05
19 *1941:B *1938:A 0
20 *1941:B *496:37 0
21 *1942:C *1938:A 3.39069e-05
22 *1973:A2 *1938:A 0.000177151
23 *1973:A2 *496:37 3.06021e-05
24 *215:10 *1938:A 4.89295e-05
*RES
1 *2427:X *496:4 1.6 
2 *496:4 *1984:A 3.01 
3 *496:4 *496:19 6.5 
4 *496:19 *496:37 5.21787 
5 *496:37 *1938:A 8.685 
6 *496:37 *1939:A 3.6 
7 *496:19 *1985:A 5.1 
*END

*D_NET *497 0.000234446
*CONN
*I *2122:A I *D sky130_fd_sc_hd__nor2_2
*I *2428:X O *D sky130_fd_sc_hd__buf_2
*CAP
1 *2122:A 5.66498e-05
2 *2428:X 5.66498e-05
3 *2122:A *1987:B1_N 5.53249e-06
4 *456:22 *2122:A 0.000115614
*RES
1 *2428:X *2122:A 8.58 
*END

*D_NET *498 0.000478412
*CONN
*I *2135:A3 I *D sky130_fd_sc_hd__a31oi_2
*I *2429:X O *D sky130_fd_sc_hd__buf_2
*CAP
1 *2135:A3 0.000109715
2 *2429:X 0.000109715
3 *2131:C1 *2135:A3 0.000116158
4 *2134:B *2135:A3 0.000117832
5 *2429:A *2135:A3 2.49909e-05
*RES
1 *2429:X *2135:A3 9.375 
*END

*D_NET *499 0.000364237
*CONN
*I *2044:A1_N I *D sky130_fd_sc_hd__o2bb2ai_2
*I *2430:X O *D sky130_fd_sc_hd__buf_2
*CAP
1 *2044:A1_N 0.000161559
2 *2430:X 0.000161559
3 *2054:B *2044:A1_N 0
4 *300:30 *2044:A1_N 4.11194e-05
*RES
1 *2430:X *2044:A1_N 9.375 
*END

*D_NET *500 0.00240205
*CONN
*I *2048:C I *D sky130_fd_sc_hd__nand3b_4
*I *2050:B1_N I *D sky130_fd_sc_hd__o21bai_4
*I *2049:B1_N I *D sky130_fd_sc_hd__o21ba_2
*I *2307:X O *D sky130_fd_sc_hd__clkdlybuf4s25_1
*CAP
1 *2048:C 4.918e-05
2 *2050:B1_N 0.000114846
3 *2049:B1_N 0
4 *2307:X 0.000519622
5 *500:25 0.000300453
6 *500:12 0.00065605
7 *2050:B1_N *506:14 0
8 *500:12 *2391:A 0.000147797
9 *500:12 *506:14 6.28765e-05
10 S[19] *500:12 0
11 *2049:A1 *2048:C 0.000108089
12 *2049:A1 *500:25 1.57678e-05
13 *2049:A2 *2048:C 1.91597e-05
14 *2049:A2 *500:25 5.39541e-05
15 *2066:A1 *500:25 5.37074e-05
16 *2070:B *500:12 0
17 *2307:A *500:12 3.09088e-05
18 *2308:A *500:12 0
19 *2342:A *2050:B1_N 0
20 *2342:A *500:12 0
21 *315:18 *2048:C 0.000132759
22 *315:18 *2050:B1_N 0.000136884
*RES
1 *2307:X *500:12 12.92 
2 *500:12 *2049:B1_N 1.6 
3 *500:12 *500:25 2.91 
4 *500:25 *2050:B1_N 7.745 
5 *500:25 *2048:C 3.445 
*END

*D_NET *501 0.000778349
*CONN
*I *2055:A I *D sky130_fd_sc_hd__nor2_2
*I *2431:X O *D sky130_fd_sc_hd__buf_2
*CAP
1 *2055:A 0.000270681
2 *2431:X 0.000270681
3 *2055:A *2060:A2 4.18603e-06
4 *2055:A *542:12 5.93588e-05
5 *2055:A *542:14 6.73665e-05
6 *2088:B *2055:A 0
7 *474:26 *2055:A 7.81954e-05
8 *474:36 *2055:A 2.7881e-05
*RES
1 *2431:X *2055:A 12.915 
*END

*D_NET *502 0.00183764
*CONN
*I *2079:A I *D sky130_fd_sc_hd__and2_2
*I *2080:A I *D sky130_fd_sc_hd__nand2_2
*I *2078:A I *D sky130_fd_sc_hd__nor2_2
*I *2432:X O *D sky130_fd_sc_hd__buf_2
*CAP
1 *2079:A 0.000229659
2 *2080:A 0.000184256
3 *2078:A 1.60636e-05
4 *2432:X 0
5 *502:8 0.000295046
6 *502:4 0.000324385
7 *2078:A *2082:C 0
8 *2079:A *2078:B 0
9 *2079:A *2079:B 0
10 *2080:A *2080:B 3.17194e-05
11 *2080:A *2082:C 0.000162071
12 *2080:A *543:16 0.000462036
13 *2082:A_N *2080:A 5.77162e-05
14 *2100:A1 *2080:A 1.19928e-05
15 *2432:A *2079:A 0
16 *345:6 *2080:A 6.26945e-05
*RES
1 *2432:X *502:4 1.6 
2 *502:4 *502:8 1.5 
3 *502:8 *2078:A 1.96 
4 *502:8 *2080:A 7.615 
5 *502:4 *2079:A 9.275 
*END

*D_NET *503 0.000214023
*CONN
*I *2424:A I *D sky130_fd_sc_hd__buf_2
*I *2433:X O *D sky130_fd_sc_hd__buf_2
*CAP
1 *2424:A 7.14946e-05
2 *2433:X 7.14946e-05
3 *2424:A *506:14 3.04982e-05
4 *2062:A1 *2424:A 4.05358e-05
5 *2342:A *2424:A 0
*RES
1 *2433:X *2424:A 8.835 
*END

*D_NET *504 0.00176048
*CONN
*I *2433:A I *D sky130_fd_sc_hd__buf_2
*I *2071:A1 I *D sky130_fd_sc_hd__o2111ai_4
*I *2434:X O *D sky130_fd_sc_hd__buf_4
*CAP
1 *2433:A 0
2 *2071:A1 0.000208756
3 *2434:X 0.000340045
4 *504:10 0.000548801
5 *2062:A1 *2071:A1 8.40269e-05
6 *2062:A2 *2071:A1 2.34345e-05
7 *2071:B1 *2071:A1 0.000116853
8 *2073:A1 *2071:A1 0.000162325
9 *2434:A *504:10 0.000134938
10 *322:6 *504:10 2.75145e-05
11 *474:36 *504:10 0.000113782
*RES
1 *2434:X *504:10 8.035 
2 *504:10 *2071:A1 10.01 
3 *504:10 *2433:A 1.6 
*END

*D_NET *505 0.00363029
*CONN
*I *2063:C I *D sky130_fd_sc_hd__and3_2
*I *2051:B I *D sky130_fd_sc_hd__nand2_2
*I *2065:B1 I *D sky130_fd_sc_hd__o211ai_2
*I *2435:X O *D sky130_fd_sc_hd__buf_2
*CAP
1 *2063:C 0.000373086
2 *2051:B 0
3 *2065:B1 0.000350546
4 *2435:X 5.79231e-05
5 *505:10 0.000688152
6 *505:6 0.000768615
7 S[19] *2063:C 0
8 *2051:A *2065:B1 8.53113e-06
9 *2063:B *2063:C 0.000505893
10 *2064:A *505:10 5.30318e-05
11 *2065:C1 *2065:B1 2.30292e-05
12 *2068:C1 *2063:C 0.000173191
13 *2069:A1 *2063:C 3.49911e-05
14 *2070:A *2063:C 4.32126e-05
15 *2071:D1 *2065:B1 0
16 *2071:D1 *505:6 7.49327e-05
17 *2071:D1 *505:10 0.000272984
18 *2073:A3 *2065:B1 0.000164874
19 *309:10 *2065:B1 0
20 *329:10 *2063:C 3.72916e-05
*RES
1 *2435:X *505:6 2.395 
2 *505:6 *505:10 4.515 
3 *505:10 *2065:B1 11.615 
4 *505:10 *2051:B 1.6 
5 *505:6 *2063:C 14.75 
*END

*D_NET *506 0.00411208
*CONN
*I *2059:B1 I *D sky130_fd_sc_hd__o21ai_2
*I *2057:B1_N I *D sky130_fd_sc_hd__o21ba_2
*I *2058:B1_N I *D sky130_fd_sc_hd__o21bai_4
*I *2308:X O *D sky130_fd_sc_hd__clkdlybuf4s25_1
*CAP
1 *2059:B1 0
2 *2057:B1_N 0.000174708
3 *2058:B1_N 0
4 *2308:X 0.000813132
5 *506:22 0.000364076
6 *506:14 0.0010025
7 *506:14 *2300:A 0.000604892
8 *506:22 *2059:A2 0.000122325
9 S[19] *506:14 0
10 *2050:B1_N *506:14 0
11 *2057:A2 *2057:B1_N 0
12 *2060:A1 *2057:B1_N 5.42303e-05
13 *2060:A1 *506:22 5.16418e-05
14 *2062:A1 *506:14 0.000118527
15 *2062:A2 *506:22 0
16 *2070:B *506:14 0.000104309
17 *2071:B1 *506:14 1.94723e-05
18 *2073:A1 *506:14 0.000471287
19 *2424:A *506:14 3.04982e-05
20 *322:10 *2057:B1_N 0
21 *324:14 *506:14 4.82919e-05
22 *324:14 *506:22 5.98073e-05
23 *474:36 *506:14 0
24 *474:36 *506:22 9.50342e-06
25 *500:12 *506:14 6.28765e-05
*RES
1 *2308:X *506:14 21.215 
2 *506:14 *506:22 5.75 
3 *506:22 *2058:B1_N 3.6 
4 *506:22 *2057:B1_N 6.54 
5 *506:14 *2059:B1 1.6 
*END

*D_NET *507 0.00216399
*CONN
*I *2083:B1_N I *D sky130_fd_sc_hd__o21bai_2
*I *2082:C I *D sky130_fd_sc_hd__nand3b_2
*I *2081:C I *D sky130_fd_sc_hd__and3b_2
*I *2309:X O *D sky130_fd_sc_hd__clkdlybuf4s25_1
*CAP
1 *2083:B1_N 0
2 *2082:C 0.000123752
3 *2081:C 8.52514e-05
4 *2309:X 0.000288847
5 *507:23 0.000156824
6 *507:12 0.00040717
7 *2082:C *2392:A 9.23473e-05
8 *507:12 *2392:A 4.66108e-05
9 *507:12 *2393:A 0
10 S[24] *2081:C 7.73569e-05
11 S[24] *507:12 6.38806e-05
12 *2078:A *2082:C 0
13 *2080:A *2082:C 0.000162071
14 *2081:B *2082:C 4.82919e-05
15 *2096:A1 *2082:C 0.000180682
16 *2096:A1 *507:23 0.000132096
17 *2344:A *2082:C 9.50342e-06
18 *2344:A *507:12 0
19 *2344:A *507:23 0.000141599
20 *345:6 *2082:C 8.57024e-05
21 *475:25 *507:12 6.19997e-05
*RES
1 *2309:X *507:12 10.355 
2 *507:12 *2081:C 2.9125 
3 *507:12 *507:23 3.635 
4 *507:23 *2082:C 7.59 
5 *507:23 *2083:B1_N 3.6 
*END

*D_NET *508 0.00174135
*CONN
*I *2092:B1 I *D sky130_fd_sc_hd__o21ai_2
*I *2091:B1_N I *D sky130_fd_sc_hd__o21ba_2
*I *2310:X O *D sky130_fd_sc_hd__clkdlybuf4s25_1
*CAP
1 *2092:B1 0
2 *2091:B1_N 0.000146089
3 *2310:X 0.000398198
4 *508:10 0.000544288
5 *2091:B1_N *2393:A 0
6 *508:10 *2393:A 0
7 *2094:B1_N *2091:B1_N 0.000183036
8 *2310:A *508:10 6.69341e-05
9 *2346:A *508:10 9.3305e-05
10 *355:8 *2091:B1_N 2.11084e-05
11 *356:14 *2091:B1_N 0.000140905
12 *356:14 *508:10 3.09164e-05
13 *475:25 *508:10 2.15594e-05
14 *475:29 *2091:B1_N 9.50114e-05
*RES
1 *2310:X *508:10 9.39 
2 *508:10 *2091:B1_N 7.725 
3 *508:10 *2092:B1 3.6 
*END

*D_NET *509 0.00115089
*CONN
*I *2105:B1_N I *D sky130_fd_sc_hd__o21bai_2
*I *2104:C_N I *D sky130_fd_sc_hd__or3b_4
*I *2311:X O *D sky130_fd_sc_hd__clkdlybuf4s25_1
*CAP
1 *2105:B1_N 0
2 *2104:C_N 5.07648e-05
3 *2311:X 0.000203811
4 *509:12 0.000254576
5 *509:12 *2103:B 1.47347e-05
6 *2103:A *509:12 1.56632e-05
7 *2106:A *2104:C_N 2.23922e-05
8 *2106:A *509:12 0.000138331
9 *367:10 *2104:C_N 0.00015995
10 *471:10 *2104:C_N 0.000182342
11 *471:10 *509:12 0.000108322
*RES
1 *2311:X *509:12 7.515 
2 *509:12 *2104:C_N 5.745 
3 *509:12 *2105:B1_N 3.6 
*END

*D_NET *510 0.000920794
*CONN
*I *2271:B1 I *D sky130_fd_sc_hd__o21a_4
*I *2270:A_N I *D sky130_fd_sc_hd__nand3b_2
*I *2312:X O *D sky130_fd_sc_hd__clkdlybuf4s25_1
*CAP
1 *2271:B1 0.000112427
2 *2270:A_N 3.37454e-05
3 *2312:X 0.000151619
4 *510:8 0.000297792
5 *2271:B1 *527:31 0
6 *2271:B1 *544:10 8.78813e-05
7 *510:8 *2378:A 0
8 *510:8 *544:10 0.000103974
9 *2270:B *2271:B1 0
10 *2270:C *510:8 0.000105841
11 *2271:A1 *2271:B1 0
12 *162:14 *2271:B1 2.75145e-05
*RES
1 *2312:X *510:8 7.275 
2 *510:8 *2270:A_N 4.05 
3 *510:8 *2271:B1 5.94 
*END

*D_NET *511 0.00184833
*CONN
*I *2112:B1_N I *D sky130_fd_sc_hd__o21ba_2
*I *2113:C_N I *D sky130_fd_sc_hd__or3b_2
*I *2313:X O *D sky130_fd_sc_hd__clkdlybuf4s25_1
*CAP
1 *2112:B1_N 2.20267e-05
2 *2113:C_N 0.000136423
3 *2313:X 0.000322935
4 *511:12 0.000481385
5 *2110:A *2112:B1_N 2.16917e-05
6 *2110:A *511:12 2.49909e-05
7 *2113:A *2113:C_N 0.000122325
8 *2113:B *511:12 0
9 *2114:A *511:12 1.08758e-05
10 *2129:A1 *511:12 4.70256e-05
11 *374:6 *511:12 8.34281e-06
12 *471:10 *2113:C_N 0.000163019
13 *471:10 *511:12 4.21314e-05
14 *471:12 *511:12 0.000326639
15 *471:16 *511:12 0.00011852
*RES
1 *2313:X *511:12 12.11 
2 *511:12 *2113:C_N 8.63 
3 *511:12 *2112:B1_N 2.05 
*END

*D_NET *512 0.000711518
*CONN
*I *2174:A I *D sky130_fd_sc_hd__xnor2_2
*I *2436:X O *D sky130_fd_sc_hd__buf_2
*CAP
1 *2174:A 0.000355759
2 *2436:X 0.000355759
3 *454:10 *2174:A 0
*RES
1 *2436:X *2174:A 12.705 
*END

*D_NET *513 0.00335022
*CONN
*I *2125:C_N I *D sky130_fd_sc_hd__nor3b_2
*I *2124:B1_N I *D sky130_fd_sc_hd__o21bai_2
*I *2126:C_N I *D sky130_fd_sc_hd__or3b_2
*I *2314:X O *D sky130_fd_sc_hd__clkdlybuf4s25_1
*CAP
1 *2125:C_N 5.0905e-05
2 *2124:B1_N 0
3 *2126:C_N 9.12877e-05
4 *2314:X 0.000682981
5 *513:22 0.000253126
6 *513:12 0.000895724
7 *2125:C_N *514:23 5.21545e-05
8 *2126:C_N *548:12 0
9 *513:12 *2398:A 4.66108e-05
10 *513:12 *514:10 0
11 *513:12 *514:23 1.94892e-05
12 *513:12 *518:20 0
13 *513:12 *549:10 0
14 *2124:A2 *513:22 3.26889e-05
15 *2125:B *2125:C_N 0
16 *2126:A *2126:C_N 8.49205e-05
17 *2126:B *2126:C_N 6.10014e-05
18 *2147:A1 *2126:C_N 8.49205e-05
19 *2180:A_N *513:12 7.00115e-05
20 *2180:B *513:12 0
21 *2288:A *513:12 0
22 *2289:A *513:22 4.66108e-05
23 *2335:A *513:12 2.36272e-05
24 *2336:A *513:12 0
25 *2354:A *513:12 2.09442e-05
26 *2364:A *513:12 8.5193e-05
27 *234:12 *513:12 0
28 *383:8 *513:22 0.000251388
29 *383:20 *2126:C_N 0
30 *384:6 *513:22 3.23663e-05
31 *385:14 *2126:C_N 0.00013521
32 *385:14 *513:22 5.30673e-05
33 *455:12 *513:22 7.67415e-06
34 *455:23 *2126:C_N 0
35 *457:12 *2125:C_N 0.00011686
36 *457:12 *513:12 2.07184e-05
37 *457:22 *513:12 0.000130742
*RES
1 *2314:X *513:12 14.835 
2 *513:12 *513:22 6.29 
3 *513:22 *2126:C_N 8.285 
4 *513:22 *2124:B1_N 1.6 
5 *513:12 *2125:C_N 5.235 
*END

*D_NET *514 0.00202507
*CONN
*I *2143:B1_N I *D sky130_fd_sc_hd__o21bai_2
*I *2142:B1_N I *D sky130_fd_sc_hd__o21ba_2
*I *2141:C_N I *D sky130_fd_sc_hd__or3b_2
*I *2315:X O *D sky130_fd_sc_hd__clkdlybuf4s25_1
*CAP
1 *2143:B1_N 4.47827e-05
2 *2142:B1_N 4.43851e-05
3 *2141:C_N 3.07736e-05
4 *2315:X 5.74596e-05
5 *514:23 0.000339605
6 *514:10 0.00033867
7 *514:10 *549:10 0.00011852
8 *514:23 *549:10 0
9 *2125:C_N *514:23 5.21545e-05
10 *2142:A1 *2143:B1_N 0.000139933
11 *2142:A1 *514:23 8.53113e-06
12 *2142:A2 *2143:B1_N 2.60986e-05
13 *2289:A *514:23 0.000163199
14 *401:10 *2141:C_N 1.56428e-05
15 *401:10 *2143:B1_N 0.000176873
16 *401:10 *514:23 0.000305519
17 *402:10 *2142:B1_N 2.11084e-05
18 *451:16 *2142:B1_N 0.000122325
19 *460:10 *514:23 0
20 *513:12 *514:10 0
21 *513:12 *514:23 1.94892e-05
*RES
1 *2315:X *514:10 6.98 
2 *514:10 *2141:C_N 2.05 
3 *514:10 *514:23 8.015 
4 *514:23 *2142:B1_N 4.74 
5 *514:23 *2143:B1_N 5.745 
*END

*D_NET *515 0.00219464
*CONN
*I *1953:B1_N I *D sky130_fd_sc_hd__o21bai_4
*I *1954:B1 I *D sky130_fd_sc_hd__o21ai_4
*I *2316:X O *D sky130_fd_sc_hd__clkdlybuf4s25_1
*CAP
1 *1953:B1_N 0.000250698
2 *1954:B1 4.42618e-05
3 *2316:X 0.000251264
4 *515:10 0.000546223
5 *1954:B1 *550:8 8.23457e-05
6 S[2] *1953:B1_N 0.000171123
7 *1955:B1 *1953:B1_N 1.86433e-05
8 *1955:B1 *515:10 0.000520509
9 *2177:A *515:10 0.000169635
10 *2316:A *515:10 0
11 *2319:A *1953:B1_N 0
12 *2319:A *515:10 0
13 *431:12 *1953:B1_N 0.000139933
*RES
1 *2316:X *515:10 10.71 
2 *515:10 *1954:B1 4.395 
3 *515:10 *1953:B1_N 8.52 
*END

*D_NET *516 0.00204255
*CONN
*I *2150:C_N I *D sky130_fd_sc_hd__or3b_2
*I *2152:B1_N I *D sky130_fd_sc_hd__o21bai_2
*I *2151:B1_N I *D sky130_fd_sc_hd__o21ba_2
*I *2317:X O *D sky130_fd_sc_hd__clkdlybuf4s25_1
*CAP
1 *2150:C_N 3.69383e-05
2 *2152:B1_N 0
3 *2151:B1_N 0.00016138
4 *2317:X 0.000440901
5 *516:16 0.000234558
6 *516:10 0.000551018
7 *2150:C_N *551:10 3.23663e-05
8 *516:10 *551:10 6.74366e-05
9 *516:16 *2292:A 7.45968e-05
10 *516:16 *551:10 7.25122e-05
11 *2151:A1 *2151:B1_N 3.70488e-05
12 *2151:A2 *2151:B1_N 0.000116639
13 *2170:A *516:10 4.80285e-05
14 *2352:A *516:10 3.00381e-05
15 *410:10 *2151:B1_N 2.76356e-05
16 *422:16 *516:10 8.39357e-05
17 *422:29 *516:10 2.75145e-05
*RES
1 *2317:X *516:10 8.29 
2 *516:10 *516:16 6.145 
3 *516:16 *2151:B1_N 4.585 
4 *516:16 *2152:B1_N 1.6 
5 *516:10 *2150:C_N 2.395 
*END

*D_NET *517 0.00124023
*CONN
*I *2208:A1_N I *D sky130_fd_sc_hd__o2bb2ai_4
*I *2164:A I *D sky130_fd_sc_hd__xnor2_2
*I *2318:X O *D sky130_fd_sc_hd__clkdlybuf4s25_1
*CAP
1 *2208:A1_N 0
2 *2164:A 0.000140816
3 *2318:X 0.000274363
4 *517:8 0.000415179
5 *517:8 *2163:B 4.91189e-05
6 carryOut *2164:A 0.000152071
7 carryOut *517:8 0.000208683
8 *2164:B *2164:A 0
9 *2318:A *517:8 0
10 *421:8 *2164:A 0
11 *421:8 *517:8 0
12 *461:8 *517:8 0
13 *461:12 *517:8 0
*RES
1 *2318:X *517:8 9.315 
2 *517:8 *2164:A 6.285 
3 *517:8 *2208:A1_N 3.6 
*END

*D_NET *518 0.0036742
*CONN
*I *1958:B1 I *D sky130_fd_sc_hd__o21ai_4
*I *1960:B1_N I *D sky130_fd_sc_hd__o21bai_4
*I *2319:X O *D sky130_fd_sc_hd__clkdlybuf4s25_1
*CAP
1 *1958:B1 0
2 *1960:B1_N 0.000101595
3 *2319:X 0.000699703
4 *518:20 0.000801298
5 *1960:B1_N *534:10 4.41506e-05
6 *518:20 *1958:A2 0.000118314
7 *518:20 *2376:A 0.000122331
8 *518:20 *2398:A 0.000691007
9 *518:20 *550:23 7.21296e-06
10 S[0] *518:20 1.83847e-05
11 *1947:B1 *518:20 1.16578e-05
12 *1953:A2 *518:20 0.000335865
13 *1955:A2 *518:20 4.70343e-05
14 *1958:A1 *518:20 5.90938e-05
15 *2177:B *518:20 0.000140912
16 *2180:A_N *518:20 1.07797e-05
17 *2180:B *1960:B1_N 6.65066e-05
18 *2288:A *1960:B1_N 0.000163019
19 *2354:A *518:20 0.000209858
20 *225:19 *518:20 0
21 *227:8 *518:20 2.54779e-05
22 *513:12 *518:20 0
*RES
1 *2319:X *518:20 22.805 
2 *518:20 *1960:B1_N 8.285 
3 *518:20 *1958:B1 1.6 
*END

*D_NET *519 0.00513012
*CONN
*I *1924:A_N I *D sky130_fd_sc_hd__nand3b_2
*I *1921:B1 I *D sky130_fd_sc_hd__o21ai_2
*I *1923:A_N I *D sky130_fd_sc_hd__and3b_2
*I *2320:X O *D sky130_fd_sc_hd__clkdlybuf4s25_1
*CAP
1 *1924:A_N 3.28456e-05
2 *1921:B1 1.94971e-05
3 *1923:A_N 0
4 *2320:X 0.0012083
5 *519:21 9.05291e-05
6 *519:10 0.00124649
7 *1921:B1 *1921:A2 4.66108e-05
8 *1924:A_N *1921:A2 4.94678e-05
9 *519:10 *554:10 0.00134365
10 *519:10 *554:39 0.000200648
11 *519:21 *1919:B 2.07184e-05
12 *519:21 *554:39 0.000118513
13 *1910:A *519:10 0
14 *1916:A1 *519:10 0.000201502
15 *1917:D1 *519:10 0.000136884
16 *1919:A *519:10 8.53113e-06
17 *1919:A *519:21 0.00012904
18 *1921:A1 *519:10 0
19 *2186:B *519:10 7.06865e-05
20 *2320:A *519:10 8.79923e-05
21 *177:12 *519:10 9.54399e-05
22 *194:8 *1921:B1 1.1392e-05
23 *194:8 *1924:A_N 1.1392e-05
24 *458:12 *519:10 0
25 *459:10 *519:10 0
26 *459:14 *519:10 0
*RES
1 *2320:X *519:10 25.86 
2 *519:10 *1923:A_N 3.6 
3 *519:10 *519:21 3.635 
4 *519:21 *1921:B1 2.05 
5 *519:21 *1924:A_N 2.41 
*END

*D_NET *520 0.00458217
*CONN
*I *1911:B1 I *D sky130_fd_sc_hd__o21a_2
*I *1914:B1 I *D sky130_fd_sc_hd__a21oi_2
*I *1912:B1_N I *D sky130_fd_sc_hd__a21boi_2
*I *2210:A I *D sky130_fd_sc_hd__inv_2
*I *2321:X O *D sky130_fd_sc_hd__clkdlybuf4s25_1
*CAP
1 *1911:B1 5.18643e-05
2 *1914:B1 8.06726e-05
3 *1912:B1_N 0.000123213
4 *2210:A 6.47067e-05
5 *2321:X 0.000376256
6 *520:44 0.000711345
7 *520:19 0.00100634
8 *520:6 0.000745286
9 *1912:B1_N *556:19 0.000155056
10 *1912:B1_N *556:30 7.06347e-05
11 *1914:B1 *1914:A2 7.63282e-05
12 *520:6 *1913:A1 3.72916e-05
13 *520:19 *1913:A1 0.000109354
14 *520:19 *538:10 4.66108e-05
15 *520:44 *1911:A2 2.55587e-05
16 *520:44 *2387:A 5.18317e-06
17 *520:44 *538:10 0.000237333
18 S[1] *1912:B1_N 0
19 S[1] *520:44 0.000291379
20 *1911:A1 *1911:B1 7.08676e-05
21 *1911:A1 *520:44 5.39673e-05
22 *1913:B1 *520:19 4.88478e-05
23 *1915:B *520:44 0
24 *1917:C1 *520:44 0.000128537
25 *454:18 *2210:A 6.55328e-05
26 *459:14 *1914:B1 0
*RES
1 *2321:X *520:6 5.845 
2 *520:6 *2210:A 6.98 
3 *520:6 *520:19 3.9 
4 *520:19 *1912:B1_N 8.255 
5 *520:19 *520:44 14.215 
6 *520:44 *1914:B1 7.235 
7 *520:44 *1911:B1 2.755 
*END

*D_NET *521 0.00151358
*CONN
*I *2287:B1 I *D sky130_fd_sc_hd__o21ai_4
*I *2286:A_N I *D sky130_fd_sc_hd__nand3b_2
*I *2322:X O *D sky130_fd_sc_hd__clkdlybuf4s25_1
*CAP
1 *2287:B1 0.000119105
2 *2286:A_N 0
3 *2322:X 0.000218995
4 *521:12 0.0003381
5 *521:12 *2284:B 0
6 S[7] *521:12 0
7 *1917:A1 *521:12 0
8 *2286:B *521:12 0
9 *2286:C *2287:B1 3.25635e-05
10 *2286:C *521:12 8.8266e-05
11 *2287:A1 *2287:B1 0.000394699
12 *2287:A1 *521:12 6.65725e-05
13 *2358:A *521:12 0
14 *178:8 *2287:B1 0.000109101
15 *178:8 *521:12 2.0514e-05
16 *449:24 *521:12 0.000116158
17 *449:47 *521:12 9.50342e-06
*RES
1 *2322:X *521:12 10.16 
2 *521:12 *2286:A_N 1.6 
3 *521:12 *2287:B1 5.875 
*END

*D_NET *522 0.00271844
*CONN
*I *2277:B1 I *D sky130_fd_sc_hd__a21oi_4
*I *2275:B1 I *D sky130_fd_sc_hd__o21ai_2
*I *2323:X O *D sky130_fd_sc_hd__clkdlybuf4s25_1
*CAP
1 *2277:B1 7.17787e-05
2 *2275:B1 0.000290948
3 *2323:X 0.000559994
4 *522:10 0.00092272
5 *2277:B1 *528:21 0
6 *522:10 *2407:A 0
7 *522:10 *528:10 0
8 *522:10 *528:21 0
9 *2191:A2 *522:10 0
10 *2192:A *522:10 0.000140905
11 *2257:B *522:10 0
12 *2282:B *2277:B1 7.89767e-05
13 *2282:B *522:10 0.000124532
14 *153:10 *522:10 0.000141599
15 *153:23 *522:10 0.00015212
16 *154:25 *522:10 8.97486e-05
17 *166:12 *2275:B1 0.000145117
*RES
1 *2323:X *522:10 14.445 
2 *522:10 *2275:B1 8.19 
3 *522:10 *2277:B1 5.235 
*END

*D_NET *523 0.00269189
*CONN
*I *1929:B1_N I *D sky130_fd_sc_hd__a21boi_2
*I *1928:B1_N I *D sky130_fd_sc_hd__o21bai_4
*I *1930:B1_N I *D sky130_fd_sc_hd__a21bo_2
*I *2324:X O *D sky130_fd_sc_hd__clkdlybuf4s25_1
*CAP
1 *1929:B1_N 0.000147817
2 *1928:B1_N 0
3 *1930:B1_N 9.10211e-06
4 *2324:X 0.000410544
5 *523:25 0.000249639
6 *523:10 0.000521468
7 *1929:B1_N *2402:A 0
8 *1929:B1_N *558:26 3.76518e-05
9 *1929:B1_N *558:35 7.53115e-05
10 *523:10 *2287:A2 0
11 *523:10 *2402:A 0.000342254
12 *523:10 *558:8 0
13 *523:25 *2402:A 0.000154488
14 *523:25 *558:26 0
15 S[4] *523:10 5.20968e-05
16 *2359:A *523:10 1.83847e-05
17 *190:29 *1929:B1_N 0
18 *199:10 *1929:B1_N 0.000141606
19 *199:14 *1929:B1_N 4.82863e-05
20 *199:14 *523:25 0.000163204
21 *201:8 *1929:B1_N 3.83041e-05
22 *201:8 *523:25 0.000163204
23 *239:10 *1929:B1_N 0.000118527
*RES
1 *2324:X *523:10 10.8 
2 *523:10 *1930:B1_N 3.70875 
3 *523:10 *523:25 5.375 
4 *523:25 *1928:B1_N 1.6 
5 *523:25 *1929:B1_N 9.98 
*END

*D_NET *524 0.00110162
*CONN
*I *2263:A_N I *D sky130_fd_sc_hd__nand3b_2
*I *2261:B1 I *D sky130_fd_sc_hd__o21a_4
*I *2325:X O *D sky130_fd_sc_hd__clkdlybuf4s25_1
*CAP
1 *2263:A_N 0
2 *2261:B1 3.7201e-05
3 *2325:X 0.000271895
4 *524:10 0.000309096
5 *2263:C *2261:B1 0.000166346
6 *2263:C *524:10 9.50342e-06
7 *2329:A *524:10 3.64998e-06
8 *466:19 *2261:B1 8.53113e-06
9 *466:19 *524:10 0.000130714
10 *466:21 *2261:B1 0.000164679
*RES
1 *2325:X *524:10 7.41 
2 *524:10 *2261:B1 5.49 
3 *524:10 *2263:A_N 3.6 
*END

*D_NET *525 0.00150074
*CONN
*I *2253:B1_N I *D sky130_fd_sc_hd__o21ba_2
*I *2254:B1_N I *D sky130_fd_sc_hd__o21bai_4
*I *2255:B1_N I *D sky130_fd_sc_hd__a21boi_2
*I *2326:X O *D sky130_fd_sc_hd__clkdlybuf4s25_1
*CAP
1 *2253:B1_N 0.00017475
2 *2254:B1_N 0.000115329
3 *2255:B1_N 0
4 *2326:X 8.51447e-05
5 *525:21 0.000575801
6 *525:8 0.000370867
7 *525:21 *560:28 0
8 *1969:A2 *2253:B1_N 4.99619e-05
9 *2253:A1 *2253:B1_N 0
10 *2253:A1 *525:21 4.10476e-05
11 *2254:A2 *2253:B1_N 0
12 *2361:A *525:8 0
13 *2361:A *525:21 0
14 *145:6 *2254:B1_N 3.72916e-05
15 *242:8 *2253:B1_N 0
16 *468:29 *2253:B1_N 5.05437e-05
*RES
1 *2326:X *525:8 4.98 
2 *525:8 *2255:B1_N 3.6 
3 *525:8 *525:21 6.41 
4 *525:21 *2254:B1_N 3.445 
5 *525:21 *2253:B1_N 8.795 
*END

*D_NET *526 0.00401221
*CONN
*I *2173:S I *D sky130_fd_sc_hd__mux2_1
*I *1949:A1 I *D sky130_fd_sc_hd__o211ai_2
*I *1947:A2 I *D sky130_fd_sc_hd__a21oi_2
*I *2172:B I *D sky130_fd_sc_hd__xor2_2
*I *1946:A2 I *D sky130_fd_sc_hd__o21ai_2
*I *1945:B I *D sky130_fd_sc_hd__nor2_2
*I *1944:B I *D sky130_fd_sc_hd__and2_4
*I *2327:X O *D sky130_fd_sc_hd__dlygate4sd1_1
*CAP
1 *2173:S 1.63035e-05
2 *1949:A1 0
3 *1947:A2 0.00020971
4 *2172:B 0.000184028
5 *1946:A2 0
6 *1945:B 0.000224133
7 *1944:B 0.000212595
8 *2327:X 0
9 *526:57 0.000391217
10 *526:47 0.000523077
11 *526:41 0.000247774
12 *526:32 0.000227138
13 *526:15 0.000377344
14 *526:4 0.000212595
15 *1945:A *1945:B 0
16 *1947:B1 *1947:A2 0
17 *1948:A1 *1945:B 1.89685e-05
18 *1948:A1 *526:32 6.55328e-05
19 *1948:A2 *1945:B 7.00889e-06
20 *1948:A2 *526:47 0
21 *1949:B1 *526:57 4.82863e-05
22 *1949:C1 *526:47 0.00011852
23 *1950:A *526:57 0.000124895
24 *1955:A1 *1947:A2 0.000162332
25 *2173:A1 *2173:S 4.60584e-05
26 *2173:A1 *526:41 1.16578e-05
27 *2288:A *1947:A2 6.65066e-05
28 *2327:A *1945:B 0
29 *2327:A *526:32 0
30 *219:10 *1947:A2 0
31 *219:10 *2173:S 5.05521e-05
32 *219:10 *526:41 1.61831e-05
33 *219:10 *526:47 0
34 *450:6 *526:32 0.000122337
35 *450:6 *526:41 0.000150653
36 *450:29 *526:32 3.1835e-05
37 *453:16 *526:47 4.70343e-05
38 *453:24 *526:47 9.24049e-05
39 *453:30 *526:47 5.53249e-06
*RES
1 *2327:X *526:4 1.6 
2 *526:4 *1944:B 4.735 
3 *526:4 *526:15 2 
4 *526:15 *1945:B 6.96 
5 *526:15 *526:32 5.21 
6 *526:32 *1946:A2 1.6 
7 *526:32 *526:41 1.845 
8 *526:41 *526:47 7.675 
9 *526:47 *2172:B 2.4825 
10 *526:47 *526:57 2.865 
11 *526:57 *1947:A2 10.04 
12 *526:57 *1949:A1 1.6 
13 *526:41 *2173:S 2.395 
*END

*D_NET *527 0.00237371
*CONN
*I *2271:A2 I *D sky130_fd_sc_hd__o21a_4
*I *2268:B I *D sky130_fd_sc_hd__nand2_2
*I *2269:B I *D sky130_fd_sc_hd__nand2_2
*I *2267:A_N I *D sky130_fd_sc_hd__nand2b_2
*I *2328:X O *D sky130_fd_sc_hd__clkdlybuf4s25_1
*CAP
1 *2271:A2 9.51377e-05
2 *2268:B 7.20829e-05
3 *2269:B 0
4 *2267:A_N 0
5 *2328:X 0.000142668
6 *527:31 0.000321791
7 *527:21 0.000416979
8 *527:12 0.000214802
9 *527:21 *529:8 8.65961e-05
10 *2268:A *2268:B 0.000203178
11 *2269:A *527:12 1.43521e-05
12 *2269:A *527:31 0
13 *2270:B *2271:A2 0.000111285
14 *2270:B *527:21 0.00016569
15 *2270:B *527:31 0
16 *2270:C *527:31 0
17 *2271:A1 *2271:A2 9.02259e-05
18 *2271:A1 *527:21 0.000112622
19 *2271:B1 *527:31 0
20 *2272:B *527:31 0
21 *2330:A *527:31 1.70935e-05
22 *161:10 *527:31 0.00011538
23 *162:14 *2271:A2 1.47347e-05
24 *162:14 *527:31 0.000118513
25 *467:27 *527:12 1.4399e-05
26 *469:10 *527:12 2.67022e-05
27 *469:12 *527:12 1.94805e-05
*RES
1 *2328:X *527:12 7.685 
2 *527:12 *2267:A_N 1.6 
3 *527:12 *527:21 2.88 
4 *527:21 *527:31 8.995 
5 *527:31 *2269:B 1.6 
6 *527:31 *2268:B 3.43 
7 *527:21 *2271:A2 4.135 
*END

*D_NET *528 0.00316379
*CONN
*I *2276:A2 I *D sky130_fd_sc_hd__a21oi_2
*I *2274:B I *D sky130_fd_sc_hd__and2_4
*I *2278:A2 I *D sky130_fd_sc_hd__o21ai_4
*I *2277:A2 I *D sky130_fd_sc_hd__a21oi_4
*I *2275:A2 I *D sky130_fd_sc_hd__o21ai_2
*I *2329:X O *D sky130_fd_sc_hd__clkdlybuf4s25_1
*CAP
1 *2276:A2 0.000129005
2 *2274:B 0.000286198
3 *2278:A2 6.06585e-05
4 *2277:A2 0
5 *2275:A2 0
6 *2329:X 0.000200392
7 *528:32 0.000434142
8 *528:28 0.000377765
9 *528:21 0.000251824
10 *528:10 0.000290741
11 *2268:A *2278:A2 0.000198934
12 *2274:A *2274:B 3.00381e-05
13 *2275:A1 *2274:B 0
14 *2275:A1 *528:10 3.25831e-05
15 *2275:A1 *528:21 0.000175214
16 *2275:A1 *528:32 0
17 *2277:A1 *528:28 4.82919e-05
18 *2277:B1 *528:21 0
19 *2278:B1 *2274:B 2.23922e-05
20 *2278:B1 *528:32 0.000139238
21 *2282:B *528:32 0
22 *173:14 *2278:A2 0.000120806
23 *438:10 *2274:B 0
24 *438:10 *528:10 0.000164059
25 *475:55 *2274:B 0.000201508
26 *522:10 *528:10 0
27 *522:10 *528:21 0
*RES
1 *2329:X *528:10 7.725 
2 *528:10 *2275:A2 3.6 
3 *528:10 *528:21 4.145 
4 *528:21 *2277:A2 1.6 
5 *528:21 *528:28 2.52 
6 *528:28 *528:32 3.89 
7 *528:32 *2278:A2 5.79 
8 *528:32 *2274:B 8.37 
9 *528:28 *2276:A2 3.43 
*END

*D_NET *529 0.0027404
*CONN
*I *2229:B I *D sky130_fd_sc_hd__nor2_2
*I *2232:A2 I *D sky130_fd_sc_hd__o21ai_2
*I *2230:B I *D sky130_fd_sc_hd__and2_2
*I *2330:X O *D sky130_fd_sc_hd__clkdlybuf4s25_1
*CAP
1 *2229:B 1.85694e-05
2 *2232:A2 0.000169552
3 *2230:B 0
4 *2330:X 0.000532443
5 *529:14 0.000419238
6 *529:8 0.000800699
7 *2232:A2 *2243:B1_N 0
8 *2229:A *2229:B 9.53428e-06
9 *2229:A *529:8 0.000106359
10 *2229:A *529:14 3.00381e-05
11 *2232:A1 *2232:A2 0.000131646
12 *2232:A1 *529:14 9.50342e-06
13 *2270:B *529:8 3.23663e-05
14 *2271:A1 *529:8 0.000198945
15 *120:8 *2232:A2 0
16 *121:10 *2232:A2 0
17 *475:55 *2232:A2 9.50342e-06
18 *475:55 *529:14 0.000185411
19 *527:21 *529:8 8.65961e-05
*RES
1 *2330:X *529:8 10.69 
2 *529:8 *529:14 6.665 
3 *529:14 *2230:B 3.6 
4 *529:14 *2232:A2 6.39 
5 *529:8 *2229:B 1.96 
*END

*D_NET *530 0.00156291
*CONN
*I *2225:B I *D sky130_fd_sc_hd__and2_4
*I *2224:B I *D sky130_fd_sc_hd__nor2_2
*I *2226:B I *D sky130_fd_sc_hd__nand2_2
*I *2331:X O *D sky130_fd_sc_hd__clkdlybuf4s25_1
*CAP
1 *2225:B 1.90201e-05
2 *2224:B 0.000280186
3 *2226:B 3.55506e-05
4 *2331:X 8.41229e-05
5 *530:10 0.000380839
6 *2224:B *2379:A 3.09088e-05
7 *2224:B *533:8 0.000198945
8 *2224:A *2224:B 6.75558e-05
9 *2225:A *2225:B 4.99619e-05
10 *2225:A *530:10 4.94404e-05
11 *2227:A2 *530:10 0
12 *2228:B *2224:B 0.000278111
13 *119:14 *2225:B 8.8266e-05
*RES
1 *2331:X *530:10 6.725 
2 *530:10 *2226:B 2.215 
3 *530:10 *2224:B 7.495 
4 *2331:X *2225:B 3.995 
*END

*D_NET *531 0.00148694
*CONN
*I *2223:A2 I *D sky130_fd_sc_hd__o21ai_2
*I *2220:B I *D sky130_fd_sc_hd__and2_4
*I *2221:B I *D sky130_fd_sc_hd__nor2_2
*I *2332:X O *D sky130_fd_sc_hd__clkdlybuf4s25_1
*CAP
1 *2223:A2 4.22433e-05
2 *2220:B 2.20475e-05
3 *2221:B 9.58767e-05
4 *2332:X 0.000356333
5 *531:10 0.000432014
6 *2220:B *555:10 5.05521e-05
7 *2221:B *2381:A 0
8 *531:10 *2223:B1 0
9 S[14] *2220:B 3.45679e-05
10 S[14] *2221:B 5.71917e-05
11 *2221:A *2221:B 0
12 *2223:A1 *2223:A2 4.99619e-05
13 *2223:A1 *531:10 3.00381e-05
14 *112:10 *2221:B 0.000163985
15 *112:10 *531:10 0.000152127
16 *471:39 *531:10 0
*RES
1 *2332:X *531:10 8.505 
2 *531:10 *2221:B 6 
3 *531:10 *2220:B 4.395 
4 *2332:X *2223:A2 4.34 
*END

*D_NET *532 0.00187672
*CONN
*I *2218:B I *D sky130_fd_sc_hd__and2_4
*I *2217:B I *D sky130_fd_sc_hd__nor2_2
*I *2333:X O *D sky130_fd_sc_hd__clkdlybuf4s25_1
*CAP
1 *2218:B 0.000324943
2 *2217:B 8.61548e-05
3 *2333:X 0.00022773
4 *532:10 0.000638828
5 *532:10 *2111:B 5.34747e-05
6 *2218:A *2218:B 8.65905e-05
7 *2313:A *2217:B 0
8 *2313:A *532:10 0
9 *2363:A *2217:B 0.000118504
10 *471:31 *2217:B 0.000103192
11 *471:31 *2218:B 0.000231774
12 *471:37 *2217:B 5.53249e-06
*RES
1 *2333:X *532:10 6.555 
2 *532:10 *2217:B 6.255 
3 *532:10 *2218:B 9.24 
*END

*D_NET *533 0.00411688
*CONN
*I *2200:A1 I *D sky130_fd_sc_hd__a22o_2
*I *2234:C I *D sky130_fd_sc_hd__nand3_2
*I *2243:B1_N I *D sky130_fd_sc_hd__o21bai_2
*I *2232:B1 I *D sky130_fd_sc_hd__o21ai_2
*I *2334:X O *D sky130_fd_sc_hd__clkdlybuf4s25_1
*CAP
1 *2200:A1 0
2 *2234:C 0.00022819
3 *2243:B1_N 2.08101e-05
4 *2232:B1 3.24135e-05
5 *2334:X 0.000467083
6 *533:40 0.00038557
7 *533:18 0.000742151
8 *533:8 0.00131339
9 *533:8 *2379:A 2.66586e-05
10 *2199:A *2234:C 2.97004e-06
11 *2199:A *533:18 0.000122155
12 *2199:A *533:40 0
13 *2199:B *533:18 4.85494e-05
14 *2200:A2 *533:40 4.6303e-05
15 *2200:B1 *533:40 3.26889e-05
16 *2201:B *2234:C 0
17 *2201:B *533:40 5.84694e-05
18 *2224:B *533:8 0.000198945
19 *2227:A2 *533:40 0
20 *2232:A2 *2243:B1_N 0
21 *2233:B1 *2234:C 7.25421e-05
22 *2234:A *2234:C 2.75145e-05
23 *2243:A1 *533:18 4.82919e-05
24 *2243:A2 *533:18 4.82919e-05
25 *2296:A *533:18 2.75145e-05
26 *119:14 *2234:C 6.36656e-05
27 *119:14 *533:40 5.05437e-05
28 *135:25 *2234:C 5.21714e-05
29 *467:12 *533:18 0
*RES
1 *2334:X *533:8 9.225 
2 *533:8 *533:18 11.54 
3 *533:18 *2232:B1 2.05 
4 *533:18 *2243:B1_N 1.96 
5 *533:8 *533:40 5.225 
6 *533:40 *2234:C 9.77 
7 *533:40 *2200:A1 1.6 
*END

*D_NET *534 0.00298928
*CONN
*I *2212:A I *D sky130_fd_sc_hd__and2_4
*I *2211:A I *D sky130_fd_sc_hd__nor2_8
*I *2213:A I *D sky130_fd_sc_hd__nand2_2
*I *2335:X O *D sky130_fd_sc_hd__clkdlybuf4s25_1
*CAP
1 *2212:A 0.000166257
2 *2211:A 0.000146264
3 *2213:A 0
4 *2335:X 0.000920762
5 *534:12 0.000146264
6 *534:10 0.00108702
7 *2211:A *577:8 2.36716e-05
8 *2212:A *1985:B 0
9 *534:10 *1985:B 0
10 *534:10 *2214:C 0
11 *534:10 *2215:B1_N 0
12 *1956:A *534:10 0.000158536
13 *1960:B1_N *534:10 4.41506e-05
14 *1986:B *2212:A 0
15 *2211:B *2211:A 2.49909e-05
16 *2213:B *2211:A 3.69354e-05
17 *2214:B *2211:A 1.61831e-05
18 *229:8 *534:10 0.000100176
19 *233:10 *534:10 8.35068e-05
20 *258:16 *2212:A 3.45679e-05
21 *481:14 *2212:A 0
22 *481:14 *534:10 0
*RES
1 *2335:X *534:10 17.325 
2 *534:10 *534:12 2 
3 *534:12 *2213:A 1.6 
4 *534:12 *2211:A 4.15 
5 *534:10 *2212:A 6.285 
*END

*D_NET *535 0.00250428
*CONN
*I *1983:B I *D sky130_fd_sc_hd__nor2_4
*I *1985:B I *D sky130_fd_sc_hd__nand2_2
*I *1984:B I *D sky130_fd_sc_hd__and2_4
*I *2336:X O *D sky130_fd_sc_hd__clkdlybuf4s25_1
*CAP
1 *1983:B 0.00017937
2 *1985:B 8.08559e-05
3 *1984:B 0
4 *2336:X 0.000239776
5 *535:21 0.000384872
6 *535:8 0.000364422
7 *535:8 *1986:C 1.53053e-05
8 *535:8 *548:12 0.000122155
9 *535:21 *1986:C 0.000238594
10 *1984:A *535:8 8.91916e-05
11 *1986:A_N *1983:B 6.9451e-05
12 *1986:B *1983:B 8.66976e-06
13 *1986:B *1985:B 5.12575e-05
14 *1987:A2 *1983:B 0.000105841
15 *2212:A *1985:B 0
16 *2427:A *535:8 0.000350251
17 *255:8 *1983:B 5.21545e-05
18 *457:22 *535:8 8.65905e-05
19 *496:19 *1985:B 6.5525e-05
20 *534:10 *1985:B 0
*RES
1 *2336:X *535:8 7.585 
2 *535:8 *1984:B 1.6 
3 *535:8 *535:21 4.8575 
4 *535:21 *1985:B 5.3625 
5 *535:21 *1983:B 7.9125 
*END

*D_NET *536 0.00338815
*CONN
*I *1992:B I *D sky130_fd_sc_hd__and2_4
*I *1993:B I *D sky130_fd_sc_hd__nand2_2
*I *1991:B I *D sky130_fd_sc_hd__nor2_4
*I *2337:X O *D sky130_fd_sc_hd__clkdlybuf4s25_1
*CAP
1 *1992:B 0.000182882
2 *1993:B 0
3 *1991:B 0.000238003
4 *2337:X 0.000713789
5 *536:14 0.000357717
6 *536:10 0.00101638
7 *536:10 *2396:A 1.41165e-05
8 *536:10 *2397:A 0.000155436
9 *1991:A *1991:B 0.000204766
10 *1991:A *536:14 0.000127181
11 *1993:A *1991:B 0
12 *1993:A *536:14 0
13 *2136:A1 *536:10 0.000163199
14 *2136:A2 *536:10 4.35348e-05
15 *2138:A_N *536:10 3.88917e-05
16 *262:10 *1991:B 4.99619e-05
17 *262:27 *1991:B 0
18 *397:6 *536:10 1.56428e-05
19 *451:16 *1991:B 6.66464e-05
20 *464:24 *536:14 0
*RES
1 *2337:X *536:10 12.775 
2 *536:10 *536:14 4.655 
3 *536:14 *1991:B 8.46 
4 *536:14 *1993:B 3.6 
5 *536:10 *1992:B 4.135 
*END

*D_NET *537 0.00442711
*CONN
*I *2005:B I *D sky130_fd_sc_hd__nor2_2
*I *2006:B I *D sky130_fd_sc_hd__and2_2
*I *2338:X O *D sky130_fd_sc_hd__clkdlybuf4s25_1
*CAP
1 *2005:B 0.000135163
2 *2006:B 0
3 *2338:X 0.00114595
4 *537:16 0.00128112
5 *537:16 *2139:B 8.8266e-05
6 *2006:A *537:16 7.35813e-05
7 *2155:B1_N *537:16 0.000273267
8 *2167:B1_N *537:16 2.75229e-05
9 *2168:A *537:16 0.000424354
10 *275:8 *2005:B 0.000116158
11 *276:8 *2005:B 8.65905e-05
12 *393:18 *2005:B 9.66021e-05
13 *393:18 *537:16 1.99619e-05
14 *395:40 *537:16 1.91597e-05
15 *399:10 *537:16 8.8266e-05
16 *413:19 *537:16 0.000313341
17 *413:43 *537:16 0.000237802
18 *462:19 *2005:B 0
19 *464:20 *2005:B 0
*RES
1 *2338:X *537:16 21.61 
2 *537:16 *2006:B 1.6 
3 *537:16 *2005:B 8.975 
*END

*D_NET *538 0.00435034
*CONN
*I *1937:B I *D sky130_fd_sc_hd__nand2_2
*I *1939:B I *D sky130_fd_sc_hd__nor2_4
*I *1938:B I *D sky130_fd_sc_hd__nand2_2
*I *1936:A_N I *D sky130_fd_sc_hd__nand2b_4
*I *2339:X O *D sky130_fd_sc_hd__clkdlybuf4s25_1
*CAP
1 *1937:B 0
2 *1939:B 0.000213902
3 *1938:B 0.000112184
4 *1936:A_N 0.000233742
5 *2339:X 0.000404802
6 *538:44 0.000344899
7 *538:23 0.000269844
8 *538:10 0.000665206
9 *538:10 *1913:A1 5.83121e-06
10 S[1] *538:10 0.000312097
11 *1938:A *1939:B 7.89689e-05
12 *1938:A *538:44 0
13 *1940:A *1938:B 1.15399e-05
14 *1940:A *538:10 3.25831e-05
15 *1940:A *538:23 7.60634e-05
16 *1940:A *538:44 1.86911e-05
17 *1941:A *1939:B 1.20052e-05
18 *1941:B *1939:B 5.50989e-05
19 *1941:B *538:44 2.07184e-05
20 *1942:B *1936:A_N 5.05521e-05
21 *1942:C *538:44 0.000140912
22 *1973:A1 *1939:B 4.77719e-05
23 *2175:B1 *1939:B 0.000124358
24 *2339:A *538:10 4.92062e-05
25 *186:6 *538:10 9.89283e-05
26 *213:8 *538:10 1.70935e-05
27 *213:8 *538:23 4.03932e-05
28 *213:8 *538:44 0.000242625
29 *215:10 *1938:B 7.22354e-05
30 *473:10 *538:10 0.000314141
31 *520:19 *538:10 4.66108e-05
32 *520:44 *538:10 0.000237333
*RES
1 *2339:X *538:10 15.075 
2 *538:10 *1936:A_N 6.825 
3 *538:10 *538:23 0.9975 
4 *538:23 *1938:B 5.6925 
5 *538:23 *538:44 3.9375 
6 *538:44 *1939:B 8.085 
7 *538:44 *1937:B 3.6 
*END

*D_NET *539 0.00285791
*CONN
*I *2015:B I *D sky130_fd_sc_hd__and2_4
*I *2018:A2 I *D sky130_fd_sc_hd__a21oi_2
*I *2017:A2 I *D sky130_fd_sc_hd__o21ai_4
*I *2016:B I *D sky130_fd_sc_hd__nor2_2
*I *2340:X O *D sky130_fd_sc_hd__clkdlybuf4s25_1
*CAP
1 *2015:B 5.71518e-05
2 *2018:A2 0.000171353
3 *2017:A2 0
4 *2016:B 0.000127482
5 *2340:X 0.000181787
6 *539:26 0.000488716
7 *539:10 0.000320081
8 *539:6 0.000634598
9 *539:26 *2028:B 0
10 *2015:A *2015:B 4.89295e-05
11 *2017:A1 *2016:B 0.000125262
12 *2017:B1 *539:10 4.77757e-05
13 *2018:A1 *2018:A2 8.64421e-05
14 *2019:A2 *2016:B 0.000108156
15 *2019:A2 *539:10 1.19928e-05
16 *2019:A2 *539:26 0
17 *2036:B1 *2018:A2 5.96203e-05
18 *2340:A *539:6 4.82919e-05
19 *2340:A *539:26 2.97746e-05
20 *284:8 *2015:B 2.83579e-05
21 *284:23 *2018:A2 3.52241e-05
22 *284:23 *539:26 6.97358e-05
23 *286:10 *539:6 0.000150334
24 *286:10 *539:10 2.68464e-05
*RES
1 *2340:X *539:6 4.81 
2 *539:6 *539:10 2.88 
3 *539:10 *2016:B 4.465 
4 *539:10 *2017:A2 1.6 
5 *539:6 *539:26 6.44 
6 *539:26 *2018:A2 6.885 
7 *539:26 *2015:B 4.74 
*END

*D_NET *540 0.00417338
*CONN
*I *2029:B I *D sky130_fd_sc_hd__nor2_2
*I *2030:B I *D sky130_fd_sc_hd__and2_4
*I *2033:A2 I *D sky130_fd_sc_hd__o21ai_2
*I *2034:A2 I *D sky130_fd_sc_hd__a21oi_2
*I *2341:X O *D sky130_fd_sc_hd__clkdlybuf4s25_1
*CAP
1 *2029:B 7.29918e-05
2 *2030:B 0
3 *2033:A2 0.000107932
4 *2034:A2 0.000199863
5 *2341:X 0.00030059
6 *540:23 0.000107932
7 *540:10 0.000450483
8 *540:8 0.000624202
9 *2029:B *2388:A 4.99619e-05
10 *540:8 *2388:A 0.000113255
11 S[21] *2029:B 0
12 *2028:A *540:10 0.000307296
13 *2029:A *2029:B 3.50033e-05
14 *2029:A *540:10 3.67779e-05
15 *2030:A *2033:A2 4.82919e-05
16 *2032:A1 *540:10 2.66939e-05
17 *2033:A1 *2033:A2 0.000123225
18 *2033:B1 *2033:A2 0.000122331
19 *2034:A1 *2034:A2 4.99619e-05
20 *2034:B1 *2034:A2 0
21 *2037:A2 *2034:A2 0.00011852
22 *2305:A *540:8 4.9253e-06
23 *2341:A *2029:B 3.00381e-05
24 *289:40 *2034:A2 0.000394225
25 *289:40 *540:10 0.000159964
26 *297:8 *2029:B 1.22762e-05
27 *297:8 *540:10 3.98952e-05
28 *301:8 *2033:A2 2.05056e-05
29 *464:10 *2034:A2 1.52184e-05
30 *464:10 *540:10 0.000317508
31 *464:12 *2034:A2 0.000283514
*RES
1 *2341:X *540:8 7.155 
2 *540:8 *540:10 7.5 
3 *540:10 *2034:A2 10.275 
4 *540:10 *540:23 2 
5 *540:23 *2033:A2 4.12 
6 *540:23 *2030:B 1.6 
7 *540:8 *2029:B 5.37 
*END

*D_NET *541 0.00242021
*CONN
*I *2045:B I *D sky130_fd_sc_hd__nor2_4
*I *2046:B I *D sky130_fd_sc_hd__and2_4
*I *2047:B I *D sky130_fd_sc_hd__nand2_2
*I *2342:X O *D sky130_fd_sc_hd__clkdlybuf4s25_1
*CAP
1 *2045:B 8.67718e-05
2 *2046:B 0.00010512
3 *2047:B 0.000199911
4 *2342:X 4.03761e-05
5 *541:21 0.000284816
6 *541:8 0.000333212
7 *2045:B *542:10 0.000198293
8 *541:8 *542:10 7.4027e-05
9 *541:21 *542:10 0.000195932
10 *2045:A *2045:B 8.65961e-05
11 *2046:A *2046:B 0.000121437
12 *2049:A1 *2046:B 4.98311e-05
13 *2049:A2 *2046:B 8.49205e-05
14 *2050:A1 *541:21 3.86529e-05
15 *2050:A2 *2047:B 0.000198945
16 *313:6 *2046:B 0.0001947
17 *474:8 *2045:B 7.21296e-06
18 *474:10 *2045:B 6.0236e-05
19 *474:16 *2045:B 8.66976e-06
20 *474:16 *541:21 0
21 *474:20 *541:8 0
22 *474:20 *541:21 0
23 *475:25 *2045:B 5.05521e-05
*RES
1 *2342:X *541:8 4.47 
2 *541:8 *2047:B 6.39 
3 *541:8 *541:21 2.4 
4 *541:21 *2046:B 6.735 
5 *541:21 *2045:B 6.795 
*END

*D_NET *542 0.00598463
*CONN
*I *2056:B I *D sky130_fd_sc_hd__and2_4
*I *2059:A2 I *D sky130_fd_sc_hd__o21ai_2
*I *2055:B I *D sky130_fd_sc_hd__nor2_2
*I *2060:A2 I *D sky130_fd_sc_hd__a21o_2
*I *2343:X O *D sky130_fd_sc_hd__clkdlybuf4s25_1
*CAP
1 *2056:B 0
2 *2059:A2 0.000270511
3 *2055:B 0
4 *2060:A2 0.000391705
5 *2343:X 0.00107152
6 *542:14 0.000450023
7 *542:12 0.000451156
8 *542:10 0.00119385
9 *542:10 *2391:A 0.000387902
10 *2045:B *542:10 0.000198293
11 *2048:B *542:10 0.000103192
12 *2055:A *2060:A2 4.18603e-06
13 *2055:A *542:12 5.93588e-05
14 *2055:A *542:14 6.73665e-05
15 *2057:A2 *2060:A2 0
16 *2057:A2 *542:14 0
17 *2058:A1 *2059:A2 0.000158965
18 *2058:A2 *542:12 2.34423e-05
19 *2058:A2 *542:14 7.71016e-05
20 *2060:A1 *2060:A2 4.99619e-05
21 *2299:A *542:10 0
22 *2309:A *542:10 9.3305e-05
23 *2342:A *542:10 0
24 *2343:A *542:10 0.000123299
25 *322:10 *542:12 0
26 *324:14 *2059:A2 0.000155418
27 *474:8 *542:10 0
28 *474:20 *542:10 0
29 *474:26 *542:10 0.000200648
30 *474:36 *542:10 9.50342e-06
31 *474:36 *542:12 5.16418e-05
32 *506:22 *2059:A2 0.000122325
33 *541:8 *542:10 7.4027e-05
34 *541:21 *542:10 0.000195932
*RES
1 *2343:X *542:10 22.125 
2 *542:10 *542:12 2.4 
3 *542:12 *542:14 1.89 
4 *542:14 *2060:A2 9.48 
5 *542:14 *2055:B 3.6 
6 *542:12 *2059:A2 9.015 
7 *542:10 *2056:B 3.6 
*END

*D_NET *543 0.00257241
*CONN
*I *2080:B I *D sky130_fd_sc_hd__nand2_2
*I *2079:B I *D sky130_fd_sc_hd__and2_2
*I *2078:B I *D sky130_fd_sc_hd__nor2_2
*I *2344:X O *D sky130_fd_sc_hd__clkdlybuf4s25_1
*CAP
1 *2080:B 3.89912e-05
2 *2079:B 0.00018464
3 *2078:B 5.41711e-05
4 *2344:X 0.00012069
5 *543:16 0.000640892
6 *543:12 0.000561763
7 *543:12 *2393:A 0
8 S[24] *2079:B 4.82863e-05
9 *2079:A *2078:B 0
10 *2079:A *2079:B 0
11 *2080:A *2080:B 3.17194e-05
12 *2080:A *543:16 0.000462036
13 *2081:A_N *2079:B 0.000131401
14 *2081:B *2078:B 0
15 *2081:B *2079:B 0
16 *2083:A2 *2079:B 2.75145e-05
17 *2084:B *543:12 0
18 *2100:A1 *2080:B 0
19 *2100:A1 *543:12 2.66586e-05
20 *2100:A1 *543:16 2.50702e-05
21 *2432:A *2078:B 0
22 *343:8 *2078:B 3.09164e-05
23 *343:8 *2079:B 0.000141599
24 *475:25 *2079:B 4.60584e-05
*RES
1 *2344:X *543:12 7.265 
2 *543:12 *543:16 7.28 
3 *543:16 *2078:B 4.47 
4 *543:16 *2079:B 8.16 
5 *543:12 *2080:B 2.47 
*END

*D_NET *544 0.0019523
*CONN
*I *2227:B1_N I *D sky130_fd_sc_hd__o21bai_2
*I *2228:C I *D sky130_fd_sc_hd__nand3b_2
*I *2345:X O *D sky130_fd_sc_hd__clkdlybuf4s25_1
*CAP
1 *2227:B1_N 0.000156606
2 *2228:C 0
3 *2345:X 0.000509838
4 *544:10 0.000666444
5 *544:10 *2378:A 0.000105849
6 *544:10 *2379:A 0
7 S[12] *2227:B1_N 1.17036e-05
8 S[12] *544:10 0.000173298
9 *2227:A1 *2227:B1_N 0
10 *2228:B *544:10 7.45881e-05
11 *2271:A1 *544:10 0
12 *2271:B1 *544:10 8.78813e-05
13 *2331:A *2227:B1_N 0
14 *2334:A *544:10 6.21133e-05
15 *2345:A *2227:B1_N 0
16 *2345:A *544:10 0
17 *510:8 *544:10 0.000103974
*RES
1 *2345:X *544:10 14.7 
2 *544:10 *2228:C 3.6 
3 *544:10 *2227:B1_N 5.94 
*END

*D_NET *545 0.00297289
*CONN
*I *2092:A2 I *D sky130_fd_sc_hd__o21ai_2
*I *2089:B I *D sky130_fd_sc_hd__nor2_2
*I *2093:A2 I *D sky130_fd_sc_hd__a21o_2
*I *2090:B I *D sky130_fd_sc_hd__and2_4
*I *2346:X O *D sky130_fd_sc_hd__clkdlybuf4s25_1
*CAP
1 *2092:A2 0.00051147
2 *2089:B 9.39306e-05
3 *2093:A2 0
4 *2090:B 6.2465e-05
5 *2346:X 0.000326455
6 *545:23 9.39306e-05
7 *545:12 0.00011631
8 *545:10 0.00089177
9 *2090:A *2090:B 0.000187071
10 *2091:A1 *2089:B 4.65607e-05
11 *2092:A1 *2092:A2 7.5277e-05
12 *2093:A1 *2090:B 0.000210151
13 *2093:B1 *2089:B 0
14 *356:14 *2092:A2 4.66742e-05
15 *470:18 *2092:A2 5.30673e-05
16 *470:29 *2090:B 2.14129e-05
17 *470:29 *2092:A2 6.6564e-05
18 *470:29 *545:10 5.23362e-05
19 *470:29 *545:12 9.37731e-05
20 *471:10 *2090:B 0
21 *475:25 *2092:A2 2.36716e-05
*RES
1 *2346:X *545:10 7.92 
2 *545:10 *545:12 1.125 
3 *545:12 *2090:B 6.255 
4 *545:12 *545:23 2 
5 *545:23 *2093:A2 1.6 
6 *545:23 *2089:B 3.1 
7 *545:10 *2092:A2 10.185 
*END

*D_NET *546 0.00292236
*CONN
*I *2103:B I *D sky130_fd_sc_hd__and2_2
*I *2102:B I *D sky130_fd_sc_hd__nor2_2
*I *2347:X O *D sky130_fd_sc_hd__clkdlybuf4s25_1
*CAP
1 *2103:B 0.000214845
2 *2102:B 0.000510535
3 *2347:X 0.000120701
4 *546:8 0.000846082
5 *2102:A *2102:B 1.10767e-05
6 *2102:A *2103:B 9.54399e-05
7 *2103:A *2103:B 0
8 *2104:A *2102:B 7.35813e-05
9 *2105:A1 *2102:B 0
10 *2106:A *2103:B 0.000120655
11 *2106:B *2103:B 2.84224e-05
12 *365:6 *2102:B 0.00013788
13 *368:12 *2102:B 0.000155497
14 *379:10 *2103:B 0
15 *379:10 *546:8 0
16 *471:10 *2103:B 0.000266612
17 *471:10 *546:8 0.000252275
18 *494:23 *2103:B 7.4027e-05
19 *509:12 *2103:B 1.47347e-05
*RES
1 *2347:X *546:8 6.51 
2 *546:8 *2102:B 10.545 
3 *546:8 *2103:B 8.865 
*END

*D_NET *547 0.00160297
*CONN
*I *2110:B I *D sky130_fd_sc_hd__nor2_2
*I *2111:B I *D sky130_fd_sc_hd__and2_4
*I *2348:X O *D sky130_fd_sc_hd__clkdlybuf4s25_1
*CAP
1 *2110:B 0
2 *2111:B 0.000510011
3 *2348:X 0.00020725
4 *547:10 0.000717261
5 S[27] *2111:B 0
6 *2111:A *2111:B 4.66108e-05
7 *2112:A2 *2111:B 6.83659e-05
8 *2113:A *547:10 0
9 *471:10 *547:10 0
10 *471:12 *2111:B 0
11 *532:10 *2111:B 5.34747e-05
*RES
1 *2348:X *547:10 6.375 
2 *547:10 *2111:B 12.135 
3 *547:10 *2110:B 3.6 
*END

*D_NET *548 0.00145586
*CONN
*I *2122:B I *D sky130_fd_sc_hd__nor2_2
*I *2123:B I *D sky130_fd_sc_hd__and2_2
*I *2349:X O *D sky130_fd_sc_hd__clkdlybuf4s25_1
*CAP
1 *2122:B 7.66096e-05
2 *2123:B 0
3 *2349:X 0.000441865
4 *548:12 0.000518474
5 *2123:A *2122:B 4.77757e-05
6 *2126:C_N *548:12 0
7 *2336:A *548:12 1.83847e-05
8 *383:8 *2122:B 6.31625e-05
9 *455:12 *548:12 5.16418e-05
10 *455:23 *548:12 2.14129e-05
11 *457:22 *548:12 9.43751e-05
12 *535:8 *548:12 0.000122155
*RES
1 *2349:X *548:12 11.825 
2 *548:12 *2123:B 1.6 
3 *548:12 *2122:B 3.085 
*END

*D_NET *549 0.00472526
*CONN
*I *2139:B I *D sky130_fd_sc_hd__nor2_2
*I *2140:B I *D sky130_fd_sc_hd__and2_2
*I *2350:X O *D sky130_fd_sc_hd__clkdlybuf4s25_1
*CAP
1 *2139:B 0.000198872
2 *2140:B 0.00034802
3 *2350:X 0.000557121
4 *549:10 0.00110401
5 *549:10 *2396:A 0.000120186
6 S[29] *549:10 0.000177513
7 *2140:A *2139:B 0
8 *2141:A *549:10 0.000468171
9 *2141:B *549:10 0
10 *2144:B *2140:B 0.000157602
11 *2157:A2 *2140:B 4.66108e-05
12 *2165:A1 *2139:B 5.72091e-05
13 *2165:A1 *549:10 1.82476e-05
14 *2165:B1 *2139:B 0
15 *2314:A *549:10 0
16 *2336:A *549:10 2.56523e-05
17 *2338:A *2139:B 0
18 *2365:A *549:10 4.99619e-05
19 *387:14 *2140:B 0.000313857
20 *399:10 *2139:B 0.000286366
21 *399:10 *549:10 0.000413153
22 *399:12 *549:10 5.30352e-05
23 *401:10 *549:10 0
24 *402:10 *549:10 2.63122e-05
25 *413:12 *2140:B 4.82863e-05
26 *416:10 *2139:B 0
27 *416:10 *2140:B 4.82863e-05
28 *513:12 *549:10 0
29 *514:10 *549:10 0.00011852
30 *514:23 *549:10 0
31 *537:16 *2139:B 8.8266e-05
*RES
1 *2350:X *549:10 18.18 
2 *549:10 *2140:B 14.08 
3 *549:10 *2139:B 8.415 
*END

*D_NET *550 0.00155136
*CONN
*I *1951:B I *D sky130_fd_sc_hd__nor2_2
*I *1952:B I *D sky130_fd_sc_hd__and2_4
*I *1954:A2 I *D sky130_fd_sc_hd__o21ai_4
*I *2351:X O *D sky130_fd_sc_hd__clkdlybuf4s25_1
*CAP
1 *1951:B 2.20315e-05
2 *1952:B 0
3 *1954:A2 0
4 *2351:X 0.00013641
5 *550:23 0.000183841
6 *550:8 0.000298219
7 *1952:A *1951:B 8.57024e-05
8 *1953:A2 *1951:B 8.65905e-05
9 *1953:A2 *550:23 0.000237742
10 *1954:B1 *550:8 8.23457e-05
11 *1973:B1 *1951:B 2.16917e-05
12 *225:19 *550:23 2.7881e-05
13 *225:34 *550:23 6.00003e-05
14 *227:21 *1951:B 1.60203e-05
15 *227:21 *550:23 9.52646e-05
16 *431:12 *550:8 0.000150229
17 *431:12 *550:23 4.01778e-05
18 *518:20 *550:23 7.21296e-06
*RES
1 *2351:X *550:8 4.48 
2 *550:8 *1954:A2 1.6 
3 *550:8 *550:23 8.515 
4 *550:23 *1952:B 1.6 
5 *550:23 *1951:B 2.74 
*END

*D_NET *551 0.00244216
*CONN
*I *2149:B I *D sky130_fd_sc_hd__and2_2
*I *2148:B I *D sky130_fd_sc_hd__nor2_2
*I *2352:X O *D sky130_fd_sc_hd__clkdlybuf4s25_1
*CAP
1 *2149:B 0.000114255
2 *2148:B 0.000225036
3 *2352:X 0.000449451
4 *551:10 0.000788743
5 *2149:B *2028:B 0
6 *2149:B *2292:A 0
7 *551:10 *2292:A 0
8 *2150:A *2148:B 4.6368e-06
9 *2150:B *551:10 1.34361e-05
10 *2150:C_N *551:10 3.23663e-05
11 *2151:A1 *2148:B 4.57183e-05
12 *2151:A2 *2148:B 8.49205e-05
13 *2152:A1 *2148:B 3.34183e-05
14 *2170:A *551:10 8.49205e-05
15 *408:10 *2149:B 8.48064e-05
16 *408:10 *551:10 2.23407e-05
17 *411:8 *551:10 0.000231571
18 *422:16 *551:10 4.99619e-05
19 *422:29 *551:10 3.66286e-05
20 *516:10 *551:10 6.74366e-05
21 *516:16 *551:10 7.25122e-05
*RES
1 *2352:X *551:10 11.265 
2 *551:10 *2148:B 6.945 
3 *551:10 *2149:B 5.775 
*END

*D_NET *552 0.0011128
*CONN
*I *2163:B I *D sky130_fd_sc_hd__xor2_2
*I *2353:X O *D sky130_fd_sc_hd__clkdlybuf4s25_1
*CAP
1 *2163:B 0.000472582
2 *2353:X 0.000472582
3 *461:12 *2163:B 0.00011852
4 *517:8 *2163:B 4.91189e-05
*RES
1 *2353:X *2163:B 11.57 
*END

*D_NET *553 0.00393513
*CONN
*I *1957:B I *D sky130_fd_sc_hd__nor2_2
*I *1956:B I *D sky130_fd_sc_hd__and2_4
*I *1958:A2 I *D sky130_fd_sc_hd__o21ai_4
*I *1959:A2 I *D sky130_fd_sc_hd__a21o_2
*I *2354:X O *D sky130_fd_sc_hd__clkdlybuf4s25_1
*CAP
1 *1957:B 0.000249347
2 *1956:B 0
3 *1958:A2 0.000250637
4 *1959:A2 2.08101e-05
5 *2354:X 7.76995e-05
6 *553:42 0.000550253
7 *553:23 0.000972571
8 *553:6 0.000519537
9 *1957:B *577:8 2.72392e-05
10 *1958:A1 *1958:A2 0.000235573
11 *1959:A1 *553:6 3.64998e-06
12 *1959:A1 *553:23 1.19928e-05
13 *1959:B1 *553:23 2.68526e-05
14 *1960:A1 *1957:B 0.000148864
15 *1961:A1 *1957:B 4.77719e-05
16 *1961:A2 *1958:A2 2.75145e-05
17 *1961:B1 *1957:B 0.000160115
18 *1962:B1 *553:23 3.62086e-05
19 *1974:A1 *553:23 5.83121e-06
20 *1976:A2 *1958:A2 6.50242e-05
21 *1976:B1 *553:42 8.30853e-06
22 *1976:B2 *553:23 5.65627e-05
23 *1976:B2 *553:42 8.52883e-05
24 *231:19 *1958:A2 4.21973e-05
25 *233:14 *553:23 0.000164686
26 *233:14 *553:42 0
27 *496:19 *1957:B 1.08056e-05
28 *496:37 *1957:B 1.1477e-05
29 *518:20 *1958:A2 0.000118314
*RES
1 *2354:X *553:6 2.395 
2 *553:6 *1959:A2 1.96 
3 *553:6 *553:23 10.39 
4 *553:23 *1958:A2 6.895 
5 *553:23 *553:42 6.875 
6 *553:42 *1956:B 3.6 
7 *553:42 *1957:B 8.865 
*END

*D_NET *554 0.00606043
*CONN
*I *1919:B I *D sky130_fd_sc_hd__nand2_2
*I *1921:A2 I *D sky130_fd_sc_hd__o21ai_2
*I *1922:A2 I *D sky130_fd_sc_hd__a21oi_2
*I *1918:B I *D sky130_fd_sc_hd__and2_2
*I *1920:A_N I *D sky130_fd_sc_hd__nand2b_2
*I *2355:X O *D sky130_fd_sc_hd__clkdlybuf4s25_1
*CAP
1 *1919:B 0.000138416
2 *1921:A2 0.000194599
3 *1922:A2 4.88252e-05
4 *1918:B 0
5 *1920:A_N 0
6 *2355:X 0.000484689
7 *554:39 0.000424904
8 *554:25 0.000315836
9 *554:12 0.000267011
10 *554:10 0.000576578
11 *554:10 *2403:A 4.41468e-05
12 *1919:A *1919:B 0.000110315
13 *1920:B *554:25 0.0001249
14 *1921:B1 *1921:A2 4.66108e-05
15 *1922:A1 *1922:A2 0.000163199
16 *1922:A1 *554:25 2.55546e-05
17 *1924:A_N *1921:A2 4.94678e-05
18 *1924:C *1919:B 5.16418e-05
19 *1924:C *554:39 8.59296e-05
20 *2186:A *554:10 0.000308062
21 *2186:B *554:10 3.83026e-05
22 *2291:A *1919:B 0
23 *2320:A *554:10 0.000145184
24 *2355:A *554:10 1.03423e-05
25 *2368:A *554:25 0
26 *191:10 *1922:A2 2.11084e-05
27 *192:8 *1919:B 9.76522e-05
28 *193:8 *554:39 0.000166346
29 *194:8 *1921:A2 7.78381e-06
30 *435:12 *554:10 0
31 *435:12 *554:39 0
32 *435:23 *554:10 0
33 *449:47 *554:10 0.000113972
34 *458:44 *554:25 0.000315527
35 *519:10 *554:10 0.00134365
36 *519:10 *554:39 0.000200648
37 *519:21 *1919:B 2.07184e-05
38 *519:21 *554:39 0.000118513
*RES
1 *2355:X *554:10 18.99 
2 *554:10 *554:12 2 
3 *554:12 *1920:A_N 1.6 
4 *554:12 *554:25 5.76 
5 *554:25 *1918:B 1.6 
6 *554:25 *1922:A2 3.085 
7 *554:10 *554:39 3.675 
8 *554:39 *1921:A2 6.495 
9 *554:39 *1919:B 6.96 
*END

*D_NET *555 0.00464644
*CONN
*I *2223:B1 I *D sky130_fd_sc_hd__o21ai_2
*I *2237:B1_N I *D sky130_fd_sc_hd__o21bai_2
*I *2239:A1 I *D sky130_fd_sc_hd__o21a_2
*I *2235:A2 I *D sky130_fd_sc_hd__a22oi_2
*I *2240:A1 I *D sky130_fd_sc_hd__o21ai_2
*I *2356:X O *D sky130_fd_sc_hd__clkdlybuf4s25_1
*CAP
1 *2223:B1 0.000233848
2 *2237:B1_N 0
3 *2239:A1 6.99539e-05
4 *2235:A2 8.65907e-05
5 *2240:A1 0.000136067
6 *2356:X 0.00043154
7 *555:37 0.000156545
8 *555:24 0.000438415
9 *555:14 0.000341626
10 *555:10 0.000704667
11 *2240:A1 *2385:A 3.09088e-05
12 S[14] *555:10 2.55998e-05
13 *2220:A *555:10 3.00381e-05
14 *2220:B *555:10 5.05521e-05
15 *2235:A1 *2235:A2 6.35535e-05
16 *2236:A1 *555:24 3.45252e-05
17 *2236:C1 *555:24 8.65961e-05
18 *2239:A2 *2239:A1 0.000139245
19 *2240:B1 *2239:A1 0
20 *2245:A1 *2223:B1 0
21 *2245:A1 *555:10 0
22 *2247:A2 *555:10 0
23 *2248:A *555:24 4.66108e-05
24 *111:10 *555:10 0
25 *111:23 *555:14 0.000111285
26 *111:23 *555:24 5.83121e-06
27 *113:10 *2240:A1 1.46744e-05
28 *113:10 *555:14 6.6564e-05
29 *113:10 *555:24 0.000455095
30 *113:14 *2240:A1 5.9973e-05
31 *114:6 *2223:B1 9.66106e-05
32 *118:47 *555:24 0.000324302
33 *128:8 *555:14 8.65961e-05
34 *128:8 *555:24 4.66108e-05
35 *129:60 *2239:A1 8.53113e-06
36 *139:14 *2239:A1 0.000143266
37 *475:35 *2235:A2 8.70923e-05
38 *475:35 *2239:A1 3.31282e-05
39 *531:10 *2223:B1 0
*RES
1 *2356:X *555:10 8.88 
2 *555:10 *555:14 3.83 
3 *555:14 *555:24 7.935 
4 *555:24 *2240:A1 4.15 
5 *555:24 *555:37 2 
6 *555:37 *2235:A2 5.49 
7 *555:37 *2239:A1 6 
8 *555:14 *2237:B1_N 1.6 
9 *555:10 *2223:B1 7.485 
*END

*D_NET *556 0.00657486
*CONN
*I *1910:B I *D sky130_fd_sc_hd__nand2_2
*I *1909:B I *D sky130_fd_sc_hd__nand2b_4
*I *1914:A2 I *D sky130_fd_sc_hd__a21oi_2
*I *1911:A2 I *D sky130_fd_sc_hd__o21a_2
*I *1908:A_N I *D sky130_fd_sc_hd__nand2b_4
*I *1913:A1 I *D sky130_fd_sc_hd__o21ai_4
*I *1912:A2 I *D sky130_fd_sc_hd__a21boi_2
*I *2357:X O *D sky130_fd_sc_hd__clkdlybuf4s25_1
*CAP
1 *1910:B 4.88604e-05
2 *1909:B 0.000560356
3 *1914:A2 0.000208606
4 *1911:A2 3.74736e-05
5 *1908:A_N 0
6 *1913:A1 0.00018091
7 *1912:A2 0
8 *2357:X 0.000285397
9 *556:47 0.000623323
10 *556:34 0.000423323
11 *556:30 0.000735424
12 *556:19 0.000404369
13 *556:15 0.000265388
14 *556:6 0.000407454
15 *1909:A_N *1909:B 0
16 *1910:A *556:47 0
17 *1911:A1 *1911:A2 4.99619e-05
18 *1912:A1 *556:6 4.77757e-05
19 *1912:A1 *556:15 3.75126e-05
20 *1912:B1_N *556:19 0.000155056
21 *1912:B1_N *556:30 7.06347e-05
22 *1913:B1 *1913:A1 8.52845e-05
23 *1913:B1 *556:19 7.63125e-05
24 *1913:B1 *556:30 1.07797e-05
25 *1914:B1 *1914:A2 7.63282e-05
26 *1915:A *1909:B 0.000196048
27 *1915:B *1909:B 8.95416e-05
28 *1915:C *1909:B 0.000164874
29 *2173:A0 *1909:B 6.12198e-05
30 *2185:A1 *556:47 2.67184e-05
31 *2357:A *1910:B 7.10044e-05
32 *2357:A *556:6 9.58212e-05
33 *2357:A *556:15 7.34372e-05
34 *181:6 *556:34 0.000122801
35 *181:6 *556:47 0.00011468
36 *186:6 *1913:A1 0.000159329
37 *187:8 *1914:A2 7.26629e-05
38 *187:8 *556:47 7.89767e-05
39 *189:14 *556:47 0.000169374
40 *449:47 *1914:A2 5.05437e-05
41 *449:53 *1914:A2 1.70935e-05
42 *454:53 *1909:B 4.21666e-05
43 *473:10 *1914:A2 0
44 *520:6 *1913:A1 3.72916e-05
45 *520:19 *1913:A1 0.000109354
46 *520:44 *1911:A2 2.55587e-05
47 *538:10 *1913:A1 5.83121e-06
*RES
1 *2357:X *556:6 6.535 
2 *556:6 *1912:A2 1.6 
3 *556:6 *556:15 2.535 
4 *556:15 *556:19 4.145 
5 *556:19 *1913:A1 7.845 
6 *556:19 *556:30 2.145 
7 *556:30 *556:34 3.14 
8 *556:34 *1908:A_N 1.6 
9 *556:34 *556:47 8.84 
10 *556:47 *1911:A2 4.395 
11 *556:47 *1914:A2 7.485 
12 *556:30 *1909:B 13.215 
13 *556:15 *1910:B 2.74 
*END

*D_NET *557 0.00289282
*CONN
*I *2287:A2 I *D sky130_fd_sc_hd__o21ai_4
*I *2283:A_N I *D sky130_fd_sc_hd__nand2b_4
*I *2284:B I *D sky130_fd_sc_hd__nand2_2
*I *1906:A2 I *D sky130_fd_sc_hd__a21o_2
*I *2285:B I *D sky130_fd_sc_hd__and2_2
*I *2358:X O *D sky130_fd_sc_hd__clkdlybuf4s25_1
*CAP
1 *2287:A2 0.000335481
2 *2283:A_N 0
3 *2284:B 7.42279e-05
4 *1906:A2 8.43012e-05
5 *2285:B 0
6 *2358:X 0
7 *557:45 0.000488
8 *557:12 0.000280204
9 *557:6 0.000300964
10 *557:4 0.000183353
11 *1906:A2 *2405:A 6.70099e-05
12 *2287:A2 *2402:A 0
13 *557:12 *2405:A 2.97004e-06
14 S[7] *557:12 7.07957e-05
15 *1917:A1 *2284:B 9.37731e-05
16 *2286:B *2287:A2 8.8266e-05
17 *2287:A1 *2284:B 2.75229e-05
18 *2287:A1 *2287:A2 7.35813e-05
19 *2358:A *2287:A2 0
20 *178:8 *2284:B 2.75229e-05
21 *178:23 *2284:B 4.9968e-05
22 *190:10 *557:12 0
23 *449:24 *2284:B 4.40812e-05
24 *449:24 *2287:A2 0.000151672
25 *449:24 *557:45 0.000238919
26 *459:79 *1906:A2 0.000200699
27 *459:79 *557:12 9.50342e-06
28 *521:12 *2284:B 0
29 *523:10 *2287:A2 0
*RES
1 *2358:X *557:4 1.6 
2 *557:4 *557:6 0.45 
3 *557:6 *557:12 5.12 
4 *557:12 *2285:B 3.6 
5 *557:12 *1906:A2 6 
6 *557:6 *2284:B 7.685 
7 *557:4 *557:45 3.225 
8 *557:45 *2283:A_N 1.6 
9 *557:45 *2287:A2 11.84 
*END

*D_NET *558 0.00356759
*CONN
*I *1931:A2 I *D sky130_fd_sc_hd__o21ai_2
*I *1929:A2 I *D sky130_fd_sc_hd__a21boi_2
*I *1926:B I *D sky130_fd_sc_hd__nor2_2
*I *1927:B I *D sky130_fd_sc_hd__and2_4
*I *1930:A2 I *D sky130_fd_sc_hd__a21bo_2
*I *2359:X O *D sky130_fd_sc_hd__clkdlybuf4s25_1
*CAP
1 *1931:A2 0.00021864
2 *1929:A2 9.58356e-05
3 *1926:B 0
4 *1927:B 5.47729e-05
5 *1930:A2 3.9347e-05
6 *2359:X 0.000310433
7 *558:35 0.000371547
8 *558:26 0.000219722
9 *558:10 9.41198e-05
10 *558:8 0.000473084
11 *558:8 *559:12 0
12 *1927:A *1927:B 4.82863e-05
13 *1929:B1_N *558:26 3.76518e-05
14 *1929:B1_N *558:35 7.53115e-05
15 *1930:A1 *1927:B 3.7712e-05
16 *1930:A1 *1930:A2 5.05437e-05
17 *1931:A1 *1931:A2 0.000188069
18 *1931:B1 *1929:A2 0.000159741
19 *1933:D *1931:A2 0.000308724
20 *173:14 *1931:A2 6.12198e-05
21 *199:10 *558:26 0.000141606
22 *239:10 *1931:A2 5.21458e-05
23 *239:10 *558:35 2.03321e-05
24 *449:14 *1931:A2 5.21627e-05
25 *449:14 *558:8 0.000147943
26 *449:14 *558:26 0.000147083
27 *449:14 *558:35 7.75325e-05
28 *465:6 *1931:A2 8.40213e-05
29 *523:10 *558:8 0
30 *523:25 *558:26 0
*RES
1 *2359:X *558:8 9.315 
2 *558:8 *558:10 2 
3 *558:10 *1930:A2 2.395 
4 *558:10 *1927:B 2.74 
5 *558:8 *558:26 4.185 
6 *558:26 *1926:B 3.6 
7 *558:26 *558:35 2.145 
8 *558:35 *1929:A2 5.43 
9 *558:35 *1931:A2 9.855 
*END

*D_NET *559 0.00265062
*CONN
*I *2260:A_N I *D sky130_fd_sc_hd__nand2b_4
*I *2261:A2 I *D sky130_fd_sc_hd__o21a_4
*I *2259:B I *D sky130_fd_sc_hd__nand2_2
*I *2258:B I *D sky130_fd_sc_hd__nand2_2
*I *2360:X O *D sky130_fd_sc_hd__clkdlybuf4s25_1
*CAP
1 *2260:A_N 0
2 *2261:A2 2.06731e-05
3 *2259:B 3.99788e-05
4 *2258:B 8.9244e-05
5 *2360:X 0.00055386
6 *559:25 6.06519e-05
7 *559:12 0.000200042
8 *559:8 0.000664658
9 *2260:B *559:8 9.91257e-05
10 *2283:B *2259:B 4.99619e-05
11 *2323:A *559:8 0.000467074
12 *2325:A *2258:B 6.44051e-05
13 *2325:A *559:12 9.49958e-05
14 *2360:A *559:8 3.52525e-05
15 *2360:A *559:12 3.25831e-05
16 *449:14 *2258:B 9.24127e-05
17 *466:36 *2259:B 4.82863e-05
18 *466:36 *2261:A2 3.74161e-05
19 *558:8 *559:12 0
*RES
1 *2360:X *559:8 9.22 
2 *559:8 *559:12 4.4 
3 *559:12 *2258:B 5.94 
4 *559:12 *559:25 2 
5 *559:25 *2259:B 2.395 
6 *559:25 *2261:A2 2.05 
7 *559:8 *2260:A_N 1.6 
*END

*D_NET *560 0.00224541
*CONN
*I *2252:B I *D sky130_fd_sc_hd__and2_4
*I *2251:B I *D sky130_fd_sc_hd__nor2_2
*I *2255:A2 I *D sky130_fd_sc_hd__a21boi_2
*I *2256:A2 I *D sky130_fd_sc_hd__o21ai_2
*I *2361:X O *D sky130_fd_sc_hd__clkdlybuf4s25_1
*CAP
1 *2252:B 0.000244943
2 *2251:B 0
3 *2255:A2 1.31277e-05
4 *2256:A2 8.76834e-05
5 *2361:X 0
6 *560:28 0.000377849
7 *560:8 0.000438312
8 *560:4 0.000470407
9 *2251:A *2252:B 0.000121522
10 *2251:A *560:28 5.53249e-06
11 *2255:A1 *2255:A2 3.26889e-05
12 *2255:A1 *2256:A2 9.91257e-05
13 *2255:A1 *560:8 2.57174e-05
14 *2256:B1 *2256:A2 4.60584e-05
15 *2256:B1 *560:8 5.53774e-05
16 *2361:A *560:8 0.000198945
17 *147:12 *2256:A2 7.00889e-06
18 *468:29 *2252:B 2.11084e-05
19 *525:21 *560:28 0
*RES
1 *2361:X *560:4 1.6 
2 *560:4 *560:8 5.64 
3 *560:8 *2256:A2 3.775 
4 *560:8 *2255:A2 1.96 
5 *560:4 *560:28 4.085 
6 *560:28 *2251:B 3.6 
7 *560:28 *2252:B 8.175 
*END

*D_NET *561 0.0121104
*CONN
*I *2294:A I *D sky130_fd_sc_hd__dlygate4sd1_1
*I *2300:A I *D sky130_fd_sc_hd__buf_8
*I *2292:A I *D sky130_fd_sc_hd__buf_6
*I *2293:A I *D sky130_fd_sc_hd__clkbuf_2
*I *2362:X O *D sky130_fd_sc_hd__buf_8
*CAP
1 *2294:A 0
2 *2300:A 0.00119966
3 *2292:A 0.00152758
4 *2293:A 0
5 *2362:X 0.001181
6 *561:51 0.0022923
7 *561:10 0.00161593
8 *2300:A *2389:A 4.82919e-05
9 *561:51 *2028:B 6.90499e-05
10 *561:51 *2388:A 0.000132422
11 S[21] *2300:A 6.47326e-05
12 *2028:A *2300:A 4.35648e-05
13 *2028:A *561:51 0.000187073
14 *2031:A1 *2300:A 2.75145e-05
15 *2054:B *2300:A 0.000122337
16 *2142:A2 *2292:A 0
17 *2144:A *2292:A 1.97849e-05
18 *2144:B *2292:A 0.000223957
19 *2149:B *2292:A 0
20 *2154:B *2292:A 5.16348e-05
21 *2162:A *2292:A 0.000201393
22 *2162:C *2292:A 0
23 *2165:C1 *2292:A 0
24 *2169:A *2292:A 0.000206116
25 *2169:B *2292:A 0.000185398
26 *2171:A2 *2292:A 0.00010937
27 *2208:B1 *2292:A 6.10941e-05
28 *2208:B2 *2292:A 9.1566e-05
29 *2308:A *2300:A 0.000198581
30 *2353:A *2292:A 0
31 *299:10 *2300:A 8.65961e-05
32 *385:14 *2292:A 0.000175848
33 *387:8 *2292:A 0
34 *403:10 *2292:A 0.000160529
35 *410:10 *2292:A 0.000273709
36 *410:12 *2292:A 0.00013521
37 *411:8 *2292:A 0
38 *413:12 *2292:A 0.000259075
39 *416:10 *2292:A 0
40 *461:8 *2292:A 0
41 *461:12 *2292:A 0
42 *461:55 *2292:A 0.000393024
43 *464:8 *561:51 8.65905e-05
44 *506:14 *2300:A 0.000604892
45 *516:16 *2292:A 7.45968e-05
46 *551:10 *2292:A 0
*RES
1 *2362:X *561:10 6.98 
2 *561:10 *2293:A 1.6 
3 *561:10 *2292:A 38.54 
4 *2362:X *561:51 19 
5 *561:51 *2300:A 22.435 
6 *561:51 *2294:A 1.6 
*END

*D_NET *562 0.000880379
*CONN
*I *2376:A I *D sky130_fd_sc_hd__clkdlybuf4s25_1
*I *2172:X O *D sky130_fd_sc_hd__xor2_2
*CAP
1 *2376:A 0.000213511
2 *2172:X 0.000213511
3 *1947:B1 *2376:A 0
4 *1955:A2 *2376:A 0.000164679
5 *1955:B1 *2376:A 0.000166346
6 *2172:A *2376:A 0
7 *453:8 *2376:A 0
8 *518:20 *2376:A 0.000122331
*RES
1 *2172:X *2376:A 12.27 
*END

*D_NET *563 0.00075197
*CONN
*I *2377:A I *D sky130_fd_sc_hd__dlymetal6s4s_1
*I *2194:X O *D sky130_fd_sc_hd__xor2_2
*CAP
1 *2377:A 0.000295275
2 *2194:X 0.000295275
3 *2377:A *2378:A 0.000161419
4 S[10] *2377:A 0
*RES
1 *2194:X *2377:A 12.36 
*END

*D_NET *564 0.00100692
*CONN
*I *2378:A I *D sky130_fd_sc_hd__clkbuf_2
*I *2196:X O *D sky130_fd_sc_hd__xor2_2
*CAP
1 *2378:A 0.000244901
2 *2196:X 0.000244901
3 S[11] *2378:A 0.000229515
4 *2345:A *2378:A 2.03321e-05
5 *2377:A *2378:A 0.000161419
6 *510:8 *2378:A 0
7 *544:10 *2378:A 0.000105849
*RES
1 *2196:X *2378:A 13.875 
*END

*D_NET *565 0.000975852
*CONN
*I *2379:A I *D sky130_fd_sc_hd__dlymetal6s4s_1
*I *2199:X O *D sky130_fd_sc_hd__xor2_2
*CAP
1 *2379:A 0.000312546
2 *2199:X 0.000312546
3 *2224:A *2379:A 0.000276441
4 *2224:B *2379:A 3.09088e-05
5 *2334:A *2379:A 1.67513e-05
6 *467:27 *2379:A 0
7 *533:8 *2379:A 2.66586e-05
8 *544:10 *2379:A 0
*RES
1 *2199:X *2379:A 12.735 
*END

*D_NET *566 0.000981919
*CONN
*I *2238:B1_N I *D sky130_fd_sc_hd__o21bai_2
*I *2219:C_N I *D sky130_fd_sc_hd__or3b_4
*I *2363:X O *D sky130_fd_sc_hd__clkdlybuf4s25_1
*CAP
1 *2238:B1_N 0
2 *2219:C_N 9.02179e-05
3 *2363:X 0.000260969
4 *566:10 0.000351186
5 *2219:C_N *2382:A 0.000136877
6 *2207:B *2219:C_N 0
7 *2219:A *2219:C_N 0
8 *2219:A *566:10 0
9 *109:14 *566:10 0
10 *471:31 *566:10 0.000142669
*RES
1 *2363:X *566:10 7.41 
2 *566:10 *2219:C_N 5.49 
3 *566:10 *2238:B1_N 3.6 
*END

*D_NET *567 0.000330442
*CONN
*I *2380:A I *D sky130_fd_sc_hd__dlymetal6s4s_1
*I *2201:Y O *D sky130_fd_sc_hd__xnor2_2
*CAP
1 *2380:A 0.000151459
2 *2201:Y 0.000151459
3 *2380:A *2384:A 2.75229e-05
*RES
1 *2201:Y *2380:A 9.54 
*END

*D_NET *568 0.00025915
*CONN
*I *2381:A I *D sky130_fd_sc_hd__clkbuf_4
*I *2204:X O *D sky130_fd_sc_hd__xor2_2
*CAP
1 *2381:A 0.000129575
2 *2204:X 0.000129575
3 *2204:A *2381:A 0
4 *2221:B *2381:A 0
5 *2247:A2 *2381:A 0
6 *112:10 *2381:A 0
*RES
1 *2204:X *2381:A 9.345 
*END

*D_NET *569 0.00126249
*CONN
*I *2382:A I *D sky130_fd_sc_hd__clkbuf_2
*I *2207:Y O *D sky130_fd_sc_hd__nor2_4
*CAP
1 *2382:A 0.000462909
2 *2207:Y 0.000462909
3 *2219:A *2382:A 0
4 *2219:C_N *2382:A 0.000136877
5 *109:14 *2382:A 0.000138791
6 *129:14 *2382:A 6.10014e-05
7 *471:37 *2382:A 0
*RES
1 *2207:Y *2382:A 15.48 
*END

*D_NET *570 0.00422377
*CONN
*I *2383:A I *D sky130_fd_sc_hd__buf_6
*I *1982:X O *D sky130_fd_sc_hd__xor2_2
*CAP
1 *2383:A 0.00166389
2 *1982:X 0.00166389
3 *2221:A *2383:A 7.62408e-05
4 *2235:B2 *2383:A 0.000176661
5 *2242:A2 *2383:A 0.0001249
6 *2247:B1 *2383:A 4.66108e-05
7 *2249:C *2383:A 9.39178e-05
8 *118:28 *2383:A 0.000183731
9 *119:49 *2383:A 0.000164672
10 *119:62 *2383:A 2.92496e-05
*RES
1 *1982:X *2383:A 34.53 
*END

*D_NET *571 0.0055877
*CONN
*I *2384:A I *D sky130_fd_sc_hd__buf_6
*I *1990:X O *D sky130_fd_sc_hd__xor2_2
*CAP
1 *2384:A 0.00240686
2 *1990:X 0.00240686
3 *1989:A2 *2384:A 0.00041515
4 *1990:B *2384:A 0
5 *2198:A *2384:A 4.82919e-05
6 *2198:B *2384:A 8.3472e-05
7 *2202:A2 *2384:A 0.000107424
8 *2202:B1 *2384:A 4.82863e-05
9 *2204:B *2384:A 4.38278e-05
10 *2380:A *2384:A 2.75229e-05
11 *106:27 *2384:A 0
*RES
1 *1990:X *2384:A 42.855 
*END

*D_NET *572 0.00607345
*CONN
*I *2385:A I *D sky130_fd_sc_hd__clkbuf_4
*I *2002:X O *D sky130_fd_sc_hd__xor2_2
*CAP
1 *2385:A 0.00183865
2 *2002:X 0.00183865
3 *1979:B *2385:A 0.000656025
4 *1982:B *2385:A 5.3023e-05
5 *2134:B *2385:A 5.53249e-06
6 *2222:A *2385:A 2.04748e-05
7 *2237:A2 *2385:A 0
8 *2240:A1 *2385:A 3.09088e-05
9 *2242:A1 *2385:A 4.92062e-05
10 *113:10 *2385:A 0.0012055
11 *113:14 *2385:A 8.65905e-05
12 *127:10 *2385:A 0.000200615
13 *252:10 *2385:A 8.8266e-05
*RES
1 *2002:X *2385:A 37.53 
*END

*D_NET *573 0.00222485
*CONN
*I *2386:A I *D sky130_fd_sc_hd__clkbuf_4
*I *2014:Y O *D sky130_fd_sc_hd__nand2_2
*CAP
1 *2386:A 0.000786772
2 *2014:Y 0.000786772
3 S[19] *2386:A 4.82863e-05
4 *2022:A *2386:A 0
5 *2061:A1 *2386:A 0
6 *2061:B1 *2386:A 0.000293025
7 *2068:C1 *2386:A 0.000135312
8 *2069:A1 *2386:A 2.24423e-05
9 *2071:B1 *2386:A 5.39961e-05
10 *2071:C1 *2386:A 0
11 *2071:D1 *2386:A 4.82863e-05
12 *2072:B *2386:A 0
13 *2074:A2 *2386:A 4.99619e-05
14 *337:10 *2386:A 0
*RES
1 *2014:Y *2386:A 21.975 
*END

*D_NET *574 0.000404061
*CONN
*I *2387:A I *D sky130_fd_sc_hd__dlymetal6s2s_1
*I *2174:Y O *D sky130_fd_sc_hd__xnor2_2
*CAP
1 *2387:A 0.000199439
2 *2174:Y 0.000199439
3 *520:44 *2387:A 5.18317e-06
*RES
1 *2174:Y *2387:A 9.72 
*END

*D_NET *575 0.00228878
*CONN
*I *2388:A I *D sky130_fd_sc_hd__buf_6
*I *2028:X O *D sky130_fd_sc_hd__xor2_4
*CAP
1 *2388:A 0.000721949
2 *2028:X 0.000721949
3 *2388:A *2028:B 4.23378e-05
4 S[20] *2388:A 5.30673e-05
5 *2028:A *2388:A 0.000124895
6 *2029:A *2388:A 0.000124816
7 *2029:B *2388:A 4.99619e-05
8 *2306:A *2388:A 4.99619e-05
9 *2340:A *2388:A 0
10 *2341:A *2388:A 2.45351e-05
11 *464:10 *2388:A 3.68769e-05
12 *495:10 *2388:A 9.27495e-05
13 *540:8 *2388:A 0.000113255
14 *561:51 *2388:A 0.000132422
*RES
1 *2028:X *2388:A 19.5575 
*END

*D_NET *576 0.00186465
*CONN
*I *2389:A I *D sky130_fd_sc_hd__buf_8
*I *2039:Y O *D sky130_fd_sc_hd__nand2_4
*CAP
1 *2389:A 0.00051896
2 *2039:Y 0.00051896
3 *2389:A *2037:A1 5.74016e-05
4 S[21] *2389:A 2.75229e-05
5 *2033:B1 *2389:A 0.00011843
6 *2034:B1 *2389:A 0
7 *2039:B *2389:A 5.56629e-05
8 *2300:A *2389:A 4.82919e-05
9 *300:30 *2389:A 0
10 *301:12 *2389:A 0.000179015
11 *301:40 *2389:A 0.000208484
12 *303:8 *2389:A 5.00612e-05
13 *495:10 *2389:A 5.53249e-06
14 *495:12 *2389:A 7.63282e-05
*RES
1 *2039:Y *2389:A 18.21 
*END

*D_NET *577 0.0042155
*CONN
*I *2214:C I *D sky130_fd_sc_hd__nand3b_2
*I *2215:B1_N I *D sky130_fd_sc_hd__o21bai_4
*I *2364:X O *D sky130_fd_sc_hd__clkdlybuf4s25_1
*CAP
1 *2214:C 0.000181356
2 *2215:B1_N 6.97142e-05
3 *2364:X 0.00107369
4 *577:8 0.00132476
5 *577:8 *588:10 2.19562e-06
6 *1957:B *577:8 2.72392e-05
7 *1960:A1 *577:8 0.00023075
8 *1961:A1 *577:8 0.00013046
9 *1985:A *577:8 7.54285e-05
10 *2211:A *577:8 2.36716e-05
11 *2214:B *577:8 0.000124895
12 *2215:A2 *2214:C 7.22354e-05
13 *2291:A *2214:C 0.000248261
14 *2291:A *2215:B1_N 0.000141592
15 *234:12 *577:8 0.000122325
16 *258:16 *2214:C 0.000138799
17 *456:36 *577:8 1.34594e-05
18 *481:10 *2214:C 3.09233e-05
19 *481:14 *2214:C 0.000183745
20 *534:10 *2214:C 0
21 *534:10 *2215:B1_N 0
*RES
1 *2364:X *577:8 16.815 
2 *577:8 *2215:B1_N 5.235 
3 *577:8 *2214:C 9.045 
*END

*D_NET *578 0.00027607
*CONN
*I *2390:A I *D sky130_fd_sc_hd__buf_6
*I *2054:Y O *D sky130_fd_sc_hd__nand2_4
*CAP
1 *2390:A 0.000138035
2 *2054:Y 0.000138035
3 *2068:A1 *2390:A 0
4 *2415:A *2390:A 0
5 *329:10 *2390:A 0
*RES
1 *2054:Y *2390:A 9.345 
*END

*D_NET *579 0.00225359
*CONN
*I *2391:A I *D sky130_fd_sc_hd__buf_4
*I *2070:Y O *D sky130_fd_sc_hd__nor2_4
*CAP
1 *2391:A 0.000529616
2 *2070:Y 0.000529616
3 S[19] *2391:A 0
4 *2307:A *2391:A 0.00011964
5 *2343:A *2391:A 4.04522e-05
6 *472:10 *2391:A 0.000498567
7 *500:12 *2391:A 0.000147797
8 *542:10 *2391:A 0.000387902
*RES
1 *2070:Y *2391:A 19.215 
*END

*D_NET *580 0.00290307
*CONN
*I *2392:A I *D sky130_fd_sc_hd__buf_6
*I *2088:X O *D sky130_fd_sc_hd__and2_2
*CAP
1 *2392:A 0.000830019
2 *2088:X 0.000830019
3 S[24] *2392:A 4.66108e-05
4 *2082:C *2392:A 9.23473e-05
5 *2084:B *2392:A 1.1561e-05
6 *2088:A *2392:A 9.66021e-05
7 *2088:B *2392:A 2.75229e-05
8 *2096:A1 *2392:A 7.97734e-05
9 *2344:A *2392:A 0.000162318
10 *347:12 *2392:A 0.000139245
11 *349:10 *2392:A 0
12 *358:14 *2392:A 0.000301198
13 *358:20 *2392:A 0.000204456
14 *358:28 *2392:A 3.47837e-05
15 *507:12 *2392:A 4.66108e-05
*RES
1 *2088:X *2392:A 22.47 
*END

*D_NET *581 0.0025762
*CONN
*I *2393:A I *D sky130_fd_sc_hd__buf_6
*I *2097:Y O *D sky130_fd_sc_hd__nand2_2
*CAP
1 *2393:A 0.000884917
2 *2097:Y 0.000884917
3 *2084:A *2393:A 6.18267e-05
4 *2084:B *2393:A 0
5 *2091:B1_N *2393:A 0
6 *2094:B1_N *2393:A 2.75538e-05
7 *2095:A_N *2393:A 2.49909e-05
8 *2097:A *2393:A 1.61831e-05
9 *2097:B *2393:A 0.000129633
10 *2100:A2 *2393:A 6.74079e-05
11 *2310:A *2393:A 5.53249e-06
12 *349:10 *2393:A 0.00030615
13 *363:12 *2393:A 8.97642e-05
14 *475:29 *2393:A 0
15 *475:35 *2393:A 7.73272e-05
16 *507:12 *2393:A 0
17 *508:10 *2393:A 0
18 *543:12 *2393:A 0
*RES
1 *2097:Y *2393:A 23.325 
*END

*D_NET *582 0.0012455
*CONN
*I *2394:A I *D sky130_fd_sc_hd__buf_6
*I *2109:Y O *D sky130_fd_sc_hd__nand2_2
*CAP
1 *2394:A 0.000498072
2 *2109:Y 0.000498072
3 *369:10 *2394:A 1.70935e-05
4 *494:6 *2394:A 5.05521e-05
5 *494:23 *2394:A 0.00018171
*RES
1 *2109:Y *2394:A 16.005 
*END

*D_NET *583 0.000872344
*CONN
*I *2395:A I *D sky130_fd_sc_hd__buf_6
*I *2121:Y O *D sky130_fd_sc_hd__o21ai_2
*CAP
1 *2395:A 0.000260836
2 *2121:Y 0.000260836
3 *2121:B1 *2395:A 1.61831e-05
4 *2129:A2 *2395:A 4.47209e-05
5 *2129:B1 *2395:A 0.000163199
6 *390:6 *2395:A 0.00012657
*RES
1 *2121:Y *2395:A 8.06 
*END

*D_NET *584 0.00225145
*CONN
*I *2396:A I *D sky130_fd_sc_hd__buf_6
*I *2138:X O *D sky130_fd_sc_hd__and2b_4
*CAP
1 *2396:A 0.00069345
2 *2138:X 0.00069345
3 *2396:A *2397:A 0.000608349
4 *2337:A *2396:A 5.6361e-05
5 *402:10 *2396:A 6.55328e-05
6 *536:10 *2396:A 1.41165e-05
7 *549:10 *2396:A 0.000120186
*RES
1 *2138:X *2396:A 16.965 
*END

*D_NET *585 0.00224831
*CONN
*I *2397:A I *D sky130_fd_sc_hd__buf_6
*I *2147:Y O *D sky130_fd_sc_hd__o21ai_2
*CAP
1 *2397:A 0.00045545
2 *2147:Y 0.00045545
3 *2138:B *2397:A 2.97746e-05
4 *2146:A1 *2397:A 2.44416e-05
5 *2147:B1 *2397:A 0.000115614
6 *2337:A *2397:A 5.59676e-05
7 *2367:A *2397:A 8.30853e-06
8 *2396:A *2397:A 0.000608349
9 *387:8 *2397:A 0.000253074
10 *456:12 *2397:A 8.64421e-05
11 *536:10 *2397:A 0.000155436
*RES
1 *2147:Y *2397:A 19.53 
*END

*D_NET *586 0.00173986
*CONN
*I *2398:A I *D sky130_fd_sc_hd__buf_4
*I *2177:X O *D sky130_fd_sc_hd__xor2_2
*CAP
1 *2398:A 0.000249574
2 *2177:X 0.000249574
3 *1955:B1 *2398:A 4.62491e-05
4 *2177:B *2398:A 4.82863e-05
5 *2180:A_N *2398:A 0.000208484
6 *226:12 *2398:A 9.50114e-05
7 *227:8 *2398:A 0.000105068
8 *513:12 *2398:A 4.66108e-05
9 *518:20 *2398:A 0.000691007
*RES
1 *2177:X *2398:A 16.11 
*END

*D_NET *587 0.00311342
*CONN
*I *2399:A I *D sky130_fd_sc_hd__buf_6
*I *2161:Y O *D sky130_fd_sc_hd__o21ai_4
*CAP
1 *2399:A 0.0011741
2 *2161:Y 0.0011741
3 *1991:A *2399:A 0
4 *2072:D *2399:A 7.58604e-05
5 *2159:A1 *2399:A 0.000210151
6 *2161:B1 *2399:A 1.34361e-05
7 *2166:A1 *2399:A 0.000258822
8 *2166:B1 *2399:A 4.81845e-05
9 *2166:C1 *2399:A 3.63243e-05
10 *2169:B *2399:A 3.83194e-05
11 *409:29 *2399:A 8.41242e-05
*RES
1 *2161:Y *2399:A 26.16 
*END

*D_NET *588 0.00316406
*CONN
*I *1987:B1_N I *D sky130_fd_sc_hd__o21bai_4
*I *1986:C I *D sky130_fd_sc_hd__nand3b_2
*I *2365:X O *D sky130_fd_sc_hd__clkdlybuf4s25_1
*CAP
1 *1987:B1_N 0.000168809
2 *1986:C 0.000128198
3 *2365:X 0.000659207
4 *588:10 0.000956214
5 *1961:B1 *588:10 0.000273026
6 *1984:A *1986:C 4.77757e-05
7 *1986:A_N *1986:C 3.66303e-05
8 *2122:A *1987:B1_N 5.53249e-06
9 *234:12 *588:10 0.000135504
10 *456:22 *1987:B1_N 0.000108305
11 *456:22 *588:10 5.20968e-05
12 *456:36 *588:10 6.51872e-05
13 *496:19 *1986:C 0.000271475
14 *535:8 *1986:C 1.53053e-05
15 *535:21 *1986:C 0.000238594
16 *577:8 *588:10 2.19562e-06
*RES
1 *2365:X *588:10 12.42 
2 *588:10 *1986:C 7.515 
3 *588:10 *1987:B1_N 6.705 
*END

*D_NET *589 0.000270647
*CONN
*I *2400:A I *D sky130_fd_sc_hd__buf_6
*I *2171:Y O *D sky130_fd_sc_hd__a22oi_4
*CAP
1 *2400:A 0.000107153
2 *2171:Y 0.000107153
3 S[30] *2400:A 0
4 *2171:B1 *2400:A 5.63405e-05
5 *461:12 *2400:A 0
*RES
1 *2171:Y *2400:A 9.345 
*END

*D_NET *590 0.000630666
*CONN
*I *2401:A I *D sky130_fd_sc_hd__buf_6
*I *2180:Y O *D sky130_fd_sc_hd__nand2b_4
*CAP
1 *2401:A 0.000216701
2 *2180:Y 0.000216701
3 *1955:B1 *2401:A 1.56428e-05
4 *226:16 *2401:A 8.88799e-05
5 *478:34 *2401:A 9.2741e-05
*RES
1 *2180:Y *2401:A 7.115 
*END

*D_NET *591 0.00357038
*CONN
*I *2402:A I *D sky130_fd_sc_hd__clkbuf_2
*I *2182:Y O *D sky130_fd_sc_hd__xnor2_2
*CAP
1 *2402:A 0.000835354
2 *2182:Y 0.000835354
3 *1929:B1_N *2402:A 0
4 *1932:A1 *2402:A 7.37282e-05
5 *1934:A *2402:A 9.5433e-05
6 *1934:B *2402:A 0.000109009
7 *2189:B2 *2402:A 0.000205917
8 *2287:A2 *2402:A 0
9 *190:29 *2402:A 0.000499089
10 *201:23 *2402:A 0
11 *201:42 *2402:A 0.00015896
12 *206:8 *2402:A 0.000212505
13 *449:24 *2402:A 4.82863e-05
14 *523:10 *2402:A 0.000342254
15 *523:25 *2402:A 0.000154488
*RES
1 *2182:Y *2402:A 25.605 
*END

*D_NET *592 0.000470099
*CONN
*I *2403:A I *D sky130_fd_sc_hd__buf_2
*I *2184:Y O *D sky130_fd_sc_hd__xnor2_2
*CAP
1 *2403:A 8.9036e-05
2 *2184:Y 8.9036e-05
3 *1963:A *2403:A 4.82919e-05
4 *2184:B *2403:A 4.82919e-05
5 *2185:B1 *2403:A 9.52156e-05
6 *2186:A *2403:A 4.43871e-06
7 *449:47 *2403:A 5.16418e-05
8 *554:10 *2403:A 4.41468e-05
*RES
1 *2184:Y *2403:A 9.795 
*END

*D_NET *593 0.000159033
*CONN
*I *2404:A I *D sky130_fd_sc_hd__buf_6
*I *2186:Y O *D sky130_fd_sc_hd__xnor2_2
*CAP
1 *2404:A 7.36875e-05
2 *2186:Y 7.36875e-05
3 S[6] *2404:A 1.16578e-05
*RES
1 *2186:Y *2404:A 4.34 
*END

*D_NET *594 0.000925304
*CONN
*I *2405:A I *D sky130_fd_sc_hd__buf_2
*I *2188:X O *D sky130_fd_sc_hd__xor2_2
*CAP
1 *2405:A 0.000180782
2 *2188:X 0.000180782
3 *1906:A2 *2405:A 6.70099e-05
4 *1907:A2 *2405:A 8.57024e-05
5 *176:6 *2405:A 8.40213e-05
6 *190:10 *2405:A 0.000324037
7 *557:12 *2405:A 2.97004e-06
*RES
1 *2188:X *2405:A 11.925 
*END

*D_NET *595 0.000550645
*CONN
*I *2406:A I *D sky130_fd_sc_hd__clkbuf_2
*I *2190:Y O *D sky130_fd_sc_hd__xnor2_2
*CAP
1 *2406:A 0.000241447
2 *2190:Y 0.000241447
3 *2406:A *2407:A 0
4 *2193:A1 *2406:A 8.53113e-06
5 *2256:A1 *2406:A 5.92191e-05
6 *147:12 *2406:A 0
*RES
1 *2190:Y *2406:A 11.325 
*END

*D_NET *596 0.000380907
*CONN
*I *2407:A I *D sky130_fd_sc_hd__clkbuf_2
*I *2192:Y O *D sky130_fd_sc_hd__xnor2_2
*CAP
1 *2407:A 0.000175435
2 *2192:Y 0.000175435
3 S[9] *2407:A 3.00381e-05
4 *2406:A *2407:A 0
5 *147:12 *2407:A 0
6 *522:10 *2407:A 0
*RES
1 *2192:Y *2407:A 10.14 
*END

*D_NET *597 0.000370126
*CONN
*I *2408:A I *D sky130_fd_sc_hd__buf_6
*I *2208:Y O *D sky130_fd_sc_hd__o2bb2ai_4
*CAP
1 *2408:A 9.88941e-05
2 *2208:Y 9.88941e-05
3 *2353:A *2408:A 9.76456e-05
4 *461:12 *2408:A 7.46921e-05
*RES
1 *2208:Y *2408:A 9.795 
*END

*D_NET *598 0.00459229
*CONN
*I *2037:A1 I *D sky130_fd_sc_hd__a211o_4
*I *2036:A2_N I *D sky130_fd_sc_hd__o2bb2ai_2
*I *2028:B I *D sky130_fd_sc_hd__xor2_4
*I *2375:X O *D sky130_fd_sc_hd__buf_6
*CAP
1 *2037:A1 9.02855e-05
2 *2036:A2_N 1.95087e-05
3 *2028:B 0.00069129
4 *2375:X 0.000228357
5 *598:12 0.00136291
6 *598:8 0.000970757
7 *1991:A *2028:B 0.000120344
8 *1991:A *2036:A2_N 3.50152e-06
9 *1991:A *598:12 3.26223e-06
10 *2019:A2 *2028:B 0.000164679
11 *2019:B1_N *2028:B 2.42236e-05
12 *2034:B1 *2037:A1 0.000141626
13 *2036:A1_N *598:12 1.33293e-05
14 *2036:B1 *598:12 6.27438e-05
15 *2036:B2 *598:12 4.82863e-05
16 *2039:A *598:12 2.75229e-05
17 *2039:B *2037:A1 3.47668e-05
18 *2072:C *2037:A1 0
19 *2149:B *2028:B 0
20 *2150:A *2028:B 3.64998e-06
21 *2388:A *2028:B 4.23378e-05
22 *2389:A *2037:A1 5.74016e-05
23 *289:25 *598:12 7.70705e-05
24 *303:8 *2037:A1 0
25 *463:10 *2028:B 7.34286e-05
26 *463:12 *2028:B 0.00010141
27 *463:16 *2028:B 7.71016e-05
28 *484:8 *2028:B 8.34426e-05
29 *539:26 *2028:B 0
30 *561:51 *2028:B 6.90499e-05
*RES
1 *2375:X *598:8 4.135 
2 *598:8 *598:12 7.71 
3 *598:12 *2028:B 19.055 
4 *598:12 *2036:A2_N 1.96 
5 *598:8 *2037:A1 8.51 
*END
